p cnf 13127 19372
109 -13064 0
-109 13064 0
172 -13127 0
-172 13127 0
171 -13126 0
-171 13126 0
170 -13125 0
-170 13125 0
169 -13124 0
-169 13124 0
168 -13123 0
-168 13123 0
166 -13121 0
-166 13121 0
167 -13122 0
-167 13122 0
-176 166 0
-176 167 0
176 -166 -167 0
-180 -168 0
-180 176 0
180 168 -176 0
-196 169 0
-196 180 0
196 -169 -180 0
-212 -170 0
-212 196 0
212 170 -196 0
-276 171 0
-276 212 0
276 -171 -212 0
-404 172 0
-404 276 0
404 -172 -276 0
165 -13120 0
-165 13120 0
164 -13119 0
-164 13119 0
163 -13118 0
-163 13118 0
162 -13117 0
-162 13117 0
161 -13116 0
-161 13116 0
159 -13114 0
-159 13114 0
160 -13115 0
-160 13115 0
-408 159 0
-408 160 0
408 -159 -160 0
-412 -161 0
-412 408 0
412 161 -408 0
-428 162 0
-428 412 0
428 -162 -412 0
-444 -163 0
-444 428 0
444 163 -428 0
-508 164 0
-508 444 0
508 -164 -444 0
-636 165 0
-636 508 0
636 -165 -508 0
158 -13113 0
-158 13113 0
157 -13112 0
-157 13112 0
156 -13111 0
-156 13111 0
155 -13110 0
-155 13110 0
154 -13109 0
-154 13109 0
152 -13107 0
-152 13107 0
153 -13108 0
-153 13108 0
-640 152 0
-640 153 0
640 -152 -153 0
-644 -154 0
-644 640 0
644 154 -640 0
-660 155 0
-660 644 0
660 -155 -644 0
-676 -156 0
-676 660 0
676 156 -660 0
-740 157 0
-740 676 0
740 -157 -676 0
-868 158 0
-868 740 0
868 -158 -740 0
151 -13106 0
-151 13106 0
150 -13105 0
-150 13105 0
149 -13104 0
-149 13104 0
148 -13103 0
-148 13103 0
147 -13102 0
-147 13102 0
145 -13100 0
-145 13100 0
146 -13101 0
-146 13101 0
-872 145 0
-872 146 0
872 -145 -146 0
-876 -147 0
-876 872 0
876 147 -872 0
-892 148 0
-892 876 0
892 -148 -876 0
-908 -149 0
-908 892 0
908 149 -892 0
-972 150 0
-972 908 0
972 -150 -908 0
-1100 151 0
-1100 972 0
1100 -151 -972 0
144 -13099 0
-144 13099 0
143 -13098 0
-143 13098 0
142 -13097 0
-142 13097 0
141 -13096 0
-141 13096 0
140 -13095 0
-140 13095 0
138 -13093 0
-138 13093 0
139 -13094 0
-139 13094 0
-1104 138 0
-1104 139 0
1104 -138 -139 0
-1108 -140 0
-1108 1104 0
1108 140 -1104 0
-1124 141 0
-1124 1108 0
1124 -141 -1108 0
-1140 -142 0
-1140 1124 0
1140 142 -1124 0
-1204 143 0
-1204 1140 0
1204 -143 -1140 0
-1332 144 0
-1332 1204 0
1332 -144 -1204 0
137 -13092 0
-137 13092 0
136 -13091 0
-136 13091 0
135 -13090 0
-135 13090 0
134 -13089 0
-134 13089 0
133 -13088 0
-133 13088 0
131 -13086 0
-131 13086 0
132 -13087 0
-132 13087 0
-1336 131 0
-1336 132 0
1336 -131 -132 0
-1340 -133 0
-1340 1336 0
1340 133 -1336 0
-1356 134 0
-1356 1340 0
1356 -134 -1340 0
-1372 -135 0
-1372 1356 0
1372 135 -1356 0
-1436 136 0
-1436 1372 0
1436 -136 -1372 0
-1564 137 0
-1564 1436 0
1564 -137 -1436 0
130 -13085 0
-130 13085 0
129 -13084 0
-129 13084 0
128 -13083 0
-128 13083 0
127 -13082 0
-127 13082 0
126 -13081 0
-126 13081 0
124 -13079 0
-124 13079 0
125 -13080 0
-125 13080 0
-1568 124 0
-1568 125 0
1568 -124 -125 0
-1572 -126 0
-1572 1568 0
1572 126 -1568 0
-1588 127 0
-1588 1572 0
1588 -127 -1572 0
-1604 -128 0
-1604 1588 0
1604 128 -1588 0
-1668 129 0
-1668 1604 0
1668 -129 -1604 0
-1796 130 0
-1796 1668 0
1796 -130 -1668 0
123 -13078 0
-123 13078 0
122 -13077 0
-122 13077 0
121 -13076 0
-121 13076 0
120 -13075 0
-120 13075 0
119 -13074 0
-119 13074 0
117 -13072 0
-117 13072 0
118 -13073 0
-118 13073 0
-1800 117 0
-1800 118 0
1800 -117 -118 0
-1804 -119 0
-1804 1800 0
1804 119 -1800 0
-1820 120 0
-1820 1804 0
1820 -120 -1804 0
-1836 -121 0
-1836 1820 0
1836 121 -1820 0
-1900 122 0
-1900 1836 0
1900 -122 -1836 0
-2028 123 0
-2028 1900 0
2028 -123 -1900 0
116 -13071 0
-116 13071 0
115 -13070 0
-115 13070 0
114 -13069 0
-114 13069 0
113 -13068 0
-113 13068 0
112 -13067 0
-112 13067 0
110 -13065 0
-110 13065 0
111 -13066 0
-111 13066 0
-2032 110 0
-2032 111 0
2032 -110 -111 0
-2036 -112 0
-2036 2032 0
2036 112 -2032 0
-2052 113 0
-2052 2036 0
2052 -113 -2036 0
-2068 -114 0
-2068 2052 0
2068 114 -2052 0
-2132 115 0
-2132 2068 0
2132 -115 -2068 0
-2260 116 0
-2260 2132 0
2260 -116 -2132 0
-2368 -2028 0
-2368 -2260 0
2368 2028 2260 0
-2476 -1796 0
-2476 2368 0
2476 1796 -2368 0
-2584 -1564 0
-2584 2476 0
2584 1564 -2476 0
-2692 -1332 0
-2692 2584 0
2692 1332 -2584 0
-2800 -1100 0
-2800 2692 0
2800 1100 -2692 0
-2908 -868 0
-2908 2800 0
2908 868 -2800 0
-3016 -636 0
-3016 2908 0
3016 636 -2908 0
-3124 -404 0
-3124 3016 0
3124 404 -3016 0
-3446 109 0
-3446 3124 0
3446 -109 -3124 0
-3447 -109 0
-3447 -3124 0
3447 109 3124 0
-3448 -3446 0
-3448 -3447 0
3448 3446 3447 0
108 -13063 0
-108 13063 0
-175 -166 0
-175 167 0
175 166 -167 0
-179 -168 0
-179 175 0
179 168 -175 0
-195 169 0
-195 179 0
195 -169 -179 0
-211 -170 0
-211 195 0
211 170 -195 0
-275 171 0
-275 211 0
275 -171 -211 0
-403 172 0
-403 275 0
403 -172 -275 0
-407 -159 0
-407 160 0
407 159 -160 0
-411 -161 0
-411 407 0
411 161 -407 0
-427 162 0
-427 411 0
427 -162 -411 0
-443 -163 0
-443 427 0
443 163 -427 0
-507 164 0
-507 443 0
507 -164 -443 0
-635 165 0
-635 507 0
635 -165 -507 0
-639 -152 0
-639 153 0
639 152 -153 0
-643 -154 0
-643 639 0
643 154 -639 0
-659 155 0
-659 643 0
659 -155 -643 0
-675 -156 0
-675 659 0
675 156 -659 0
-739 157 0
-739 675 0
739 -157 -675 0
-867 158 0
-867 739 0
867 -158 -739 0
-871 -145 0
-871 146 0
871 145 -146 0
-875 -147 0
-875 871 0
875 147 -871 0
-891 148 0
-891 875 0
891 -148 -875 0
-907 -149 0
-907 891 0
907 149 -891 0
-971 150 0
-971 907 0
971 -150 -907 0
-1099 151 0
-1099 971 0
1099 -151 -971 0
-1103 -138 0
-1103 139 0
1103 138 -139 0
-1107 -140 0
-1107 1103 0
1107 140 -1103 0
-1123 141 0
-1123 1107 0
1123 -141 -1107 0
-1139 -142 0
-1139 1123 0
1139 142 -1123 0
-1203 143 0
-1203 1139 0
1203 -143 -1139 0
-1331 144 0
-1331 1203 0
1331 -144 -1203 0
-1335 -131 0
-1335 132 0
1335 131 -132 0
-1339 -133 0
-1339 1335 0
1339 133 -1335 0
-1355 134 0
-1355 1339 0
1355 -134 -1339 0
-1371 -135 0
-1371 1355 0
1371 135 -1355 0
-1435 136 0
-1435 1371 0
1435 -136 -1371 0
-1563 137 0
-1563 1435 0
1563 -137 -1435 0
-1567 -124 0
-1567 125 0
1567 124 -125 0
-1571 -126 0
-1571 1567 0
1571 126 -1567 0
-1587 127 0
-1587 1571 0
1587 -127 -1571 0
-1603 -128 0
-1603 1587 0
1603 128 -1587 0
-1667 129 0
-1667 1603 0
1667 -129 -1603 0
-1795 130 0
-1795 1667 0
1795 -130 -1667 0
-1799 -117 0
-1799 118 0
1799 117 -118 0
-1803 -119 0
-1803 1799 0
1803 119 -1799 0
-1819 120 0
-1819 1803 0
1819 -120 -1803 0
-1835 -121 0
-1835 1819 0
1835 121 -1819 0
-1899 122 0
-1899 1835 0
1899 -122 -1835 0
-2027 123 0
-2027 1899 0
2027 -123 -1899 0
-2031 -110 0
-2031 111 0
2031 110 -111 0
-2035 -112 0
-2035 2031 0
2035 112 -2031 0
-2051 113 0
-2051 2035 0
2051 -113 -2035 0
-2067 -114 0
-2067 2051 0
2067 114 -2051 0
-2131 115 0
-2131 2067 0
2131 -115 -2067 0
-2259 116 0
-2259 2131 0
2259 -116 -2131 0
-2367 -2027 0
-2367 -2259 0
2367 2027 2259 0
-2475 -1795 0
-2475 2367 0
2475 1795 -2367 0
-2583 -1563 0
-2583 2475 0
2583 1563 -2475 0
-2691 -1331 0
-2691 2583 0
2691 1331 -2583 0
-2799 -1099 0
-2799 2691 0
2799 1099 -2691 0
-2907 -867 0
-2907 2799 0
2907 867 -2799 0
-3015 -635 0
-3015 2907 0
3015 635 -2907 0
-3123 -403 0
-3123 3015 0
3123 403 -3015 0
-3443 108 0
-3443 3123 0
3443 -108 -3123 0
-3444 -108 0
-3444 -3123 0
3444 108 3123 0
-3445 -3443 0
-3445 -3444 0
3445 3443 3444 0
107 -13062 0
-107 13062 0
-174 166 0
-174 -167 0
174 -166 167 0
-178 -168 0
-178 174 0
178 168 -174 0
-194 169 0
-194 178 0
194 -169 -178 0
-210 -170 0
-210 194 0
210 170 -194 0
-274 171 0
-274 210 0
274 -171 -210 0
-402 172 0
-402 274 0
402 -172 -274 0
-406 159 0
-406 -160 0
406 -159 160 0
-410 -161 0
-410 406 0
410 161 -406 0
-426 162 0
-426 410 0
426 -162 -410 0
-442 -163 0
-442 426 0
442 163 -426 0
-506 164 0
-506 442 0
506 -164 -442 0
-634 165 0
-634 506 0
634 -165 -506 0
-638 152 0
-638 -153 0
638 -152 153 0
-642 -154 0
-642 638 0
642 154 -638 0
-658 155 0
-658 642 0
658 -155 -642 0
-674 -156 0
-674 658 0
674 156 -658 0
-738 157 0
-738 674 0
738 -157 -674 0
-866 158 0
-866 738 0
866 -158 -738 0
-870 145 0
-870 -146 0
870 -145 146 0
-874 -147 0
-874 870 0
874 147 -870 0
-890 148 0
-890 874 0
890 -148 -874 0
-906 -149 0
-906 890 0
906 149 -890 0
-970 150 0
-970 906 0
970 -150 -906 0
-1098 151 0
-1098 970 0
1098 -151 -970 0
-1102 138 0
-1102 -139 0
1102 -138 139 0
-1106 -140 0
-1106 1102 0
1106 140 -1102 0
-1122 141 0
-1122 1106 0
1122 -141 -1106 0
-1138 -142 0
-1138 1122 0
1138 142 -1122 0
-1202 143 0
-1202 1138 0
1202 -143 -1138 0
-1330 144 0
-1330 1202 0
1330 -144 -1202 0
-1334 131 0
-1334 -132 0
1334 -131 132 0
-1338 -133 0
-1338 1334 0
1338 133 -1334 0
-1354 134 0
-1354 1338 0
1354 -134 -1338 0
-1370 -135 0
-1370 1354 0
1370 135 -1354 0
-1434 136 0
-1434 1370 0
1434 -136 -1370 0
-1562 137 0
-1562 1434 0
1562 -137 -1434 0
-1566 124 0
-1566 -125 0
1566 -124 125 0
-1570 -126 0
-1570 1566 0
1570 126 -1566 0
-1586 127 0
-1586 1570 0
1586 -127 -1570 0
-1602 -128 0
-1602 1586 0
1602 128 -1586 0
-1666 129 0
-1666 1602 0
1666 -129 -1602 0
-1794 130 0
-1794 1666 0
1794 -130 -1666 0
-1798 117 0
-1798 -118 0
1798 -117 118 0
-1802 -119 0
-1802 1798 0
1802 119 -1798 0
-1818 120 0
-1818 1802 0
1818 -120 -1802 0
-1834 -121 0
-1834 1818 0
1834 121 -1818 0
-1898 122 0
-1898 1834 0
1898 -122 -1834 0
-2026 123 0
-2026 1898 0
2026 -123 -1898 0
-2030 110 0
-2030 -111 0
2030 -110 111 0
-2034 -112 0
-2034 2030 0
2034 112 -2030 0
-2050 113 0
-2050 2034 0
2050 -113 -2034 0
-2066 -114 0
-2066 2050 0
2066 114 -2050 0
-2130 115 0
-2130 2066 0
2130 -115 -2066 0
-2258 116 0
-2258 2130 0
2258 -116 -2130 0
-2366 -2026 0
-2366 -2258 0
2366 2026 2258 0
-2474 -1794 0
-2474 2366 0
2474 1794 -2366 0
-2582 -1562 0
-2582 2474 0
2582 1562 -2474 0
-2690 -1330 0
-2690 2582 0
2690 1330 -2582 0
-2798 -1098 0
-2798 2690 0
2798 1098 -2690 0
-2906 -866 0
-2906 2798 0
2906 866 -2798 0
-3014 -634 0
-3014 2906 0
3014 634 -2906 0
-3122 -402 0
-3122 3014 0
3122 402 -3014 0
-3440 107 0
-3440 3122 0
3440 -107 -3122 0
-3441 -107 0
-3441 -3122 0
3441 107 3122 0
-3442 -3440 0
-3442 -3441 0
3442 3440 3441 0
106 -13061 0
-106 13061 0
-173 -166 0
-173 -167 0
173 166 167 0
-177 -168 0
-177 173 0
177 168 -173 0
-193 169 0
-193 177 0
193 -169 -177 0
-209 -170 0
-209 193 0
209 170 -193 0
-273 171 0
-273 209 0
273 -171 -209 0
-401 172 0
-401 273 0
401 -172 -273 0
-405 -159 0
-405 -160 0
405 159 160 0
-409 -161 0
-409 405 0
409 161 -405 0
-425 162 0
-425 409 0
425 -162 -409 0
-441 -163 0
-441 425 0
441 163 -425 0
-505 164 0
-505 441 0
505 -164 -441 0
-633 165 0
-633 505 0
633 -165 -505 0
-637 -152 0
-637 -153 0
637 152 153 0
-641 -154 0
-641 637 0
641 154 -637 0
-657 155 0
-657 641 0
657 -155 -641 0
-673 -156 0
-673 657 0
673 156 -657 0
-737 157 0
-737 673 0
737 -157 -673 0
-865 158 0
-865 737 0
865 -158 -737 0
-869 -145 0
-869 -146 0
869 145 146 0
-873 -147 0
-873 869 0
873 147 -869 0
-889 148 0
-889 873 0
889 -148 -873 0
-905 -149 0
-905 889 0
905 149 -889 0
-969 150 0
-969 905 0
969 -150 -905 0
-1097 151 0
-1097 969 0
1097 -151 -969 0
-1101 -138 0
-1101 -139 0
1101 138 139 0
-1105 -140 0
-1105 1101 0
1105 140 -1101 0
-1121 141 0
-1121 1105 0
1121 -141 -1105 0
-1137 -142 0
-1137 1121 0
1137 142 -1121 0
-1201 143 0
-1201 1137 0
1201 -143 -1137 0
-1329 144 0
-1329 1201 0
1329 -144 -1201 0
-1333 -131 0
-1333 -132 0
1333 131 132 0
-1337 -133 0
-1337 1333 0
1337 133 -1333 0
-1353 134 0
-1353 1337 0
1353 -134 -1337 0
-1369 -135 0
-1369 1353 0
1369 135 -1353 0
-1433 136 0
-1433 1369 0
1433 -136 -1369 0
-1561 137 0
-1561 1433 0
1561 -137 -1433 0
-1565 -124 0
-1565 -125 0
1565 124 125 0
-1569 -126 0
-1569 1565 0
1569 126 -1565 0
-1585 127 0
-1585 1569 0
1585 -127 -1569 0
-1601 -128 0
-1601 1585 0
1601 128 -1585 0
-1665 129 0
-1665 1601 0
1665 -129 -1601 0
-1793 130 0
-1793 1665 0
1793 -130 -1665 0
-1797 -117 0
-1797 -118 0
1797 117 118 0
-1801 -119 0
-1801 1797 0
1801 119 -1797 0
-1817 120 0
-1817 1801 0
1817 -120 -1801 0
-1833 -121 0
-1833 1817 0
1833 121 -1817 0
-1897 122 0
-1897 1833 0
1897 -122 -1833 0
-2025 123 0
-2025 1897 0
2025 -123 -1897 0
-2029 -110 0
-2029 -111 0
2029 110 111 0
-2033 -112 0
-2033 2029 0
2033 112 -2029 0
-2049 113 0
-2049 2033 0
2049 -113 -2033 0
-2065 -114 0
-2065 2049 0
2065 114 -2049 0
-2129 115 0
-2129 2065 0
2129 -115 -2065 0
-2257 116 0
-2257 2129 0
2257 -116 -2129 0
-2365 -2025 0
-2365 -2257 0
2365 2025 2257 0
-2473 -1793 0
-2473 2365 0
2473 1793 -2365 0
-2581 -1561 0
-2581 2473 0
2581 1561 -2473 0
-2689 -1329 0
-2689 2581 0
2689 1329 -2581 0
-2797 -1097 0
-2797 2689 0
2797 1097 -2689 0
-2905 -865 0
-2905 2797 0
2905 865 -2797 0
-3013 -633 0
-3013 2905 0
3013 633 -2905 0
-3121 -401 0
-3121 3013 0
3121 401 -3013 0
-3437 106 0
-3437 3121 0
3437 -106 -3121 0
-3438 -106 0
-3438 -3121 0
3438 106 3121 0
-3439 -3437 0
-3439 -3438 0
3439 3437 3438 0
105 -13060 0
-105 13060 0
-184 168 0
-184 176 0
184 -168 -176 0
-192 -169 0
-192 184 0
192 169 -184 0
-208 -170 0
-208 192 0
208 170 -192 0
-272 171 0
-272 208 0
272 -171 -208 0
-400 172 0
-400 272 0
400 -172 -272 0
-416 161 0
-416 408 0
416 -161 -408 0
-424 -162 0
-424 416 0
424 162 -416 0
-440 -163 0
-440 424 0
440 163 -424 0
-504 164 0
-504 440 0
504 -164 -440 0
-632 165 0
-632 504 0
632 -165 -504 0
-648 154 0
-648 640 0
648 -154 -640 0
-656 -155 0
-656 648 0
656 155 -648 0
-672 -156 0
-672 656 0
672 156 -656 0
-736 157 0
-736 672 0
736 -157 -672 0
-864 158 0
-864 736 0
864 -158 -736 0
-880 147 0
-880 872 0
880 -147 -872 0
-888 -148 0
-888 880 0
888 148 -880 0
-904 -149 0
-904 888 0
904 149 -888 0
-968 150 0
-968 904 0
968 -150 -904 0
-1096 151 0
-1096 968 0
1096 -151 -968 0
-1112 140 0
-1112 1104 0
1112 -140 -1104 0
-1120 -141 0
-1120 1112 0
1120 141 -1112 0
-1136 -142 0
-1136 1120 0
1136 142 -1120 0
-1200 143 0
-1200 1136 0
1200 -143 -1136 0
-1328 144 0
-1328 1200 0
1328 -144 -1200 0
-1344 133 0
-1344 1336 0
1344 -133 -1336 0
-1352 -134 0
-1352 1344 0
1352 134 -1344 0
-1368 -135 0
-1368 1352 0
1368 135 -1352 0
-1432 136 0
-1432 1368 0
1432 -136 -1368 0
-1560 137 0
-1560 1432 0
1560 -137 -1432 0
-1576 126 0
-1576 1568 0
1576 -126 -1568 0
-1584 -127 0
-1584 1576 0
1584 127 -1576 0
-1600 -128 0
-1600 1584 0
1600 128 -1584 0
-1664 129 0
-1664 1600 0
1664 -129 -1600 0
-1792 130 0
-1792 1664 0
1792 -130 -1664 0
-1808 119 0
-1808 1800 0
1808 -119 -1800 0
-1816 -120 0
-1816 1808 0
1816 120 -1808 0
-1832 -121 0
-1832 1816 0
1832 121 -1816 0
-1896 122 0
-1896 1832 0
1896 -122 -1832 0
-2024 123 0
-2024 1896 0
2024 -123 -1896 0
-2040 112 0
-2040 2032 0
2040 -112 -2032 0
-2048 -113 0
-2048 2040 0
2048 113 -2040 0
-2064 -114 0
-2064 2048 0
2064 114 -2048 0
-2128 115 0
-2128 2064 0
2128 -115 -2064 0
-2256 116 0
-2256 2128 0
2256 -116 -2128 0
-2364 -2024 0
-2364 -2256 0
2364 2024 2256 0
-2472 -1792 0
-2472 2364 0
2472 1792 -2364 0
-2580 -1560 0
-2580 2472 0
2580 1560 -2472 0
-2688 -1328 0
-2688 2580 0
2688 1328 -2580 0
-2796 -1096 0
-2796 2688 0
2796 1096 -2688 0
-2904 -864 0
-2904 2796 0
2904 864 -2796 0
-3012 -632 0
-3012 2904 0
3012 632 -2904 0
-3120 -400 0
-3120 3012 0
3120 400 -3012 0
-3434 105 0
-3434 3120 0
3434 -105 -3120 0
-3435 -105 0
-3435 -3120 0
3435 105 3120 0
-3436 -3434 0
-3436 -3435 0
3436 3434 3435 0
104 -13059 0
-104 13059 0
-183 168 0
-183 175 0
183 -168 -175 0
-191 -169 0
-191 183 0
191 169 -183 0
-207 -170 0
-207 191 0
207 170 -191 0
-271 171 0
-271 207 0
271 -171 -207 0
-399 172 0
-399 271 0
399 -172 -271 0
-415 161 0
-415 407 0
415 -161 -407 0
-423 -162 0
-423 415 0
423 162 -415 0
-439 -163 0
-439 423 0
439 163 -423 0
-503 164 0
-503 439 0
503 -164 -439 0
-631 165 0
-631 503 0
631 -165 -503 0
-647 154 0
-647 639 0
647 -154 -639 0
-655 -155 0
-655 647 0
655 155 -647 0
-671 -156 0
-671 655 0
671 156 -655 0
-735 157 0
-735 671 0
735 -157 -671 0
-863 158 0
-863 735 0
863 -158 -735 0
-879 147 0
-879 871 0
879 -147 -871 0
-887 -148 0
-887 879 0
887 148 -879 0
-903 -149 0
-903 887 0
903 149 -887 0
-967 150 0
-967 903 0
967 -150 -903 0
-1095 151 0
-1095 967 0
1095 -151 -967 0
-1111 140 0
-1111 1103 0
1111 -140 -1103 0
-1119 -141 0
-1119 1111 0
1119 141 -1111 0
-1135 -142 0
-1135 1119 0
1135 142 -1119 0
-1199 143 0
-1199 1135 0
1199 -143 -1135 0
-1327 144 0
-1327 1199 0
1327 -144 -1199 0
-1343 133 0
-1343 1335 0
1343 -133 -1335 0
-1351 -134 0
-1351 1343 0
1351 134 -1343 0
-1367 -135 0
-1367 1351 0
1367 135 -1351 0
-1431 136 0
-1431 1367 0
1431 -136 -1367 0
-1559 137 0
-1559 1431 0
1559 -137 -1431 0
-1575 126 0
-1575 1567 0
1575 -126 -1567 0
-1583 -127 0
-1583 1575 0
1583 127 -1575 0
-1599 -128 0
-1599 1583 0
1599 128 -1583 0
-1663 129 0
-1663 1599 0
1663 -129 -1599 0
-1791 130 0
-1791 1663 0
1791 -130 -1663 0
-1807 119 0
-1807 1799 0
1807 -119 -1799 0
-1815 -120 0
-1815 1807 0
1815 120 -1807 0
-1831 -121 0
-1831 1815 0
1831 121 -1815 0
-1895 122 0
-1895 1831 0
1895 -122 -1831 0
-2023 123 0
-2023 1895 0
2023 -123 -1895 0
-2039 112 0
-2039 2031 0
2039 -112 -2031 0
-2047 -113 0
-2047 2039 0
2047 113 -2039 0
-2063 -114 0
-2063 2047 0
2063 114 -2047 0
-2127 115 0
-2127 2063 0
2127 -115 -2063 0
-2255 116 0
-2255 2127 0
2255 -116 -2127 0
-2363 -2023 0
-2363 -2255 0
2363 2023 2255 0
-2471 -1791 0
-2471 2363 0
2471 1791 -2363 0
-2579 -1559 0
-2579 2471 0
2579 1559 -2471 0
-2687 -1327 0
-2687 2579 0
2687 1327 -2579 0
-2795 -1095 0
-2795 2687 0
2795 1095 -2687 0
-2903 -863 0
-2903 2795 0
2903 863 -2795 0
-3011 -631 0
-3011 2903 0
3011 631 -2903 0
-3119 -399 0
-3119 3011 0
3119 399 -3011 0
-3431 104 0
-3431 3119 0
3431 -104 -3119 0
-3432 -104 0
-3432 -3119 0
3432 104 3119 0
-3433 -3431 0
-3433 -3432 0
3433 3431 3432 0
103 -13058 0
-103 13058 0
-182 168 0
-182 174 0
182 -168 -174 0
-190 -169 0
-190 182 0
190 169 -182 0
-206 -170 0
-206 190 0
206 170 -190 0
-270 171 0
-270 206 0
270 -171 -206 0
-398 172 0
-398 270 0
398 -172 -270 0
-414 161 0
-414 406 0
414 -161 -406 0
-422 -162 0
-422 414 0
422 162 -414 0
-438 -163 0
-438 422 0
438 163 -422 0
-502 164 0
-502 438 0
502 -164 -438 0
-630 165 0
-630 502 0
630 -165 -502 0
-646 154 0
-646 638 0
646 -154 -638 0
-654 -155 0
-654 646 0
654 155 -646 0
-670 -156 0
-670 654 0
670 156 -654 0
-734 157 0
-734 670 0
734 -157 -670 0
-862 158 0
-862 734 0
862 -158 -734 0
-878 147 0
-878 870 0
878 -147 -870 0
-886 -148 0
-886 878 0
886 148 -878 0
-902 -149 0
-902 886 0
902 149 -886 0
-966 150 0
-966 902 0
966 -150 -902 0
-1094 151 0
-1094 966 0
1094 -151 -966 0
-1110 140 0
-1110 1102 0
1110 -140 -1102 0
-1118 -141 0
-1118 1110 0
1118 141 -1110 0
-1134 -142 0
-1134 1118 0
1134 142 -1118 0
-1198 143 0
-1198 1134 0
1198 -143 -1134 0
-1326 144 0
-1326 1198 0
1326 -144 -1198 0
-1342 133 0
-1342 1334 0
1342 -133 -1334 0
-1350 -134 0
-1350 1342 0
1350 134 -1342 0
-1366 -135 0
-1366 1350 0
1366 135 -1350 0
-1430 136 0
-1430 1366 0
1430 -136 -1366 0
-1558 137 0
-1558 1430 0
1558 -137 -1430 0
-1574 126 0
-1574 1566 0
1574 -126 -1566 0
-1582 -127 0
-1582 1574 0
1582 127 -1574 0
-1598 -128 0
-1598 1582 0
1598 128 -1582 0
-1662 129 0
-1662 1598 0
1662 -129 -1598 0
-1790 130 0
-1790 1662 0
1790 -130 -1662 0
-1806 119 0
-1806 1798 0
1806 -119 -1798 0
-1814 -120 0
-1814 1806 0
1814 120 -1806 0
-1830 -121 0
-1830 1814 0
1830 121 -1814 0
-1894 122 0
-1894 1830 0
1894 -122 -1830 0
-2022 123 0
-2022 1894 0
2022 -123 -1894 0
-2038 112 0
-2038 2030 0
2038 -112 -2030 0
-2046 -113 0
-2046 2038 0
2046 113 -2038 0
-2062 -114 0
-2062 2046 0
2062 114 -2046 0
-2126 115 0
-2126 2062 0
2126 -115 -2062 0
-2254 116 0
-2254 2126 0
2254 -116 -2126 0
-2362 -2022 0
-2362 -2254 0
2362 2022 2254 0
-2470 -1790 0
-2470 2362 0
2470 1790 -2362 0
-2578 -1558 0
-2578 2470 0
2578 1558 -2470 0
-2686 -1326 0
-2686 2578 0
2686 1326 -2578 0
-2794 -1094 0
-2794 2686 0
2794 1094 -2686 0
-2902 -862 0
-2902 2794 0
2902 862 -2794 0
-3010 -630 0
-3010 2902 0
3010 630 -2902 0
-3118 -398 0
-3118 3010 0
3118 398 -3010 0
-3428 103 0
-3428 3118 0
3428 -103 -3118 0
-3429 -103 0
-3429 -3118 0
3429 103 3118 0
-3430 -3428 0
-3430 -3429 0
3430 3428 3429 0
102 -13057 0
-102 13057 0
-181 168 0
-181 173 0
181 -168 -173 0
-189 -169 0
-189 181 0
189 169 -181 0
-205 -170 0
-205 189 0
205 170 -189 0
-269 171 0
-269 205 0
269 -171 -205 0
-397 172 0
-397 269 0
397 -172 -269 0
-413 161 0
-413 405 0
413 -161 -405 0
-421 -162 0
-421 413 0
421 162 -413 0
-437 -163 0
-437 421 0
437 163 -421 0
-501 164 0
-501 437 0
501 -164 -437 0
-629 165 0
-629 501 0
629 -165 -501 0
-645 154 0
-645 637 0
645 -154 -637 0
-653 -155 0
-653 645 0
653 155 -645 0
-669 -156 0
-669 653 0
669 156 -653 0
-733 157 0
-733 669 0
733 -157 -669 0
-861 158 0
-861 733 0
861 -158 -733 0
-877 147 0
-877 869 0
877 -147 -869 0
-885 -148 0
-885 877 0
885 148 -877 0
-901 -149 0
-901 885 0
901 149 -885 0
-965 150 0
-965 901 0
965 -150 -901 0
-1093 151 0
-1093 965 0
1093 -151 -965 0
-1109 140 0
-1109 1101 0
1109 -140 -1101 0
-1117 -141 0
-1117 1109 0
1117 141 -1109 0
-1133 -142 0
-1133 1117 0
1133 142 -1117 0
-1197 143 0
-1197 1133 0
1197 -143 -1133 0
-1325 144 0
-1325 1197 0
1325 -144 -1197 0
-1341 133 0
-1341 1333 0
1341 -133 -1333 0
-1349 -134 0
-1349 1341 0
1349 134 -1341 0
-1365 -135 0
-1365 1349 0
1365 135 -1349 0
-1429 136 0
-1429 1365 0
1429 -136 -1365 0
-1557 137 0
-1557 1429 0
1557 -137 -1429 0
-1573 126 0
-1573 1565 0
1573 -126 -1565 0
-1581 -127 0
-1581 1573 0
1581 127 -1573 0
-1597 -128 0
-1597 1581 0
1597 128 -1581 0
-1661 129 0
-1661 1597 0
1661 -129 -1597 0
-1789 130 0
-1789 1661 0
1789 -130 -1661 0
-1805 119 0
-1805 1797 0
1805 -119 -1797 0
-1813 -120 0
-1813 1805 0
1813 120 -1805 0
-1829 -121 0
-1829 1813 0
1829 121 -1813 0
-1893 122 0
-1893 1829 0
1893 -122 -1829 0
-2021 123 0
-2021 1893 0
2021 -123 -1893 0
-2037 112 0
-2037 2029 0
2037 -112 -2029 0
-2045 -113 0
-2045 2037 0
2045 113 -2037 0
-2061 -114 0
-2061 2045 0
2061 114 -2045 0
-2125 115 0
-2125 2061 0
2125 -115 -2061 0
-2253 116 0
-2253 2125 0
2253 -116 -2125 0
-2361 -2021 0
-2361 -2253 0
2361 2021 2253 0
-2469 -1789 0
-2469 2361 0
2469 1789 -2361 0
-2577 -1557 0
-2577 2469 0
2577 1557 -2469 0
-2685 -1325 0
-2685 2577 0
2685 1325 -2577 0
-2793 -1093 0
-2793 2685 0
2793 1093 -2685 0
-2901 -861 0
-2901 2793 0
2901 861 -2793 0
-3009 -629 0
-3009 2901 0
3009 629 -2901 0
-3117 -397 0
-3117 3009 0
3117 397 -3009 0
-3425 102 0
-3425 3117 0
3425 -102 -3117 0
-3426 -102 0
-3426 -3117 0
3426 102 3117 0
-3427 -3425 0
-3427 -3426 0
3427 3425 3426 0
101 -13056 0
-101 13056 0
-188 -169 0
-188 180 0
188 169 -180 0
-204 -170 0
-204 188 0
204 170 -188 0
-268 171 0
-268 204 0
268 -171 -204 0
-396 172 0
-396 268 0
396 -172 -268 0
-420 -162 0
-420 412 0
420 162 -412 0
-436 -163 0
-436 420 0
436 163 -420 0
-500 164 0
-500 436 0
500 -164 -436 0
-628 165 0
-628 500 0
628 -165 -500 0
-652 -155 0
-652 644 0
652 155 -644 0
-668 -156 0
-668 652 0
668 156 -652 0
-732 157 0
-732 668 0
732 -157 -668 0
-860 158 0
-860 732 0
860 -158 -732 0
-884 -148 0
-884 876 0
884 148 -876 0
-900 -149 0
-900 884 0
900 149 -884 0
-964 150 0
-964 900 0
964 -150 -900 0
-1092 151 0
-1092 964 0
1092 -151 -964 0
-1116 -141 0
-1116 1108 0
1116 141 -1108 0
-1132 -142 0
-1132 1116 0
1132 142 -1116 0
-1196 143 0
-1196 1132 0
1196 -143 -1132 0
-1324 144 0
-1324 1196 0
1324 -144 -1196 0
-1348 -134 0
-1348 1340 0
1348 134 -1340 0
-1364 -135 0
-1364 1348 0
1364 135 -1348 0
-1428 136 0
-1428 1364 0
1428 -136 -1364 0
-1556 137 0
-1556 1428 0
1556 -137 -1428 0
-1580 -127 0
-1580 1572 0
1580 127 -1572 0
-1596 -128 0
-1596 1580 0
1596 128 -1580 0
-1660 129 0
-1660 1596 0
1660 -129 -1596 0
-1788 130 0
-1788 1660 0
1788 -130 -1660 0
-1812 -120 0
-1812 1804 0
1812 120 -1804 0
-1828 -121 0
-1828 1812 0
1828 121 -1812 0
-1892 122 0
-1892 1828 0
1892 -122 -1828 0
-2020 123 0
-2020 1892 0
2020 -123 -1892 0
-2044 -113 0
-2044 2036 0
2044 113 -2036 0
-2060 -114 0
-2060 2044 0
2060 114 -2044 0
-2124 115 0
-2124 2060 0
2124 -115 -2060 0
-2252 116 0
-2252 2124 0
2252 -116 -2124 0
-2360 -2020 0
-2360 -2252 0
2360 2020 2252 0
-2468 -1788 0
-2468 2360 0
2468 1788 -2360 0
-2576 -1556 0
-2576 2468 0
2576 1556 -2468 0
-2684 -1324 0
-2684 2576 0
2684 1324 -2576 0
-2792 -1092 0
-2792 2684 0
2792 1092 -2684 0
-2900 -860 0
-2900 2792 0
2900 860 -2792 0
-3008 -628 0
-3008 2900 0
3008 628 -2900 0
-3116 -396 0
-3116 3008 0
3116 396 -3008 0
-3422 101 0
-3422 3116 0
3422 -101 -3116 0
-3423 -101 0
-3423 -3116 0
3423 101 3116 0
-3424 -3422 0
-3424 -3423 0
3424 3422 3423 0
100 -13055 0
-100 13055 0
-187 -169 0
-187 179 0
187 169 -179 0
-203 -170 0
-203 187 0
203 170 -187 0
-267 171 0
-267 203 0
267 -171 -203 0
-395 172 0
-395 267 0
395 -172 -267 0
-419 -162 0
-419 411 0
419 162 -411 0
-435 -163 0
-435 419 0
435 163 -419 0
-499 164 0
-499 435 0
499 -164 -435 0
-627 165 0
-627 499 0
627 -165 -499 0
-651 -155 0
-651 643 0
651 155 -643 0
-667 -156 0
-667 651 0
667 156 -651 0
-731 157 0
-731 667 0
731 -157 -667 0
-859 158 0
-859 731 0
859 -158 -731 0
-883 -148 0
-883 875 0
883 148 -875 0
-899 -149 0
-899 883 0
899 149 -883 0
-963 150 0
-963 899 0
963 -150 -899 0
-1091 151 0
-1091 963 0
1091 -151 -963 0
-1115 -141 0
-1115 1107 0
1115 141 -1107 0
-1131 -142 0
-1131 1115 0
1131 142 -1115 0
-1195 143 0
-1195 1131 0
1195 -143 -1131 0
-1323 144 0
-1323 1195 0
1323 -144 -1195 0
-1347 -134 0
-1347 1339 0
1347 134 -1339 0
-1363 -135 0
-1363 1347 0
1363 135 -1347 0
-1427 136 0
-1427 1363 0
1427 -136 -1363 0
-1555 137 0
-1555 1427 0
1555 -137 -1427 0
-1579 -127 0
-1579 1571 0
1579 127 -1571 0
-1595 -128 0
-1595 1579 0
1595 128 -1579 0
-1659 129 0
-1659 1595 0
1659 -129 -1595 0
-1787 130 0
-1787 1659 0
1787 -130 -1659 0
-1811 -120 0
-1811 1803 0
1811 120 -1803 0
-1827 -121 0
-1827 1811 0
1827 121 -1811 0
-1891 122 0
-1891 1827 0
1891 -122 -1827 0
-2019 123 0
-2019 1891 0
2019 -123 -1891 0
-2043 -113 0
-2043 2035 0
2043 113 -2035 0
-2059 -114 0
-2059 2043 0
2059 114 -2043 0
-2123 115 0
-2123 2059 0
2123 -115 -2059 0
-2251 116 0
-2251 2123 0
2251 -116 -2123 0
-2359 -2019 0
-2359 -2251 0
2359 2019 2251 0
-2467 -1787 0
-2467 2359 0
2467 1787 -2359 0
-2575 -1555 0
-2575 2467 0
2575 1555 -2467 0
-2683 -1323 0
-2683 2575 0
2683 1323 -2575 0
-2791 -1091 0
-2791 2683 0
2791 1091 -2683 0
-2899 -859 0
-2899 2791 0
2899 859 -2791 0
-3007 -627 0
-3007 2899 0
3007 627 -2899 0
-3115 -395 0
-3115 3007 0
3115 395 -3007 0
-3419 100 0
-3419 3115 0
3419 -100 -3115 0
-3420 -100 0
-3420 -3115 0
3420 100 3115 0
-3421 -3419 0
-3421 -3420 0
3421 3419 3420 0
99 -13054 0
-99 13054 0
-186 -169 0
-186 178 0
186 169 -178 0
-202 -170 0
-202 186 0
202 170 -186 0
-266 171 0
-266 202 0
266 -171 -202 0
-394 172 0
-394 266 0
394 -172 -266 0
-418 -162 0
-418 410 0
418 162 -410 0
-434 -163 0
-434 418 0
434 163 -418 0
-498 164 0
-498 434 0
498 -164 -434 0
-626 165 0
-626 498 0
626 -165 -498 0
-650 -155 0
-650 642 0
650 155 -642 0
-666 -156 0
-666 650 0
666 156 -650 0
-730 157 0
-730 666 0
730 -157 -666 0
-858 158 0
-858 730 0
858 -158 -730 0
-882 -148 0
-882 874 0
882 148 -874 0
-898 -149 0
-898 882 0
898 149 -882 0
-962 150 0
-962 898 0
962 -150 -898 0
-1090 151 0
-1090 962 0
1090 -151 -962 0
-1114 -141 0
-1114 1106 0
1114 141 -1106 0
-1130 -142 0
-1130 1114 0
1130 142 -1114 0
-1194 143 0
-1194 1130 0
1194 -143 -1130 0
-1322 144 0
-1322 1194 0
1322 -144 -1194 0
-1346 -134 0
-1346 1338 0
1346 134 -1338 0
-1362 -135 0
-1362 1346 0
1362 135 -1346 0
-1426 136 0
-1426 1362 0
1426 -136 -1362 0
-1554 137 0
-1554 1426 0
1554 -137 -1426 0
-1578 -127 0
-1578 1570 0
1578 127 -1570 0
-1594 -128 0
-1594 1578 0
1594 128 -1578 0
-1658 129 0
-1658 1594 0
1658 -129 -1594 0
-1786 130 0
-1786 1658 0
1786 -130 -1658 0
-1810 -120 0
-1810 1802 0
1810 120 -1802 0
-1826 -121 0
-1826 1810 0
1826 121 -1810 0
-1890 122 0
-1890 1826 0
1890 -122 -1826 0
-2018 123 0
-2018 1890 0
2018 -123 -1890 0
-2042 -113 0
-2042 2034 0
2042 113 -2034 0
-2058 -114 0
-2058 2042 0
2058 114 -2042 0
-2122 115 0
-2122 2058 0
2122 -115 -2058 0
-2250 116 0
-2250 2122 0
2250 -116 -2122 0
-2358 -2018 0
-2358 -2250 0
2358 2018 2250 0
-2466 -1786 0
-2466 2358 0
2466 1786 -2358 0
-2574 -1554 0
-2574 2466 0
2574 1554 -2466 0
-2682 -1322 0
-2682 2574 0
2682 1322 -2574 0
-2790 -1090 0
-2790 2682 0
2790 1090 -2682 0
-2898 -858 0
-2898 2790 0
2898 858 -2790 0
-3006 -626 0
-3006 2898 0
3006 626 -2898 0
-3114 -394 0
-3114 3006 0
3114 394 -3006 0
-3416 99 0
-3416 3114 0
3416 -99 -3114 0
-3417 -99 0
-3417 -3114 0
3417 99 3114 0
-3418 -3416 0
-3418 -3417 0
3418 3416 3417 0
98 -13053 0
-98 13053 0
-185 -169 0
-185 177 0
185 169 -177 0
-201 -170 0
-201 185 0
201 170 -185 0
-265 171 0
-265 201 0
265 -171 -201 0
-393 172 0
-393 265 0
393 -172 -265 0
-417 -162 0
-417 409 0
417 162 -409 0
-433 -163 0
-433 417 0
433 163 -417 0
-497 164 0
-497 433 0
497 -164 -433 0
-625 165 0
-625 497 0
625 -165 -497 0
-649 -155 0
-649 641 0
649 155 -641 0
-665 -156 0
-665 649 0
665 156 -649 0
-729 157 0
-729 665 0
729 -157 -665 0
-857 158 0
-857 729 0
857 -158 -729 0
-881 -148 0
-881 873 0
881 148 -873 0
-897 -149 0
-897 881 0
897 149 -881 0
-961 150 0
-961 897 0
961 -150 -897 0
-1089 151 0
-1089 961 0
1089 -151 -961 0
-1113 -141 0
-1113 1105 0
1113 141 -1105 0
-1129 -142 0
-1129 1113 0
1129 142 -1113 0
-1193 143 0
-1193 1129 0
1193 -143 -1129 0
-1321 144 0
-1321 1193 0
1321 -144 -1193 0
-1345 -134 0
-1345 1337 0
1345 134 -1337 0
-1361 -135 0
-1361 1345 0
1361 135 -1345 0
-1425 136 0
-1425 1361 0
1425 -136 -1361 0
-1553 137 0
-1553 1425 0
1553 -137 -1425 0
-1577 -127 0
-1577 1569 0
1577 127 -1569 0
-1593 -128 0
-1593 1577 0
1593 128 -1577 0
-1657 129 0
-1657 1593 0
1657 -129 -1593 0
-1785 130 0
-1785 1657 0
1785 -130 -1657 0
-1809 -120 0
-1809 1801 0
1809 120 -1801 0
-1825 -121 0
-1825 1809 0
1825 121 -1809 0
-1889 122 0
-1889 1825 0
1889 -122 -1825 0
-2017 123 0
-2017 1889 0
2017 -123 -1889 0
-2041 -113 0
-2041 2033 0
2041 113 -2033 0
-2057 -114 0
-2057 2041 0
2057 114 -2041 0
-2121 115 0
-2121 2057 0
2121 -115 -2057 0
-2249 116 0
-2249 2121 0
2249 -116 -2121 0
-2357 -2017 0
-2357 -2249 0
2357 2017 2249 0
-2465 -1785 0
-2465 2357 0
2465 1785 -2357 0
-2573 -1553 0
-2573 2465 0
2573 1553 -2465 0
-2681 -1321 0
-2681 2573 0
2681 1321 -2573 0
-2789 -1089 0
-2789 2681 0
2789 1089 -2681 0
-2897 -857 0
-2897 2789 0
2897 857 -2789 0
-3005 -625 0
-3005 2897 0
3005 625 -2897 0
-3113 -393 0
-3113 3005 0
3113 393 -3005 0
-3413 98 0
-3413 3113 0
3413 -98 -3113 0
-3414 -98 0
-3414 -3113 0
3414 98 3113 0
-3415 -3413 0
-3415 -3414 0
3415 3413 3414 0
97 -13052 0
-97 13052 0
-200 169 0
-200 184 0
200 -169 -184 0
-232 170 0
-232 200 0
232 -170 -200 0
-264 -171 0
-264 232 0
264 171 -232 0
-392 172 0
-392 264 0
392 -172 -264 0
-432 162 0
-432 416 0
432 -162 -416 0
-464 163 0
-464 432 0
464 -163 -432 0
-496 -164 0
-496 464 0
496 164 -464 0
-624 165 0
-624 496 0
624 -165 -496 0
-664 155 0
-664 648 0
664 -155 -648 0
-696 156 0
-696 664 0
696 -156 -664 0
-728 -157 0
-728 696 0
728 157 -696 0
-856 158 0
-856 728 0
856 -158 -728 0
-896 148 0
-896 880 0
896 -148 -880 0
-928 149 0
-928 896 0
928 -149 -896 0
-960 -150 0
-960 928 0
960 150 -928 0
-1088 151 0
-1088 960 0
1088 -151 -960 0
-1128 141 0
-1128 1112 0
1128 -141 -1112 0
-1160 142 0
-1160 1128 0
1160 -142 -1128 0
-1192 -143 0
-1192 1160 0
1192 143 -1160 0
-1320 144 0
-1320 1192 0
1320 -144 -1192 0
-1360 134 0
-1360 1344 0
1360 -134 -1344 0
-1392 135 0
-1392 1360 0
1392 -135 -1360 0
-1424 -136 0
-1424 1392 0
1424 136 -1392 0
-1552 137 0
-1552 1424 0
1552 -137 -1424 0
-1592 127 0
-1592 1576 0
1592 -127 -1576 0
-1624 128 0
-1624 1592 0
1624 -128 -1592 0
-1656 -129 0
-1656 1624 0
1656 129 -1624 0
-1784 130 0
-1784 1656 0
1784 -130 -1656 0
-1824 120 0
-1824 1808 0
1824 -120 -1808 0
-1856 121 0
-1856 1824 0
1856 -121 -1824 0
-1888 -122 0
-1888 1856 0
1888 122 -1856 0
-2016 123 0
-2016 1888 0
2016 -123 -1888 0
-2056 113 0
-2056 2040 0
2056 -113 -2040 0
-2088 114 0
-2088 2056 0
2088 -114 -2056 0
-2120 -115 0
-2120 2088 0
2120 115 -2088 0
-2248 116 0
-2248 2120 0
2248 -116 -2120 0
-2356 -2016 0
-2356 -2248 0
2356 2016 2248 0
-2464 -1784 0
-2464 2356 0
2464 1784 -2356 0
-2572 -1552 0
-2572 2464 0
2572 1552 -2464 0
-2680 -1320 0
-2680 2572 0
2680 1320 -2572 0
-2788 -1088 0
-2788 2680 0
2788 1088 -2680 0
-2896 -856 0
-2896 2788 0
2896 856 -2788 0
-3004 -624 0
-3004 2896 0
3004 624 -2896 0
-3112 -392 0
-3112 3004 0
3112 392 -3004 0
-3410 97 0
-3410 3112 0
3410 -97 -3112 0
-3411 -97 0
-3411 -3112 0
3411 97 3112 0
-3412 -3410 0
-3412 -3411 0
3412 3410 3411 0
96 -13051 0
-96 13051 0
-199 169 0
-199 183 0
199 -169 -183 0
-231 170 0
-231 199 0
231 -170 -199 0
-263 -171 0
-263 231 0
263 171 -231 0
-391 172 0
-391 263 0
391 -172 -263 0
-431 162 0
-431 415 0
431 -162 -415 0
-463 163 0
-463 431 0
463 -163 -431 0
-495 -164 0
-495 463 0
495 164 -463 0
-623 165 0
-623 495 0
623 -165 -495 0
-663 155 0
-663 647 0
663 -155 -647 0
-695 156 0
-695 663 0
695 -156 -663 0
-727 -157 0
-727 695 0
727 157 -695 0
-855 158 0
-855 727 0
855 -158 -727 0
-895 148 0
-895 879 0
895 -148 -879 0
-927 149 0
-927 895 0
927 -149 -895 0
-959 -150 0
-959 927 0
959 150 -927 0
-1087 151 0
-1087 959 0
1087 -151 -959 0
-1127 141 0
-1127 1111 0
1127 -141 -1111 0
-1159 142 0
-1159 1127 0
1159 -142 -1127 0
-1191 -143 0
-1191 1159 0
1191 143 -1159 0
-1319 144 0
-1319 1191 0
1319 -144 -1191 0
-1359 134 0
-1359 1343 0
1359 -134 -1343 0
-1391 135 0
-1391 1359 0
1391 -135 -1359 0
-1423 -136 0
-1423 1391 0
1423 136 -1391 0
-1551 137 0
-1551 1423 0
1551 -137 -1423 0
-1591 127 0
-1591 1575 0
1591 -127 -1575 0
-1623 128 0
-1623 1591 0
1623 -128 -1591 0
-1655 -129 0
-1655 1623 0
1655 129 -1623 0
-1783 130 0
-1783 1655 0
1783 -130 -1655 0
-1823 120 0
-1823 1807 0
1823 -120 -1807 0
-1855 121 0
-1855 1823 0
1855 -121 -1823 0
-1887 -122 0
-1887 1855 0
1887 122 -1855 0
-2015 123 0
-2015 1887 0
2015 -123 -1887 0
-2055 113 0
-2055 2039 0
2055 -113 -2039 0
-2087 114 0
-2087 2055 0
2087 -114 -2055 0
-2119 -115 0
-2119 2087 0
2119 115 -2087 0
-2247 116 0
-2247 2119 0
2247 -116 -2119 0
-2355 -2015 0
-2355 -2247 0
2355 2015 2247 0
-2463 -1783 0
-2463 2355 0
2463 1783 -2355 0
-2571 -1551 0
-2571 2463 0
2571 1551 -2463 0
-2679 -1319 0
-2679 2571 0
2679 1319 -2571 0
-2787 -1087 0
-2787 2679 0
2787 1087 -2679 0
-2895 -855 0
-2895 2787 0
2895 855 -2787 0
-3003 -623 0
-3003 2895 0
3003 623 -2895 0
-3111 -391 0
-3111 3003 0
3111 391 -3003 0
-3407 96 0
-3407 3111 0
3407 -96 -3111 0
-3408 -96 0
-3408 -3111 0
3408 96 3111 0
-3409 -3407 0
-3409 -3408 0
3409 3407 3408 0
95 -13050 0
-95 13050 0
-198 169 0
-198 182 0
198 -169 -182 0
-230 170 0
-230 198 0
230 -170 -198 0
-262 -171 0
-262 230 0
262 171 -230 0
-390 172 0
-390 262 0
390 -172 -262 0
-430 162 0
-430 414 0
430 -162 -414 0
-462 163 0
-462 430 0
462 -163 -430 0
-494 -164 0
-494 462 0
494 164 -462 0
-622 165 0
-622 494 0
622 -165 -494 0
-662 155 0
-662 646 0
662 -155 -646 0
-694 156 0
-694 662 0
694 -156 -662 0
-726 -157 0
-726 694 0
726 157 -694 0
-854 158 0
-854 726 0
854 -158 -726 0
-894 148 0
-894 878 0
894 -148 -878 0
-926 149 0
-926 894 0
926 -149 -894 0
-958 -150 0
-958 926 0
958 150 -926 0
-1086 151 0
-1086 958 0
1086 -151 -958 0
-1126 141 0
-1126 1110 0
1126 -141 -1110 0
-1158 142 0
-1158 1126 0
1158 -142 -1126 0
-1190 -143 0
-1190 1158 0
1190 143 -1158 0
-1318 144 0
-1318 1190 0
1318 -144 -1190 0
-1358 134 0
-1358 1342 0
1358 -134 -1342 0
-1390 135 0
-1390 1358 0
1390 -135 -1358 0
-1422 -136 0
-1422 1390 0
1422 136 -1390 0
-1550 137 0
-1550 1422 0
1550 -137 -1422 0
-1590 127 0
-1590 1574 0
1590 -127 -1574 0
-1622 128 0
-1622 1590 0
1622 -128 -1590 0
-1654 -129 0
-1654 1622 0
1654 129 -1622 0
-1782 130 0
-1782 1654 0
1782 -130 -1654 0
-1822 120 0
-1822 1806 0
1822 -120 -1806 0
-1854 121 0
-1854 1822 0
1854 -121 -1822 0
-1886 -122 0
-1886 1854 0
1886 122 -1854 0
-2014 123 0
-2014 1886 0
2014 -123 -1886 0
-2054 113 0
-2054 2038 0
2054 -113 -2038 0
-2086 114 0
-2086 2054 0
2086 -114 -2054 0
-2118 -115 0
-2118 2086 0
2118 115 -2086 0
-2246 116 0
-2246 2118 0
2246 -116 -2118 0
-2354 -2014 0
-2354 -2246 0
2354 2014 2246 0
-2462 -1782 0
-2462 2354 0
2462 1782 -2354 0
-2570 -1550 0
-2570 2462 0
2570 1550 -2462 0
-2678 -1318 0
-2678 2570 0
2678 1318 -2570 0
-2786 -1086 0
-2786 2678 0
2786 1086 -2678 0
-2894 -854 0
-2894 2786 0
2894 854 -2786 0
-3002 -622 0
-3002 2894 0
3002 622 -2894 0
-3110 -390 0
-3110 3002 0
3110 390 -3002 0
-3404 95 0
-3404 3110 0
3404 -95 -3110 0
-3405 -95 0
-3405 -3110 0
3405 95 3110 0
-3406 -3404 0
-3406 -3405 0
3406 3404 3405 0
94 -13049 0
-94 13049 0
-197 169 0
-197 181 0
197 -169 -181 0
-229 170 0
-229 197 0
229 -170 -197 0
-261 -171 0
-261 229 0
261 171 -229 0
-389 172 0
-389 261 0
389 -172 -261 0
-429 162 0
-429 413 0
429 -162 -413 0
-461 163 0
-461 429 0
461 -163 -429 0
-493 -164 0
-493 461 0
493 164 -461 0
-621 165 0
-621 493 0
621 -165 -493 0
-661 155 0
-661 645 0
661 -155 -645 0
-693 156 0
-693 661 0
693 -156 -661 0
-725 -157 0
-725 693 0
725 157 -693 0
-853 158 0
-853 725 0
853 -158 -725 0
-893 148 0
-893 877 0
893 -148 -877 0
-925 149 0
-925 893 0
925 -149 -893 0
-957 -150 0
-957 925 0
957 150 -925 0
-1085 151 0
-1085 957 0
1085 -151 -957 0
-1125 141 0
-1125 1109 0
1125 -141 -1109 0
-1157 142 0
-1157 1125 0
1157 -142 -1125 0
-1189 -143 0
-1189 1157 0
1189 143 -1157 0
-1317 144 0
-1317 1189 0
1317 -144 -1189 0
-1357 134 0
-1357 1341 0
1357 -134 -1341 0
-1389 135 0
-1389 1357 0
1389 -135 -1357 0
-1421 -136 0
-1421 1389 0
1421 136 -1389 0
-1549 137 0
-1549 1421 0
1549 -137 -1421 0
-1589 127 0
-1589 1573 0
1589 -127 -1573 0
-1621 128 0
-1621 1589 0
1621 -128 -1589 0
-1653 -129 0
-1653 1621 0
1653 129 -1621 0
-1781 130 0
-1781 1653 0
1781 -130 -1653 0
-1821 120 0
-1821 1805 0
1821 -120 -1805 0
-1853 121 0
-1853 1821 0
1853 -121 -1821 0
-1885 -122 0
-1885 1853 0
1885 122 -1853 0
-2013 123 0
-2013 1885 0
2013 -123 -1885 0
-2053 113 0
-2053 2037 0
2053 -113 -2037 0
-2085 114 0
-2085 2053 0
2085 -114 -2053 0
-2117 -115 0
-2117 2085 0
2117 115 -2085 0
-2245 116 0
-2245 2117 0
2245 -116 -2117 0
-2353 -2013 0
-2353 -2245 0
2353 2013 2245 0
-2461 -1781 0
-2461 2353 0
2461 1781 -2353 0
-2569 -1549 0
-2569 2461 0
2569 1549 -2461 0
-2677 -1317 0
-2677 2569 0
2677 1317 -2569 0
-2785 -1085 0
-2785 2677 0
2785 1085 -2677 0
-2893 -853 0
-2893 2785 0
2893 853 -2785 0
-3001 -621 0
-3001 2893 0
3001 621 -2893 0
-3109 -389 0
-3109 3001 0
3109 389 -3001 0
-3401 94 0
-3401 3109 0
3401 -94 -3109 0
-3402 -94 0
-3402 -3109 0
3402 94 3109 0
-3403 -3401 0
-3403 -3402 0
3403 3401 3402 0
93 -13048 0
-93 13048 0
-228 170 0
-228 196 0
228 -170 -196 0
-260 -171 0
-260 228 0
260 171 -228 0
-388 172 0
-388 260 0
388 -172 -260 0
-460 163 0
-460 428 0
460 -163 -428 0
-492 -164 0
-492 460 0
492 164 -460 0
-620 165 0
-620 492 0
620 -165 -492 0
-692 156 0
-692 660 0
692 -156 -660 0
-724 -157 0
-724 692 0
724 157 -692 0
-852 158 0
-852 724 0
852 -158 -724 0
-924 149 0
-924 892 0
924 -149 -892 0
-956 -150 0
-956 924 0
956 150 -924 0
-1084 151 0
-1084 956 0
1084 -151 -956 0
-1156 142 0
-1156 1124 0
1156 -142 -1124 0
-1188 -143 0
-1188 1156 0
1188 143 -1156 0
-1316 144 0
-1316 1188 0
1316 -144 -1188 0
-1388 135 0
-1388 1356 0
1388 -135 -1356 0
-1420 -136 0
-1420 1388 0
1420 136 -1388 0
-1548 137 0
-1548 1420 0
1548 -137 -1420 0
-1620 128 0
-1620 1588 0
1620 -128 -1588 0
-1652 -129 0
-1652 1620 0
1652 129 -1620 0
-1780 130 0
-1780 1652 0
1780 -130 -1652 0
-1852 121 0
-1852 1820 0
1852 -121 -1820 0
-1884 -122 0
-1884 1852 0
1884 122 -1852 0
-2012 123 0
-2012 1884 0
2012 -123 -1884 0
-2084 114 0
-2084 2052 0
2084 -114 -2052 0
-2116 -115 0
-2116 2084 0
2116 115 -2084 0
-2244 116 0
-2244 2116 0
2244 -116 -2116 0
-2352 -2012 0
-2352 -2244 0
2352 2012 2244 0
-2460 -1780 0
-2460 2352 0
2460 1780 -2352 0
-2568 -1548 0
-2568 2460 0
2568 1548 -2460 0
-2676 -1316 0
-2676 2568 0
2676 1316 -2568 0
-2784 -1084 0
-2784 2676 0
2784 1084 -2676 0
-2892 -852 0
-2892 2784 0
2892 852 -2784 0
-3000 -620 0
-3000 2892 0
3000 620 -2892 0
-3108 -388 0
-3108 3000 0
3108 388 -3000 0
-3398 93 0
-3398 3108 0
3398 -93 -3108 0
-3399 -93 0
-3399 -3108 0
3399 93 3108 0
-3400 -3398 0
-3400 -3399 0
3400 3398 3399 0
92 -13047 0
-92 13047 0
-227 170 0
-227 195 0
227 -170 -195 0
-259 -171 0
-259 227 0
259 171 -227 0
-387 172 0
-387 259 0
387 -172 -259 0
-459 163 0
-459 427 0
459 -163 -427 0
-491 -164 0
-491 459 0
491 164 -459 0
-619 165 0
-619 491 0
619 -165 -491 0
-691 156 0
-691 659 0
691 -156 -659 0
-723 -157 0
-723 691 0
723 157 -691 0
-851 158 0
-851 723 0
851 -158 -723 0
-923 149 0
-923 891 0
923 -149 -891 0
-955 -150 0
-955 923 0
955 150 -923 0
-1083 151 0
-1083 955 0
1083 -151 -955 0
-1155 142 0
-1155 1123 0
1155 -142 -1123 0
-1187 -143 0
-1187 1155 0
1187 143 -1155 0
-1315 144 0
-1315 1187 0
1315 -144 -1187 0
-1387 135 0
-1387 1355 0
1387 -135 -1355 0
-1419 -136 0
-1419 1387 0
1419 136 -1387 0
-1547 137 0
-1547 1419 0
1547 -137 -1419 0
-1619 128 0
-1619 1587 0
1619 -128 -1587 0
-1651 -129 0
-1651 1619 0
1651 129 -1619 0
-1779 130 0
-1779 1651 0
1779 -130 -1651 0
-1851 121 0
-1851 1819 0
1851 -121 -1819 0
-1883 -122 0
-1883 1851 0
1883 122 -1851 0
-2011 123 0
-2011 1883 0
2011 -123 -1883 0
-2083 114 0
-2083 2051 0
2083 -114 -2051 0
-2115 -115 0
-2115 2083 0
2115 115 -2083 0
-2243 116 0
-2243 2115 0
2243 -116 -2115 0
-2351 -2011 0
-2351 -2243 0
2351 2011 2243 0
-2459 -1779 0
-2459 2351 0
2459 1779 -2351 0
-2567 -1547 0
-2567 2459 0
2567 1547 -2459 0
-2675 -1315 0
-2675 2567 0
2675 1315 -2567 0
-2783 -1083 0
-2783 2675 0
2783 1083 -2675 0
-2891 -851 0
-2891 2783 0
2891 851 -2783 0
-2999 -619 0
-2999 2891 0
2999 619 -2891 0
-3107 -387 0
-3107 2999 0
3107 387 -2999 0
-3395 92 0
-3395 3107 0
3395 -92 -3107 0
-3396 -92 0
-3396 -3107 0
3396 92 3107 0
-3397 -3395 0
-3397 -3396 0
3397 3395 3396 0
91 -13046 0
-91 13046 0
-226 170 0
-226 194 0
226 -170 -194 0
-258 -171 0
-258 226 0
258 171 -226 0
-386 172 0
-386 258 0
386 -172 -258 0
-458 163 0
-458 426 0
458 -163 -426 0
-490 -164 0
-490 458 0
490 164 -458 0
-618 165 0
-618 490 0
618 -165 -490 0
-690 156 0
-690 658 0
690 -156 -658 0
-722 -157 0
-722 690 0
722 157 -690 0
-850 158 0
-850 722 0
850 -158 -722 0
-922 149 0
-922 890 0
922 -149 -890 0
-954 -150 0
-954 922 0
954 150 -922 0
-1082 151 0
-1082 954 0
1082 -151 -954 0
-1154 142 0
-1154 1122 0
1154 -142 -1122 0
-1186 -143 0
-1186 1154 0
1186 143 -1154 0
-1314 144 0
-1314 1186 0
1314 -144 -1186 0
-1386 135 0
-1386 1354 0
1386 -135 -1354 0
-1418 -136 0
-1418 1386 0
1418 136 -1386 0
-1546 137 0
-1546 1418 0
1546 -137 -1418 0
-1618 128 0
-1618 1586 0
1618 -128 -1586 0
-1650 -129 0
-1650 1618 0
1650 129 -1618 0
-1778 130 0
-1778 1650 0
1778 -130 -1650 0
-1850 121 0
-1850 1818 0
1850 -121 -1818 0
-1882 -122 0
-1882 1850 0
1882 122 -1850 0
-2010 123 0
-2010 1882 0
2010 -123 -1882 0
-2082 114 0
-2082 2050 0
2082 -114 -2050 0
-2114 -115 0
-2114 2082 0
2114 115 -2082 0
-2242 116 0
-2242 2114 0
2242 -116 -2114 0
-2350 -2010 0
-2350 -2242 0
2350 2010 2242 0
-2458 -1778 0
-2458 2350 0
2458 1778 -2350 0
-2566 -1546 0
-2566 2458 0
2566 1546 -2458 0
-2674 -1314 0
-2674 2566 0
2674 1314 -2566 0
-2782 -1082 0
-2782 2674 0
2782 1082 -2674 0
-2890 -850 0
-2890 2782 0
2890 850 -2782 0
-2998 -618 0
-2998 2890 0
2998 618 -2890 0
-3106 -386 0
-3106 2998 0
3106 386 -2998 0
-3392 91 0
-3392 3106 0
3392 -91 -3106 0
-3393 -91 0
-3393 -3106 0
3393 91 3106 0
-3394 -3392 0
-3394 -3393 0
3394 3392 3393 0
90 -13045 0
-90 13045 0
-225 170 0
-225 193 0
225 -170 -193 0
-257 -171 0
-257 225 0
257 171 -225 0
-385 172 0
-385 257 0
385 -172 -257 0
-457 163 0
-457 425 0
457 -163 -425 0
-489 -164 0
-489 457 0
489 164 -457 0
-617 165 0
-617 489 0
617 -165 -489 0
-689 156 0
-689 657 0
689 -156 -657 0
-721 -157 0
-721 689 0
721 157 -689 0
-849 158 0
-849 721 0
849 -158 -721 0
-921 149 0
-921 889 0
921 -149 -889 0
-953 -150 0
-953 921 0
953 150 -921 0
-1081 151 0
-1081 953 0
1081 -151 -953 0
-1153 142 0
-1153 1121 0
1153 -142 -1121 0
-1185 -143 0
-1185 1153 0
1185 143 -1153 0
-1313 144 0
-1313 1185 0
1313 -144 -1185 0
-1385 135 0
-1385 1353 0
1385 -135 -1353 0
-1417 -136 0
-1417 1385 0
1417 136 -1385 0
-1545 137 0
-1545 1417 0
1545 -137 -1417 0
-1617 128 0
-1617 1585 0
1617 -128 -1585 0
-1649 -129 0
-1649 1617 0
1649 129 -1617 0
-1777 130 0
-1777 1649 0
1777 -130 -1649 0
-1849 121 0
-1849 1817 0
1849 -121 -1817 0
-1881 -122 0
-1881 1849 0
1881 122 -1849 0
-2009 123 0
-2009 1881 0
2009 -123 -1881 0
-2081 114 0
-2081 2049 0
2081 -114 -2049 0
-2113 -115 0
-2113 2081 0
2113 115 -2081 0
-2241 116 0
-2241 2113 0
2241 -116 -2113 0
-2349 -2009 0
-2349 -2241 0
2349 2009 2241 0
-2457 -1777 0
-2457 2349 0
2457 1777 -2349 0
-2565 -1545 0
-2565 2457 0
2565 1545 -2457 0
-2673 -1313 0
-2673 2565 0
2673 1313 -2565 0
-2781 -1081 0
-2781 2673 0
2781 1081 -2673 0
-2889 -849 0
-2889 2781 0
2889 849 -2781 0
-2997 -617 0
-2997 2889 0
2997 617 -2889 0
-3105 -385 0
-3105 2997 0
3105 385 -2997 0
-3389 90 0
-3389 3105 0
3389 -90 -3105 0
-3390 -90 0
-3390 -3105 0
3390 90 3105 0
-3391 -3389 0
-3391 -3390 0
3391 3389 3390 0
89 -13044 0
-89 13044 0
-224 170 0
-224 192 0
224 -170 -192 0
-256 -171 0
-256 224 0
256 171 -224 0
-384 172 0
-384 256 0
384 -172 -256 0
-456 163 0
-456 424 0
456 -163 -424 0
-488 -164 0
-488 456 0
488 164 -456 0
-616 165 0
-616 488 0
616 -165 -488 0
-688 156 0
-688 656 0
688 -156 -656 0
-720 -157 0
-720 688 0
720 157 -688 0
-848 158 0
-848 720 0
848 -158 -720 0
-920 149 0
-920 888 0
920 -149 -888 0
-952 -150 0
-952 920 0
952 150 -920 0
-1080 151 0
-1080 952 0
1080 -151 -952 0
-1152 142 0
-1152 1120 0
1152 -142 -1120 0
-1184 -143 0
-1184 1152 0
1184 143 -1152 0
-1312 144 0
-1312 1184 0
1312 -144 -1184 0
-1384 135 0
-1384 1352 0
1384 -135 -1352 0
-1416 -136 0
-1416 1384 0
1416 136 -1384 0
-1544 137 0
-1544 1416 0
1544 -137 -1416 0
-1616 128 0
-1616 1584 0
1616 -128 -1584 0
-1648 -129 0
-1648 1616 0
1648 129 -1616 0
-1776 130 0
-1776 1648 0
1776 -130 -1648 0
-1848 121 0
-1848 1816 0
1848 -121 -1816 0
-1880 -122 0
-1880 1848 0
1880 122 -1848 0
-2008 123 0
-2008 1880 0
2008 -123 -1880 0
-2080 114 0
-2080 2048 0
2080 -114 -2048 0
-2112 -115 0
-2112 2080 0
2112 115 -2080 0
-2240 116 0
-2240 2112 0
2240 -116 -2112 0
-2348 -2008 0
-2348 -2240 0
2348 2008 2240 0
-2456 -1776 0
-2456 2348 0
2456 1776 -2348 0
-2564 -1544 0
-2564 2456 0
2564 1544 -2456 0
-2672 -1312 0
-2672 2564 0
2672 1312 -2564 0
-2780 -1080 0
-2780 2672 0
2780 1080 -2672 0
-2888 -848 0
-2888 2780 0
2888 848 -2780 0
-2996 -616 0
-2996 2888 0
2996 616 -2888 0
-3104 -384 0
-3104 2996 0
3104 384 -2996 0
-3386 89 0
-3386 3104 0
3386 -89 -3104 0
-3387 -89 0
-3387 -3104 0
3387 89 3104 0
-3388 -3386 0
-3388 -3387 0
3388 3386 3387 0
88 -13043 0
-88 13043 0
-223 170 0
-223 191 0
223 -170 -191 0
-255 -171 0
-255 223 0
255 171 -223 0
-383 172 0
-383 255 0
383 -172 -255 0
-455 163 0
-455 423 0
455 -163 -423 0
-487 -164 0
-487 455 0
487 164 -455 0
-615 165 0
-615 487 0
615 -165 -487 0
-687 156 0
-687 655 0
687 -156 -655 0
-719 -157 0
-719 687 0
719 157 -687 0
-847 158 0
-847 719 0
847 -158 -719 0
-919 149 0
-919 887 0
919 -149 -887 0
-951 -150 0
-951 919 0
951 150 -919 0
-1079 151 0
-1079 951 0
1079 -151 -951 0
-1151 142 0
-1151 1119 0
1151 -142 -1119 0
-1183 -143 0
-1183 1151 0
1183 143 -1151 0
-1311 144 0
-1311 1183 0
1311 -144 -1183 0
-1383 135 0
-1383 1351 0
1383 -135 -1351 0
-1415 -136 0
-1415 1383 0
1415 136 -1383 0
-1543 137 0
-1543 1415 0
1543 -137 -1415 0
-1615 128 0
-1615 1583 0
1615 -128 -1583 0
-1647 -129 0
-1647 1615 0
1647 129 -1615 0
-1775 130 0
-1775 1647 0
1775 -130 -1647 0
-1847 121 0
-1847 1815 0
1847 -121 -1815 0
-1879 -122 0
-1879 1847 0
1879 122 -1847 0
-2007 123 0
-2007 1879 0
2007 -123 -1879 0
-2079 114 0
-2079 2047 0
2079 -114 -2047 0
-2111 -115 0
-2111 2079 0
2111 115 -2079 0
-2239 116 0
-2239 2111 0
2239 -116 -2111 0
-2347 -2007 0
-2347 -2239 0
2347 2007 2239 0
-2455 -1775 0
-2455 2347 0
2455 1775 -2347 0
-2563 -1543 0
-2563 2455 0
2563 1543 -2455 0
-2671 -1311 0
-2671 2563 0
2671 1311 -2563 0
-2779 -1079 0
-2779 2671 0
2779 1079 -2671 0
-2887 -847 0
-2887 2779 0
2887 847 -2779 0
-2995 -615 0
-2995 2887 0
2995 615 -2887 0
-3103 -383 0
-3103 2995 0
3103 383 -2995 0
-3383 88 0
-3383 3103 0
3383 -88 -3103 0
-3384 -88 0
-3384 -3103 0
3384 88 3103 0
-3385 -3383 0
-3385 -3384 0
3385 3383 3384 0
87 -13042 0
-87 13042 0
-222 170 0
-222 190 0
222 -170 -190 0
-254 -171 0
-254 222 0
254 171 -222 0
-382 172 0
-382 254 0
382 -172 -254 0
-454 163 0
-454 422 0
454 -163 -422 0
-486 -164 0
-486 454 0
486 164 -454 0
-614 165 0
-614 486 0
614 -165 -486 0
-686 156 0
-686 654 0
686 -156 -654 0
-718 -157 0
-718 686 0
718 157 -686 0
-846 158 0
-846 718 0
846 -158 -718 0
-918 149 0
-918 886 0
918 -149 -886 0
-950 -150 0
-950 918 0
950 150 -918 0
-1078 151 0
-1078 950 0
1078 -151 -950 0
-1150 142 0
-1150 1118 0
1150 -142 -1118 0
-1182 -143 0
-1182 1150 0
1182 143 -1150 0
-1310 144 0
-1310 1182 0
1310 -144 -1182 0
-1382 135 0
-1382 1350 0
1382 -135 -1350 0
-1414 -136 0
-1414 1382 0
1414 136 -1382 0
-1542 137 0
-1542 1414 0
1542 -137 -1414 0
-1614 128 0
-1614 1582 0
1614 -128 -1582 0
-1646 -129 0
-1646 1614 0
1646 129 -1614 0
-1774 130 0
-1774 1646 0
1774 -130 -1646 0
-1846 121 0
-1846 1814 0
1846 -121 -1814 0
-1878 -122 0
-1878 1846 0
1878 122 -1846 0
-2006 123 0
-2006 1878 0
2006 -123 -1878 0
-2078 114 0
-2078 2046 0
2078 -114 -2046 0
-2110 -115 0
-2110 2078 0
2110 115 -2078 0
-2238 116 0
-2238 2110 0
2238 -116 -2110 0
-2346 -2006 0
-2346 -2238 0
2346 2006 2238 0
-2454 -1774 0
-2454 2346 0
2454 1774 -2346 0
-2562 -1542 0
-2562 2454 0
2562 1542 -2454 0
-2670 -1310 0
-2670 2562 0
2670 1310 -2562 0
-2778 -1078 0
-2778 2670 0
2778 1078 -2670 0
-2886 -846 0
-2886 2778 0
2886 846 -2778 0
-2994 -614 0
-2994 2886 0
2994 614 -2886 0
-3102 -382 0
-3102 2994 0
3102 382 -2994 0
-3380 87 0
-3380 3102 0
3380 -87 -3102 0
-3381 -87 0
-3381 -3102 0
3381 87 3102 0
-3382 -3380 0
-3382 -3381 0
3382 3380 3381 0
86 -13041 0
-86 13041 0
-221 170 0
-221 189 0
221 -170 -189 0
-253 -171 0
-253 221 0
253 171 -221 0
-381 172 0
-381 253 0
381 -172 -253 0
-453 163 0
-453 421 0
453 -163 -421 0
-485 -164 0
-485 453 0
485 164 -453 0
-613 165 0
-613 485 0
613 -165 -485 0
-685 156 0
-685 653 0
685 -156 -653 0
-717 -157 0
-717 685 0
717 157 -685 0
-845 158 0
-845 717 0
845 -158 -717 0
-917 149 0
-917 885 0
917 -149 -885 0
-949 -150 0
-949 917 0
949 150 -917 0
-1077 151 0
-1077 949 0
1077 -151 -949 0
-1149 142 0
-1149 1117 0
1149 -142 -1117 0
-1181 -143 0
-1181 1149 0
1181 143 -1149 0
-1309 144 0
-1309 1181 0
1309 -144 -1181 0
-1381 135 0
-1381 1349 0
1381 -135 -1349 0
-1413 -136 0
-1413 1381 0
1413 136 -1381 0
-1541 137 0
-1541 1413 0
1541 -137 -1413 0
-1613 128 0
-1613 1581 0
1613 -128 -1581 0
-1645 -129 0
-1645 1613 0
1645 129 -1613 0
-1773 130 0
-1773 1645 0
1773 -130 -1645 0
-1845 121 0
-1845 1813 0
1845 -121 -1813 0
-1877 -122 0
-1877 1845 0
1877 122 -1845 0
-2005 123 0
-2005 1877 0
2005 -123 -1877 0
-2077 114 0
-2077 2045 0
2077 -114 -2045 0
-2109 -115 0
-2109 2077 0
2109 115 -2077 0
-2237 116 0
-2237 2109 0
2237 -116 -2109 0
-2345 -2005 0
-2345 -2237 0
2345 2005 2237 0
-2453 -1773 0
-2453 2345 0
2453 1773 -2345 0
-2561 -1541 0
-2561 2453 0
2561 1541 -2453 0
-2669 -1309 0
-2669 2561 0
2669 1309 -2561 0
-2777 -1077 0
-2777 2669 0
2777 1077 -2669 0
-2885 -845 0
-2885 2777 0
2885 845 -2777 0
-2993 -613 0
-2993 2885 0
2993 613 -2885 0
-3101 -381 0
-3101 2993 0
3101 381 -2993 0
-3377 86 0
-3377 3101 0
3377 -86 -3101 0
-3378 -86 0
-3378 -3101 0
3378 86 3101 0
-3379 -3377 0
-3379 -3378 0
3379 3377 3378 0
85 -13040 0
-85 13040 0
-220 170 0
-220 188 0
220 -170 -188 0
-252 -171 0
-252 220 0
252 171 -220 0
-380 172 0
-380 252 0
380 -172 -252 0
-452 163 0
-452 420 0
452 -163 -420 0
-484 -164 0
-484 452 0
484 164 -452 0
-612 165 0
-612 484 0
612 -165 -484 0
-684 156 0
-684 652 0
684 -156 -652 0
-716 -157 0
-716 684 0
716 157 -684 0
-844 158 0
-844 716 0
844 -158 -716 0
-916 149 0
-916 884 0
916 -149 -884 0
-948 -150 0
-948 916 0
948 150 -916 0
-1076 151 0
-1076 948 0
1076 -151 -948 0
-1148 142 0
-1148 1116 0
1148 -142 -1116 0
-1180 -143 0
-1180 1148 0
1180 143 -1148 0
-1308 144 0
-1308 1180 0
1308 -144 -1180 0
-1380 135 0
-1380 1348 0
1380 -135 -1348 0
-1412 -136 0
-1412 1380 0
1412 136 -1380 0
-1540 137 0
-1540 1412 0
1540 -137 -1412 0
-1612 128 0
-1612 1580 0
1612 -128 -1580 0
-1644 -129 0
-1644 1612 0
1644 129 -1612 0
-1772 130 0
-1772 1644 0
1772 -130 -1644 0
-1844 121 0
-1844 1812 0
1844 -121 -1812 0
-1876 -122 0
-1876 1844 0
1876 122 -1844 0
-2004 123 0
-2004 1876 0
2004 -123 -1876 0
-2076 114 0
-2076 2044 0
2076 -114 -2044 0
-2108 -115 0
-2108 2076 0
2108 115 -2076 0
-2236 116 0
-2236 2108 0
2236 -116 -2108 0
-2344 -2004 0
-2344 -2236 0
2344 2004 2236 0
-2452 -1772 0
-2452 2344 0
2452 1772 -2344 0
-2560 -1540 0
-2560 2452 0
2560 1540 -2452 0
-2668 -1308 0
-2668 2560 0
2668 1308 -2560 0
-2776 -1076 0
-2776 2668 0
2776 1076 -2668 0
-2884 -844 0
-2884 2776 0
2884 844 -2776 0
-2992 -612 0
-2992 2884 0
2992 612 -2884 0
-3100 -380 0
-3100 2992 0
3100 380 -2992 0
-3374 85 0
-3374 3100 0
3374 -85 -3100 0
-3375 -85 0
-3375 -3100 0
3375 85 3100 0
-3376 -3374 0
-3376 -3375 0
3376 3374 3375 0
84 -13039 0
-84 13039 0
-219 170 0
-219 187 0
219 -170 -187 0
-251 -171 0
-251 219 0
251 171 -219 0
-379 172 0
-379 251 0
379 -172 -251 0
-451 163 0
-451 419 0
451 -163 -419 0
-483 -164 0
-483 451 0
483 164 -451 0
-611 165 0
-611 483 0
611 -165 -483 0
-683 156 0
-683 651 0
683 -156 -651 0
-715 -157 0
-715 683 0
715 157 -683 0
-843 158 0
-843 715 0
843 -158 -715 0
-915 149 0
-915 883 0
915 -149 -883 0
-947 -150 0
-947 915 0
947 150 -915 0
-1075 151 0
-1075 947 0
1075 -151 -947 0
-1147 142 0
-1147 1115 0
1147 -142 -1115 0
-1179 -143 0
-1179 1147 0
1179 143 -1147 0
-1307 144 0
-1307 1179 0
1307 -144 -1179 0
-1379 135 0
-1379 1347 0
1379 -135 -1347 0
-1411 -136 0
-1411 1379 0
1411 136 -1379 0
-1539 137 0
-1539 1411 0
1539 -137 -1411 0
-1611 128 0
-1611 1579 0
1611 -128 -1579 0
-1643 -129 0
-1643 1611 0
1643 129 -1611 0
-1771 130 0
-1771 1643 0
1771 -130 -1643 0
-1843 121 0
-1843 1811 0
1843 -121 -1811 0
-1875 -122 0
-1875 1843 0
1875 122 -1843 0
-2003 123 0
-2003 1875 0
2003 -123 -1875 0
-2075 114 0
-2075 2043 0
2075 -114 -2043 0
-2107 -115 0
-2107 2075 0
2107 115 -2075 0
-2235 116 0
-2235 2107 0
2235 -116 -2107 0
-2343 -2003 0
-2343 -2235 0
2343 2003 2235 0
-2451 -1771 0
-2451 2343 0
2451 1771 -2343 0
-2559 -1539 0
-2559 2451 0
2559 1539 -2451 0
-2667 -1307 0
-2667 2559 0
2667 1307 -2559 0
-2775 -1075 0
-2775 2667 0
2775 1075 -2667 0
-2883 -843 0
-2883 2775 0
2883 843 -2775 0
-2991 -611 0
-2991 2883 0
2991 611 -2883 0
-3099 -379 0
-3099 2991 0
3099 379 -2991 0
-3371 84 0
-3371 3099 0
3371 -84 -3099 0
-3372 -84 0
-3372 -3099 0
3372 84 3099 0
-3373 -3371 0
-3373 -3372 0
3373 3371 3372 0
83 -13038 0
-83 13038 0
-218 170 0
-218 186 0
218 -170 -186 0
-250 -171 0
-250 218 0
250 171 -218 0
-378 172 0
-378 250 0
378 -172 -250 0
-450 163 0
-450 418 0
450 -163 -418 0
-482 -164 0
-482 450 0
482 164 -450 0
-610 165 0
-610 482 0
610 -165 -482 0
-682 156 0
-682 650 0
682 -156 -650 0
-714 -157 0
-714 682 0
714 157 -682 0
-842 158 0
-842 714 0
842 -158 -714 0
-914 149 0
-914 882 0
914 -149 -882 0
-946 -150 0
-946 914 0
946 150 -914 0
-1074 151 0
-1074 946 0
1074 -151 -946 0
-1146 142 0
-1146 1114 0
1146 -142 -1114 0
-1178 -143 0
-1178 1146 0
1178 143 -1146 0
-1306 144 0
-1306 1178 0
1306 -144 -1178 0
-1378 135 0
-1378 1346 0
1378 -135 -1346 0
-1410 -136 0
-1410 1378 0
1410 136 -1378 0
-1538 137 0
-1538 1410 0
1538 -137 -1410 0
-1610 128 0
-1610 1578 0
1610 -128 -1578 0
-1642 -129 0
-1642 1610 0
1642 129 -1610 0
-1770 130 0
-1770 1642 0
1770 -130 -1642 0
-1842 121 0
-1842 1810 0
1842 -121 -1810 0
-1874 -122 0
-1874 1842 0
1874 122 -1842 0
-2002 123 0
-2002 1874 0
2002 -123 -1874 0
-2074 114 0
-2074 2042 0
2074 -114 -2042 0
-2106 -115 0
-2106 2074 0
2106 115 -2074 0
-2234 116 0
-2234 2106 0
2234 -116 -2106 0
-2342 -2002 0
-2342 -2234 0
2342 2002 2234 0
-2450 -1770 0
-2450 2342 0
2450 1770 -2342 0
-2558 -1538 0
-2558 2450 0
2558 1538 -2450 0
-2666 -1306 0
-2666 2558 0
2666 1306 -2558 0
-2774 -1074 0
-2774 2666 0
2774 1074 -2666 0
-2882 -842 0
-2882 2774 0
2882 842 -2774 0
-2990 -610 0
-2990 2882 0
2990 610 -2882 0
-3098 -378 0
-3098 2990 0
3098 378 -2990 0
-3368 83 0
-3368 3098 0
3368 -83 -3098 0
-3369 -83 0
-3369 -3098 0
3369 83 3098 0
-3370 -3368 0
-3370 -3369 0
3370 3368 3369 0
82 -13037 0
-82 13037 0
-217 170 0
-217 185 0
217 -170 -185 0
-249 -171 0
-249 217 0
249 171 -217 0
-377 172 0
-377 249 0
377 -172 -249 0
-449 163 0
-449 417 0
449 -163 -417 0
-481 -164 0
-481 449 0
481 164 -449 0
-609 165 0
-609 481 0
609 -165 -481 0
-681 156 0
-681 649 0
681 -156 -649 0
-713 -157 0
-713 681 0
713 157 -681 0
-841 158 0
-841 713 0
841 -158 -713 0
-913 149 0
-913 881 0
913 -149 -881 0
-945 -150 0
-945 913 0
945 150 -913 0
-1073 151 0
-1073 945 0
1073 -151 -945 0
-1145 142 0
-1145 1113 0
1145 -142 -1113 0
-1177 -143 0
-1177 1145 0
1177 143 -1145 0
-1305 144 0
-1305 1177 0
1305 -144 -1177 0
-1377 135 0
-1377 1345 0
1377 -135 -1345 0
-1409 -136 0
-1409 1377 0
1409 136 -1377 0
-1537 137 0
-1537 1409 0
1537 -137 -1409 0
-1609 128 0
-1609 1577 0
1609 -128 -1577 0
-1641 -129 0
-1641 1609 0
1641 129 -1609 0
-1769 130 0
-1769 1641 0
1769 -130 -1641 0
-1841 121 0
-1841 1809 0
1841 -121 -1809 0
-1873 -122 0
-1873 1841 0
1873 122 -1841 0
-2001 123 0
-2001 1873 0
2001 -123 -1873 0
-2073 114 0
-2073 2041 0
2073 -114 -2041 0
-2105 -115 0
-2105 2073 0
2105 115 -2073 0
-2233 116 0
-2233 2105 0
2233 -116 -2105 0
-2341 -2001 0
-2341 -2233 0
2341 2001 2233 0
-2449 -1769 0
-2449 2341 0
2449 1769 -2341 0
-2557 -1537 0
-2557 2449 0
2557 1537 -2449 0
-2665 -1305 0
-2665 2557 0
2665 1305 -2557 0
-2773 -1073 0
-2773 2665 0
2773 1073 -2665 0
-2881 -841 0
-2881 2773 0
2881 841 -2773 0
-2989 -609 0
-2989 2881 0
2989 609 -2881 0
-3097 -377 0
-3097 2989 0
3097 377 -2989 0
-3365 82 0
-3365 3097 0
3365 -82 -3097 0
-3366 -82 0
-3366 -3097 0
3366 82 3097 0
-3367 -3365 0
-3367 -3366 0
3367 3365 3366 0
81 -13036 0
-81 13036 0
-216 -170 0
-216 200 0
216 170 -200 0
-248 -171 0
-248 216 0
248 171 -216 0
-376 172 0
-376 248 0
376 -172 -248 0
-448 -163 0
-448 432 0
448 163 -432 0
-480 -164 0
-480 448 0
480 164 -448 0
-608 165 0
-608 480 0
608 -165 -480 0
-680 -156 0
-680 664 0
680 156 -664 0
-712 -157 0
-712 680 0
712 157 -680 0
-840 158 0
-840 712 0
840 -158 -712 0
-912 -149 0
-912 896 0
912 149 -896 0
-944 -150 0
-944 912 0
944 150 -912 0
-1072 151 0
-1072 944 0
1072 -151 -944 0
-1144 -142 0
-1144 1128 0
1144 142 -1128 0
-1176 -143 0
-1176 1144 0
1176 143 -1144 0
-1304 144 0
-1304 1176 0
1304 -144 -1176 0
-1376 -135 0
-1376 1360 0
1376 135 -1360 0
-1408 -136 0
-1408 1376 0
1408 136 -1376 0
-1536 137 0
-1536 1408 0
1536 -137 -1408 0
-1608 -128 0
-1608 1592 0
1608 128 -1592 0
-1640 -129 0
-1640 1608 0
1640 129 -1608 0
-1768 130 0
-1768 1640 0
1768 -130 -1640 0
-1840 -121 0
-1840 1824 0
1840 121 -1824 0
-1872 -122 0
-1872 1840 0
1872 122 -1840 0
-2000 123 0
-2000 1872 0
2000 -123 -1872 0
-2072 -114 0
-2072 2056 0
2072 114 -2056 0
-2104 -115 0
-2104 2072 0
2104 115 -2072 0
-2232 116 0
-2232 2104 0
2232 -116 -2104 0
-2340 -2000 0
-2340 -2232 0
2340 2000 2232 0
-2448 -1768 0
-2448 2340 0
2448 1768 -2340 0
-2556 -1536 0
-2556 2448 0
2556 1536 -2448 0
-2664 -1304 0
-2664 2556 0
2664 1304 -2556 0
-2772 -1072 0
-2772 2664 0
2772 1072 -2664 0
-2880 -840 0
-2880 2772 0
2880 840 -2772 0
-2988 -608 0
-2988 2880 0
2988 608 -2880 0
-3096 -376 0
-3096 2988 0
3096 376 -2988 0
-3362 81 0
-3362 3096 0
3362 -81 -3096 0
-3363 -81 0
-3363 -3096 0
3363 81 3096 0
-3364 -3362 0
-3364 -3363 0
3364 3362 3363 0
80 -13035 0
-80 13035 0
-215 -170 0
-215 199 0
215 170 -199 0
-247 -171 0
-247 215 0
247 171 -215 0
-375 172 0
-375 247 0
375 -172 -247 0
-447 -163 0
-447 431 0
447 163 -431 0
-479 -164 0
-479 447 0
479 164 -447 0
-607 165 0
-607 479 0
607 -165 -479 0
-679 -156 0
-679 663 0
679 156 -663 0
-711 -157 0
-711 679 0
711 157 -679 0
-839 158 0
-839 711 0
839 -158 -711 0
-911 -149 0
-911 895 0
911 149 -895 0
-943 -150 0
-943 911 0
943 150 -911 0
-1071 151 0
-1071 943 0
1071 -151 -943 0
-1143 -142 0
-1143 1127 0
1143 142 -1127 0
-1175 -143 0
-1175 1143 0
1175 143 -1143 0
-1303 144 0
-1303 1175 0
1303 -144 -1175 0
-1375 -135 0
-1375 1359 0
1375 135 -1359 0
-1407 -136 0
-1407 1375 0
1407 136 -1375 0
-1535 137 0
-1535 1407 0
1535 -137 -1407 0
-1607 -128 0
-1607 1591 0
1607 128 -1591 0
-1639 -129 0
-1639 1607 0
1639 129 -1607 0
-1767 130 0
-1767 1639 0
1767 -130 -1639 0
-1839 -121 0
-1839 1823 0
1839 121 -1823 0
-1871 -122 0
-1871 1839 0
1871 122 -1839 0
-1999 123 0
-1999 1871 0
1999 -123 -1871 0
-2071 -114 0
-2071 2055 0
2071 114 -2055 0
-2103 -115 0
-2103 2071 0
2103 115 -2071 0
-2231 116 0
-2231 2103 0
2231 -116 -2103 0
-2339 -1999 0
-2339 -2231 0
2339 1999 2231 0
-2447 -1767 0
-2447 2339 0
2447 1767 -2339 0
-2555 -1535 0
-2555 2447 0
2555 1535 -2447 0
-2663 -1303 0
-2663 2555 0
2663 1303 -2555 0
-2771 -1071 0
-2771 2663 0
2771 1071 -2663 0
-2879 -839 0
-2879 2771 0
2879 839 -2771 0
-2987 -607 0
-2987 2879 0
2987 607 -2879 0
-3095 -375 0
-3095 2987 0
3095 375 -2987 0
-3359 80 0
-3359 3095 0
3359 -80 -3095 0
-3360 -80 0
-3360 -3095 0
3360 80 3095 0
-3361 -3359 0
-3361 -3360 0
3361 3359 3360 0
79 -13034 0
-79 13034 0
-214 -170 0
-214 198 0
214 170 -198 0
-246 -171 0
-246 214 0
246 171 -214 0
-374 172 0
-374 246 0
374 -172 -246 0
-446 -163 0
-446 430 0
446 163 -430 0
-478 -164 0
-478 446 0
478 164 -446 0
-606 165 0
-606 478 0
606 -165 -478 0
-678 -156 0
-678 662 0
678 156 -662 0
-710 -157 0
-710 678 0
710 157 -678 0
-838 158 0
-838 710 0
838 -158 -710 0
-910 -149 0
-910 894 0
910 149 -894 0
-942 -150 0
-942 910 0
942 150 -910 0
-1070 151 0
-1070 942 0
1070 -151 -942 0
-1142 -142 0
-1142 1126 0
1142 142 -1126 0
-1174 -143 0
-1174 1142 0
1174 143 -1142 0
-1302 144 0
-1302 1174 0
1302 -144 -1174 0
-1374 -135 0
-1374 1358 0
1374 135 -1358 0
-1406 -136 0
-1406 1374 0
1406 136 -1374 0
-1534 137 0
-1534 1406 0
1534 -137 -1406 0
-1606 -128 0
-1606 1590 0
1606 128 -1590 0
-1638 -129 0
-1638 1606 0
1638 129 -1606 0
-1766 130 0
-1766 1638 0
1766 -130 -1638 0
-1838 -121 0
-1838 1822 0
1838 121 -1822 0
-1870 -122 0
-1870 1838 0
1870 122 -1838 0
-1998 123 0
-1998 1870 0
1998 -123 -1870 0
-2070 -114 0
-2070 2054 0
2070 114 -2054 0
-2102 -115 0
-2102 2070 0
2102 115 -2070 0
-2230 116 0
-2230 2102 0
2230 -116 -2102 0
-2338 -1998 0
-2338 -2230 0
2338 1998 2230 0
-2446 -1766 0
-2446 2338 0
2446 1766 -2338 0
-2554 -1534 0
-2554 2446 0
2554 1534 -2446 0
-2662 -1302 0
-2662 2554 0
2662 1302 -2554 0
-2770 -1070 0
-2770 2662 0
2770 1070 -2662 0
-2878 -838 0
-2878 2770 0
2878 838 -2770 0
-2986 -606 0
-2986 2878 0
2986 606 -2878 0
-3094 -374 0
-3094 2986 0
3094 374 -2986 0
-3356 79 0
-3356 3094 0
3356 -79 -3094 0
-3357 -79 0
-3357 -3094 0
3357 79 3094 0
-3358 -3356 0
-3358 -3357 0
3358 3356 3357 0
78 -13033 0
-78 13033 0
-213 -170 0
-213 197 0
213 170 -197 0
-245 -171 0
-245 213 0
245 171 -213 0
-373 172 0
-373 245 0
373 -172 -245 0
-445 -163 0
-445 429 0
445 163 -429 0
-477 -164 0
-477 445 0
477 164 -445 0
-605 165 0
-605 477 0
605 -165 -477 0
-677 -156 0
-677 661 0
677 156 -661 0
-709 -157 0
-709 677 0
709 157 -677 0
-837 158 0
-837 709 0
837 -158 -709 0
-909 -149 0
-909 893 0
909 149 -893 0
-941 -150 0
-941 909 0
941 150 -909 0
-1069 151 0
-1069 941 0
1069 -151 -941 0
-1141 -142 0
-1141 1125 0
1141 142 -1125 0
-1173 -143 0
-1173 1141 0
1173 143 -1141 0
-1301 144 0
-1301 1173 0
1301 -144 -1173 0
-1373 -135 0
-1373 1357 0
1373 135 -1357 0
-1405 -136 0
-1405 1373 0
1405 136 -1373 0
-1533 137 0
-1533 1405 0
1533 -137 -1405 0
-1605 -128 0
-1605 1589 0
1605 128 -1589 0
-1637 -129 0
-1637 1605 0
1637 129 -1605 0
-1765 130 0
-1765 1637 0
1765 -130 -1637 0
-1837 -121 0
-1837 1821 0
1837 121 -1821 0
-1869 -122 0
-1869 1837 0
1869 122 -1837 0
-1997 123 0
-1997 1869 0
1997 -123 -1869 0
-2069 -114 0
-2069 2053 0
2069 114 -2053 0
-2101 -115 0
-2101 2069 0
2101 115 -2069 0
-2229 116 0
-2229 2101 0
2229 -116 -2101 0
-2337 -1997 0
-2337 -2229 0
2337 1997 2229 0
-2445 -1765 0
-2445 2337 0
2445 1765 -2337 0
-2553 -1533 0
-2553 2445 0
2553 1533 -2445 0
-2661 -1301 0
-2661 2553 0
2661 1301 -2553 0
-2769 -1069 0
-2769 2661 0
2769 1069 -2661 0
-2877 -837 0
-2877 2769 0
2877 837 -2769 0
-2985 -605 0
-2985 2877 0
2985 605 -2877 0
-3093 -373 0
-3093 2985 0
3093 373 -2985 0
-3353 78 0
-3353 3093 0
3353 -78 -3093 0
-3354 -78 0
-3354 -3093 0
3354 78 3093 0
-3355 -3353 0
-3355 -3354 0
3355 3353 3354 0
77 -13032 0
-77 13032 0
-244 -171 0
-244 212 0
244 171 -212 0
-372 172 0
-372 244 0
372 -172 -244 0
-476 -164 0
-476 444 0
476 164 -444 0
-604 165 0
-604 476 0
604 -165 -476 0
-708 -157 0
-708 676 0
708 157 -676 0
-836 158 0
-836 708 0
836 -158 -708 0
-940 -150 0
-940 908 0
940 150 -908 0
-1068 151 0
-1068 940 0
1068 -151 -940 0
-1172 -143 0
-1172 1140 0
1172 143 -1140 0
-1300 144 0
-1300 1172 0
1300 -144 -1172 0
-1404 -136 0
-1404 1372 0
1404 136 -1372 0
-1532 137 0
-1532 1404 0
1532 -137 -1404 0
-1636 -129 0
-1636 1604 0
1636 129 -1604 0
-1764 130 0
-1764 1636 0
1764 -130 -1636 0
-1868 -122 0
-1868 1836 0
1868 122 -1836 0
-1996 123 0
-1996 1868 0
1996 -123 -1868 0
-2100 -115 0
-2100 2068 0
2100 115 -2068 0
-2228 116 0
-2228 2100 0
2228 -116 -2100 0
-2336 -1996 0
-2336 -2228 0
2336 1996 2228 0
-2444 -1764 0
-2444 2336 0
2444 1764 -2336 0
-2552 -1532 0
-2552 2444 0
2552 1532 -2444 0
-2660 -1300 0
-2660 2552 0
2660 1300 -2552 0
-2768 -1068 0
-2768 2660 0
2768 1068 -2660 0
-2876 -836 0
-2876 2768 0
2876 836 -2768 0
-2984 -604 0
-2984 2876 0
2984 604 -2876 0
-3092 -372 0
-3092 2984 0
3092 372 -2984 0
-3350 77 0
-3350 3092 0
3350 -77 -3092 0
-3351 -77 0
-3351 -3092 0
3351 77 3092 0
-3352 -3350 0
-3352 -3351 0
3352 3350 3351 0
76 -13031 0
-76 13031 0
-243 -171 0
-243 211 0
243 171 -211 0
-371 172 0
-371 243 0
371 -172 -243 0
-475 -164 0
-475 443 0
475 164 -443 0
-603 165 0
-603 475 0
603 -165 -475 0
-707 -157 0
-707 675 0
707 157 -675 0
-835 158 0
-835 707 0
835 -158 -707 0
-939 -150 0
-939 907 0
939 150 -907 0
-1067 151 0
-1067 939 0
1067 -151 -939 0
-1171 -143 0
-1171 1139 0
1171 143 -1139 0
-1299 144 0
-1299 1171 0
1299 -144 -1171 0
-1403 -136 0
-1403 1371 0
1403 136 -1371 0
-1531 137 0
-1531 1403 0
1531 -137 -1403 0
-1635 -129 0
-1635 1603 0
1635 129 -1603 0
-1763 130 0
-1763 1635 0
1763 -130 -1635 0
-1867 -122 0
-1867 1835 0
1867 122 -1835 0
-1995 123 0
-1995 1867 0
1995 -123 -1867 0
-2099 -115 0
-2099 2067 0
2099 115 -2067 0
-2227 116 0
-2227 2099 0
2227 -116 -2099 0
-2335 -1995 0
-2335 -2227 0
2335 1995 2227 0
-2443 -1763 0
-2443 2335 0
2443 1763 -2335 0
-2551 -1531 0
-2551 2443 0
2551 1531 -2443 0
-2659 -1299 0
-2659 2551 0
2659 1299 -2551 0
-2767 -1067 0
-2767 2659 0
2767 1067 -2659 0
-2875 -835 0
-2875 2767 0
2875 835 -2767 0
-2983 -603 0
-2983 2875 0
2983 603 -2875 0
-3091 -371 0
-3091 2983 0
3091 371 -2983 0
-3347 76 0
-3347 3091 0
3347 -76 -3091 0
-3348 -76 0
-3348 -3091 0
3348 76 3091 0
-3349 -3347 0
-3349 -3348 0
3349 3347 3348 0
75 -13030 0
-75 13030 0
-242 -171 0
-242 210 0
242 171 -210 0
-370 172 0
-370 242 0
370 -172 -242 0
-474 -164 0
-474 442 0
474 164 -442 0
-602 165 0
-602 474 0
602 -165 -474 0
-706 -157 0
-706 674 0
706 157 -674 0
-834 158 0
-834 706 0
834 -158 -706 0
-938 -150 0
-938 906 0
938 150 -906 0
-1066 151 0
-1066 938 0
1066 -151 -938 0
-1170 -143 0
-1170 1138 0
1170 143 -1138 0
-1298 144 0
-1298 1170 0
1298 -144 -1170 0
-1402 -136 0
-1402 1370 0
1402 136 -1370 0
-1530 137 0
-1530 1402 0
1530 -137 -1402 0
-1634 -129 0
-1634 1602 0
1634 129 -1602 0
-1762 130 0
-1762 1634 0
1762 -130 -1634 0
-1866 -122 0
-1866 1834 0
1866 122 -1834 0
-1994 123 0
-1994 1866 0
1994 -123 -1866 0
-2098 -115 0
-2098 2066 0
2098 115 -2066 0
-2226 116 0
-2226 2098 0
2226 -116 -2098 0
-2334 -1994 0
-2334 -2226 0
2334 1994 2226 0
-2442 -1762 0
-2442 2334 0
2442 1762 -2334 0
-2550 -1530 0
-2550 2442 0
2550 1530 -2442 0
-2658 -1298 0
-2658 2550 0
2658 1298 -2550 0
-2766 -1066 0
-2766 2658 0
2766 1066 -2658 0
-2874 -834 0
-2874 2766 0
2874 834 -2766 0
-2982 -602 0
-2982 2874 0
2982 602 -2874 0
-3090 -370 0
-3090 2982 0
3090 370 -2982 0
-3344 75 0
-3344 3090 0
3344 -75 -3090 0
-3345 -75 0
-3345 -3090 0
3345 75 3090 0
-3346 -3344 0
-3346 -3345 0
3346 3344 3345 0
74 -13029 0
-74 13029 0
-241 -171 0
-241 209 0
241 171 -209 0
-369 172 0
-369 241 0
369 -172 -241 0
-473 -164 0
-473 441 0
473 164 -441 0
-601 165 0
-601 473 0
601 -165 -473 0
-705 -157 0
-705 673 0
705 157 -673 0
-833 158 0
-833 705 0
833 -158 -705 0
-937 -150 0
-937 905 0
937 150 -905 0
-1065 151 0
-1065 937 0
1065 -151 -937 0
-1169 -143 0
-1169 1137 0
1169 143 -1137 0
-1297 144 0
-1297 1169 0
1297 -144 -1169 0
-1401 -136 0
-1401 1369 0
1401 136 -1369 0
-1529 137 0
-1529 1401 0
1529 -137 -1401 0
-1633 -129 0
-1633 1601 0
1633 129 -1601 0
-1761 130 0
-1761 1633 0
1761 -130 -1633 0
-1865 -122 0
-1865 1833 0
1865 122 -1833 0
-1993 123 0
-1993 1865 0
1993 -123 -1865 0
-2097 -115 0
-2097 2065 0
2097 115 -2065 0
-2225 116 0
-2225 2097 0
2225 -116 -2097 0
-2333 -1993 0
-2333 -2225 0
2333 1993 2225 0
-2441 -1761 0
-2441 2333 0
2441 1761 -2333 0
-2549 -1529 0
-2549 2441 0
2549 1529 -2441 0
-2657 -1297 0
-2657 2549 0
2657 1297 -2549 0
-2765 -1065 0
-2765 2657 0
2765 1065 -2657 0
-2873 -833 0
-2873 2765 0
2873 833 -2765 0
-2981 -601 0
-2981 2873 0
2981 601 -2873 0
-3089 -369 0
-3089 2981 0
3089 369 -2981 0
-3341 74 0
-3341 3089 0
3341 -74 -3089 0
-3342 -74 0
-3342 -3089 0
3342 74 3089 0
-3343 -3341 0
-3343 -3342 0
3343 3341 3342 0
73 -13028 0
-73 13028 0
-240 -171 0
-240 208 0
240 171 -208 0
-368 172 0
-368 240 0
368 -172 -240 0
-472 -164 0
-472 440 0
472 164 -440 0
-600 165 0
-600 472 0
600 -165 -472 0
-704 -157 0
-704 672 0
704 157 -672 0
-832 158 0
-832 704 0
832 -158 -704 0
-936 -150 0
-936 904 0
936 150 -904 0
-1064 151 0
-1064 936 0
1064 -151 -936 0
-1168 -143 0
-1168 1136 0
1168 143 -1136 0
-1296 144 0
-1296 1168 0
1296 -144 -1168 0
-1400 -136 0
-1400 1368 0
1400 136 -1368 0
-1528 137 0
-1528 1400 0
1528 -137 -1400 0
-1632 -129 0
-1632 1600 0
1632 129 -1600 0
-1760 130 0
-1760 1632 0
1760 -130 -1632 0
-1864 -122 0
-1864 1832 0
1864 122 -1832 0
-1992 123 0
-1992 1864 0
1992 -123 -1864 0
-2096 -115 0
-2096 2064 0
2096 115 -2064 0
-2224 116 0
-2224 2096 0
2224 -116 -2096 0
-2332 -1992 0
-2332 -2224 0
2332 1992 2224 0
-2440 -1760 0
-2440 2332 0
2440 1760 -2332 0
-2548 -1528 0
-2548 2440 0
2548 1528 -2440 0
-2656 -1296 0
-2656 2548 0
2656 1296 -2548 0
-2764 -1064 0
-2764 2656 0
2764 1064 -2656 0
-2872 -832 0
-2872 2764 0
2872 832 -2764 0
-2980 -600 0
-2980 2872 0
2980 600 -2872 0
-3088 -368 0
-3088 2980 0
3088 368 -2980 0
-3338 73 0
-3338 3088 0
3338 -73 -3088 0
-3339 -73 0
-3339 -3088 0
3339 73 3088 0
-3340 -3338 0
-3340 -3339 0
3340 3338 3339 0
72 -13027 0
-72 13027 0
-239 -171 0
-239 207 0
239 171 -207 0
-367 172 0
-367 239 0
367 -172 -239 0
-471 -164 0
-471 439 0
471 164 -439 0
-599 165 0
-599 471 0
599 -165 -471 0
-703 -157 0
-703 671 0
703 157 -671 0
-831 158 0
-831 703 0
831 -158 -703 0
-935 -150 0
-935 903 0
935 150 -903 0
-1063 151 0
-1063 935 0
1063 -151 -935 0
-1167 -143 0
-1167 1135 0
1167 143 -1135 0
-1295 144 0
-1295 1167 0
1295 -144 -1167 0
-1399 -136 0
-1399 1367 0
1399 136 -1367 0
-1527 137 0
-1527 1399 0
1527 -137 -1399 0
-1631 -129 0
-1631 1599 0
1631 129 -1599 0
-1759 130 0
-1759 1631 0
1759 -130 -1631 0
-1863 -122 0
-1863 1831 0
1863 122 -1831 0
-1991 123 0
-1991 1863 0
1991 -123 -1863 0
-2095 -115 0
-2095 2063 0
2095 115 -2063 0
-2223 116 0
-2223 2095 0
2223 -116 -2095 0
-2331 -1991 0
-2331 -2223 0
2331 1991 2223 0
-2439 -1759 0
-2439 2331 0
2439 1759 -2331 0
-2547 -1527 0
-2547 2439 0
2547 1527 -2439 0
-2655 -1295 0
-2655 2547 0
2655 1295 -2547 0
-2763 -1063 0
-2763 2655 0
2763 1063 -2655 0
-2871 -831 0
-2871 2763 0
2871 831 -2763 0
-2979 -599 0
-2979 2871 0
2979 599 -2871 0
-3087 -367 0
-3087 2979 0
3087 367 -2979 0
-3335 72 0
-3335 3087 0
3335 -72 -3087 0
-3336 -72 0
-3336 -3087 0
3336 72 3087 0
-3337 -3335 0
-3337 -3336 0
3337 3335 3336 0
71 -13026 0
-71 13026 0
-238 -171 0
-238 206 0
238 171 -206 0
-366 172 0
-366 238 0
366 -172 -238 0
-470 -164 0
-470 438 0
470 164 -438 0
-598 165 0
-598 470 0
598 -165 -470 0
-702 -157 0
-702 670 0
702 157 -670 0
-830 158 0
-830 702 0
830 -158 -702 0
-934 -150 0
-934 902 0
934 150 -902 0
-1062 151 0
-1062 934 0
1062 -151 -934 0
-1166 -143 0
-1166 1134 0
1166 143 -1134 0
-1294 144 0
-1294 1166 0
1294 -144 -1166 0
-1398 -136 0
-1398 1366 0
1398 136 -1366 0
-1526 137 0
-1526 1398 0
1526 -137 -1398 0
-1630 -129 0
-1630 1598 0
1630 129 -1598 0
-1758 130 0
-1758 1630 0
1758 -130 -1630 0
-1862 -122 0
-1862 1830 0
1862 122 -1830 0
-1990 123 0
-1990 1862 0
1990 -123 -1862 0
-2094 -115 0
-2094 2062 0
2094 115 -2062 0
-2222 116 0
-2222 2094 0
2222 -116 -2094 0
-2330 -1990 0
-2330 -2222 0
2330 1990 2222 0
-2438 -1758 0
-2438 2330 0
2438 1758 -2330 0
-2546 -1526 0
-2546 2438 0
2546 1526 -2438 0
-2654 -1294 0
-2654 2546 0
2654 1294 -2546 0
-2762 -1062 0
-2762 2654 0
2762 1062 -2654 0
-2870 -830 0
-2870 2762 0
2870 830 -2762 0
-2978 -598 0
-2978 2870 0
2978 598 -2870 0
-3086 -366 0
-3086 2978 0
3086 366 -2978 0
-3332 71 0
-3332 3086 0
3332 -71 -3086 0
-3333 -71 0
-3333 -3086 0
3333 71 3086 0
-3334 -3332 0
-3334 -3333 0
3334 3332 3333 0
70 -13025 0
-70 13025 0
-237 -171 0
-237 205 0
237 171 -205 0
-365 172 0
-365 237 0
365 -172 -237 0
-469 -164 0
-469 437 0
469 164 -437 0
-597 165 0
-597 469 0
597 -165 -469 0
-701 -157 0
-701 669 0
701 157 -669 0
-829 158 0
-829 701 0
829 -158 -701 0
-933 -150 0
-933 901 0
933 150 -901 0
-1061 151 0
-1061 933 0
1061 -151 -933 0
-1165 -143 0
-1165 1133 0
1165 143 -1133 0
-1293 144 0
-1293 1165 0
1293 -144 -1165 0
-1397 -136 0
-1397 1365 0
1397 136 -1365 0
-1525 137 0
-1525 1397 0
1525 -137 -1397 0
-1629 -129 0
-1629 1597 0
1629 129 -1597 0
-1757 130 0
-1757 1629 0
1757 -130 -1629 0
-1861 -122 0
-1861 1829 0
1861 122 -1829 0
-1989 123 0
-1989 1861 0
1989 -123 -1861 0
-2093 -115 0
-2093 2061 0
2093 115 -2061 0
-2221 116 0
-2221 2093 0
2221 -116 -2093 0
-2329 -1989 0
-2329 -2221 0
2329 1989 2221 0
-2437 -1757 0
-2437 2329 0
2437 1757 -2329 0
-2545 -1525 0
-2545 2437 0
2545 1525 -2437 0
-2653 -1293 0
-2653 2545 0
2653 1293 -2545 0
-2761 -1061 0
-2761 2653 0
2761 1061 -2653 0
-2869 -829 0
-2869 2761 0
2869 829 -2761 0
-2977 -597 0
-2977 2869 0
2977 597 -2869 0
-3085 -365 0
-3085 2977 0
3085 365 -2977 0
-3329 70 0
-3329 3085 0
3329 -70 -3085 0
-3330 -70 0
-3330 -3085 0
3330 70 3085 0
-3331 -3329 0
-3331 -3330 0
3331 3329 3330 0
69 -13024 0
-69 13024 0
-236 -171 0
-236 204 0
236 171 -204 0
-364 172 0
-364 236 0
364 -172 -236 0
-468 -164 0
-468 436 0
468 164 -436 0
-596 165 0
-596 468 0
596 -165 -468 0
-700 -157 0
-700 668 0
700 157 -668 0
-828 158 0
-828 700 0
828 -158 -700 0
-932 -150 0
-932 900 0
932 150 -900 0
-1060 151 0
-1060 932 0
1060 -151 -932 0
-1164 -143 0
-1164 1132 0
1164 143 -1132 0
-1292 144 0
-1292 1164 0
1292 -144 -1164 0
-1396 -136 0
-1396 1364 0
1396 136 -1364 0
-1524 137 0
-1524 1396 0
1524 -137 -1396 0
-1628 -129 0
-1628 1596 0
1628 129 -1596 0
-1756 130 0
-1756 1628 0
1756 -130 -1628 0
-1860 -122 0
-1860 1828 0
1860 122 -1828 0
-1988 123 0
-1988 1860 0
1988 -123 -1860 0
-2092 -115 0
-2092 2060 0
2092 115 -2060 0
-2220 116 0
-2220 2092 0
2220 -116 -2092 0
-2328 -1988 0
-2328 -2220 0
2328 1988 2220 0
-2436 -1756 0
-2436 2328 0
2436 1756 -2328 0
-2544 -1524 0
-2544 2436 0
2544 1524 -2436 0
-2652 -1292 0
-2652 2544 0
2652 1292 -2544 0
-2760 -1060 0
-2760 2652 0
2760 1060 -2652 0
-2868 -828 0
-2868 2760 0
2868 828 -2760 0
-2976 -596 0
-2976 2868 0
2976 596 -2868 0
-3084 -364 0
-3084 2976 0
3084 364 -2976 0
-3326 69 0
-3326 3084 0
3326 -69 -3084 0
-3327 -69 0
-3327 -3084 0
3327 69 3084 0
-3328 -3326 0
-3328 -3327 0
3328 3326 3327 0
68 -13023 0
-68 13023 0
-235 -171 0
-235 203 0
235 171 -203 0
-363 172 0
-363 235 0
363 -172 -235 0
-467 -164 0
-467 435 0
467 164 -435 0
-595 165 0
-595 467 0
595 -165 -467 0
-699 -157 0
-699 667 0
699 157 -667 0
-827 158 0
-827 699 0
827 -158 -699 0
-931 -150 0
-931 899 0
931 150 -899 0
-1059 151 0
-1059 931 0
1059 -151 -931 0
-1163 -143 0
-1163 1131 0
1163 143 -1131 0
-1291 144 0
-1291 1163 0
1291 -144 -1163 0
-1395 -136 0
-1395 1363 0
1395 136 -1363 0
-1523 137 0
-1523 1395 0
1523 -137 -1395 0
-1627 -129 0
-1627 1595 0
1627 129 -1595 0
-1755 130 0
-1755 1627 0
1755 -130 -1627 0
-1859 -122 0
-1859 1827 0
1859 122 -1827 0
-1987 123 0
-1987 1859 0
1987 -123 -1859 0
-2091 -115 0
-2091 2059 0
2091 115 -2059 0
-2219 116 0
-2219 2091 0
2219 -116 -2091 0
-2327 -1987 0
-2327 -2219 0
2327 1987 2219 0
-2435 -1755 0
-2435 2327 0
2435 1755 -2327 0
-2543 -1523 0
-2543 2435 0
2543 1523 -2435 0
-2651 -1291 0
-2651 2543 0
2651 1291 -2543 0
-2759 -1059 0
-2759 2651 0
2759 1059 -2651 0
-2867 -827 0
-2867 2759 0
2867 827 -2759 0
-2975 -595 0
-2975 2867 0
2975 595 -2867 0
-3083 -363 0
-3083 2975 0
3083 363 -2975 0
-3323 68 0
-3323 3083 0
3323 -68 -3083 0
-3324 -68 0
-3324 -3083 0
3324 68 3083 0
-3325 -3323 0
-3325 -3324 0
3325 3323 3324 0
67 -13022 0
-67 13022 0
-234 -171 0
-234 202 0
234 171 -202 0
-362 172 0
-362 234 0
362 -172 -234 0
-466 -164 0
-466 434 0
466 164 -434 0
-594 165 0
-594 466 0
594 -165 -466 0
-698 -157 0
-698 666 0
698 157 -666 0
-826 158 0
-826 698 0
826 -158 -698 0
-930 -150 0
-930 898 0
930 150 -898 0
-1058 151 0
-1058 930 0
1058 -151 -930 0
-1162 -143 0
-1162 1130 0
1162 143 -1130 0
-1290 144 0
-1290 1162 0
1290 -144 -1162 0
-1394 -136 0
-1394 1362 0
1394 136 -1362 0
-1522 137 0
-1522 1394 0
1522 -137 -1394 0
-1626 -129 0
-1626 1594 0
1626 129 -1594 0
-1754 130 0
-1754 1626 0
1754 -130 -1626 0
-1858 -122 0
-1858 1826 0
1858 122 -1826 0
-1986 123 0
-1986 1858 0
1986 -123 -1858 0
-2090 -115 0
-2090 2058 0
2090 115 -2058 0
-2218 116 0
-2218 2090 0
2218 -116 -2090 0
-2326 -1986 0
-2326 -2218 0
2326 1986 2218 0
-2434 -1754 0
-2434 2326 0
2434 1754 -2326 0
-2542 -1522 0
-2542 2434 0
2542 1522 -2434 0
-2650 -1290 0
-2650 2542 0
2650 1290 -2542 0
-2758 -1058 0
-2758 2650 0
2758 1058 -2650 0
-2866 -826 0
-2866 2758 0
2866 826 -2758 0
-2974 -594 0
-2974 2866 0
2974 594 -2866 0
-3082 -362 0
-3082 2974 0
3082 362 -2974 0
-3320 67 0
-3320 3082 0
3320 -67 -3082 0
-3321 -67 0
-3321 -3082 0
3321 67 3082 0
-3322 -3320 0
-3322 -3321 0
3322 3320 3321 0
66 -13021 0
-66 13021 0
-233 -171 0
-233 201 0
233 171 -201 0
-361 172 0
-361 233 0
361 -172 -233 0
-465 -164 0
-465 433 0
465 164 -433 0
-593 165 0
-593 465 0
593 -165 -465 0
-697 -157 0
-697 665 0
697 157 -665 0
-825 158 0
-825 697 0
825 -158 -697 0
-929 -150 0
-929 897 0
929 150 -897 0
-1057 151 0
-1057 929 0
1057 -151 -929 0
-1161 -143 0
-1161 1129 0
1161 143 -1129 0
-1289 144 0
-1289 1161 0
1289 -144 -1161 0
-1393 -136 0
-1393 1361 0
1393 136 -1361 0
-1521 137 0
-1521 1393 0
1521 -137 -1393 0
-1625 -129 0
-1625 1593 0
1625 129 -1593 0
-1753 130 0
-1753 1625 0
1753 -130 -1625 0
-1857 -122 0
-1857 1825 0
1857 122 -1825 0
-1985 123 0
-1985 1857 0
1985 -123 -1857 0
-2089 -115 0
-2089 2057 0
2089 115 -2057 0
-2217 116 0
-2217 2089 0
2217 -116 -2089 0
-2325 -1985 0
-2325 -2217 0
2325 1985 2217 0
-2433 -1753 0
-2433 2325 0
2433 1753 -2325 0
-2541 -1521 0
-2541 2433 0
2541 1521 -2433 0
-2649 -1289 0
-2649 2541 0
2649 1289 -2541 0
-2757 -1057 0
-2757 2649 0
2757 1057 -2649 0
-2865 -825 0
-2865 2757 0
2865 825 -2757 0
-2973 -593 0
-2973 2865 0
2973 593 -2865 0
-3081 -361 0
-3081 2973 0
3081 361 -2973 0
-3317 66 0
-3317 3081 0
3317 -66 -3081 0
-3318 -66 0
-3318 -3081 0
3318 66 3081 0
-3319 -3317 0
-3319 -3318 0
3319 3317 3318 0
65 -13020 0
-65 13020 0
-296 171 0
-296 232 0
296 -171 -232 0
-360 -172 0
-360 296 0
360 172 -296 0
-528 164 0
-528 464 0
528 -164 -464 0
-592 -165 0
-592 528 0
592 165 -528 0
-760 157 0
-760 696 0
760 -157 -696 0
-824 -158 0
-824 760 0
824 158 -760 0
-992 150 0
-992 928 0
992 -150 -928 0
-1056 -151 0
-1056 992 0
1056 151 -992 0
-1224 143 0
-1224 1160 0
1224 -143 -1160 0
-1288 -144 0
-1288 1224 0
1288 144 -1224 0
-1456 136 0
-1456 1392 0
1456 -136 -1392 0
-1520 -137 0
-1520 1456 0
1520 137 -1456 0
-1688 129 0
-1688 1624 0
1688 -129 -1624 0
-1752 -130 0
-1752 1688 0
1752 130 -1688 0
-1920 122 0
-1920 1856 0
1920 -122 -1856 0
-1984 -123 0
-1984 1920 0
1984 123 -1920 0
-2152 115 0
-2152 2088 0
2152 -115 -2088 0
-2216 -116 0
-2216 2152 0
2216 116 -2152 0
-2324 -1984 0
-2324 -2216 0
2324 1984 2216 0
-2432 -1752 0
-2432 2324 0
2432 1752 -2324 0
-2540 -1520 0
-2540 2432 0
2540 1520 -2432 0
-2648 -1288 0
-2648 2540 0
2648 1288 -2540 0
-2756 -1056 0
-2756 2648 0
2756 1056 -2648 0
-2864 -824 0
-2864 2756 0
2864 824 -2756 0
-2972 -592 0
-2972 2864 0
2972 592 -2864 0
-3080 -360 0
-3080 2972 0
3080 360 -2972 0
-3314 65 0
-3314 3080 0
3314 -65 -3080 0
-3315 -65 0
-3315 -3080 0
3315 65 3080 0
-3316 -3314 0
-3316 -3315 0
3316 3314 3315 0
64 -13019 0
-64 13019 0
-295 171 0
-295 231 0
295 -171 -231 0
-359 -172 0
-359 295 0
359 172 -295 0
-527 164 0
-527 463 0
527 -164 -463 0
-591 -165 0
-591 527 0
591 165 -527 0
-759 157 0
-759 695 0
759 -157 -695 0
-823 -158 0
-823 759 0
823 158 -759 0
-991 150 0
-991 927 0
991 -150 -927 0
-1055 -151 0
-1055 991 0
1055 151 -991 0
-1223 143 0
-1223 1159 0
1223 -143 -1159 0
-1287 -144 0
-1287 1223 0
1287 144 -1223 0
-1455 136 0
-1455 1391 0
1455 -136 -1391 0
-1519 -137 0
-1519 1455 0
1519 137 -1455 0
-1687 129 0
-1687 1623 0
1687 -129 -1623 0
-1751 -130 0
-1751 1687 0
1751 130 -1687 0
-1919 122 0
-1919 1855 0
1919 -122 -1855 0
-1983 -123 0
-1983 1919 0
1983 123 -1919 0
-2151 115 0
-2151 2087 0
2151 -115 -2087 0
-2215 -116 0
-2215 2151 0
2215 116 -2151 0
-2323 -1983 0
-2323 -2215 0
2323 1983 2215 0
-2431 -1751 0
-2431 2323 0
2431 1751 -2323 0
-2539 -1519 0
-2539 2431 0
2539 1519 -2431 0
-2647 -1287 0
-2647 2539 0
2647 1287 -2539 0
-2755 -1055 0
-2755 2647 0
2755 1055 -2647 0
-2863 -823 0
-2863 2755 0
2863 823 -2755 0
-2971 -591 0
-2971 2863 0
2971 591 -2863 0
-3079 -359 0
-3079 2971 0
3079 359 -2971 0
-3311 64 0
-3311 3079 0
3311 -64 -3079 0
-3312 -64 0
-3312 -3079 0
3312 64 3079 0
-3313 -3311 0
-3313 -3312 0
3313 3311 3312 0
63 -13018 0
-63 13018 0
-294 171 0
-294 230 0
294 -171 -230 0
-358 -172 0
-358 294 0
358 172 -294 0
-526 164 0
-526 462 0
526 -164 -462 0
-590 -165 0
-590 526 0
590 165 -526 0
-758 157 0
-758 694 0
758 -157 -694 0
-822 -158 0
-822 758 0
822 158 -758 0
-990 150 0
-990 926 0
990 -150 -926 0
-1054 -151 0
-1054 990 0
1054 151 -990 0
-1222 143 0
-1222 1158 0
1222 -143 -1158 0
-1286 -144 0
-1286 1222 0
1286 144 -1222 0
-1454 136 0
-1454 1390 0
1454 -136 -1390 0
-1518 -137 0
-1518 1454 0
1518 137 -1454 0
-1686 129 0
-1686 1622 0
1686 -129 -1622 0
-1750 -130 0
-1750 1686 0
1750 130 -1686 0
-1918 122 0
-1918 1854 0
1918 -122 -1854 0
-1982 -123 0
-1982 1918 0
1982 123 -1918 0
-2150 115 0
-2150 2086 0
2150 -115 -2086 0
-2214 -116 0
-2214 2150 0
2214 116 -2150 0
-2322 -1982 0
-2322 -2214 0
2322 1982 2214 0
-2430 -1750 0
-2430 2322 0
2430 1750 -2322 0
-2538 -1518 0
-2538 2430 0
2538 1518 -2430 0
-2646 -1286 0
-2646 2538 0
2646 1286 -2538 0
-2754 -1054 0
-2754 2646 0
2754 1054 -2646 0
-2862 -822 0
-2862 2754 0
2862 822 -2754 0
-2970 -590 0
-2970 2862 0
2970 590 -2862 0
-3078 -358 0
-3078 2970 0
3078 358 -2970 0
-3308 63 0
-3308 3078 0
3308 -63 -3078 0
-3309 -63 0
-3309 -3078 0
3309 63 3078 0
-3310 -3308 0
-3310 -3309 0
3310 3308 3309 0
62 -13017 0
-62 13017 0
-293 171 0
-293 229 0
293 -171 -229 0
-357 -172 0
-357 293 0
357 172 -293 0
-525 164 0
-525 461 0
525 -164 -461 0
-589 -165 0
-589 525 0
589 165 -525 0
-757 157 0
-757 693 0
757 -157 -693 0
-821 -158 0
-821 757 0
821 158 -757 0
-989 150 0
-989 925 0
989 -150 -925 0
-1053 -151 0
-1053 989 0
1053 151 -989 0
-1221 143 0
-1221 1157 0
1221 -143 -1157 0
-1285 -144 0
-1285 1221 0
1285 144 -1221 0
-1453 136 0
-1453 1389 0
1453 -136 -1389 0
-1517 -137 0
-1517 1453 0
1517 137 -1453 0
-1685 129 0
-1685 1621 0
1685 -129 -1621 0
-1749 -130 0
-1749 1685 0
1749 130 -1685 0
-1917 122 0
-1917 1853 0
1917 -122 -1853 0
-1981 -123 0
-1981 1917 0
1981 123 -1917 0
-2149 115 0
-2149 2085 0
2149 -115 -2085 0
-2213 -116 0
-2213 2149 0
2213 116 -2149 0
-2321 -1981 0
-2321 -2213 0
2321 1981 2213 0
-2429 -1749 0
-2429 2321 0
2429 1749 -2321 0
-2537 -1517 0
-2537 2429 0
2537 1517 -2429 0
-2645 -1285 0
-2645 2537 0
2645 1285 -2537 0
-2753 -1053 0
-2753 2645 0
2753 1053 -2645 0
-2861 -821 0
-2861 2753 0
2861 821 -2753 0
-2969 -589 0
-2969 2861 0
2969 589 -2861 0
-3077 -357 0
-3077 2969 0
3077 357 -2969 0
-3305 62 0
-3305 3077 0
3305 -62 -3077 0
-3306 -62 0
-3306 -3077 0
3306 62 3077 0
-3307 -3305 0
-3307 -3306 0
3307 3305 3306 0
61 -13016 0
-61 13016 0
-292 171 0
-292 228 0
292 -171 -228 0
-356 -172 0
-356 292 0
356 172 -292 0
-524 164 0
-524 460 0
524 -164 -460 0
-588 -165 0
-588 524 0
588 165 -524 0
-756 157 0
-756 692 0
756 -157 -692 0
-820 -158 0
-820 756 0
820 158 -756 0
-988 150 0
-988 924 0
988 -150 -924 0
-1052 -151 0
-1052 988 0
1052 151 -988 0
-1220 143 0
-1220 1156 0
1220 -143 -1156 0
-1284 -144 0
-1284 1220 0
1284 144 -1220 0
-1452 136 0
-1452 1388 0
1452 -136 -1388 0
-1516 -137 0
-1516 1452 0
1516 137 -1452 0
-1684 129 0
-1684 1620 0
1684 -129 -1620 0
-1748 -130 0
-1748 1684 0
1748 130 -1684 0
-1916 122 0
-1916 1852 0
1916 -122 -1852 0
-1980 -123 0
-1980 1916 0
1980 123 -1916 0
-2148 115 0
-2148 2084 0
2148 -115 -2084 0
-2212 -116 0
-2212 2148 0
2212 116 -2148 0
-2320 -1980 0
-2320 -2212 0
2320 1980 2212 0
-2428 -1748 0
-2428 2320 0
2428 1748 -2320 0
-2536 -1516 0
-2536 2428 0
2536 1516 -2428 0
-2644 -1284 0
-2644 2536 0
2644 1284 -2536 0
-2752 -1052 0
-2752 2644 0
2752 1052 -2644 0
-2860 -820 0
-2860 2752 0
2860 820 -2752 0
-2968 -588 0
-2968 2860 0
2968 588 -2860 0
-3076 -356 0
-3076 2968 0
3076 356 -2968 0
-3302 61 0
-3302 3076 0
3302 -61 -3076 0
-3303 -61 0
-3303 -3076 0
3303 61 3076 0
-3304 -3302 0
-3304 -3303 0
3304 3302 3303 0
60 -13015 0
-60 13015 0
-291 171 0
-291 227 0
291 -171 -227 0
-355 -172 0
-355 291 0
355 172 -291 0
-523 164 0
-523 459 0
523 -164 -459 0
-587 -165 0
-587 523 0
587 165 -523 0
-755 157 0
-755 691 0
755 -157 -691 0
-819 -158 0
-819 755 0
819 158 -755 0
-987 150 0
-987 923 0
987 -150 -923 0
-1051 -151 0
-1051 987 0
1051 151 -987 0
-1219 143 0
-1219 1155 0
1219 -143 -1155 0
-1283 -144 0
-1283 1219 0
1283 144 -1219 0
-1451 136 0
-1451 1387 0
1451 -136 -1387 0
-1515 -137 0
-1515 1451 0
1515 137 -1451 0
-1683 129 0
-1683 1619 0
1683 -129 -1619 0
-1747 -130 0
-1747 1683 0
1747 130 -1683 0
-1915 122 0
-1915 1851 0
1915 -122 -1851 0
-1979 -123 0
-1979 1915 0
1979 123 -1915 0
-2147 115 0
-2147 2083 0
2147 -115 -2083 0
-2211 -116 0
-2211 2147 0
2211 116 -2147 0
-2319 -1979 0
-2319 -2211 0
2319 1979 2211 0
-2427 -1747 0
-2427 2319 0
2427 1747 -2319 0
-2535 -1515 0
-2535 2427 0
2535 1515 -2427 0
-2643 -1283 0
-2643 2535 0
2643 1283 -2535 0
-2751 -1051 0
-2751 2643 0
2751 1051 -2643 0
-2859 -819 0
-2859 2751 0
2859 819 -2751 0
-2967 -587 0
-2967 2859 0
2967 587 -2859 0
-3075 -355 0
-3075 2967 0
3075 355 -2967 0
-3299 60 0
-3299 3075 0
3299 -60 -3075 0
-3300 -60 0
-3300 -3075 0
3300 60 3075 0
-3301 -3299 0
-3301 -3300 0
3301 3299 3300 0
59 -13014 0
-59 13014 0
-290 171 0
-290 226 0
290 -171 -226 0
-354 -172 0
-354 290 0
354 172 -290 0
-522 164 0
-522 458 0
522 -164 -458 0
-586 -165 0
-586 522 0
586 165 -522 0
-754 157 0
-754 690 0
754 -157 -690 0
-818 -158 0
-818 754 0
818 158 -754 0
-986 150 0
-986 922 0
986 -150 -922 0
-1050 -151 0
-1050 986 0
1050 151 -986 0
-1218 143 0
-1218 1154 0
1218 -143 -1154 0
-1282 -144 0
-1282 1218 0
1282 144 -1218 0
-1450 136 0
-1450 1386 0
1450 -136 -1386 0
-1514 -137 0
-1514 1450 0
1514 137 -1450 0
-1682 129 0
-1682 1618 0
1682 -129 -1618 0
-1746 -130 0
-1746 1682 0
1746 130 -1682 0
-1914 122 0
-1914 1850 0
1914 -122 -1850 0
-1978 -123 0
-1978 1914 0
1978 123 -1914 0
-2146 115 0
-2146 2082 0
2146 -115 -2082 0
-2210 -116 0
-2210 2146 0
2210 116 -2146 0
-2318 -1978 0
-2318 -2210 0
2318 1978 2210 0
-2426 -1746 0
-2426 2318 0
2426 1746 -2318 0
-2534 -1514 0
-2534 2426 0
2534 1514 -2426 0
-2642 -1282 0
-2642 2534 0
2642 1282 -2534 0
-2750 -1050 0
-2750 2642 0
2750 1050 -2642 0
-2858 -818 0
-2858 2750 0
2858 818 -2750 0
-2966 -586 0
-2966 2858 0
2966 586 -2858 0
-3074 -354 0
-3074 2966 0
3074 354 -2966 0
-3296 59 0
-3296 3074 0
3296 -59 -3074 0
-3297 -59 0
-3297 -3074 0
3297 59 3074 0
-3298 -3296 0
-3298 -3297 0
3298 3296 3297 0
58 -13013 0
-58 13013 0
-289 171 0
-289 225 0
289 -171 -225 0
-353 -172 0
-353 289 0
353 172 -289 0
-521 164 0
-521 457 0
521 -164 -457 0
-585 -165 0
-585 521 0
585 165 -521 0
-753 157 0
-753 689 0
753 -157 -689 0
-817 -158 0
-817 753 0
817 158 -753 0
-985 150 0
-985 921 0
985 -150 -921 0
-1049 -151 0
-1049 985 0
1049 151 -985 0
-1217 143 0
-1217 1153 0
1217 -143 -1153 0
-1281 -144 0
-1281 1217 0
1281 144 -1217 0
-1449 136 0
-1449 1385 0
1449 -136 -1385 0
-1513 -137 0
-1513 1449 0
1513 137 -1449 0
-1681 129 0
-1681 1617 0
1681 -129 -1617 0
-1745 -130 0
-1745 1681 0
1745 130 -1681 0
-1913 122 0
-1913 1849 0
1913 -122 -1849 0
-1977 -123 0
-1977 1913 0
1977 123 -1913 0
-2145 115 0
-2145 2081 0
2145 -115 -2081 0
-2209 -116 0
-2209 2145 0
2209 116 -2145 0
-2317 -1977 0
-2317 -2209 0
2317 1977 2209 0
-2425 -1745 0
-2425 2317 0
2425 1745 -2317 0
-2533 -1513 0
-2533 2425 0
2533 1513 -2425 0
-2641 -1281 0
-2641 2533 0
2641 1281 -2533 0
-2749 -1049 0
-2749 2641 0
2749 1049 -2641 0
-2857 -817 0
-2857 2749 0
2857 817 -2749 0
-2965 -585 0
-2965 2857 0
2965 585 -2857 0
-3073 -353 0
-3073 2965 0
3073 353 -2965 0
-3293 58 0
-3293 3073 0
3293 -58 -3073 0
-3294 -58 0
-3294 -3073 0
3294 58 3073 0
-3295 -3293 0
-3295 -3294 0
3295 3293 3294 0
57 -13012 0
-57 13012 0
-288 171 0
-288 224 0
288 -171 -224 0
-352 -172 0
-352 288 0
352 172 -288 0
-520 164 0
-520 456 0
520 -164 -456 0
-584 -165 0
-584 520 0
584 165 -520 0
-752 157 0
-752 688 0
752 -157 -688 0
-816 -158 0
-816 752 0
816 158 -752 0
-984 150 0
-984 920 0
984 -150 -920 0
-1048 -151 0
-1048 984 0
1048 151 -984 0
-1216 143 0
-1216 1152 0
1216 -143 -1152 0
-1280 -144 0
-1280 1216 0
1280 144 -1216 0
-1448 136 0
-1448 1384 0
1448 -136 -1384 0
-1512 -137 0
-1512 1448 0
1512 137 -1448 0
-1680 129 0
-1680 1616 0
1680 -129 -1616 0
-1744 -130 0
-1744 1680 0
1744 130 -1680 0
-1912 122 0
-1912 1848 0
1912 -122 -1848 0
-1976 -123 0
-1976 1912 0
1976 123 -1912 0
-2144 115 0
-2144 2080 0
2144 -115 -2080 0
-2208 -116 0
-2208 2144 0
2208 116 -2144 0
-2316 -1976 0
-2316 -2208 0
2316 1976 2208 0
-2424 -1744 0
-2424 2316 0
2424 1744 -2316 0
-2532 -1512 0
-2532 2424 0
2532 1512 -2424 0
-2640 -1280 0
-2640 2532 0
2640 1280 -2532 0
-2748 -1048 0
-2748 2640 0
2748 1048 -2640 0
-2856 -816 0
-2856 2748 0
2856 816 -2748 0
-2964 -584 0
-2964 2856 0
2964 584 -2856 0
-3072 -352 0
-3072 2964 0
3072 352 -2964 0
-3290 57 0
-3290 3072 0
3290 -57 -3072 0
-3291 -57 0
-3291 -3072 0
3291 57 3072 0
-3292 -3290 0
-3292 -3291 0
3292 3290 3291 0
56 -13011 0
-56 13011 0
-287 171 0
-287 223 0
287 -171 -223 0
-351 -172 0
-351 287 0
351 172 -287 0
-519 164 0
-519 455 0
519 -164 -455 0
-583 -165 0
-583 519 0
583 165 -519 0
-751 157 0
-751 687 0
751 -157 -687 0
-815 -158 0
-815 751 0
815 158 -751 0
-983 150 0
-983 919 0
983 -150 -919 0
-1047 -151 0
-1047 983 0
1047 151 -983 0
-1215 143 0
-1215 1151 0
1215 -143 -1151 0
-1279 -144 0
-1279 1215 0
1279 144 -1215 0
-1447 136 0
-1447 1383 0
1447 -136 -1383 0
-1511 -137 0
-1511 1447 0
1511 137 -1447 0
-1679 129 0
-1679 1615 0
1679 -129 -1615 0
-1743 -130 0
-1743 1679 0
1743 130 -1679 0
-1911 122 0
-1911 1847 0
1911 -122 -1847 0
-1975 -123 0
-1975 1911 0
1975 123 -1911 0
-2143 115 0
-2143 2079 0
2143 -115 -2079 0
-2207 -116 0
-2207 2143 0
2207 116 -2143 0
-2315 -1975 0
-2315 -2207 0
2315 1975 2207 0
-2423 -1743 0
-2423 2315 0
2423 1743 -2315 0
-2531 -1511 0
-2531 2423 0
2531 1511 -2423 0
-2639 -1279 0
-2639 2531 0
2639 1279 -2531 0
-2747 -1047 0
-2747 2639 0
2747 1047 -2639 0
-2855 -815 0
-2855 2747 0
2855 815 -2747 0
-2963 -583 0
-2963 2855 0
2963 583 -2855 0
-3071 -351 0
-3071 2963 0
3071 351 -2963 0
-3287 56 0
-3287 3071 0
3287 -56 -3071 0
-3288 -56 0
-3288 -3071 0
3288 56 3071 0
-3289 -3287 0
-3289 -3288 0
3289 3287 3288 0
55 -13010 0
-55 13010 0
-286 171 0
-286 222 0
286 -171 -222 0
-350 -172 0
-350 286 0
350 172 -286 0
-518 164 0
-518 454 0
518 -164 -454 0
-582 -165 0
-582 518 0
582 165 -518 0
-750 157 0
-750 686 0
750 -157 -686 0
-814 -158 0
-814 750 0
814 158 -750 0
-982 150 0
-982 918 0
982 -150 -918 0
-1046 -151 0
-1046 982 0
1046 151 -982 0
-1214 143 0
-1214 1150 0
1214 -143 -1150 0
-1278 -144 0
-1278 1214 0
1278 144 -1214 0
-1446 136 0
-1446 1382 0
1446 -136 -1382 0
-1510 -137 0
-1510 1446 0
1510 137 -1446 0
-1678 129 0
-1678 1614 0
1678 -129 -1614 0
-1742 -130 0
-1742 1678 0
1742 130 -1678 0
-1910 122 0
-1910 1846 0
1910 -122 -1846 0
-1974 -123 0
-1974 1910 0
1974 123 -1910 0
-2142 115 0
-2142 2078 0
2142 -115 -2078 0
-2206 -116 0
-2206 2142 0
2206 116 -2142 0
-2314 -1974 0
-2314 -2206 0
2314 1974 2206 0
-2422 -1742 0
-2422 2314 0
2422 1742 -2314 0
-2530 -1510 0
-2530 2422 0
2530 1510 -2422 0
-2638 -1278 0
-2638 2530 0
2638 1278 -2530 0
-2746 -1046 0
-2746 2638 0
2746 1046 -2638 0
-2854 -814 0
-2854 2746 0
2854 814 -2746 0
-2962 -582 0
-2962 2854 0
2962 582 -2854 0
-3070 -350 0
-3070 2962 0
3070 350 -2962 0
-3284 55 0
-3284 3070 0
3284 -55 -3070 0
-3285 -55 0
-3285 -3070 0
3285 55 3070 0
-3286 -3284 0
-3286 -3285 0
3286 3284 3285 0
54 -13009 0
-54 13009 0
-285 171 0
-285 221 0
285 -171 -221 0
-349 -172 0
-349 285 0
349 172 -285 0
-517 164 0
-517 453 0
517 -164 -453 0
-581 -165 0
-581 517 0
581 165 -517 0
-749 157 0
-749 685 0
749 -157 -685 0
-813 -158 0
-813 749 0
813 158 -749 0
-981 150 0
-981 917 0
981 -150 -917 0
-1045 -151 0
-1045 981 0
1045 151 -981 0
-1213 143 0
-1213 1149 0
1213 -143 -1149 0
-1277 -144 0
-1277 1213 0
1277 144 -1213 0
-1445 136 0
-1445 1381 0
1445 -136 -1381 0
-1509 -137 0
-1509 1445 0
1509 137 -1445 0
-1677 129 0
-1677 1613 0
1677 -129 -1613 0
-1741 -130 0
-1741 1677 0
1741 130 -1677 0
-1909 122 0
-1909 1845 0
1909 -122 -1845 0
-1973 -123 0
-1973 1909 0
1973 123 -1909 0
-2141 115 0
-2141 2077 0
2141 -115 -2077 0
-2205 -116 0
-2205 2141 0
2205 116 -2141 0
-2313 -1973 0
-2313 -2205 0
2313 1973 2205 0
-2421 -1741 0
-2421 2313 0
2421 1741 -2313 0
-2529 -1509 0
-2529 2421 0
2529 1509 -2421 0
-2637 -1277 0
-2637 2529 0
2637 1277 -2529 0
-2745 -1045 0
-2745 2637 0
2745 1045 -2637 0
-2853 -813 0
-2853 2745 0
2853 813 -2745 0
-2961 -581 0
-2961 2853 0
2961 581 -2853 0
-3069 -349 0
-3069 2961 0
3069 349 -2961 0
-3281 54 0
-3281 3069 0
3281 -54 -3069 0
-3282 -54 0
-3282 -3069 0
3282 54 3069 0
-3283 -3281 0
-3283 -3282 0
3283 3281 3282 0
53 -13008 0
-53 13008 0
-284 171 0
-284 220 0
284 -171 -220 0
-348 -172 0
-348 284 0
348 172 -284 0
-516 164 0
-516 452 0
516 -164 -452 0
-580 -165 0
-580 516 0
580 165 -516 0
-748 157 0
-748 684 0
748 -157 -684 0
-812 -158 0
-812 748 0
812 158 -748 0
-980 150 0
-980 916 0
980 -150 -916 0
-1044 -151 0
-1044 980 0
1044 151 -980 0
-1212 143 0
-1212 1148 0
1212 -143 -1148 0
-1276 -144 0
-1276 1212 0
1276 144 -1212 0
-1444 136 0
-1444 1380 0
1444 -136 -1380 0
-1508 -137 0
-1508 1444 0
1508 137 -1444 0
-1676 129 0
-1676 1612 0
1676 -129 -1612 0
-1740 -130 0
-1740 1676 0
1740 130 -1676 0
-1908 122 0
-1908 1844 0
1908 -122 -1844 0
-1972 -123 0
-1972 1908 0
1972 123 -1908 0
-2140 115 0
-2140 2076 0
2140 -115 -2076 0
-2204 -116 0
-2204 2140 0
2204 116 -2140 0
-2312 -1972 0
-2312 -2204 0
2312 1972 2204 0
-2420 -1740 0
-2420 2312 0
2420 1740 -2312 0
-2528 -1508 0
-2528 2420 0
2528 1508 -2420 0
-2636 -1276 0
-2636 2528 0
2636 1276 -2528 0
-2744 -1044 0
-2744 2636 0
2744 1044 -2636 0
-2852 -812 0
-2852 2744 0
2852 812 -2744 0
-2960 -580 0
-2960 2852 0
2960 580 -2852 0
-3068 -348 0
-3068 2960 0
3068 348 -2960 0
-3278 53 0
-3278 3068 0
3278 -53 -3068 0
-3279 -53 0
-3279 -3068 0
3279 53 3068 0
-3280 -3278 0
-3280 -3279 0
3280 3278 3279 0
52 -13007 0
-52 13007 0
-283 171 0
-283 219 0
283 -171 -219 0
-347 -172 0
-347 283 0
347 172 -283 0
-515 164 0
-515 451 0
515 -164 -451 0
-579 -165 0
-579 515 0
579 165 -515 0
-747 157 0
-747 683 0
747 -157 -683 0
-811 -158 0
-811 747 0
811 158 -747 0
-979 150 0
-979 915 0
979 -150 -915 0
-1043 -151 0
-1043 979 0
1043 151 -979 0
-1211 143 0
-1211 1147 0
1211 -143 -1147 0
-1275 -144 0
-1275 1211 0
1275 144 -1211 0
-1443 136 0
-1443 1379 0
1443 -136 -1379 0
-1507 -137 0
-1507 1443 0
1507 137 -1443 0
-1675 129 0
-1675 1611 0
1675 -129 -1611 0
-1739 -130 0
-1739 1675 0
1739 130 -1675 0
-1907 122 0
-1907 1843 0
1907 -122 -1843 0
-1971 -123 0
-1971 1907 0
1971 123 -1907 0
-2139 115 0
-2139 2075 0
2139 -115 -2075 0
-2203 -116 0
-2203 2139 0
2203 116 -2139 0
-2311 -1971 0
-2311 -2203 0
2311 1971 2203 0
-2419 -1739 0
-2419 2311 0
2419 1739 -2311 0
-2527 -1507 0
-2527 2419 0
2527 1507 -2419 0
-2635 -1275 0
-2635 2527 0
2635 1275 -2527 0
-2743 -1043 0
-2743 2635 0
2743 1043 -2635 0
-2851 -811 0
-2851 2743 0
2851 811 -2743 0
-2959 -579 0
-2959 2851 0
2959 579 -2851 0
-3067 -347 0
-3067 2959 0
3067 347 -2959 0
-3275 52 0
-3275 3067 0
3275 -52 -3067 0
-3276 -52 0
-3276 -3067 0
3276 52 3067 0
-3277 -3275 0
-3277 -3276 0
3277 3275 3276 0
51 -13006 0
-51 13006 0
-282 171 0
-282 218 0
282 -171 -218 0
-346 -172 0
-346 282 0
346 172 -282 0
-514 164 0
-514 450 0
514 -164 -450 0
-578 -165 0
-578 514 0
578 165 -514 0
-746 157 0
-746 682 0
746 -157 -682 0
-810 -158 0
-810 746 0
810 158 -746 0
-978 150 0
-978 914 0
978 -150 -914 0
-1042 -151 0
-1042 978 0
1042 151 -978 0
-1210 143 0
-1210 1146 0
1210 -143 -1146 0
-1274 -144 0
-1274 1210 0
1274 144 -1210 0
-1442 136 0
-1442 1378 0
1442 -136 -1378 0
-1506 -137 0
-1506 1442 0
1506 137 -1442 0
-1674 129 0
-1674 1610 0
1674 -129 -1610 0
-1738 -130 0
-1738 1674 0
1738 130 -1674 0
-1906 122 0
-1906 1842 0
1906 -122 -1842 0
-1970 -123 0
-1970 1906 0
1970 123 -1906 0
-2138 115 0
-2138 2074 0
2138 -115 -2074 0
-2202 -116 0
-2202 2138 0
2202 116 -2138 0
-2310 -1970 0
-2310 -2202 0
2310 1970 2202 0
-2418 -1738 0
-2418 2310 0
2418 1738 -2310 0
-2526 -1506 0
-2526 2418 0
2526 1506 -2418 0
-2634 -1274 0
-2634 2526 0
2634 1274 -2526 0
-2742 -1042 0
-2742 2634 0
2742 1042 -2634 0
-2850 -810 0
-2850 2742 0
2850 810 -2742 0
-2958 -578 0
-2958 2850 0
2958 578 -2850 0
-3066 -346 0
-3066 2958 0
3066 346 -2958 0
-3272 51 0
-3272 3066 0
3272 -51 -3066 0
-3273 -51 0
-3273 -3066 0
3273 51 3066 0
-3274 -3272 0
-3274 -3273 0
3274 3272 3273 0
50 -13005 0
-50 13005 0
-281 171 0
-281 217 0
281 -171 -217 0
-345 -172 0
-345 281 0
345 172 -281 0
-513 164 0
-513 449 0
513 -164 -449 0
-577 -165 0
-577 513 0
577 165 -513 0
-745 157 0
-745 681 0
745 -157 -681 0
-809 -158 0
-809 745 0
809 158 -745 0
-977 150 0
-977 913 0
977 -150 -913 0
-1041 -151 0
-1041 977 0
1041 151 -977 0
-1209 143 0
-1209 1145 0
1209 -143 -1145 0
-1273 -144 0
-1273 1209 0
1273 144 -1209 0
-1441 136 0
-1441 1377 0
1441 -136 -1377 0
-1505 -137 0
-1505 1441 0
1505 137 -1441 0
-1673 129 0
-1673 1609 0
1673 -129 -1609 0
-1737 -130 0
-1737 1673 0
1737 130 -1673 0
-1905 122 0
-1905 1841 0
1905 -122 -1841 0
-1969 -123 0
-1969 1905 0
1969 123 -1905 0
-2137 115 0
-2137 2073 0
2137 -115 -2073 0
-2201 -116 0
-2201 2137 0
2201 116 -2137 0
-2309 -1969 0
-2309 -2201 0
2309 1969 2201 0
-2417 -1737 0
-2417 2309 0
2417 1737 -2309 0
-2525 -1505 0
-2525 2417 0
2525 1505 -2417 0
-2633 -1273 0
-2633 2525 0
2633 1273 -2525 0
-2741 -1041 0
-2741 2633 0
2741 1041 -2633 0
-2849 -809 0
-2849 2741 0
2849 809 -2741 0
-2957 -577 0
-2957 2849 0
2957 577 -2849 0
-3065 -345 0
-3065 2957 0
3065 345 -2957 0
-3269 50 0
-3269 3065 0
3269 -50 -3065 0
-3270 -50 0
-3270 -3065 0
3270 50 3065 0
-3271 -3269 0
-3271 -3270 0
3271 3269 3270 0
49 -13004 0
-49 13004 0
-280 171 0
-280 216 0
280 -171 -216 0
-344 -172 0
-344 280 0
344 172 -280 0
-512 164 0
-512 448 0
512 -164 -448 0
-576 -165 0
-576 512 0
576 165 -512 0
-744 157 0
-744 680 0
744 -157 -680 0
-808 -158 0
-808 744 0
808 158 -744 0
-976 150 0
-976 912 0
976 -150 -912 0
-1040 -151 0
-1040 976 0
1040 151 -976 0
-1208 143 0
-1208 1144 0
1208 -143 -1144 0
-1272 -144 0
-1272 1208 0
1272 144 -1208 0
-1440 136 0
-1440 1376 0
1440 -136 -1376 0
-1504 -137 0
-1504 1440 0
1504 137 -1440 0
-1672 129 0
-1672 1608 0
1672 -129 -1608 0
-1736 -130 0
-1736 1672 0
1736 130 -1672 0
-1904 122 0
-1904 1840 0
1904 -122 -1840 0
-1968 -123 0
-1968 1904 0
1968 123 -1904 0
-2136 115 0
-2136 2072 0
2136 -115 -2072 0
-2200 -116 0
-2200 2136 0
2200 116 -2136 0
-2308 -1968 0
-2308 -2200 0
2308 1968 2200 0
-2416 -1736 0
-2416 2308 0
2416 1736 -2308 0
-2524 -1504 0
-2524 2416 0
2524 1504 -2416 0
-2632 -1272 0
-2632 2524 0
2632 1272 -2524 0
-2740 -1040 0
-2740 2632 0
2740 1040 -2632 0
-2848 -808 0
-2848 2740 0
2848 808 -2740 0
-2956 -576 0
-2956 2848 0
2956 576 -2848 0
-3064 -344 0
-3064 2956 0
3064 344 -2956 0
-3266 49 0
-3266 3064 0
3266 -49 -3064 0
-3267 -49 0
-3267 -3064 0
3267 49 3064 0
-3268 -3266 0
-3268 -3267 0
3268 3266 3267 0
48 -13003 0
-48 13003 0
-279 171 0
-279 215 0
279 -171 -215 0
-343 -172 0
-343 279 0
343 172 -279 0
-511 164 0
-511 447 0
511 -164 -447 0
-575 -165 0
-575 511 0
575 165 -511 0
-743 157 0
-743 679 0
743 -157 -679 0
-807 -158 0
-807 743 0
807 158 -743 0
-975 150 0
-975 911 0
975 -150 -911 0
-1039 -151 0
-1039 975 0
1039 151 -975 0
-1207 143 0
-1207 1143 0
1207 -143 -1143 0
-1271 -144 0
-1271 1207 0
1271 144 -1207 0
-1439 136 0
-1439 1375 0
1439 -136 -1375 0
-1503 -137 0
-1503 1439 0
1503 137 -1439 0
-1671 129 0
-1671 1607 0
1671 -129 -1607 0
-1735 -130 0
-1735 1671 0
1735 130 -1671 0
-1903 122 0
-1903 1839 0
1903 -122 -1839 0
-1967 -123 0
-1967 1903 0
1967 123 -1903 0
-2135 115 0
-2135 2071 0
2135 -115 -2071 0
-2199 -116 0
-2199 2135 0
2199 116 -2135 0
-2307 -1967 0
-2307 -2199 0
2307 1967 2199 0
-2415 -1735 0
-2415 2307 0
2415 1735 -2307 0
-2523 -1503 0
-2523 2415 0
2523 1503 -2415 0
-2631 -1271 0
-2631 2523 0
2631 1271 -2523 0
-2739 -1039 0
-2739 2631 0
2739 1039 -2631 0
-2847 -807 0
-2847 2739 0
2847 807 -2739 0
-2955 -575 0
-2955 2847 0
2955 575 -2847 0
-3063 -343 0
-3063 2955 0
3063 343 -2955 0
-3263 48 0
-3263 3063 0
3263 -48 -3063 0
-3264 -48 0
-3264 -3063 0
3264 48 3063 0
-3265 -3263 0
-3265 -3264 0
3265 3263 3264 0
47 -13002 0
-47 13002 0
-278 171 0
-278 214 0
278 -171 -214 0
-342 -172 0
-342 278 0
342 172 -278 0
-510 164 0
-510 446 0
510 -164 -446 0
-574 -165 0
-574 510 0
574 165 -510 0
-742 157 0
-742 678 0
742 -157 -678 0
-806 -158 0
-806 742 0
806 158 -742 0
-974 150 0
-974 910 0
974 -150 -910 0
-1038 -151 0
-1038 974 0
1038 151 -974 0
-1206 143 0
-1206 1142 0
1206 -143 -1142 0
-1270 -144 0
-1270 1206 0
1270 144 -1206 0
-1438 136 0
-1438 1374 0
1438 -136 -1374 0
-1502 -137 0
-1502 1438 0
1502 137 -1438 0
-1670 129 0
-1670 1606 0
1670 -129 -1606 0
-1734 -130 0
-1734 1670 0
1734 130 -1670 0
-1902 122 0
-1902 1838 0
1902 -122 -1838 0
-1966 -123 0
-1966 1902 0
1966 123 -1902 0
-2134 115 0
-2134 2070 0
2134 -115 -2070 0
-2198 -116 0
-2198 2134 0
2198 116 -2134 0
-2306 -1966 0
-2306 -2198 0
2306 1966 2198 0
-2414 -1734 0
-2414 2306 0
2414 1734 -2306 0
-2522 -1502 0
-2522 2414 0
2522 1502 -2414 0
-2630 -1270 0
-2630 2522 0
2630 1270 -2522 0
-2738 -1038 0
-2738 2630 0
2738 1038 -2630 0
-2846 -806 0
-2846 2738 0
2846 806 -2738 0
-2954 -574 0
-2954 2846 0
2954 574 -2846 0
-3062 -342 0
-3062 2954 0
3062 342 -2954 0
-3260 47 0
-3260 3062 0
3260 -47 -3062 0
-3261 -47 0
-3261 -3062 0
3261 47 3062 0
-3262 -3260 0
-3262 -3261 0
3262 3260 3261 0
46 -13001 0
-46 13001 0
-277 171 0
-277 213 0
277 -171 -213 0
-341 -172 0
-341 277 0
341 172 -277 0
-509 164 0
-509 445 0
509 -164 -445 0
-573 -165 0
-573 509 0
573 165 -509 0
-741 157 0
-741 677 0
741 -157 -677 0
-805 -158 0
-805 741 0
805 158 -741 0
-973 150 0
-973 909 0
973 -150 -909 0
-1037 -151 0
-1037 973 0
1037 151 -973 0
-1205 143 0
-1205 1141 0
1205 -143 -1141 0
-1269 -144 0
-1269 1205 0
1269 144 -1205 0
-1437 136 0
-1437 1373 0
1437 -136 -1373 0
-1501 -137 0
-1501 1437 0
1501 137 -1437 0
-1669 129 0
-1669 1605 0
1669 -129 -1605 0
-1733 -130 0
-1733 1669 0
1733 130 -1669 0
-1901 122 0
-1901 1837 0
1901 -122 -1837 0
-1965 -123 0
-1965 1901 0
1965 123 -1901 0
-2133 115 0
-2133 2069 0
2133 -115 -2069 0
-2197 -116 0
-2197 2133 0
2197 116 -2133 0
-2305 -1965 0
-2305 -2197 0
2305 1965 2197 0
-2413 -1733 0
-2413 2305 0
2413 1733 -2305 0
-2521 -1501 0
-2521 2413 0
2521 1501 -2413 0
-2629 -1269 0
-2629 2521 0
2629 1269 -2521 0
-2737 -1037 0
-2737 2629 0
2737 1037 -2629 0
-2845 -805 0
-2845 2737 0
2845 805 -2737 0
-2953 -573 0
-2953 2845 0
2953 573 -2845 0
-3061 -341 0
-3061 2953 0
3061 341 -2953 0
-3257 46 0
-3257 3061 0
3257 -46 -3061 0
-3258 -46 0
-3258 -3061 0
3258 46 3061 0
-3259 -3257 0
-3259 -3258 0
3259 3257 3258 0
45 -13000 0
-45 13000 0
-340 -172 0
-340 276 0
340 172 -276 0
-572 -165 0
-572 508 0
572 165 -508 0
-804 -158 0
-804 740 0
804 158 -740 0
-1036 -151 0
-1036 972 0
1036 151 -972 0
-1268 -144 0
-1268 1204 0
1268 144 -1204 0
-1500 -137 0
-1500 1436 0
1500 137 -1436 0
-1732 -130 0
-1732 1668 0
1732 130 -1668 0
-1964 -123 0
-1964 1900 0
1964 123 -1900 0
-2196 -116 0
-2196 2132 0
2196 116 -2132 0
-2304 -1964 0
-2304 -2196 0
2304 1964 2196 0
-2412 -1732 0
-2412 2304 0
2412 1732 -2304 0
-2520 -1500 0
-2520 2412 0
2520 1500 -2412 0
-2628 -1268 0
-2628 2520 0
2628 1268 -2520 0
-2736 -1036 0
-2736 2628 0
2736 1036 -2628 0
-2844 -804 0
-2844 2736 0
2844 804 -2736 0
-2952 -572 0
-2952 2844 0
2952 572 -2844 0
-3060 -340 0
-3060 2952 0
3060 340 -2952 0
-3254 45 0
-3254 3060 0
3254 -45 -3060 0
-3255 -45 0
-3255 -3060 0
3255 45 3060 0
-3256 -3254 0
-3256 -3255 0
3256 3254 3255 0
44 -12999 0
-44 12999 0
-339 -172 0
-339 275 0
339 172 -275 0
-571 -165 0
-571 507 0
571 165 -507 0
-803 -158 0
-803 739 0
803 158 -739 0
-1035 -151 0
-1035 971 0
1035 151 -971 0
-1267 -144 0
-1267 1203 0
1267 144 -1203 0
-1499 -137 0
-1499 1435 0
1499 137 -1435 0
-1731 -130 0
-1731 1667 0
1731 130 -1667 0
-1963 -123 0
-1963 1899 0
1963 123 -1899 0
-2195 -116 0
-2195 2131 0
2195 116 -2131 0
-2303 -1963 0
-2303 -2195 0
2303 1963 2195 0
-2411 -1731 0
-2411 2303 0
2411 1731 -2303 0
-2519 -1499 0
-2519 2411 0
2519 1499 -2411 0
-2627 -1267 0
-2627 2519 0
2627 1267 -2519 0
-2735 -1035 0
-2735 2627 0
2735 1035 -2627 0
-2843 -803 0
-2843 2735 0
2843 803 -2735 0
-2951 -571 0
-2951 2843 0
2951 571 -2843 0
-3059 -339 0
-3059 2951 0
3059 339 -2951 0
-3251 44 0
-3251 3059 0
3251 -44 -3059 0
-3252 -44 0
-3252 -3059 0
3252 44 3059 0
-3253 -3251 0
-3253 -3252 0
3253 3251 3252 0
43 -12998 0
-43 12998 0
-338 -172 0
-338 274 0
338 172 -274 0
-570 -165 0
-570 506 0
570 165 -506 0
-802 -158 0
-802 738 0
802 158 -738 0
-1034 -151 0
-1034 970 0
1034 151 -970 0
-1266 -144 0
-1266 1202 0
1266 144 -1202 0
-1498 -137 0
-1498 1434 0
1498 137 -1434 0
-1730 -130 0
-1730 1666 0
1730 130 -1666 0
-1962 -123 0
-1962 1898 0
1962 123 -1898 0
-2194 -116 0
-2194 2130 0
2194 116 -2130 0
-2302 -1962 0
-2302 -2194 0
2302 1962 2194 0
-2410 -1730 0
-2410 2302 0
2410 1730 -2302 0
-2518 -1498 0
-2518 2410 0
2518 1498 -2410 0
-2626 -1266 0
-2626 2518 0
2626 1266 -2518 0
-2734 -1034 0
-2734 2626 0
2734 1034 -2626 0
-2842 -802 0
-2842 2734 0
2842 802 -2734 0
-2950 -570 0
-2950 2842 0
2950 570 -2842 0
-3058 -338 0
-3058 2950 0
3058 338 -2950 0
-3248 43 0
-3248 3058 0
3248 -43 -3058 0
-3249 -43 0
-3249 -3058 0
3249 43 3058 0
-3250 -3248 0
-3250 -3249 0
3250 3248 3249 0
42 -12997 0
-42 12997 0
-337 -172 0
-337 273 0
337 172 -273 0
-569 -165 0
-569 505 0
569 165 -505 0
-801 -158 0
-801 737 0
801 158 -737 0
-1033 -151 0
-1033 969 0
1033 151 -969 0
-1265 -144 0
-1265 1201 0
1265 144 -1201 0
-1497 -137 0
-1497 1433 0
1497 137 -1433 0
-1729 -130 0
-1729 1665 0
1729 130 -1665 0
-1961 -123 0
-1961 1897 0
1961 123 -1897 0
-2193 -116 0
-2193 2129 0
2193 116 -2129 0
-2301 -1961 0
-2301 -2193 0
2301 1961 2193 0
-2409 -1729 0
-2409 2301 0
2409 1729 -2301 0
-2517 -1497 0
-2517 2409 0
2517 1497 -2409 0
-2625 -1265 0
-2625 2517 0
2625 1265 -2517 0
-2733 -1033 0
-2733 2625 0
2733 1033 -2625 0
-2841 -801 0
-2841 2733 0
2841 801 -2733 0
-2949 -569 0
-2949 2841 0
2949 569 -2841 0
-3057 -337 0
-3057 2949 0
3057 337 -2949 0
-3245 42 0
-3245 3057 0
3245 -42 -3057 0
-3246 -42 0
-3246 -3057 0
3246 42 3057 0
-3247 -3245 0
-3247 -3246 0
3247 3245 3246 0
41 -12996 0
-41 12996 0
-336 -172 0
-336 272 0
336 172 -272 0
-568 -165 0
-568 504 0
568 165 -504 0
-800 -158 0
-800 736 0
800 158 -736 0
-1032 -151 0
-1032 968 0
1032 151 -968 0
-1264 -144 0
-1264 1200 0
1264 144 -1200 0
-1496 -137 0
-1496 1432 0
1496 137 -1432 0
-1728 -130 0
-1728 1664 0
1728 130 -1664 0
-1960 -123 0
-1960 1896 0
1960 123 -1896 0
-2192 -116 0
-2192 2128 0
2192 116 -2128 0
-2300 -1960 0
-2300 -2192 0
2300 1960 2192 0
-2408 -1728 0
-2408 2300 0
2408 1728 -2300 0
-2516 -1496 0
-2516 2408 0
2516 1496 -2408 0
-2624 -1264 0
-2624 2516 0
2624 1264 -2516 0
-2732 -1032 0
-2732 2624 0
2732 1032 -2624 0
-2840 -800 0
-2840 2732 0
2840 800 -2732 0
-2948 -568 0
-2948 2840 0
2948 568 -2840 0
-3056 -336 0
-3056 2948 0
3056 336 -2948 0
-3242 41 0
-3242 3056 0
3242 -41 -3056 0
-3243 -41 0
-3243 -3056 0
3243 41 3056 0
-3244 -3242 0
-3244 -3243 0
3244 3242 3243 0
40 -12995 0
-40 12995 0
-335 -172 0
-335 271 0
335 172 -271 0
-567 -165 0
-567 503 0
567 165 -503 0
-799 -158 0
-799 735 0
799 158 -735 0
-1031 -151 0
-1031 967 0
1031 151 -967 0
-1263 -144 0
-1263 1199 0
1263 144 -1199 0
-1495 -137 0
-1495 1431 0
1495 137 -1431 0
-1727 -130 0
-1727 1663 0
1727 130 -1663 0
-1959 -123 0
-1959 1895 0
1959 123 -1895 0
-2191 -116 0
-2191 2127 0
2191 116 -2127 0
-2299 -1959 0
-2299 -2191 0
2299 1959 2191 0
-2407 -1727 0
-2407 2299 0
2407 1727 -2299 0
-2515 -1495 0
-2515 2407 0
2515 1495 -2407 0
-2623 -1263 0
-2623 2515 0
2623 1263 -2515 0
-2731 -1031 0
-2731 2623 0
2731 1031 -2623 0
-2839 -799 0
-2839 2731 0
2839 799 -2731 0
-2947 -567 0
-2947 2839 0
2947 567 -2839 0
-3055 -335 0
-3055 2947 0
3055 335 -2947 0
-3239 40 0
-3239 3055 0
3239 -40 -3055 0
-3240 -40 0
-3240 -3055 0
3240 40 3055 0
-3241 -3239 0
-3241 -3240 0
3241 3239 3240 0
39 -12994 0
-39 12994 0
-334 -172 0
-334 270 0
334 172 -270 0
-566 -165 0
-566 502 0
566 165 -502 0
-798 -158 0
-798 734 0
798 158 -734 0
-1030 -151 0
-1030 966 0
1030 151 -966 0
-1262 -144 0
-1262 1198 0
1262 144 -1198 0
-1494 -137 0
-1494 1430 0
1494 137 -1430 0
-1726 -130 0
-1726 1662 0
1726 130 -1662 0
-1958 -123 0
-1958 1894 0
1958 123 -1894 0
-2190 -116 0
-2190 2126 0
2190 116 -2126 0
-2298 -1958 0
-2298 -2190 0
2298 1958 2190 0
-2406 -1726 0
-2406 2298 0
2406 1726 -2298 0
-2514 -1494 0
-2514 2406 0
2514 1494 -2406 0
-2622 -1262 0
-2622 2514 0
2622 1262 -2514 0
-2730 -1030 0
-2730 2622 0
2730 1030 -2622 0
-2838 -798 0
-2838 2730 0
2838 798 -2730 0
-2946 -566 0
-2946 2838 0
2946 566 -2838 0
-3054 -334 0
-3054 2946 0
3054 334 -2946 0
-3236 39 0
-3236 3054 0
3236 -39 -3054 0
-3237 -39 0
-3237 -3054 0
3237 39 3054 0
-3238 -3236 0
-3238 -3237 0
3238 3236 3237 0
38 -12993 0
-38 12993 0
-333 -172 0
-333 269 0
333 172 -269 0
-565 -165 0
-565 501 0
565 165 -501 0
-797 -158 0
-797 733 0
797 158 -733 0
-1029 -151 0
-1029 965 0
1029 151 -965 0
-1261 -144 0
-1261 1197 0
1261 144 -1197 0
-1493 -137 0
-1493 1429 0
1493 137 -1429 0
-1725 -130 0
-1725 1661 0
1725 130 -1661 0
-1957 -123 0
-1957 1893 0
1957 123 -1893 0
-2189 -116 0
-2189 2125 0
2189 116 -2125 0
-2297 -1957 0
-2297 -2189 0
2297 1957 2189 0
-2405 -1725 0
-2405 2297 0
2405 1725 -2297 0
-2513 -1493 0
-2513 2405 0
2513 1493 -2405 0
-2621 -1261 0
-2621 2513 0
2621 1261 -2513 0
-2729 -1029 0
-2729 2621 0
2729 1029 -2621 0
-2837 -797 0
-2837 2729 0
2837 797 -2729 0
-2945 -565 0
-2945 2837 0
2945 565 -2837 0
-3053 -333 0
-3053 2945 0
3053 333 -2945 0
-3233 38 0
-3233 3053 0
3233 -38 -3053 0
-3234 -38 0
-3234 -3053 0
3234 38 3053 0
-3235 -3233 0
-3235 -3234 0
3235 3233 3234 0
37 -12992 0
-37 12992 0
-332 -172 0
-332 268 0
332 172 -268 0
-564 -165 0
-564 500 0
564 165 -500 0
-796 -158 0
-796 732 0
796 158 -732 0
-1028 -151 0
-1028 964 0
1028 151 -964 0
-1260 -144 0
-1260 1196 0
1260 144 -1196 0
-1492 -137 0
-1492 1428 0
1492 137 -1428 0
-1724 -130 0
-1724 1660 0
1724 130 -1660 0
-1956 -123 0
-1956 1892 0
1956 123 -1892 0
-2188 -116 0
-2188 2124 0
2188 116 -2124 0
-2296 -1956 0
-2296 -2188 0
2296 1956 2188 0
-2404 -1724 0
-2404 2296 0
2404 1724 -2296 0
-2512 -1492 0
-2512 2404 0
2512 1492 -2404 0
-2620 -1260 0
-2620 2512 0
2620 1260 -2512 0
-2728 -1028 0
-2728 2620 0
2728 1028 -2620 0
-2836 -796 0
-2836 2728 0
2836 796 -2728 0
-2944 -564 0
-2944 2836 0
2944 564 -2836 0
-3052 -332 0
-3052 2944 0
3052 332 -2944 0
-3230 37 0
-3230 3052 0
3230 -37 -3052 0
-3231 -37 0
-3231 -3052 0
3231 37 3052 0
-3232 -3230 0
-3232 -3231 0
3232 3230 3231 0
36 -12991 0
-36 12991 0
-331 -172 0
-331 267 0
331 172 -267 0
-563 -165 0
-563 499 0
563 165 -499 0
-795 -158 0
-795 731 0
795 158 -731 0
-1027 -151 0
-1027 963 0
1027 151 -963 0
-1259 -144 0
-1259 1195 0
1259 144 -1195 0
-1491 -137 0
-1491 1427 0
1491 137 -1427 0
-1723 -130 0
-1723 1659 0
1723 130 -1659 0
-1955 -123 0
-1955 1891 0
1955 123 -1891 0
-2187 -116 0
-2187 2123 0
2187 116 -2123 0
-2295 -1955 0
-2295 -2187 0
2295 1955 2187 0
-2403 -1723 0
-2403 2295 0
2403 1723 -2295 0
-2511 -1491 0
-2511 2403 0
2511 1491 -2403 0
-2619 -1259 0
-2619 2511 0
2619 1259 -2511 0
-2727 -1027 0
-2727 2619 0
2727 1027 -2619 0
-2835 -795 0
-2835 2727 0
2835 795 -2727 0
-2943 -563 0
-2943 2835 0
2943 563 -2835 0
-3051 -331 0
-3051 2943 0
3051 331 -2943 0
-3227 36 0
-3227 3051 0
3227 -36 -3051 0
-3228 -36 0
-3228 -3051 0
3228 36 3051 0
-3229 -3227 0
-3229 -3228 0
3229 3227 3228 0
35 -12990 0
-35 12990 0
-330 -172 0
-330 266 0
330 172 -266 0
-562 -165 0
-562 498 0
562 165 -498 0
-794 -158 0
-794 730 0
794 158 -730 0
-1026 -151 0
-1026 962 0
1026 151 -962 0
-1258 -144 0
-1258 1194 0
1258 144 -1194 0
-1490 -137 0
-1490 1426 0
1490 137 -1426 0
-1722 -130 0
-1722 1658 0
1722 130 -1658 0
-1954 -123 0
-1954 1890 0
1954 123 -1890 0
-2186 -116 0
-2186 2122 0
2186 116 -2122 0
-2294 -1954 0
-2294 -2186 0
2294 1954 2186 0
-2402 -1722 0
-2402 2294 0
2402 1722 -2294 0
-2510 -1490 0
-2510 2402 0
2510 1490 -2402 0
-2618 -1258 0
-2618 2510 0
2618 1258 -2510 0
-2726 -1026 0
-2726 2618 0
2726 1026 -2618 0
-2834 -794 0
-2834 2726 0
2834 794 -2726 0
-2942 -562 0
-2942 2834 0
2942 562 -2834 0
-3050 -330 0
-3050 2942 0
3050 330 -2942 0
-3224 35 0
-3224 3050 0
3224 -35 -3050 0
-3225 -35 0
-3225 -3050 0
3225 35 3050 0
-3226 -3224 0
-3226 -3225 0
3226 3224 3225 0
34 -12989 0
-34 12989 0
-329 -172 0
-329 265 0
329 172 -265 0
-561 -165 0
-561 497 0
561 165 -497 0
-793 -158 0
-793 729 0
793 158 -729 0
-1025 -151 0
-1025 961 0
1025 151 -961 0
-1257 -144 0
-1257 1193 0
1257 144 -1193 0
-1489 -137 0
-1489 1425 0
1489 137 -1425 0
-1721 -130 0
-1721 1657 0
1721 130 -1657 0
-1953 -123 0
-1953 1889 0
1953 123 -1889 0
-2185 -116 0
-2185 2121 0
2185 116 -2121 0
-2293 -1953 0
-2293 -2185 0
2293 1953 2185 0
-2401 -1721 0
-2401 2293 0
2401 1721 -2293 0
-2509 -1489 0
-2509 2401 0
2509 1489 -2401 0
-2617 -1257 0
-2617 2509 0
2617 1257 -2509 0
-2725 -1025 0
-2725 2617 0
2725 1025 -2617 0
-2833 -793 0
-2833 2725 0
2833 793 -2725 0
-2941 -561 0
-2941 2833 0
2941 561 -2833 0
-3049 -329 0
-3049 2941 0
3049 329 -2941 0
-3221 34 0
-3221 3049 0
3221 -34 -3049 0
-3222 -34 0
-3222 -3049 0
3222 34 3049 0
-3223 -3221 0
-3223 -3222 0
3223 3221 3222 0
33 -12988 0
-33 12988 0
-328 -172 0
-328 264 0
328 172 -264 0
-560 -165 0
-560 496 0
560 165 -496 0
-792 -158 0
-792 728 0
792 158 -728 0
-1024 -151 0
-1024 960 0
1024 151 -960 0
-1256 -144 0
-1256 1192 0
1256 144 -1192 0
-1488 -137 0
-1488 1424 0
1488 137 -1424 0
-1720 -130 0
-1720 1656 0
1720 130 -1656 0
-1952 -123 0
-1952 1888 0
1952 123 -1888 0
-2184 -116 0
-2184 2120 0
2184 116 -2120 0
-2292 -1952 0
-2292 -2184 0
2292 1952 2184 0
-2400 -1720 0
-2400 2292 0
2400 1720 -2292 0
-2508 -1488 0
-2508 2400 0
2508 1488 -2400 0
-2616 -1256 0
-2616 2508 0
2616 1256 -2508 0
-2724 -1024 0
-2724 2616 0
2724 1024 -2616 0
-2832 -792 0
-2832 2724 0
2832 792 -2724 0
-2940 -560 0
-2940 2832 0
2940 560 -2832 0
-3048 -328 0
-3048 2940 0
3048 328 -2940 0
-3218 33 0
-3218 3048 0
3218 -33 -3048 0
-3219 -33 0
-3219 -3048 0
3219 33 3048 0
-3220 -3218 0
-3220 -3219 0
3220 3218 3219 0
32 -12987 0
-32 12987 0
-327 -172 0
-327 263 0
327 172 -263 0
-559 -165 0
-559 495 0
559 165 -495 0
-791 -158 0
-791 727 0
791 158 -727 0
-1023 -151 0
-1023 959 0
1023 151 -959 0
-1255 -144 0
-1255 1191 0
1255 144 -1191 0
-1487 -137 0
-1487 1423 0
1487 137 -1423 0
-1719 -130 0
-1719 1655 0
1719 130 -1655 0
-1951 -123 0
-1951 1887 0
1951 123 -1887 0
-2183 -116 0
-2183 2119 0
2183 116 -2119 0
-2291 -1951 0
-2291 -2183 0
2291 1951 2183 0
-2399 -1719 0
-2399 2291 0
2399 1719 -2291 0
-2507 -1487 0
-2507 2399 0
2507 1487 -2399 0
-2615 -1255 0
-2615 2507 0
2615 1255 -2507 0
-2723 -1023 0
-2723 2615 0
2723 1023 -2615 0
-2831 -791 0
-2831 2723 0
2831 791 -2723 0
-2939 -559 0
-2939 2831 0
2939 559 -2831 0
-3047 -327 0
-3047 2939 0
3047 327 -2939 0
-3215 32 0
-3215 3047 0
3215 -32 -3047 0
-3216 -32 0
-3216 -3047 0
3216 32 3047 0
-3217 -3215 0
-3217 -3216 0
3217 3215 3216 0
31 -12986 0
-31 12986 0
-326 -172 0
-326 262 0
326 172 -262 0
-558 -165 0
-558 494 0
558 165 -494 0
-790 -158 0
-790 726 0
790 158 -726 0
-1022 -151 0
-1022 958 0
1022 151 -958 0
-1254 -144 0
-1254 1190 0
1254 144 -1190 0
-1486 -137 0
-1486 1422 0
1486 137 -1422 0
-1718 -130 0
-1718 1654 0
1718 130 -1654 0
-1950 -123 0
-1950 1886 0
1950 123 -1886 0
-2182 -116 0
-2182 2118 0
2182 116 -2118 0
-2290 -1950 0
-2290 -2182 0
2290 1950 2182 0
-2398 -1718 0
-2398 2290 0
2398 1718 -2290 0
-2506 -1486 0
-2506 2398 0
2506 1486 -2398 0
-2614 -1254 0
-2614 2506 0
2614 1254 -2506 0
-2722 -1022 0
-2722 2614 0
2722 1022 -2614 0
-2830 -790 0
-2830 2722 0
2830 790 -2722 0
-2938 -558 0
-2938 2830 0
2938 558 -2830 0
-3046 -326 0
-3046 2938 0
3046 326 -2938 0
-3212 31 0
-3212 3046 0
3212 -31 -3046 0
-3213 -31 0
-3213 -3046 0
3213 31 3046 0
-3214 -3212 0
-3214 -3213 0
3214 3212 3213 0
30 -12985 0
-30 12985 0
-325 -172 0
-325 261 0
325 172 -261 0
-557 -165 0
-557 493 0
557 165 -493 0
-789 -158 0
-789 725 0
789 158 -725 0
-1021 -151 0
-1021 957 0
1021 151 -957 0
-1253 -144 0
-1253 1189 0
1253 144 -1189 0
-1485 -137 0
-1485 1421 0
1485 137 -1421 0
-1717 -130 0
-1717 1653 0
1717 130 -1653 0
-1949 -123 0
-1949 1885 0
1949 123 -1885 0
-2181 -116 0
-2181 2117 0
2181 116 -2117 0
-2289 -1949 0
-2289 -2181 0
2289 1949 2181 0
-2397 -1717 0
-2397 2289 0
2397 1717 -2289 0
-2505 -1485 0
-2505 2397 0
2505 1485 -2397 0
-2613 -1253 0
-2613 2505 0
2613 1253 -2505 0
-2721 -1021 0
-2721 2613 0
2721 1021 -2613 0
-2829 -789 0
-2829 2721 0
2829 789 -2721 0
-2937 -557 0
-2937 2829 0
2937 557 -2829 0
-3045 -325 0
-3045 2937 0
3045 325 -2937 0
-3209 30 0
-3209 3045 0
3209 -30 -3045 0
-3210 -30 0
-3210 -3045 0
3210 30 3045 0
-3211 -3209 0
-3211 -3210 0
3211 3209 3210 0
29 -12984 0
-29 12984 0
-324 -172 0
-324 260 0
324 172 -260 0
-556 -165 0
-556 492 0
556 165 -492 0
-788 -158 0
-788 724 0
788 158 -724 0
-1020 -151 0
-1020 956 0
1020 151 -956 0
-1252 -144 0
-1252 1188 0
1252 144 -1188 0
-1484 -137 0
-1484 1420 0
1484 137 -1420 0
-1716 -130 0
-1716 1652 0
1716 130 -1652 0
-1948 -123 0
-1948 1884 0
1948 123 -1884 0
-2180 -116 0
-2180 2116 0
2180 116 -2116 0
-2288 -1948 0
-2288 -2180 0
2288 1948 2180 0
-2396 -1716 0
-2396 2288 0
2396 1716 -2288 0
-2504 -1484 0
-2504 2396 0
2504 1484 -2396 0
-2612 -1252 0
-2612 2504 0
2612 1252 -2504 0
-2720 -1020 0
-2720 2612 0
2720 1020 -2612 0
-2828 -788 0
-2828 2720 0
2828 788 -2720 0
-2936 -556 0
-2936 2828 0
2936 556 -2828 0
-3044 -324 0
-3044 2936 0
3044 324 -2936 0
-3206 29 0
-3206 3044 0
3206 -29 -3044 0
-3207 -29 0
-3207 -3044 0
3207 29 3044 0
-3208 -3206 0
-3208 -3207 0
3208 3206 3207 0
28 -12983 0
-28 12983 0
-323 -172 0
-323 259 0
323 172 -259 0
-555 -165 0
-555 491 0
555 165 -491 0
-787 -158 0
-787 723 0
787 158 -723 0
-1019 -151 0
-1019 955 0
1019 151 -955 0
-1251 -144 0
-1251 1187 0
1251 144 -1187 0
-1483 -137 0
-1483 1419 0
1483 137 -1419 0
-1715 -130 0
-1715 1651 0
1715 130 -1651 0
-1947 -123 0
-1947 1883 0
1947 123 -1883 0
-2179 -116 0
-2179 2115 0
2179 116 -2115 0
-2287 -1947 0
-2287 -2179 0
2287 1947 2179 0
-2395 -1715 0
-2395 2287 0
2395 1715 -2287 0
-2503 -1483 0
-2503 2395 0
2503 1483 -2395 0
-2611 -1251 0
-2611 2503 0
2611 1251 -2503 0
-2719 -1019 0
-2719 2611 0
2719 1019 -2611 0
-2827 -787 0
-2827 2719 0
2827 787 -2719 0
-2935 -555 0
-2935 2827 0
2935 555 -2827 0
-3043 -323 0
-3043 2935 0
3043 323 -2935 0
-3203 28 0
-3203 3043 0
3203 -28 -3043 0
-3204 -28 0
-3204 -3043 0
3204 28 3043 0
-3205 -3203 0
-3205 -3204 0
3205 3203 3204 0
27 -12982 0
-27 12982 0
-322 -172 0
-322 258 0
322 172 -258 0
-554 -165 0
-554 490 0
554 165 -490 0
-786 -158 0
-786 722 0
786 158 -722 0
-1018 -151 0
-1018 954 0
1018 151 -954 0
-1250 -144 0
-1250 1186 0
1250 144 -1186 0
-1482 -137 0
-1482 1418 0
1482 137 -1418 0
-1714 -130 0
-1714 1650 0
1714 130 -1650 0
-1946 -123 0
-1946 1882 0
1946 123 -1882 0
-2178 -116 0
-2178 2114 0
2178 116 -2114 0
-2286 -1946 0
-2286 -2178 0
2286 1946 2178 0
-2394 -1714 0
-2394 2286 0
2394 1714 -2286 0
-2502 -1482 0
-2502 2394 0
2502 1482 -2394 0
-2610 -1250 0
-2610 2502 0
2610 1250 -2502 0
-2718 -1018 0
-2718 2610 0
2718 1018 -2610 0
-2826 -786 0
-2826 2718 0
2826 786 -2718 0
-2934 -554 0
-2934 2826 0
2934 554 -2826 0
-3042 -322 0
-3042 2934 0
3042 322 -2934 0
-3200 27 0
-3200 3042 0
3200 -27 -3042 0
-3201 -27 0
-3201 -3042 0
3201 27 3042 0
-3202 -3200 0
-3202 -3201 0
3202 3200 3201 0
26 -12981 0
-26 12981 0
-321 -172 0
-321 257 0
321 172 -257 0
-553 -165 0
-553 489 0
553 165 -489 0
-785 -158 0
-785 721 0
785 158 -721 0
-1017 -151 0
-1017 953 0
1017 151 -953 0
-1249 -144 0
-1249 1185 0
1249 144 -1185 0
-1481 -137 0
-1481 1417 0
1481 137 -1417 0
-1713 -130 0
-1713 1649 0
1713 130 -1649 0
-1945 -123 0
-1945 1881 0
1945 123 -1881 0
-2177 -116 0
-2177 2113 0
2177 116 -2113 0
-2285 -1945 0
-2285 -2177 0
2285 1945 2177 0
-2393 -1713 0
-2393 2285 0
2393 1713 -2285 0
-2501 -1481 0
-2501 2393 0
2501 1481 -2393 0
-2609 -1249 0
-2609 2501 0
2609 1249 -2501 0
-2717 -1017 0
-2717 2609 0
2717 1017 -2609 0
-2825 -785 0
-2825 2717 0
2825 785 -2717 0
-2933 -553 0
-2933 2825 0
2933 553 -2825 0
-3041 -321 0
-3041 2933 0
3041 321 -2933 0
-3197 26 0
-3197 3041 0
3197 -26 -3041 0
-3198 -26 0
-3198 -3041 0
3198 26 3041 0
-3199 -3197 0
-3199 -3198 0
3199 3197 3198 0
25 -12980 0
-25 12980 0
-320 -172 0
-320 256 0
320 172 -256 0
-552 -165 0
-552 488 0
552 165 -488 0
-784 -158 0
-784 720 0
784 158 -720 0
-1016 -151 0
-1016 952 0
1016 151 -952 0
-1248 -144 0
-1248 1184 0
1248 144 -1184 0
-1480 -137 0
-1480 1416 0
1480 137 -1416 0
-1712 -130 0
-1712 1648 0
1712 130 -1648 0
-1944 -123 0
-1944 1880 0
1944 123 -1880 0
-2176 -116 0
-2176 2112 0
2176 116 -2112 0
-2284 -1944 0
-2284 -2176 0
2284 1944 2176 0
-2392 -1712 0
-2392 2284 0
2392 1712 -2284 0
-2500 -1480 0
-2500 2392 0
2500 1480 -2392 0
-2608 -1248 0
-2608 2500 0
2608 1248 -2500 0
-2716 -1016 0
-2716 2608 0
2716 1016 -2608 0
-2824 -784 0
-2824 2716 0
2824 784 -2716 0
-2932 -552 0
-2932 2824 0
2932 552 -2824 0
-3040 -320 0
-3040 2932 0
3040 320 -2932 0
-3194 25 0
-3194 3040 0
3194 -25 -3040 0
-3195 -25 0
-3195 -3040 0
3195 25 3040 0
-3196 -3194 0
-3196 -3195 0
3196 3194 3195 0
24 -12979 0
-24 12979 0
-319 -172 0
-319 255 0
319 172 -255 0
-551 -165 0
-551 487 0
551 165 -487 0
-783 -158 0
-783 719 0
783 158 -719 0
-1015 -151 0
-1015 951 0
1015 151 -951 0
-1247 -144 0
-1247 1183 0
1247 144 -1183 0
-1479 -137 0
-1479 1415 0
1479 137 -1415 0
-1711 -130 0
-1711 1647 0
1711 130 -1647 0
-1943 -123 0
-1943 1879 0
1943 123 -1879 0
-2175 -116 0
-2175 2111 0
2175 116 -2111 0
-2283 -1943 0
-2283 -2175 0
2283 1943 2175 0
-2391 -1711 0
-2391 2283 0
2391 1711 -2283 0
-2499 -1479 0
-2499 2391 0
2499 1479 -2391 0
-2607 -1247 0
-2607 2499 0
2607 1247 -2499 0
-2715 -1015 0
-2715 2607 0
2715 1015 -2607 0
-2823 -783 0
-2823 2715 0
2823 783 -2715 0
-2931 -551 0
-2931 2823 0
2931 551 -2823 0
-3039 -319 0
-3039 2931 0
3039 319 -2931 0
-3191 24 0
-3191 3039 0
3191 -24 -3039 0
-3192 -24 0
-3192 -3039 0
3192 24 3039 0
-3193 -3191 0
-3193 -3192 0
3193 3191 3192 0
23 -12978 0
-23 12978 0
-318 -172 0
-318 254 0
318 172 -254 0
-550 -165 0
-550 486 0
550 165 -486 0
-782 -158 0
-782 718 0
782 158 -718 0
-1014 -151 0
-1014 950 0
1014 151 -950 0
-1246 -144 0
-1246 1182 0
1246 144 -1182 0
-1478 -137 0
-1478 1414 0
1478 137 -1414 0
-1710 -130 0
-1710 1646 0
1710 130 -1646 0
-1942 -123 0
-1942 1878 0
1942 123 -1878 0
-2174 -116 0
-2174 2110 0
2174 116 -2110 0
-2282 -1942 0
-2282 -2174 0
2282 1942 2174 0
-2390 -1710 0
-2390 2282 0
2390 1710 -2282 0
-2498 -1478 0
-2498 2390 0
2498 1478 -2390 0
-2606 -1246 0
-2606 2498 0
2606 1246 -2498 0
-2714 -1014 0
-2714 2606 0
2714 1014 -2606 0
-2822 -782 0
-2822 2714 0
2822 782 -2714 0
-2930 -550 0
-2930 2822 0
2930 550 -2822 0
-3038 -318 0
-3038 2930 0
3038 318 -2930 0
-3188 23 0
-3188 3038 0
3188 -23 -3038 0
-3189 -23 0
-3189 -3038 0
3189 23 3038 0
-3190 -3188 0
-3190 -3189 0
3190 3188 3189 0
22 -12977 0
-22 12977 0
-317 -172 0
-317 253 0
317 172 -253 0
-549 -165 0
-549 485 0
549 165 -485 0
-781 -158 0
-781 717 0
781 158 -717 0
-1013 -151 0
-1013 949 0
1013 151 -949 0
-1245 -144 0
-1245 1181 0
1245 144 -1181 0
-1477 -137 0
-1477 1413 0
1477 137 -1413 0
-1709 -130 0
-1709 1645 0
1709 130 -1645 0
-1941 -123 0
-1941 1877 0
1941 123 -1877 0
-2173 -116 0
-2173 2109 0
2173 116 -2109 0
-2281 -1941 0
-2281 -2173 0
2281 1941 2173 0
-2389 -1709 0
-2389 2281 0
2389 1709 -2281 0
-2497 -1477 0
-2497 2389 0
2497 1477 -2389 0
-2605 -1245 0
-2605 2497 0
2605 1245 -2497 0
-2713 -1013 0
-2713 2605 0
2713 1013 -2605 0
-2821 -781 0
-2821 2713 0
2821 781 -2713 0
-2929 -549 0
-2929 2821 0
2929 549 -2821 0
-3037 -317 0
-3037 2929 0
3037 317 -2929 0
-3185 22 0
-3185 3037 0
3185 -22 -3037 0
-3186 -22 0
-3186 -3037 0
3186 22 3037 0
-3187 -3185 0
-3187 -3186 0
3187 3185 3186 0
21 -12976 0
-21 12976 0
-316 -172 0
-316 252 0
316 172 -252 0
-548 -165 0
-548 484 0
548 165 -484 0
-780 -158 0
-780 716 0
780 158 -716 0
-1012 -151 0
-1012 948 0
1012 151 -948 0
-1244 -144 0
-1244 1180 0
1244 144 -1180 0
-1476 -137 0
-1476 1412 0
1476 137 -1412 0
-1708 -130 0
-1708 1644 0
1708 130 -1644 0
-1940 -123 0
-1940 1876 0
1940 123 -1876 0
-2172 -116 0
-2172 2108 0
2172 116 -2108 0
-2280 -1940 0
-2280 -2172 0
2280 1940 2172 0
-2388 -1708 0
-2388 2280 0
2388 1708 -2280 0
-2496 -1476 0
-2496 2388 0
2496 1476 -2388 0
-2604 -1244 0
-2604 2496 0
2604 1244 -2496 0
-2712 -1012 0
-2712 2604 0
2712 1012 -2604 0
-2820 -780 0
-2820 2712 0
2820 780 -2712 0
-2928 -548 0
-2928 2820 0
2928 548 -2820 0
-3036 -316 0
-3036 2928 0
3036 316 -2928 0
-3182 21 0
-3182 3036 0
3182 -21 -3036 0
-3183 -21 0
-3183 -3036 0
3183 21 3036 0
-3184 -3182 0
-3184 -3183 0
3184 3182 3183 0
20 -12975 0
-20 12975 0
-315 -172 0
-315 251 0
315 172 -251 0
-547 -165 0
-547 483 0
547 165 -483 0
-779 -158 0
-779 715 0
779 158 -715 0
-1011 -151 0
-1011 947 0
1011 151 -947 0
-1243 -144 0
-1243 1179 0
1243 144 -1179 0
-1475 -137 0
-1475 1411 0
1475 137 -1411 0
-1707 -130 0
-1707 1643 0
1707 130 -1643 0
-1939 -123 0
-1939 1875 0
1939 123 -1875 0
-2171 -116 0
-2171 2107 0
2171 116 -2107 0
-2279 -1939 0
-2279 -2171 0
2279 1939 2171 0
-2387 -1707 0
-2387 2279 0
2387 1707 -2279 0
-2495 -1475 0
-2495 2387 0
2495 1475 -2387 0
-2603 -1243 0
-2603 2495 0
2603 1243 -2495 0
-2711 -1011 0
-2711 2603 0
2711 1011 -2603 0
-2819 -779 0
-2819 2711 0
2819 779 -2711 0
-2927 -547 0
-2927 2819 0
2927 547 -2819 0
-3035 -315 0
-3035 2927 0
3035 315 -2927 0
-3179 20 0
-3179 3035 0
3179 -20 -3035 0
-3180 -20 0
-3180 -3035 0
3180 20 3035 0
-3181 -3179 0
-3181 -3180 0
3181 3179 3180 0
19 -12974 0
-19 12974 0
-314 -172 0
-314 250 0
314 172 -250 0
-546 -165 0
-546 482 0
546 165 -482 0
-778 -158 0
-778 714 0
778 158 -714 0
-1010 -151 0
-1010 946 0
1010 151 -946 0
-1242 -144 0
-1242 1178 0
1242 144 -1178 0
-1474 -137 0
-1474 1410 0
1474 137 -1410 0
-1706 -130 0
-1706 1642 0
1706 130 -1642 0
-1938 -123 0
-1938 1874 0
1938 123 -1874 0
-2170 -116 0
-2170 2106 0
2170 116 -2106 0
-2278 -1938 0
-2278 -2170 0
2278 1938 2170 0
-2386 -1706 0
-2386 2278 0
2386 1706 -2278 0
-2494 -1474 0
-2494 2386 0
2494 1474 -2386 0
-2602 -1242 0
-2602 2494 0
2602 1242 -2494 0
-2710 -1010 0
-2710 2602 0
2710 1010 -2602 0
-2818 -778 0
-2818 2710 0
2818 778 -2710 0
-2926 -546 0
-2926 2818 0
2926 546 -2818 0
-3034 -314 0
-3034 2926 0
3034 314 -2926 0
-3176 19 0
-3176 3034 0
3176 -19 -3034 0
-3177 -19 0
-3177 -3034 0
3177 19 3034 0
-3178 -3176 0
-3178 -3177 0
3178 3176 3177 0
18 -12973 0
-18 12973 0
-313 -172 0
-313 249 0
313 172 -249 0
-545 -165 0
-545 481 0
545 165 -481 0
-777 -158 0
-777 713 0
777 158 -713 0
-1009 -151 0
-1009 945 0
1009 151 -945 0
-1241 -144 0
-1241 1177 0
1241 144 -1177 0
-1473 -137 0
-1473 1409 0
1473 137 -1409 0
-1705 -130 0
-1705 1641 0
1705 130 -1641 0
-1937 -123 0
-1937 1873 0
1937 123 -1873 0
-2169 -116 0
-2169 2105 0
2169 116 -2105 0
-2277 -1937 0
-2277 -2169 0
2277 1937 2169 0
-2385 -1705 0
-2385 2277 0
2385 1705 -2277 0
-2493 -1473 0
-2493 2385 0
2493 1473 -2385 0
-2601 -1241 0
-2601 2493 0
2601 1241 -2493 0
-2709 -1009 0
-2709 2601 0
2709 1009 -2601 0
-2817 -777 0
-2817 2709 0
2817 777 -2709 0
-2925 -545 0
-2925 2817 0
2925 545 -2817 0
-3033 -313 0
-3033 2925 0
3033 313 -2925 0
-3173 18 0
-3173 3033 0
3173 -18 -3033 0
-3174 -18 0
-3174 -3033 0
3174 18 3033 0
-3175 -3173 0
-3175 -3174 0
3175 3173 3174 0
17 -12972 0
-17 12972 0
-312 -172 0
-312 248 0
312 172 -248 0
-544 -165 0
-544 480 0
544 165 -480 0
-776 -158 0
-776 712 0
776 158 -712 0
-1008 -151 0
-1008 944 0
1008 151 -944 0
-1240 -144 0
-1240 1176 0
1240 144 -1176 0
-1472 -137 0
-1472 1408 0
1472 137 -1408 0
-1704 -130 0
-1704 1640 0
1704 130 -1640 0
-1936 -123 0
-1936 1872 0
1936 123 -1872 0
-2168 -116 0
-2168 2104 0
2168 116 -2104 0
-2276 -1936 0
-2276 -2168 0
2276 1936 2168 0
-2384 -1704 0
-2384 2276 0
2384 1704 -2276 0
-2492 -1472 0
-2492 2384 0
2492 1472 -2384 0
-2600 -1240 0
-2600 2492 0
2600 1240 -2492 0
-2708 -1008 0
-2708 2600 0
2708 1008 -2600 0
-2816 -776 0
-2816 2708 0
2816 776 -2708 0
-2924 -544 0
-2924 2816 0
2924 544 -2816 0
-3032 -312 0
-3032 2924 0
3032 312 -2924 0
-3170 17 0
-3170 3032 0
3170 -17 -3032 0
-3171 -17 0
-3171 -3032 0
3171 17 3032 0
-3172 -3170 0
-3172 -3171 0
3172 3170 3171 0
16 -12971 0
-16 12971 0
-311 -172 0
-311 247 0
311 172 -247 0
-543 -165 0
-543 479 0
543 165 -479 0
-775 -158 0
-775 711 0
775 158 -711 0
-1007 -151 0
-1007 943 0
1007 151 -943 0
-1239 -144 0
-1239 1175 0
1239 144 -1175 0
-1471 -137 0
-1471 1407 0
1471 137 -1407 0
-1703 -130 0
-1703 1639 0
1703 130 -1639 0
-1935 -123 0
-1935 1871 0
1935 123 -1871 0
-2167 -116 0
-2167 2103 0
2167 116 -2103 0
-2275 -1935 0
-2275 -2167 0
2275 1935 2167 0
-2383 -1703 0
-2383 2275 0
2383 1703 -2275 0
-2491 -1471 0
-2491 2383 0
2491 1471 -2383 0
-2599 -1239 0
-2599 2491 0
2599 1239 -2491 0
-2707 -1007 0
-2707 2599 0
2707 1007 -2599 0
-2815 -775 0
-2815 2707 0
2815 775 -2707 0
-2923 -543 0
-2923 2815 0
2923 543 -2815 0
-3031 -311 0
-3031 2923 0
3031 311 -2923 0
-3167 16 0
-3167 3031 0
3167 -16 -3031 0
-3168 -16 0
-3168 -3031 0
3168 16 3031 0
-3169 -3167 0
-3169 -3168 0
3169 3167 3168 0
15 -12970 0
-15 12970 0
-310 -172 0
-310 246 0
310 172 -246 0
-542 -165 0
-542 478 0
542 165 -478 0
-774 -158 0
-774 710 0
774 158 -710 0
-1006 -151 0
-1006 942 0
1006 151 -942 0
-1238 -144 0
-1238 1174 0
1238 144 -1174 0
-1470 -137 0
-1470 1406 0
1470 137 -1406 0
-1702 -130 0
-1702 1638 0
1702 130 -1638 0
-1934 -123 0
-1934 1870 0
1934 123 -1870 0
-2166 -116 0
-2166 2102 0
2166 116 -2102 0
-2274 -1934 0
-2274 -2166 0
2274 1934 2166 0
-2382 -1702 0
-2382 2274 0
2382 1702 -2274 0
-2490 -1470 0
-2490 2382 0
2490 1470 -2382 0
-2598 -1238 0
-2598 2490 0
2598 1238 -2490 0
-2706 -1006 0
-2706 2598 0
2706 1006 -2598 0
-2814 -774 0
-2814 2706 0
2814 774 -2706 0
-2922 -542 0
-2922 2814 0
2922 542 -2814 0
-3030 -310 0
-3030 2922 0
3030 310 -2922 0
-3164 15 0
-3164 3030 0
3164 -15 -3030 0
-3165 -15 0
-3165 -3030 0
3165 15 3030 0
-3166 -3164 0
-3166 -3165 0
3166 3164 3165 0
14 -12969 0
-14 12969 0
-309 -172 0
-309 245 0
309 172 -245 0
-541 -165 0
-541 477 0
541 165 -477 0
-773 -158 0
-773 709 0
773 158 -709 0
-1005 -151 0
-1005 941 0
1005 151 -941 0
-1237 -144 0
-1237 1173 0
1237 144 -1173 0
-1469 -137 0
-1469 1405 0
1469 137 -1405 0
-1701 -130 0
-1701 1637 0
1701 130 -1637 0
-1933 -123 0
-1933 1869 0
1933 123 -1869 0
-2165 -116 0
-2165 2101 0
2165 116 -2101 0
-2273 -1933 0
-2273 -2165 0
2273 1933 2165 0
-2381 -1701 0
-2381 2273 0
2381 1701 -2273 0
-2489 -1469 0
-2489 2381 0
2489 1469 -2381 0
-2597 -1237 0
-2597 2489 0
2597 1237 -2489 0
-2705 -1005 0
-2705 2597 0
2705 1005 -2597 0
-2813 -773 0
-2813 2705 0
2813 773 -2705 0
-2921 -541 0
-2921 2813 0
2921 541 -2813 0
-3029 -309 0
-3029 2921 0
3029 309 -2921 0
-3161 14 0
-3161 3029 0
3161 -14 -3029 0
-3162 -14 0
-3162 -3029 0
3162 14 3029 0
-3163 -3161 0
-3163 -3162 0
3163 3161 3162 0
13 -12968 0
-13 12968 0
-308 -172 0
-308 244 0
308 172 -244 0
-540 -165 0
-540 476 0
540 165 -476 0
-772 -158 0
-772 708 0
772 158 -708 0
-1004 -151 0
-1004 940 0
1004 151 -940 0
-1236 -144 0
-1236 1172 0
1236 144 -1172 0
-1468 -137 0
-1468 1404 0
1468 137 -1404 0
-1700 -130 0
-1700 1636 0
1700 130 -1636 0
-1932 -123 0
-1932 1868 0
1932 123 -1868 0
-2164 -116 0
-2164 2100 0
2164 116 -2100 0
-2272 -1932 0
-2272 -2164 0
2272 1932 2164 0
-2380 -1700 0
-2380 2272 0
2380 1700 -2272 0
-2488 -1468 0
-2488 2380 0
2488 1468 -2380 0
-2596 -1236 0
-2596 2488 0
2596 1236 -2488 0
-2704 -1004 0
-2704 2596 0
2704 1004 -2596 0
-2812 -772 0
-2812 2704 0
2812 772 -2704 0
-2920 -540 0
-2920 2812 0
2920 540 -2812 0
-3028 -308 0
-3028 2920 0
3028 308 -2920 0
-3158 13 0
-3158 3028 0
3158 -13 -3028 0
-3159 -13 0
-3159 -3028 0
3159 13 3028 0
-3160 -3158 0
-3160 -3159 0
3160 3158 3159 0
12 -12967 0
-12 12967 0
-307 -172 0
-307 243 0
307 172 -243 0
-539 -165 0
-539 475 0
539 165 -475 0
-771 -158 0
-771 707 0
771 158 -707 0
-1003 -151 0
-1003 939 0
1003 151 -939 0
-1235 -144 0
-1235 1171 0
1235 144 -1171 0
-1467 -137 0
-1467 1403 0
1467 137 -1403 0
-1699 -130 0
-1699 1635 0
1699 130 -1635 0
-1931 -123 0
-1931 1867 0
1931 123 -1867 0
-2163 -116 0
-2163 2099 0
2163 116 -2099 0
-2271 -1931 0
-2271 -2163 0
2271 1931 2163 0
-2379 -1699 0
-2379 2271 0
2379 1699 -2271 0
-2487 -1467 0
-2487 2379 0
2487 1467 -2379 0
-2595 -1235 0
-2595 2487 0
2595 1235 -2487 0
-2703 -1003 0
-2703 2595 0
2703 1003 -2595 0
-2811 -771 0
-2811 2703 0
2811 771 -2703 0
-2919 -539 0
-2919 2811 0
2919 539 -2811 0
-3027 -307 0
-3027 2919 0
3027 307 -2919 0
-3155 12 0
-3155 3027 0
3155 -12 -3027 0
-3156 -12 0
-3156 -3027 0
3156 12 3027 0
-3157 -3155 0
-3157 -3156 0
3157 3155 3156 0
11 -12966 0
-11 12966 0
-306 -172 0
-306 242 0
306 172 -242 0
-538 -165 0
-538 474 0
538 165 -474 0
-770 -158 0
-770 706 0
770 158 -706 0
-1002 -151 0
-1002 938 0
1002 151 -938 0
-1234 -144 0
-1234 1170 0
1234 144 -1170 0
-1466 -137 0
-1466 1402 0
1466 137 -1402 0
-1698 -130 0
-1698 1634 0
1698 130 -1634 0
-1930 -123 0
-1930 1866 0
1930 123 -1866 0
-2162 -116 0
-2162 2098 0
2162 116 -2098 0
-2270 -1930 0
-2270 -2162 0
2270 1930 2162 0
-2378 -1698 0
-2378 2270 0
2378 1698 -2270 0
-2486 -1466 0
-2486 2378 0
2486 1466 -2378 0
-2594 -1234 0
-2594 2486 0
2594 1234 -2486 0
-2702 -1002 0
-2702 2594 0
2702 1002 -2594 0
-2810 -770 0
-2810 2702 0
2810 770 -2702 0
-2918 -538 0
-2918 2810 0
2918 538 -2810 0
-3026 -306 0
-3026 2918 0
3026 306 -2918 0
-3152 11 0
-3152 3026 0
3152 -11 -3026 0
-3153 -11 0
-3153 -3026 0
3153 11 3026 0
-3154 -3152 0
-3154 -3153 0
3154 3152 3153 0
10 -12965 0
-10 12965 0
-305 -172 0
-305 241 0
305 172 -241 0
-537 -165 0
-537 473 0
537 165 -473 0
-769 -158 0
-769 705 0
769 158 -705 0
-1001 -151 0
-1001 937 0
1001 151 -937 0
-1233 -144 0
-1233 1169 0
1233 144 -1169 0
-1465 -137 0
-1465 1401 0
1465 137 -1401 0
-1697 -130 0
-1697 1633 0
1697 130 -1633 0
-1929 -123 0
-1929 1865 0
1929 123 -1865 0
-2161 -116 0
-2161 2097 0
2161 116 -2097 0
-2269 -1929 0
-2269 -2161 0
2269 1929 2161 0
-2377 -1697 0
-2377 2269 0
2377 1697 -2269 0
-2485 -1465 0
-2485 2377 0
2485 1465 -2377 0
-2593 -1233 0
-2593 2485 0
2593 1233 -2485 0
-2701 -1001 0
-2701 2593 0
2701 1001 -2593 0
-2809 -769 0
-2809 2701 0
2809 769 -2701 0
-2917 -537 0
-2917 2809 0
2917 537 -2809 0
-3025 -305 0
-3025 2917 0
3025 305 -2917 0
-3149 10 0
-3149 3025 0
3149 -10 -3025 0
-3150 -10 0
-3150 -3025 0
3150 10 3025 0
-3151 -3149 0
-3151 -3150 0
3151 3149 3150 0
9 -12964 0
-9 12964 0
-304 -172 0
-304 240 0
304 172 -240 0
-536 -165 0
-536 472 0
536 165 -472 0
-768 -158 0
-768 704 0
768 158 -704 0
-1000 -151 0
-1000 936 0
1000 151 -936 0
-1232 -144 0
-1232 1168 0
1232 144 -1168 0
-1464 -137 0
-1464 1400 0
1464 137 -1400 0
-1696 -130 0
-1696 1632 0
1696 130 -1632 0
-1928 -123 0
-1928 1864 0
1928 123 -1864 0
-2160 -116 0
-2160 2096 0
2160 116 -2096 0
-2268 -1928 0
-2268 -2160 0
2268 1928 2160 0
-2376 -1696 0
-2376 2268 0
2376 1696 -2268 0
-2484 -1464 0
-2484 2376 0
2484 1464 -2376 0
-2592 -1232 0
-2592 2484 0
2592 1232 -2484 0
-2700 -1000 0
-2700 2592 0
2700 1000 -2592 0
-2808 -768 0
-2808 2700 0
2808 768 -2700 0
-2916 -536 0
-2916 2808 0
2916 536 -2808 0
-3024 -304 0
-3024 2916 0
3024 304 -2916 0
-3146 9 0
-3146 3024 0
3146 -9 -3024 0
-3147 -9 0
-3147 -3024 0
3147 9 3024 0
-3148 -3146 0
-3148 -3147 0
3148 3146 3147 0
8 -12963 0
-8 12963 0
-303 -172 0
-303 239 0
303 172 -239 0
-535 -165 0
-535 471 0
535 165 -471 0
-767 -158 0
-767 703 0
767 158 -703 0
-999 -151 0
-999 935 0
999 151 -935 0
-1231 -144 0
-1231 1167 0
1231 144 -1167 0
-1463 -137 0
-1463 1399 0
1463 137 -1399 0
-1695 -130 0
-1695 1631 0
1695 130 -1631 0
-1927 -123 0
-1927 1863 0
1927 123 -1863 0
-2159 -116 0
-2159 2095 0
2159 116 -2095 0
-2267 -1927 0
-2267 -2159 0
2267 1927 2159 0
-2375 -1695 0
-2375 2267 0
2375 1695 -2267 0
-2483 -1463 0
-2483 2375 0
2483 1463 -2375 0
-2591 -1231 0
-2591 2483 0
2591 1231 -2483 0
-2699 -999 0
-2699 2591 0
2699 999 -2591 0
-2807 -767 0
-2807 2699 0
2807 767 -2699 0
-2915 -535 0
-2915 2807 0
2915 535 -2807 0
-3023 -303 0
-3023 2915 0
3023 303 -2915 0
-3143 8 0
-3143 3023 0
3143 -8 -3023 0
-3144 -8 0
-3144 -3023 0
3144 8 3023 0
-3145 -3143 0
-3145 -3144 0
3145 3143 3144 0
7 -12962 0
-7 12962 0
-302 -172 0
-302 238 0
302 172 -238 0
-534 -165 0
-534 470 0
534 165 -470 0
-766 -158 0
-766 702 0
766 158 -702 0
-998 -151 0
-998 934 0
998 151 -934 0
-1230 -144 0
-1230 1166 0
1230 144 -1166 0
-1462 -137 0
-1462 1398 0
1462 137 -1398 0
-1694 -130 0
-1694 1630 0
1694 130 -1630 0
-1926 -123 0
-1926 1862 0
1926 123 -1862 0
-2158 -116 0
-2158 2094 0
2158 116 -2094 0
-2266 -1926 0
-2266 -2158 0
2266 1926 2158 0
-2374 -1694 0
-2374 2266 0
2374 1694 -2266 0
-2482 -1462 0
-2482 2374 0
2482 1462 -2374 0
-2590 -1230 0
-2590 2482 0
2590 1230 -2482 0
-2698 -998 0
-2698 2590 0
2698 998 -2590 0
-2806 -766 0
-2806 2698 0
2806 766 -2698 0
-2914 -534 0
-2914 2806 0
2914 534 -2806 0
-3022 -302 0
-3022 2914 0
3022 302 -2914 0
-3140 7 0
-3140 3022 0
3140 -7 -3022 0
-3141 -7 0
-3141 -3022 0
3141 7 3022 0
-3142 -3140 0
-3142 -3141 0
3142 3140 3141 0
6 -12961 0
-6 12961 0
-301 -172 0
-301 237 0
301 172 -237 0
-533 -165 0
-533 469 0
533 165 -469 0
-765 -158 0
-765 701 0
765 158 -701 0
-997 -151 0
-997 933 0
997 151 -933 0
-1229 -144 0
-1229 1165 0
1229 144 -1165 0
-1461 -137 0
-1461 1397 0
1461 137 -1397 0
-1693 -130 0
-1693 1629 0
1693 130 -1629 0
-1925 -123 0
-1925 1861 0
1925 123 -1861 0
-2157 -116 0
-2157 2093 0
2157 116 -2093 0
-2265 -1925 0
-2265 -2157 0
2265 1925 2157 0
-2373 -1693 0
-2373 2265 0
2373 1693 -2265 0
-2481 -1461 0
-2481 2373 0
2481 1461 -2373 0
-2589 -1229 0
-2589 2481 0
2589 1229 -2481 0
-2697 -997 0
-2697 2589 0
2697 997 -2589 0
-2805 -765 0
-2805 2697 0
2805 765 -2697 0
-2913 -533 0
-2913 2805 0
2913 533 -2805 0
-3021 -301 0
-3021 2913 0
3021 301 -2913 0
-3137 6 0
-3137 3021 0
3137 -6 -3021 0
-3138 -6 0
-3138 -3021 0
3138 6 3021 0
-3139 -3137 0
-3139 -3138 0
3139 3137 3138 0
5 -12960 0
-5 12960 0
-300 -172 0
-300 236 0
300 172 -236 0
-532 -165 0
-532 468 0
532 165 -468 0
-764 -158 0
-764 700 0
764 158 -700 0
-996 -151 0
-996 932 0
996 151 -932 0
-1228 -144 0
-1228 1164 0
1228 144 -1164 0
-1460 -137 0
-1460 1396 0
1460 137 -1396 0
-1692 -130 0
-1692 1628 0
1692 130 -1628 0
-1924 -123 0
-1924 1860 0
1924 123 -1860 0
-2156 -116 0
-2156 2092 0
2156 116 -2092 0
-2264 -1924 0
-2264 -2156 0
2264 1924 2156 0
-2372 -1692 0
-2372 2264 0
2372 1692 -2264 0
-2480 -1460 0
-2480 2372 0
2480 1460 -2372 0
-2588 -1228 0
-2588 2480 0
2588 1228 -2480 0
-2696 -996 0
-2696 2588 0
2696 996 -2588 0
-2804 -764 0
-2804 2696 0
2804 764 -2696 0
-2912 -532 0
-2912 2804 0
2912 532 -2804 0
-3020 -300 0
-3020 2912 0
3020 300 -2912 0
-3134 5 0
-3134 3020 0
3134 -5 -3020 0
-3135 -5 0
-3135 -3020 0
3135 5 3020 0
-3136 -3134 0
-3136 -3135 0
3136 3134 3135 0
4 -12959 0
-4 12959 0
-299 -172 0
-299 235 0
299 172 -235 0
-531 -165 0
-531 467 0
531 165 -467 0
-763 -158 0
-763 699 0
763 158 -699 0
-995 -151 0
-995 931 0
995 151 -931 0
-1227 -144 0
-1227 1163 0
1227 144 -1163 0
-1459 -137 0
-1459 1395 0
1459 137 -1395 0
-1691 -130 0
-1691 1627 0
1691 130 -1627 0
-1923 -123 0
-1923 1859 0
1923 123 -1859 0
-2155 -116 0
-2155 2091 0
2155 116 -2091 0
-2263 -1923 0
-2263 -2155 0
2263 1923 2155 0
-2371 -1691 0
-2371 2263 0
2371 1691 -2263 0
-2479 -1459 0
-2479 2371 0
2479 1459 -2371 0
-2587 -1227 0
-2587 2479 0
2587 1227 -2479 0
-2695 -995 0
-2695 2587 0
2695 995 -2587 0
-2803 -763 0
-2803 2695 0
2803 763 -2695 0
-2911 -531 0
-2911 2803 0
2911 531 -2803 0
-3019 -299 0
-3019 2911 0
3019 299 -2911 0
-3131 4 0
-3131 3019 0
3131 -4 -3019 0
-3132 -4 0
-3132 -3019 0
3132 4 3019 0
-3133 -3131 0
-3133 -3132 0
3133 3131 3132 0
2 -12957 0
-2 12957 0
-297 -172 0
-297 233 0
297 172 -233 0
-529 -165 0
-529 465 0
529 165 -465 0
-761 -158 0
-761 697 0
761 158 -697 0
-993 -151 0
-993 929 0
993 151 -929 0
-1225 -144 0
-1225 1161 0
1225 144 -1161 0
-1457 -137 0
-1457 1393 0
1457 137 -1393 0
-1689 -130 0
-1689 1625 0
1689 130 -1625 0
-1921 -123 0
-1921 1857 0
1921 123 -1857 0
-2153 -116 0
-2153 2089 0
2153 116 -2089 0
-2261 -1921 0
-2261 -2153 0
2261 1921 2153 0
-2369 -1689 0
-2369 2261 0
2369 1689 -2261 0
-2477 -1457 0
-2477 2369 0
2477 1457 -2369 0
-2585 -1225 0
-2585 2477 0
2585 1225 -2477 0
-2693 -993 0
-2693 2585 0
2693 993 -2585 0
-2801 -761 0
-2801 2693 0
2801 761 -2693 0
-2909 -529 0
-2909 2801 0
2909 529 -2801 0
-3017 -297 0
-3017 2909 0
3017 297 -2909 0
-3125 2 0
-3125 3017 0
3125 -2 -3017 0
-3126 -2 0
-3126 -3017 0
3126 2 3017 0
-3127 -3125 0
-3127 -3126 0
3127 3125 3126 0
3 -12958 0
-3 12958 0
-298 -172 0
-298 234 0
298 172 -234 0
-530 -165 0
-530 466 0
530 165 -466 0
-762 -158 0
-762 698 0
762 158 -698 0
-994 -151 0
-994 930 0
994 151 -930 0
-1226 -144 0
-1226 1162 0
1226 144 -1162 0
-1458 -137 0
-1458 1394 0
1458 137 -1394 0
-1690 -130 0
-1690 1626 0
1690 130 -1626 0
-1922 -123 0
-1922 1858 0
1922 123 -1858 0
-2154 -116 0
-2154 2090 0
2154 116 -2090 0
-2262 -1922 0
-2262 -2154 0
2262 1922 2154 0
-2370 -1690 0
-2370 2262 0
2370 1690 -2262 0
-2478 -1458 0
-2478 2370 0
2478 1458 -2370 0
-2586 -1226 0
-2586 2478 0
2586 1226 -2478 0
-2694 -994 0
-2694 2586 0
2694 994 -2586 0
-2802 -762 0
-2802 2694 0
2802 762 -2694 0
-2910 -530 0
-2910 2802 0
2910 530 -2802 0
-3018 -298 0
-3018 2910 0
3018 298 -2910 0
-3128 3 0
-3128 3018 0
3128 -3 -3018 0
-3129 -3 0
-3129 -3018 0
3129 3 3018 0
-3130 -3128 0
-3130 -3129 0
3130 3128 3129 0
-3449 3127 0
-3449 3130 0
3449 -3127 -3130 0
-3450 3133 0
-3450 3449 0
3450 -3133 -3449 0
-3451 3136 0
-3451 3450 0
3451 -3136 -3450 0
-3452 3139 0
-3452 3451 0
3452 -3139 -3451 0
-3453 3142 0
-3453 3452 0
3453 -3142 -3452 0
-3454 3145 0
-3454 3453 0
3454 -3145 -3453 0
-3455 3148 0
-3455 3454 0
3455 -3148 -3454 0
-3456 3151 0
-3456 3455 0
3456 -3151 -3455 0
-3457 3154 0
-3457 3456 0
3457 -3154 -3456 0
-3458 3157 0
-3458 3457 0
3458 -3157 -3457 0
-3459 3160 0
-3459 3458 0
3459 -3160 -3458 0
-3460 3163 0
-3460 3459 0
3460 -3163 -3459 0
-3461 3166 0
-3461 3460 0
3461 -3166 -3460 0
-3462 3169 0
-3462 3461 0
3462 -3169 -3461 0
-3463 3172 0
-3463 3462 0
3463 -3172 -3462 0
-3464 3175 0
-3464 3463 0
3464 -3175 -3463 0
-3465 3178 0
-3465 3464 0
3465 -3178 -3464 0
-3466 3181 0
-3466 3465 0
3466 -3181 -3465 0
-3467 3184 0
-3467 3466 0
3467 -3184 -3466 0
-3468 3187 0
-3468 3467 0
3468 -3187 -3467 0
-3469 3190 0
-3469 3468 0
3469 -3190 -3468 0
-3470 3193 0
-3470 3469 0
3470 -3193 -3469 0
-3471 3196 0
-3471 3470 0
3471 -3196 -3470 0
-3472 3199 0
-3472 3471 0
3472 -3199 -3471 0
-3473 3202 0
-3473 3472 0
3473 -3202 -3472 0
-3474 3205 0
-3474 3473 0
3474 -3205 -3473 0
-3475 3208 0
-3475 3474 0
3475 -3208 -3474 0
-3476 3211 0
-3476 3475 0
3476 -3211 -3475 0
-3477 3214 0
-3477 3476 0
3477 -3214 -3476 0
-3478 3217 0
-3478 3477 0
3478 -3217 -3477 0
-3479 3220 0
-3479 3478 0
3479 -3220 -3478 0
-3480 3223 0
-3480 3479 0
3480 -3223 -3479 0
-3481 3226 0
-3481 3480 0
3481 -3226 -3480 0
-3482 3229 0
-3482 3481 0
3482 -3229 -3481 0
-3483 3232 0
-3483 3482 0
3483 -3232 -3482 0
-3484 3235 0
-3484 3483 0
3484 -3235 -3483 0
-3485 3238 0
-3485 3484 0
3485 -3238 -3484 0
-3486 3241 0
-3486 3485 0
3486 -3241 -3485 0
-3487 3244 0
-3487 3486 0
3487 -3244 -3486 0
-3488 3247 0
-3488 3487 0
3488 -3247 -3487 0
-3489 3250 0
-3489 3488 0
3489 -3250 -3488 0
-3490 3253 0
-3490 3489 0
3490 -3253 -3489 0
-3491 3256 0
-3491 3490 0
3491 -3256 -3490 0
-3492 3259 0
-3492 3491 0
3492 -3259 -3491 0
-3493 3262 0
-3493 3492 0
3493 -3262 -3492 0
-3494 3265 0
-3494 3493 0
3494 -3265 -3493 0
-3495 3268 0
-3495 3494 0
3495 -3268 -3494 0
-3496 3271 0
-3496 3495 0
3496 -3271 -3495 0
-3497 3274 0
-3497 3496 0
3497 -3274 -3496 0
-3498 3277 0
-3498 3497 0
3498 -3277 -3497 0
-3499 3280 0
-3499 3498 0
3499 -3280 -3498 0
-3500 3283 0
-3500 3499 0
3500 -3283 -3499 0
-3501 3286 0
-3501 3500 0
3501 -3286 -3500 0
-3502 3289 0
-3502 3501 0
3502 -3289 -3501 0
-3503 3292 0
-3503 3502 0
3503 -3292 -3502 0
-3504 3295 0
-3504 3503 0
3504 -3295 -3503 0
-3505 3298 0
-3505 3504 0
3505 -3298 -3504 0
-3506 3301 0
-3506 3505 0
3506 -3301 -3505 0
-3507 3304 0
-3507 3506 0
3507 -3304 -3506 0
-3508 3307 0
-3508 3507 0
3508 -3307 -3507 0
-3509 3310 0
-3509 3508 0
3509 -3310 -3508 0
-3510 3313 0
-3510 3509 0
3510 -3313 -3509 0
-3511 3316 0
-3511 3510 0
3511 -3316 -3510 0
-3512 3319 0
-3512 3511 0
3512 -3319 -3511 0
-3513 3322 0
-3513 3512 0
3513 -3322 -3512 0
-3514 3325 0
-3514 3513 0
3514 -3325 -3513 0
-3515 3328 0
-3515 3514 0
3515 -3328 -3514 0
-3516 3331 0
-3516 3515 0
3516 -3331 -3515 0
-3517 3334 0
-3517 3516 0
3517 -3334 -3516 0
-3518 3337 0
-3518 3517 0
3518 -3337 -3517 0
-3519 3340 0
-3519 3518 0
3519 -3340 -3518 0
-3520 3343 0
-3520 3519 0
3520 -3343 -3519 0
-3521 3346 0
-3521 3520 0
3521 -3346 -3520 0
-3522 3349 0
-3522 3521 0
3522 -3349 -3521 0
-3523 3352 0
-3523 3522 0
3523 -3352 -3522 0
-3524 3355 0
-3524 3523 0
3524 -3355 -3523 0
-3525 3358 0
-3525 3524 0
3525 -3358 -3524 0
-3526 3361 0
-3526 3525 0
3526 -3361 -3525 0
-3527 3364 0
-3527 3526 0
3527 -3364 -3526 0
-3528 3367 0
-3528 3527 0
3528 -3367 -3527 0
-3529 3370 0
-3529 3528 0
3529 -3370 -3528 0
-3530 3373 0
-3530 3529 0
3530 -3373 -3529 0
-3531 3376 0
-3531 3530 0
3531 -3376 -3530 0
-3532 3379 0
-3532 3531 0
3532 -3379 -3531 0
-3533 3382 0
-3533 3532 0
3533 -3382 -3532 0
-3534 3385 0
-3534 3533 0
3534 -3385 -3533 0
-3535 3388 0
-3535 3534 0
3535 -3388 -3534 0
-3536 3391 0
-3536 3535 0
3536 -3391 -3535 0
-3537 3394 0
-3537 3536 0
3537 -3394 -3536 0
-3538 3397 0
-3538 3537 0
3538 -3397 -3537 0
-3539 3400 0
-3539 3538 0
3539 -3400 -3538 0
-3540 3403 0
-3540 3539 0
3540 -3403 -3539 0
-3541 3406 0
-3541 3540 0
3541 -3406 -3540 0
-3542 3409 0
-3542 3541 0
3542 -3409 -3541 0
-3543 3412 0
-3543 3542 0
3543 -3412 -3542 0
-3544 3415 0
-3544 3543 0
3544 -3415 -3543 0
-3545 3418 0
-3545 3544 0
3545 -3418 -3544 0
-3546 3421 0
-3546 3545 0
3546 -3421 -3545 0
-3547 3424 0
-3547 3546 0
3547 -3424 -3546 0
-3548 3427 0
-3548 3547 0
3548 -3427 -3547 0
-3549 3430 0
-3549 3548 0
3549 -3430 -3548 0
-3550 3433 0
-3550 3549 0
3550 -3433 -3549 0
-3551 3436 0
-3551 3550 0
3551 -3436 -3550 0
-3552 3439 0
-3552 3551 0
3552 -3439 -3551 0
-3553 3442 0
-3553 3552 0
3553 -3442 -3552 0
-3554 3445 0
-3554 3553 0
3554 -3445 -3553 0
-3555 3448 0
-3555 3554 0
3555 -3448 -3554 0
-3562 43 0
-3562 49 0
3562 -43 -49 0
-3563 -43 0
-3563 -49 0
3563 43 49 0
-3564 -3562 0
-3564 -3563 0
3564 3562 3563 0
-3568 52 0
-3568 3564 0
3568 -52 -3564 0
-3569 -52 0
-3569 -3564 0
3569 52 3564 0
-3570 -3568 0
-3570 -3569 0
3570 3568 3569 0
-3556 107 0
-3556 108 0
3556 -107 -108 0
-3557 -107 0
-3557 -108 0
3557 107 108 0
-3558 -3556 0
-3558 -3557 0
3558 3556 3557 0
-3574 91 0
-3574 3558 0
3574 -91 -3558 0
-3575 -91 0
-3575 -3558 0
3575 91 3558 0
-3576 -3574 0
-3576 -3575 0
3576 3574 3575 0
-3577 3570 0
-3577 3576 0
3577 -3570 -3576 0
-3578 -3570 0
-3578 -3576 0
3578 3570 3576 0
-3579 -3577 0
-3579 -3578 0
3579 3577 3578 0
-3580 3555 0
-3580 -3579 0
3580 -3555 3579 0
-3587 42 0
-3587 48 0
3587 -42 -48 0
-3588 -42 0
-3588 -48 0
3588 42 48 0
-3589 -3587 0
-3589 -3588 0
3589 3587 3588 0
-3593 51 0
-3593 3589 0
3593 -51 -3589 0
-3594 -51 0
-3594 -3589 0
3594 51 3589 0
-3595 -3593 0
-3595 -3594 0
3595 3593 3594 0
-3581 106 0
-3581 107 0
3581 -106 -107 0
-3582 -106 0
-3582 -107 0
3582 106 107 0
-3583 -3581 0
-3583 -3582 0
3583 3581 3582 0
-3599 90 0
-3599 3583 0
3599 -90 -3583 0
-3600 -90 0
-3600 -3583 0
3600 90 3583 0
-3601 -3599 0
-3601 -3600 0
3601 3599 3600 0
-3602 3595 0
-3602 3601 0
3602 -3595 -3601 0
-3603 -3595 0
-3603 -3601 0
3603 3595 3601 0
-3604 -3602 0
-3604 -3603 0
3604 3602 3603 0
-3605 3580 0
-3605 -3604 0
3605 -3580 3604 0
-3612 41 0
-3612 47 0
3612 -41 -47 0
-3613 -41 0
-3613 -47 0
3613 41 47 0
-3614 -3612 0
-3614 -3613 0
3614 3612 3613 0
-3618 50 0
-3618 3614 0
3618 -50 -3614 0
-3619 -50 0
-3619 -3614 0
3619 50 3614 0
-3620 -3618 0
-3620 -3619 0
3620 3618 3619 0
-3606 105 0
-3606 106 0
3606 -105 -106 0
-3607 -105 0
-3607 -106 0
3607 105 106 0
-3608 -3606 0
-3608 -3607 0
3608 3606 3607 0
-3624 89 0
-3624 3608 0
3624 -89 -3608 0
-3625 -89 0
-3625 -3608 0
3625 89 3608 0
-3626 -3624 0
-3626 -3625 0
3626 3624 3625 0
-3627 3620 0
-3627 3626 0
3627 -3620 -3626 0
-3628 -3620 0
-3628 -3626 0
3628 3620 3626 0
-3629 -3627 0
-3629 -3628 0
3629 3627 3628 0
-3630 3605 0
-3630 -3629 0
3630 -3605 3629 0
-3634 40 0
-3634 46 0
3634 -40 -46 0
-3635 -40 0
-3635 -46 0
3635 40 46 0
-3636 -3634 0
-3636 -3635 0
3636 3634 3635 0
-3637 55 0
-3637 3636 0
3637 -55 -3636 0
-3638 -55 0
-3638 -3636 0
3638 55 3636 0
-3639 -3637 0
-3639 -3638 0
3639 3637 3638 0
-3631 104 0
-3631 105 0
3631 -104 -105 0
-3632 -104 0
-3632 -105 0
3632 104 105 0
-3633 -3631 0
-3633 -3632 0
3633 3631 3632 0
-3646 88 0
-3646 3633 0
3646 -88 -3633 0
-3647 -88 0
-3647 -3633 0
3647 88 3633 0
-3648 -3646 0
-3648 -3647 0
3648 3646 3647 0
-3649 3639 0
-3649 3648 0
3649 -3639 -3648 0
-3650 -3639 0
-3650 -3648 0
3650 3639 3648 0
-3651 -3649 0
-3651 -3650 0
3651 3649 3650 0
-3652 3630 0
-3652 -3651 0
3652 -3630 3651 0
-3653 39 0
-3653 45 0
3653 -39 -45 0
-3654 -39 0
-3654 -45 0
3654 39 45 0
-3655 -3653 0
-3655 -3654 0
3655 3653 3654 0
-3659 54 0
-3659 3655 0
3659 -54 -3655 0
-3660 -54 0
-3660 -3655 0
3660 54 3655 0
-3661 -3659 0
-3661 -3660 0
3661 3659 3660 0
-3656 104 0
-3656 109 0
3656 -104 -109 0
-3657 -104 0
-3657 -109 0
3657 104 109 0
-3658 -3656 0
-3658 -3657 0
3658 3656 3657 0
-3668 87 0
-3668 3658 0
3668 -87 -3658 0
-3669 -87 0
-3669 -3658 0
3669 87 3658 0
-3670 -3668 0
-3670 -3669 0
3670 3668 3669 0
-3671 3661 0
-3671 3670 0
3671 -3661 -3670 0
-3672 -3661 0
-3672 -3670 0
3672 3661 3670 0
-3673 -3671 0
-3673 -3672 0
3673 3671 3672 0
-3674 3652 0
-3674 -3673 0
3674 -3652 3673 0
-3678 38 0
-3678 44 0
3678 -38 -44 0
-3679 -38 0
-3679 -44 0
3679 38 44 0
-3680 -3678 0
-3680 -3679 0
3680 3678 3679 0
-3681 53 0
-3681 3680 0
3681 -53 -3680 0
-3682 -53 0
-3682 -3680 0
3682 53 3680 0
-3683 -3681 0
-3683 -3682 0
3683 3681 3682 0
-3675 108 0
-3675 109 0
3675 -108 -109 0
-3676 -108 0
-3676 -109 0
3676 108 109 0
-3677 -3675 0
-3677 -3676 0
3677 3675 3676 0
-3690 86 0
-3690 3677 0
3690 -86 -3677 0
-3691 -86 0
-3691 -3677 0
3691 86 3677 0
-3692 -3690 0
-3692 -3691 0
3692 3690 3691 0
-3693 3683 0
-3693 3692 0
3693 -3683 -3692 0
-3694 -3683 0
-3694 -3692 0
3694 3683 3692 0
-3695 -3693 0
-3695 -3694 0
3695 3693 3694 0
-3696 3674 0
-3696 -3695 0
3696 -3674 3695 0
-3700 43 0
-3700 46 0
3700 -43 -46 0
-3701 -43 0
-3701 -46 0
3701 43 46 0
-3702 -3700 0
-3702 -3701 0
3702 3700 3701 0
-3706 37 0
-3706 3702 0
3706 -37 -3702 0
-3707 -37 0
-3707 -3702 0
3707 37 3702 0
-3708 -3706 0
-3708 -3707 0
3708 3706 3707 0
-3697 101 0
-3697 102 0
3697 -101 -102 0
-3698 -101 0
-3698 -102 0
3698 101 102 0
-3699 -3697 0
-3699 -3698 0
3699 3697 3698 0
-3715 85 0
-3715 3699 0
3715 -85 -3699 0
-3716 -85 0
-3716 -3699 0
3716 85 3699 0
-3717 -3715 0
-3717 -3716 0
3717 3715 3716 0
-3718 3708 0
-3718 3717 0
3718 -3708 -3717 0
-3719 -3708 0
-3719 -3717 0
3719 3708 3717 0
-3720 -3718 0
-3720 -3719 0
3720 3718 3719 0
-3721 3696 0
-3721 -3720 0
3721 -3696 3720 0
-3725 42 0
-3725 45 0
3725 -42 -45 0
-3726 -42 0
-3726 -45 0
3726 42 45 0
-3727 -3725 0
-3727 -3726 0
3727 3725 3726 0
-3731 36 0
-3731 3727 0
3731 -36 -3727 0
-3732 -36 0
-3732 -3727 0
3732 36 3727 0
-3733 -3731 0
-3733 -3732 0
3733 3731 3732 0
-3722 100 0
-3722 101 0
3722 -100 -101 0
-3723 -100 0
-3723 -101 0
3723 100 101 0
-3724 -3722 0
-3724 -3723 0
3724 3722 3723 0
-3740 84 0
-3740 3724 0
3740 -84 -3724 0
-3741 -84 0
-3741 -3724 0
3741 84 3724 0
-3742 -3740 0
-3742 -3741 0
3742 3740 3741 0
-3743 3733 0
-3743 3742 0
3743 -3733 -3742 0
-3744 -3733 0
-3744 -3742 0
3744 3733 3742 0
-3745 -3743 0
-3745 -3744 0
3745 3743 3744 0
-3746 3721 0
-3746 -3745 0
3746 -3721 3745 0
-3753 35 0
-3753 41 0
3753 -35 -41 0
-3754 -35 0
-3754 -41 0
3754 35 41 0
-3755 -3753 0
-3755 -3754 0
3755 3753 3754 0
-3756 44 0
-3756 3755 0
3756 -44 -3755 0
-3757 -44 0
-3757 -3755 0
3757 44 3755 0
-3758 -3756 0
-3758 -3757 0
3758 3756 3757 0
-3747 99 0
-3747 100 0
3747 -99 -100 0
-3748 -99 0
-3748 -100 0
3748 99 100 0
-3749 -3747 0
-3749 -3748 0
3749 3747 3748 0
-3765 83 0
-3765 3749 0
3765 -83 -3749 0
-3766 -83 0
-3766 -3749 0
3766 83 3749 0
-3767 -3765 0
-3767 -3766 0
3767 3765 3766 0
-3768 3758 0
-3768 3767 0
3768 -3758 -3767 0
-3769 -3758 0
-3769 -3767 0
3769 3758 3767 0
-3770 -3768 0
-3770 -3769 0
3770 3768 3769 0
-3771 3746 0
-3771 -3770 0
3771 -3746 3770 0
-3775 34 0
-3775 40 0
3775 -34 -40 0
-3776 -34 0
-3776 -40 0
3776 34 40 0
-3777 -3775 0
-3777 -3776 0
3777 3775 3776 0
-3778 49 0
-3778 3777 0
3778 -49 -3777 0
-3779 -49 0
-3779 -3777 0
3779 49 3777 0
-3780 -3778 0
-3780 -3779 0
3780 3778 3779 0
-3772 98 0
-3772 99 0
3772 -98 -99 0
-3773 -98 0
-3773 -99 0
3773 98 99 0
-3774 -3772 0
-3774 -3773 0
3774 3772 3773 0
-3787 82 0
-3787 3774 0
3787 -82 -3774 0
-3788 -82 0
-3788 -3774 0
3788 82 3774 0
-3789 -3787 0
-3789 -3788 0
3789 3787 3788 0
-3790 3780 0
-3790 3789 0
3790 -3780 -3789 0
-3791 -3780 0
-3791 -3789 0
3791 3780 3789 0
-3792 -3790 0
-3792 -3791 0
3792 3790 3791 0
-3793 3771 0
-3793 -3792 0
3793 -3771 3792 0
-3800 39 0
-3800 48 0
3800 -39 -48 0
-3801 -39 0
-3801 -48 0
3801 39 48 0
-3802 -3800 0
-3802 -3801 0
3802 3800 3801 0
-3806 33 0
-3806 3802 0
3806 -33 -3802 0
-3807 -33 0
-3807 -3802 0
3807 33 3802 0
-3808 -3806 0
-3808 -3807 0
3808 3806 3807 0
-3797 98 0
-3797 103 0
3797 -98 -103 0
-3798 -98 0
-3798 -103 0
3798 98 103 0
-3799 -3797 0
-3799 -3798 0
3799 3797 3798 0
-3812 81 0
-3812 3799 0
3812 -81 -3799 0
-3813 -81 0
-3813 -3799 0
3813 81 3799 0
-3814 -3812 0
-3814 -3813 0
3814 3812 3813 0
-3815 3808 0
-3815 3814 0
3815 -3808 -3814 0
-3816 -3808 0
-3816 -3814 0
3816 3808 3814 0
-3817 -3815 0
-3817 -3816 0
3817 3815 3816 0
-3818 3793 0
-3818 -3817 0
3818 -3793 3817 0
-3825 38 0
-3825 47 0
3825 -38 -47 0
-3826 -38 0
-3826 -47 0
3826 38 47 0
-3827 -3825 0
-3827 -3826 0
3827 3825 3826 0
-3831 32 0
-3831 3827 0
3831 -32 -3827 0
-3832 -32 0
-3832 -3827 0
3832 32 3827 0
-3833 -3831 0
-3833 -3832 0
3833 3831 3832 0
-3819 102 0
-3819 103 0
3819 -102 -103 0
-3820 -102 0
-3820 -103 0
3820 102 103 0
-3821 -3819 0
-3821 -3820 0
3821 3819 3820 0
-3837 80 0
-3837 3821 0
3837 -80 -3821 0
-3838 -80 0
-3838 -3821 0
3838 80 3821 0
-3839 -3837 0
-3839 -3838 0
3839 3837 3838 0
-3840 3833 0
-3840 3839 0
3840 -3833 -3839 0
-3841 -3833 0
-3841 -3839 0
3841 3833 3839 0
-3842 -3840 0
-3842 -3841 0
3842 3840 3841 0
-3843 3818 0
-3843 -3842 0
3843 -3818 3842 0
-3847 37 0
-3847 40 0
3847 -37 -40 0
-3848 -37 0
-3848 -40 0
3848 37 40 0
-3849 -3847 0
-3849 -3848 0
3849 3847 3848 0
-3853 31 0
-3853 3849 0
3853 -31 -3849 0
-3854 -31 0
-3854 -3849 0
3854 31 3849 0
-3855 -3853 0
-3855 -3854 0
3855 3853 3854 0
-3844 95 0
-3844 96 0
3844 -95 -96 0
-3845 -95 0
-3845 -96 0
3845 95 96 0
-3846 -3844 0
-3846 -3845 0
3846 3844 3845 0
-3859 79 0
-3859 3846 0
3859 -79 -3846 0
-3860 -79 0
-3860 -3846 0
3860 79 3846 0
-3861 -3859 0
-3861 -3860 0
3861 3859 3860 0
-3865 3855 0
-3865 3861 0
3865 -3855 -3861 0
-3866 -3855 0
-3866 -3861 0
3866 3855 3861 0
-3867 -3865 0
-3867 -3866 0
3867 3865 3866 0
-3868 3843 0
-3868 -3867 0
3868 -3843 3867 0
-3872 36 0
-3872 39 0
3872 -36 -39 0
-3873 -36 0
-3873 -39 0
3873 36 39 0
-3874 -3872 0
-3874 -3873 0
3874 3872 3873 0
-3878 30 0
-3878 3874 0
3878 -30 -3874 0
-3879 -30 0
-3879 -3874 0
3879 30 3874 0
-3880 -3878 0
-3880 -3879 0
3880 3878 3879 0
-3869 94 0
-3869 95 0
3869 -94 -95 0
-3870 -94 0
-3870 -95 0
3870 94 95 0
-3871 -3869 0
-3871 -3870 0
3871 3869 3870 0
-3884 78 0
-3884 3871 0
3884 -78 -3871 0
-3885 -78 0
-3885 -3871 0
3885 78 3871 0
-3886 -3884 0
-3886 -3885 0
3886 3884 3885 0
-3890 3880 0
-3890 3886 0
3890 -3880 -3886 0
-3891 -3880 0
-3891 -3886 0
3891 3880 3886 0
-3892 -3890 0
-3892 -3891 0
3892 3890 3891 0
-3893 3868 0
-3893 -3892 0
3893 -3868 3892 0
-3897 35 0
-3897 38 0
3897 -35 -38 0
-3898 -35 0
-3898 -38 0
3898 35 38 0
-3899 -3897 0
-3899 -3898 0
3899 3897 3898 0
-3903 29 0
-3903 3899 0
3903 -29 -3899 0
-3904 -29 0
-3904 -3899 0
3904 29 3899 0
-3905 -3903 0
-3905 -3904 0
3905 3903 3904 0
-3894 93 0
-3894 94 0
3894 -93 -94 0
-3895 -93 0
-3895 -94 0
3895 93 94 0
-3896 -3894 0
-3896 -3895 0
3896 3894 3895 0
-3909 77 0
-3909 3896 0
3909 -77 -3896 0
-3910 -77 0
-3910 -3896 0
3910 77 3896 0
-3911 -3909 0
-3911 -3910 0
3911 3909 3910 0
-3915 3905 0
-3915 3911 0
3915 -3905 -3911 0
-3916 -3905 0
-3916 -3911 0
3916 3905 3911 0
-3917 -3915 0
-3917 -3916 0
3917 3915 3916 0
-3918 3893 0
-3918 -3917 0
3918 -3893 3917 0
-3925 34 0
-3925 43 0
3925 -34 -43 0
-3926 -34 0
-3926 -43 0
3926 34 43 0
-3927 -3925 0
-3927 -3926 0
3927 3925 3926 0
-3931 28 0
-3931 3927 0
3931 -28 -3927 0
-3932 -28 0
-3932 -3927 0
3932 28 3927 0
-3933 -3931 0
-3933 -3932 0
3933 3931 3932 0
-3919 92 0
-3919 93 0
3919 -92 -93 0
-3920 -92 0
-3920 -93 0
3920 92 93 0
-3921 -3919 0
-3921 -3920 0
3921 3919 3920 0
-3934 76 0
-3934 3921 0
3934 -76 -3921 0
-3935 -76 0
-3935 -3921 0
3935 76 3921 0
-3936 -3934 0
-3936 -3935 0
3936 3934 3935 0
-3940 3933 0
-3940 3936 0
3940 -3933 -3936 0
-3941 -3933 0
-3941 -3936 0
3941 3933 3936 0
-3942 -3940 0
-3942 -3941 0
3942 3940 3941 0
-3943 3918 0
-3943 -3942 0
3943 -3918 3942 0
-3944 27 0
-3944 33 0
3944 -27 -33 0
-3945 -27 0
-3945 -33 0
3945 27 33 0
-3946 -3944 0
-3946 -3945 0
3946 3944 3945 0
-3950 42 0
-3950 3946 0
3950 -42 -3946 0
-3951 -42 0
-3951 -3946 0
3951 42 3946 0
-3952 -3950 0
-3952 -3951 0
3952 3950 3951 0
-3947 92 0
-3947 97 0
3947 -92 -97 0
-3948 -92 0
-3948 -97 0
3948 92 97 0
-3949 -3947 0
-3949 -3948 0
3949 3947 3948 0
-3956 75 0
-3956 3949 0
3956 -75 -3949 0
-3957 -75 0
-3957 -3949 0
3957 75 3949 0
-3958 -3956 0
-3958 -3957 0
3958 3956 3957 0
-3962 3952 0
-3962 3958 0
3962 -3952 -3958 0
-3963 -3952 0
-3963 -3958 0
3963 3952 3958 0
-3964 -3962 0
-3964 -3963 0
3964 3962 3963 0
-3965 3943 0
-3965 -3964 0
3965 -3943 3964 0
-3969 26 0
-3969 32 0
3969 -26 -32 0
-3970 -26 0
-3970 -32 0
3970 26 32 0
-3971 -3969 0
-3971 -3970 0
3971 3969 3970 0
-3972 41 0
-3972 3971 0
3972 -41 -3971 0
-3973 -41 0
-3973 -3971 0
3973 41 3971 0
-3974 -3972 0
-3974 -3973 0
3974 3972 3973 0
-3966 96 0
-3966 97 0
3966 -96 -97 0
-3967 -96 0
-3967 -97 0
3967 96 97 0
-3968 -3966 0
-3968 -3967 0
3968 3966 3967 0
-3978 74 0
-3978 3968 0
3978 -74 -3968 0
-3979 -74 0
-3979 -3968 0
3979 74 3968 0
-3980 -3978 0
-3980 -3979 0
3980 3978 3979 0
-3984 3974 0
-3984 3980 0
3984 -3974 -3980 0
-3985 -3974 0
-3985 -3980 0
3985 3974 3980 0
-3986 -3984 0
-3986 -3985 0
3986 3984 3985 0
-3987 3965 0
-3987 -3986 0
3987 -3965 3986 0
-3994 25 0
-3994 31 0
3994 -25 -31 0
-3995 -25 0
-3995 -31 0
3995 25 31 0
-3996 -3994 0
-3996 -3995 0
3996 3994 3995 0
-4000 34 0
-4000 3996 0
4000 -34 -3996 0
-4001 -34 0
-4001 -3996 0
4001 34 3996 0
-4002 -4000 0
-4002 -4001 0
4002 4000 4001 0
-3988 89 0
-3988 90 0
3988 -89 -90 0
-3989 -89 0
-3989 -90 0
3989 89 90 0
-3990 -3988 0
-3990 -3989 0
3990 3988 3989 0
-4003 73 0
-4003 3990 0
4003 -73 -3990 0
-4004 -73 0
-4004 -3990 0
4004 73 3990 0
-4005 -4003 0
-4005 -4004 0
4005 4003 4004 0
-4009 4002 0
-4009 4005 0
4009 -4002 -4005 0
-4010 -4002 0
-4010 -4005 0
4010 4002 4005 0
-4011 -4009 0
-4011 -4010 0
4011 4009 4010 0
-4012 3987 0
-4012 -4011 0
4012 -3987 4011 0
-4016 30 0
-4016 33 0
4016 -30 -33 0
-4017 -30 0
-4017 -33 0
4017 30 33 0
-4018 -4016 0
-4018 -4017 0
4018 4016 4017 0
-4022 24 0
-4022 4018 0
4022 -24 -4018 0
-4023 -24 0
-4023 -4018 0
4023 24 4018 0
-4024 -4022 0
-4024 -4023 0
4024 4022 4023 0
-4013 88 0
-4013 89 0
4013 -88 -89 0
-4014 -88 0
-4014 -89 0
4014 88 89 0
-4015 -4013 0
-4015 -4014 0
4015 4013 4014 0
-4028 72 0
-4028 4015 0
4028 -72 -4015 0
-4029 -72 0
-4029 -4015 0
4029 72 4015 0
-4030 -4028 0
-4030 -4029 0
4030 4028 4029 0
-4034 4024 0
-4034 4030 0
4034 -4024 -4030 0
-4035 -4024 0
-4035 -4030 0
4035 4024 4030 0
-4036 -4034 0
-4036 -4035 0
4036 4034 4035 0
-4037 4012 0
-4037 -4036 0
4037 -4012 4036 0
-4041 29 0
-4041 32 0
4041 -29 -32 0
-4042 -29 0
-4042 -32 0
4042 29 32 0
-4043 -4041 0
-4043 -4042 0
4043 4041 4042 0
-4047 23 0
-4047 4043 0
4047 -23 -4043 0
-4048 -23 0
-4048 -4043 0
4048 23 4043 0
-4049 -4047 0
-4049 -4048 0
4049 4047 4048 0
-4038 87 0
-4038 88 0
4038 -87 -88 0
-4039 -87 0
-4039 -88 0
4039 87 88 0
-4040 -4038 0
-4040 -4039 0
4040 4038 4039 0
-4053 71 0
-4053 4040 0
4053 -71 -4040 0
-4054 -71 0
-4054 -4040 0
4054 71 4040 0
-4055 -4053 0
-4055 -4054 0
4055 4053 4054 0
-4059 4049 0
-4059 4055 0
4059 -4049 -4055 0
-4060 -4049 0
-4060 -4055 0
4060 4049 4055 0
-4061 -4059 0
-4061 -4060 0
4061 4059 4060 0
-4062 4037 0
-4062 -4061 0
4062 -4037 4061 0
-4066 22 0
-4066 28 0
4066 -22 -28 0
-4067 -22 0
-4067 -28 0
4067 22 28 0
-4068 -4066 0
-4068 -4067 0
4068 4066 4067 0
-4069 37 0
-4069 4068 0
4069 -37 -4068 0
-4070 -37 0
-4070 -4068 0
4070 37 4068 0
-4071 -4069 0
-4071 -4070 0
4071 4069 4070 0
-4063 86 0
-4063 87 0
4063 -86 -87 0
-4064 -86 0
-4064 -87 0
4064 86 87 0
-4065 -4063 0
-4065 -4064 0
4065 4063 4064 0
-4075 70 0
-4075 4065 0
4075 -70 -4065 0
-4076 -70 0
-4076 -4065 0
4076 70 4065 0
-4077 -4075 0
-4077 -4076 0
4077 4075 4076 0
-4081 4071 0
-4081 4077 0
4081 -4071 -4077 0
-4082 -4071 0
-4082 -4077 0
4082 4071 4077 0
-4083 -4081 0
-4083 -4082 0
4083 4081 4082 0
-4084 4062 0
-4084 -4083 0
4084 -4062 4083 0
-4085 21 0
-4085 27 0
4085 -21 -27 0
-4086 -21 0
-4086 -27 0
4086 21 27 0
-4087 -4085 0
-4087 -4086 0
4087 4085 4086 0
-4091 36 0
-4091 4087 0
4091 -36 -4087 0
-4092 -36 0
-4092 -4087 0
4092 36 4087 0
-4093 -4091 0
-4093 -4092 0
4093 4091 4092 0
-4088 86 0
-4088 91 0
4088 -86 -91 0
-4089 -86 0
-4089 -91 0
4089 86 91 0
-4090 -4088 0
-4090 -4089 0
4090 4088 4089 0
-4097 69 0
-4097 4090 0
4097 -69 -4090 0
-4098 -69 0
-4098 -4090 0
4098 69 4090 0
-4099 -4097 0
-4099 -4098 0
4099 4097 4098 0
-4103 4093 0
-4103 4099 0
4103 -4093 -4099 0
-4104 -4093 0
-4104 -4099 0
4104 4093 4099 0
-4105 -4103 0
-4105 -4104 0
4105 4103 4104 0
-4106 4084 0
-4106 -4105 0
4106 -4084 4105 0
-4110 20 0
-4110 26 0
4110 -20 -26 0
-4111 -20 0
-4111 -26 0
4111 20 26 0
-4112 -4110 0
-4112 -4111 0
4112 4110 4111 0
-4113 35 0
-4113 4112 0
4113 -35 -4112 0
-4114 -35 0
-4114 -4112 0
4114 35 4112 0
-4115 -4113 0
-4115 -4114 0
4115 4113 4114 0
-4107 90 0
-4107 91 0
4107 -90 -91 0
-4108 -90 0
-4108 -91 0
4108 90 91 0
-4109 -4107 0
-4109 -4108 0
4109 4107 4108 0
-4119 68 0
-4119 4109 0
4119 -68 -4109 0
-4120 -68 0
-4120 -4109 0
4120 68 4109 0
-4121 -4119 0
-4121 -4120 0
4121 4119 4120 0
-4125 4115 0
-4125 4121 0
4125 -4115 -4121 0
-4126 -4115 0
-4126 -4121 0
4126 4115 4121 0
-4127 -4125 0
-4127 -4126 0
4127 4125 4126 0
-4128 4106 0
-4128 -4127 0
4128 -4106 4127 0
-4135 19 0
-4135 25 0
4135 -19 -25 0
-4136 -19 0
-4136 -25 0
4136 19 25 0
-4137 -4135 0
-4137 -4136 0
4137 4135 4136 0
-4138 28 0
-4138 4137 0
4138 -28 -4137 0
-4139 -28 0
-4139 -4137 0
4139 28 4137 0
-4140 -4138 0
-4140 -4139 0
4140 4138 4139 0
-4129 83 0
-4129 84 0
4129 -83 -84 0
-4130 -83 0
-4130 -84 0
4130 83 84 0
-4131 -4129 0
-4131 -4130 0
4131 4129 4130 0
-4141 67 0
-4141 4131 0
4141 -67 -4131 0
-4142 -67 0
-4142 -4131 0
4142 67 4131 0
-4143 -4141 0
-4143 -4142 0
4143 4141 4142 0
-4147 4140 0
-4147 4143 0
4147 -4140 -4143 0
-4148 -4140 0
-4148 -4143 0
4148 4140 4143 0
-4149 -4147 0
-4149 -4148 0
4149 4147 4148 0
-4150 4128 0
-4150 -4149 0
4150 -4128 4149 0
-4157 18 0
-4157 24 0
4157 -18 -24 0
-4158 -18 0
-4158 -24 0
4158 18 24 0
-4159 -4157 0
-4159 -4158 0
4159 4157 4158 0
-4160 27 0
-4160 4159 0
4160 -27 -4159 0
-4161 -27 0
-4161 -4159 0
4161 27 4159 0
-4162 -4160 0
-4162 -4161 0
4162 4160 4161 0
-4151 82 0
-4151 83 0
4151 -82 -83 0
-4152 -82 0
-4152 -83 0
4152 82 83 0
-4153 -4151 0
-4153 -4152 0
4153 4151 4152 0
-4163 66 0
-4163 4153 0
4163 -66 -4153 0
-4164 -66 0
-4164 -4153 0
4164 66 4153 0
-4165 -4163 0
-4165 -4164 0
4165 4163 4164 0
-4169 4162 0
-4169 4165 0
4169 -4162 -4165 0
-4170 -4162 0
-4170 -4165 0
4170 4162 4165 0
-4171 -4169 0
-4171 -4170 0
4171 4169 4170 0
-4172 4150 0
-4172 -4171 0
4172 -4150 4171 0
-4173 81 0
-4173 82 0
4173 -81 -82 0
-4174 -81 0
-4174 -82 0
4174 81 82 0
-4175 -4173 0
-4175 -4174 0
4175 4173 4174 0
-4176 23 0
-4176 26 0
4176 -23 -26 0
-4177 -23 0
-4177 -26 0
4177 23 26 0
-4178 -4176 0
-4178 -4177 0
4178 4176 4177 0
-4182 17 0
-4182 4178 0
4182 -17 -4178 0
-4183 -17 0
-4183 -4178 0
4183 17 4178 0
-4184 -4182 0
-4184 -4183 0
4184 4182 4183 0
-4185 65 0
-4185 4184 0
4185 -65 -4184 0
-4186 -65 0
-4186 -4184 0
4186 65 4184 0
-4187 -4185 0
-4187 -4186 0
4187 4185 4186 0
-4194 4175 0
-4194 4187 0
4194 -4175 -4187 0
-4195 -4175 0
-4195 -4187 0
4195 4175 4187 0
-4196 -4194 0
-4196 -4195 0
4196 4194 4195 0
-4197 4172 0
-4197 -4196 0
4197 -4172 4196 0
-4198 80 0
-4198 81 0
4198 -80 -81 0
-4199 -80 0
-4199 -81 0
4199 80 81 0
-4200 -4198 0
-4200 -4199 0
4200 4198 4199 0
-4204 22 0
-4204 31 0
4204 -22 -31 0
-4205 -22 0
-4205 -31 0
4205 22 31 0
-4206 -4204 0
-4206 -4205 0
4206 4204 4205 0
-4207 16 0
-4207 4206 0
4207 -16 -4206 0
-4208 -16 0
-4208 -4206 0
4208 16 4206 0
-4209 -4207 0
-4209 -4208 0
4209 4207 4208 0
-4210 64 0
-4210 4209 0
4210 -64 -4209 0
-4211 -64 0
-4211 -4209 0
4211 64 4209 0
-4212 -4210 0
-4212 -4211 0
4212 4210 4211 0
-4219 4200 0
-4219 4212 0
4219 -4200 -4212 0
-4220 -4200 0
-4220 -4212 0
4220 4200 4212 0
-4221 -4219 0
-4221 -4220 0
4221 4219 4220 0
-4222 4197 0
-4222 -4221 0
4222 -4197 4221 0
-4226 80 0
-4226 85 0
4226 -80 -85 0
-4227 -80 0
-4227 -85 0
4227 80 85 0
-4228 -4226 0
-4228 -4227 0
4228 4226 4227 0
-4229 21 0
-4229 30 0
4229 -21 -30 0
-4230 -21 0
-4230 -30 0
4230 21 30 0
-4231 -4229 0
-4231 -4230 0
4231 4229 4230 0
-4232 15 0
-4232 4231 0
4232 -15 -4231 0
-4233 -15 0
-4233 -4231 0
4233 15 4231 0
-4234 -4232 0
-4234 -4233 0
4234 4232 4233 0
-4235 63 0
-4235 4234 0
4235 -63 -4234 0
-4236 -63 0
-4236 -4234 0
4236 63 4234 0
-4237 -4235 0
-4237 -4236 0
4237 4235 4236 0
-4244 4228 0
-4244 4237 0
4244 -4228 -4237 0
-4245 -4228 0
-4245 -4237 0
4245 4228 4237 0
-4246 -4244 0
-4246 -4245 0
4246 4244 4245 0
-4247 4222 0
-4247 -4246 0
4247 -4222 4246 0
-4248 84 0
-4248 85 0
4248 -84 -85 0
-4249 -84 0
-4249 -85 0
4249 84 85 0
-4250 -4248 0
-4250 -4249 0
4250 4248 4249 0
-4254 20 0
-4254 29 0
4254 -20 -29 0
-4255 -20 0
-4255 -29 0
4255 20 29 0
-4256 -4254 0
-4256 -4255 0
4256 4254 4255 0
-4257 14 0
-4257 4256 0
4257 -14 -4256 0
-4258 -14 0
-4258 -4256 0
4258 14 4256 0
-4259 -4257 0
-4259 -4258 0
4259 4257 4258 0
-4260 62 0
-4260 4259 0
4260 -62 -4259 0
-4261 -62 0
-4261 -4259 0
4261 62 4259 0
-4262 -4260 0
-4262 -4261 0
4262 4260 4261 0
-4269 4250 0
-4269 4262 0
4269 -4250 -4262 0
-4270 -4250 0
-4270 -4262 0
4270 4250 4262 0
-4271 -4269 0
-4271 -4270 0
4271 4269 4270 0
-4272 4247 0
-4272 -4271 0
4272 -4247 4271 0
-4273 77 0
-4273 78 0
4273 -77 -78 0
-4274 -77 0
-4274 -78 0
4274 77 78 0
-4275 -4273 0
-4275 -4274 0
4275 4273 4274 0
-4276 19 0
-4276 22 0
4276 -19 -22 0
-4277 -19 0
-4277 -22 0
4277 19 22 0
-4278 -4276 0
-4278 -4277 0
4278 4276 4277 0
-4282 13 0
-4282 4278 0
4282 -13 -4278 0
-4283 -13 0
-4283 -4278 0
4283 13 4278 0
-4284 -4282 0
-4284 -4283 0
4284 4282 4283 0
-4285 61 0
-4285 4284 0
4285 -61 -4284 0
-4286 -61 0
-4286 -4284 0
4286 61 4284 0
-4287 -4285 0
-4287 -4286 0
4287 4285 4286 0
-4294 4275 0
-4294 4287 0
4294 -4275 -4287 0
-4295 -4275 0
-4295 -4287 0
4295 4275 4287 0
-4296 -4294 0
-4296 -4295 0
4296 4294 4295 0
-4297 4272 0
-4297 -4296 0
4297 -4272 4296 0
-4298 76 0
-4298 77 0
4298 -76 -77 0
-4299 -76 0
-4299 -77 0
4299 76 77 0
-4300 -4298 0
-4300 -4299 0
4300 4298 4299 0
-4301 18 0
-4301 21 0
4301 -18 -21 0
-4302 -18 0
-4302 -21 0
4302 18 21 0
-4303 -4301 0
-4303 -4302 0
4303 4301 4302 0
-4307 12 0
-4307 4303 0
4307 -12 -4303 0
-4308 -12 0
-4308 -4303 0
4308 12 4303 0
-4309 -4307 0
-4309 -4308 0
4309 4307 4308 0
-4310 60 0
-4310 4309 0
4310 -60 -4309 0
-4311 -60 0
-4311 -4309 0
4311 60 4309 0
-4312 -4310 0
-4312 -4311 0
4312 4310 4311 0
-4319 4300 0
-4319 4312 0
4319 -4300 -4312 0
-4320 -4300 0
-4320 -4312 0
4320 4300 4312 0
-4321 -4319 0
-4321 -4320 0
4321 4319 4320 0
-4322 4297 0
-4322 -4321 0
4322 -4297 4321 0
-4323 75 0
-4323 76 0
4323 -75 -76 0
-4324 -75 0
-4324 -76 0
4324 75 76 0
-4325 -4323 0
-4325 -4324 0
4325 4323 4324 0
-4329 11 0
-4329 17 0
4329 -11 -17 0
-4330 -11 0
-4330 -17 0
4330 11 17 0
-4331 -4329 0
-4331 -4330 0
4331 4329 4330 0
-4332 20 0
-4332 4331 0
4332 -20 -4331 0
-4333 -20 0
-4333 -4331 0
4333 20 4331 0
-4334 -4332 0
-4334 -4333 0
4334 4332 4333 0
-4335 59 0
-4335 4334 0
4335 -59 -4334 0
-4336 -59 0
-4336 -4334 0
4336 59 4334 0
-4337 -4335 0
-4337 -4336 0
4337 4335 4336 0
-4344 4325 0
-4344 4337 0
4344 -4325 -4337 0
-4345 -4325 0
-4345 -4337 0
4345 4325 4337 0
-4346 -4344 0
-4346 -4345 0
4346 4344 4345 0
-4347 4322 0
-4347 -4346 0
4347 -4322 4346 0
-4348 74 0
-4348 75 0
4348 -74 -75 0
-4349 -74 0
-4349 -75 0
4349 74 75 0
-4350 -4348 0
-4350 -4349 0
4350 4348 4349 0
-4351 10 0
-4351 16 0
4351 -10 -16 0
-4352 -10 0
-4352 -16 0
4352 10 16 0
-4353 -4351 0
-4353 -4352 0
4353 4351 4352 0
-4354 25 0
-4354 4353 0
4354 -25 -4353 0
-4355 -25 0
-4355 -4353 0
4355 25 4353 0
-4356 -4354 0
-4356 -4355 0
4356 4354 4355 0
-4357 58 0
-4357 4356 0
4357 -58 -4356 0
-4358 -58 0
-4358 -4356 0
4358 58 4356 0
-4359 -4357 0
-4359 -4358 0
4359 4357 4358 0
-4366 4350 0
-4366 4359 0
4366 -4350 -4359 0
-4367 -4350 0
-4367 -4359 0
4367 4350 4359 0
-4368 -4366 0
-4368 -4367 0
4368 4366 4367 0
-4369 4347 0
-4369 -4368 0
4369 -4347 4368 0
-4373 74 0
-4373 79 0
4373 -74 -79 0
-4374 -74 0
-4374 -79 0
4374 74 79 0
-4375 -4373 0
-4375 -4374 0
4375 4373 4374 0
-4370 9 0
-4370 15 0
4370 -9 -15 0
-4371 -9 0
-4371 -15 0
4371 9 15 0
-4372 -4370 0
-4372 -4371 0
4372 4370 4371 0
-4376 24 0
-4376 4372 0
4376 -24 -4372 0
-4377 -24 0
-4377 -4372 0
4377 24 4372 0
-4378 -4376 0
-4378 -4377 0
4378 4376 4377 0
-4379 57 0
-4379 4378 0
4379 -57 -4378 0
-4380 -57 0
-4380 -4378 0
4380 57 4378 0
-4381 -4379 0
-4381 -4380 0
4381 4379 4380 0
-4388 4375 0
-4388 4381 0
4388 -4375 -4381 0
-4389 -4375 0
-4389 -4381 0
4389 4375 4381 0
-4390 -4388 0
-4390 -4389 0
4390 4388 4389 0
-4391 4369 0
-4391 -4390 0
4391 -4369 4390 0
-4392 78 0
-4392 79 0
4392 -78 -79 0
-4393 -78 0
-4393 -79 0
4393 78 79 0
-4394 -4392 0
-4394 -4393 0
4394 4392 4393 0
-4395 8 0
-4395 14 0
4395 -8 -14 0
-4396 -8 0
-4396 -14 0
4396 8 14 0
-4397 -4395 0
-4397 -4396 0
4397 4395 4396 0
-4398 23 0
-4398 4397 0
4398 -23 -4397 0
-4399 -23 0
-4399 -4397 0
4399 23 4397 0
-4400 -4398 0
-4400 -4399 0
4400 4398 4399 0
-4401 56 0
-4401 4400 0
4401 -56 -4400 0
-4402 -56 0
-4402 -4400 0
4402 56 4400 0
-4403 -4401 0
-4403 -4402 0
4403 4401 4402 0
-4410 4394 0
-4410 4403 0
4410 -4394 -4403 0
-4411 -4394 0
-4411 -4403 0
4411 4394 4403 0
-4412 -4410 0
-4412 -4411 0
4412 4410 4411 0
-4413 4391 0
-4413 -4412 0
4413 -4391 4412 0
-4417 13 0
-4417 16 0
4417 -13 -16 0
-4418 -13 0
-4418 -16 0
4418 13 16 0
-4419 -4417 0
-4419 -4418 0
4419 4417 4418 0
-4420 7 0
-4420 4419 0
4420 -7 -4419 0
-4421 -7 0
-4421 -4419 0
4421 7 4419 0
-4422 -4420 0
-4422 -4421 0
4422 4420 4421 0
-4414 71 0
-4414 72 0
4414 -71 -72 0
-4415 -71 0
-4415 -72 0
4415 71 72 0
-4416 -4414 0
-4416 -4415 0
4416 4414 4415 0
-4423 109 0
-4423 4416 0
4423 -109 -4416 0
-4424 -109 0
-4424 -4416 0
4424 109 4416 0
-4425 -4423 0
-4425 -4424 0
4425 4423 4424 0
-4426 4422 0
-4426 4425 0
4426 -4422 -4425 0
-4427 -4422 0
-4427 -4425 0
4427 4422 4425 0
-4428 -4426 0
-4428 -4427 0
4428 4426 4427 0
-4429 4413 0
-4429 -4428 0
4429 -4413 4428 0
-4433 12 0
-4433 15 0
4433 -12 -15 0
-4434 -12 0
-4434 -15 0
4434 12 15 0
-4435 -4433 0
-4435 -4434 0
4435 4433 4434 0
-4436 6 0
-4436 4435 0
4436 -6 -4435 0
-4437 -6 0
-4437 -4435 0
4437 6 4435 0
-4438 -4436 0
-4438 -4437 0
4438 4436 4437 0
-4430 70 0
-4430 71 0
4430 -70 -71 0
-4431 -70 0
-4431 -71 0
4431 70 71 0
-4432 -4430 0
-4432 -4431 0
4432 4430 4431 0
-4439 108 0
-4439 4432 0
4439 -108 -4432 0
-4440 -108 0
-4440 -4432 0
4440 108 4432 0
-4441 -4439 0
-4441 -4440 0
4441 4439 4440 0
-4442 4438 0
-4442 4441 0
4442 -4438 -4441 0
-4443 -4438 0
-4443 -4441 0
4443 4438 4441 0
-4444 -4442 0
-4444 -4443 0
4444 4442 4443 0
-4445 4429 0
-4445 -4444 0
4445 -4429 4444 0
-4449 11 0
-4449 14 0
4449 -11 -14 0
-4450 -11 0
-4450 -14 0
4450 11 14 0
-4451 -4449 0
-4451 -4450 0
4451 4449 4450 0
-4452 5 0
-4452 4451 0
4452 -5 -4451 0
-4453 -5 0
-4453 -4451 0
4453 5 4451 0
-4454 -4452 0
-4454 -4453 0
4454 4452 4453 0
-4446 69 0
-4446 70 0
4446 -69 -70 0
-4447 -69 0
-4447 -70 0
4447 69 70 0
-4448 -4446 0
-4448 -4447 0
4448 4446 4447 0
-4455 107 0
-4455 4448 0
4455 -107 -4448 0
-4456 -107 0
-4456 -4448 0
4456 107 4448 0
-4457 -4455 0
-4457 -4456 0
4457 4455 4456 0
-4458 4454 0
-4458 4457 0
4458 -4454 -4457 0
-4459 -4454 0
-4459 -4457 0
4459 4454 4457 0
-4460 -4458 0
-4460 -4459 0
4460 4458 4459 0
-4461 4445 0
-4461 -4460 0
4461 -4445 4460 0
-4465 4 0
-4465 10 0
4465 -4 -10 0
-4466 -4 0
-4466 -10 0
4466 4 10 0
-4467 -4465 0
-4467 -4466 0
4467 4465 4466 0
-4468 19 0
-4468 4467 0
4468 -19 -4467 0
-4469 -19 0
-4469 -4467 0
4469 19 4467 0
-4470 -4468 0
-4470 -4469 0
4470 4468 4469 0
-4462 68 0
-4462 69 0
4462 -68 -69 0
-4463 -68 0
-4463 -69 0
4463 68 69 0
-4464 -4462 0
-4464 -4463 0
4464 4462 4463 0
-4471 106 0
-4471 4464 0
4471 -106 -4464 0
-4472 -106 0
-4472 -4464 0
4472 106 4464 0
-4473 -4471 0
-4473 -4472 0
4473 4471 4472 0
-4474 4470 0
-4474 4473 0
4474 -4470 -4473 0
-4475 -4470 0
-4475 -4473 0
4475 4470 4473 0
-4476 -4474 0
-4476 -4475 0
4476 4474 4475 0
-4477 4461 0
-4477 -4476 0
4477 -4461 4476 0
-4478 3 0
-4478 9 0
4478 -3 -9 0
-4479 -3 0
-4479 -9 0
4479 3 9 0
-4480 -4478 0
-4480 -4479 0
4480 4478 4479 0
-4484 18 0
-4484 4480 0
4484 -18 -4480 0
-4485 -18 0
-4485 -4480 0
4485 18 4480 0
-4486 -4484 0
-4486 -4485 0
4486 4484 4485 0
-4481 68 0
-4481 73 0
4481 -68 -73 0
-4482 -68 0
-4482 -73 0
4482 68 73 0
-4483 -4481 0
-4483 -4482 0
4483 4481 4482 0
-4487 105 0
-4487 4483 0
4487 -105 -4483 0
-4488 -105 0
-4488 -4483 0
4488 105 4483 0
-4489 -4487 0
-4489 -4488 0
4489 4487 4488 0
-4490 4486 0
-4490 4489 0
4490 -4486 -4489 0
-4491 -4486 0
-4491 -4489 0
4491 4486 4489 0
-4492 -4490 0
-4492 -4491 0
4492 4490 4491 0
-4493 4477 0
-4493 -4492 0
4493 -4477 4492 0
-4497 2 0
-4497 8 0
4497 -2 -8 0
-4498 -2 0
-4498 -8 0
4498 2 8 0
-4499 -4497 0
-4499 -4498 0
4499 4497 4498 0
-4500 17 0
-4500 4499 0
4500 -17 -4499 0
-4501 -17 0
-4501 -4499 0
4501 17 4499 0
-4502 -4500 0
-4502 -4501 0
4502 4500 4501 0
-4494 72 0
-4494 73 0
4494 -72 -73 0
-4495 -72 0
-4495 -73 0
4495 72 73 0
-4496 -4494 0
-4496 -4495 0
4496 4494 4495 0
-4506 104 0
-4506 4496 0
4506 -104 -4496 0
-4507 -104 0
-4507 -4496 0
4507 104 4496 0
-4508 -4506 0
-4508 -4507 0
4508 4506 4507 0
-4509 4502 0
-4509 4508 0
4509 -4502 -4508 0
-4510 -4502 0
-4510 -4508 0
4510 4502 4508 0
-4511 -4509 0
-4511 -4510 0
4511 4509 4510 0
-4512 4493 0
-4512 -4511 0
4512 -4493 4511 0
-4516 7 0
-4516 10 0
4516 -7 -10 0
-4517 -7 0
-4517 -10 0
4517 7 10 0
-4518 -4516 0
-4518 -4517 0
4518 4516 4517 0
-4519 55 0
-4519 65 0
4519 -55 -65 0
-4520 -55 0
-4520 -65 0
4520 55 65 0
-4521 -4519 0
-4521 -4520 0
4521 4519 4520 0
-4525 4518 0
-4525 4521 0
4525 -4518 -4521 0
-4526 -4518 0
-4526 -4521 0
4526 4518 4521 0
-4527 -4525 0
-4527 -4526 0
4527 4525 4526 0
-4531 66 0
-4531 103 0
4531 -66 -103 0
-4532 -66 0
-4532 -103 0
4532 66 103 0
-4533 -4531 0
-4533 -4532 0
4533 4531 4532 0
-4534 4527 0
-4534 4533 0
4534 -4527 -4533 0
-4535 -4527 0
-4535 -4533 0
4535 4527 4533 0
-4536 -4534 0
-4536 -4535 0
4536 4534 4535 0
-4537 4512 0
-4537 -4536 0
4537 -4512 4536 0
-4541 6 0
-4541 9 0
4541 -6 -9 0
-4542 -6 0
-4542 -9 0
4542 6 9 0
-4543 -4541 0
-4543 -4542 0
4543 4541 4542 0
-4538 64 0
-4538 65 0
4538 -64 -65 0
-4539 -64 0
-4539 -65 0
4539 64 65 0
-4540 -4538 0
-4540 -4539 0
4540 4538 4539 0
-4547 54 0
-4547 4540 0
4547 -54 -4540 0
-4548 -54 0
-4548 -4540 0
4548 54 4540 0
-4549 -4547 0
-4549 -4548 0
4549 4547 4548 0
-4550 4543 0
-4550 4549 0
4550 -4543 -4549 0
-4551 -4543 0
-4551 -4549 0
4551 4543 4549 0
-4552 -4550 0
-4552 -4551 0
4552 4550 4551 0
-4556 102 0
-4556 4552 0
4556 -102 -4552 0
-4557 -102 0
-4557 -4552 0
4557 102 4552 0
-4558 -4556 0
-4558 -4557 0
4558 4556 4557 0
-4559 4537 0
-4559 -4558 0
4559 -4537 4558 0
-4563 5 0
-4563 8 0
4563 -5 -8 0
-4564 -5 0
-4564 -8 0
4564 5 8 0
-4565 -4563 0
-4565 -4564 0
4565 4563 4564 0
-4560 63 0
-4560 64 0
4560 -63 -64 0
-4561 -63 0
-4561 -64 0
4561 63 64 0
-4562 -4560 0
-4562 -4561 0
4562 4560 4561 0
-4569 53 0
-4569 4562 0
4569 -53 -4562 0
-4570 -53 0
-4570 -4562 0
4570 53 4562 0
-4571 -4569 0
-4571 -4570 0
4571 4569 4570 0
-4572 4565 0
-4572 4571 0
4572 -4565 -4571 0
-4573 -4565 0
-4573 -4571 0
4573 4565 4571 0
-4574 -4572 0
-4574 -4573 0
4574 4572 4573 0
-4578 101 0
-4578 4574 0
4578 -101 -4574 0
-4579 -101 0
-4579 -4574 0
4579 101 4574 0
-4580 -4578 0
-4580 -4579 0
4580 4578 4579 0
-4581 4559 0
-4581 -4580 0
4581 -4559 4580 0
-4585 4 0
-4585 13 0
4585 -4 -13 0
-4586 -4 0
-4586 -13 0
4586 4 13 0
-4587 -4585 0
-4587 -4586 0
4587 4585 4586 0
-4582 62 0
-4582 63 0
4582 -62 -63 0
-4583 -62 0
-4583 -63 0
4583 62 63 0
-4584 -4582 0
-4584 -4583 0
4584 4582 4583 0
-4591 52 0
-4591 4584 0
4591 -52 -4584 0
-4592 -52 0
-4592 -4584 0
4592 52 4584 0
-4593 -4591 0
-4593 -4592 0
4593 4591 4592 0
-4594 4587 0
-4594 4593 0
4594 -4587 -4593 0
-4595 -4587 0
-4595 -4593 0
4595 4587 4593 0
-4596 -4594 0
-4596 -4595 0
4596 4594 4595 0
-4600 100 0
-4600 4596 0
4600 -100 -4596 0
-4601 -100 0
-4601 -4596 0
4601 100 4596 0
-4602 -4600 0
-4602 -4601 0
4602 4600 4601 0
-4603 4581 0
-4603 -4602 0
4603 -4581 4602 0
-4604 3 0
-4604 12 0
4604 -3 -12 0
-4605 -3 0
-4605 -12 0
4605 3 12 0
-4606 -4604 0
-4606 -4605 0
4606 4604 4605 0
-4610 51 0
-4610 62 0
4610 -51 -62 0
-4611 -51 0
-4611 -62 0
4611 51 62 0
-4612 -4610 0
-4612 -4611 0
4612 4610 4611 0
-4613 4606 0
-4613 4612 0
4613 -4606 -4612 0
-4614 -4606 0
-4614 -4612 0
4614 4606 4612 0
-4615 -4613 0
-4615 -4614 0
4615 4613 4614 0
-4622 67 0
-4622 99 0
4622 -67 -99 0
-4623 -67 0
-4623 -99 0
4623 67 99 0
-4624 -4622 0
-4624 -4623 0
4624 4622 4623 0
-4625 4615 0
-4625 4624 0
4625 -4615 -4624 0
-4626 -4615 0
-4626 -4624 0
4626 4615 4624 0
-4627 -4625 0
-4627 -4626 0
4627 4625 4626 0
-4628 4603 0
-4628 -4627 0
4628 -4603 4627 0
-4632 2 0
-4632 11 0
4632 -2 -11 0
-4633 -2 0
-4633 -11 0
4633 2 11 0
-4634 -4632 0
-4634 -4633 0
4634 4632 4633 0
-4635 50 0
-4635 4634 0
4635 -50 -4634 0
-4636 -50 0
-4636 -4634 0
4636 50 4634 0
-4637 -4635 0
-4637 -4636 0
4637 4635 4636 0
-4629 66 0
-4629 67 0
4629 -66 -67 0
-4630 -66 0
-4630 -67 0
4630 66 67 0
-4631 -4629 0
-4631 -4630 0
4631 4629 4630 0
-4647 98 0
-4647 4631 0
4647 -98 -4631 0
-4648 -98 0
-4648 -4631 0
4648 98 4631 0
-4649 -4647 0
-4649 -4648 0
4649 4647 4648 0
-4650 4637 0
-4650 4649 0
4650 -4637 -4649 0
-4651 -4637 0
-4651 -4649 0
4651 4637 4649 0
-4652 -4650 0
-4652 -4651 0
4652 4650 4651 0
-4653 4628 0
-4653 -4652 0
4653 -4628 4652 0
-4654 59 0
-4654 60 0
4654 -59 -60 0
-4655 -59 0
-4655 -60 0
4655 59 60 0
-4656 -4654 0
-4656 -4655 0
4656 4654 4655 0
-4663 55 0
-4663 4656 0
4663 -55 -4656 0
-4664 -55 0
-4664 -4656 0
4664 55 4656 0
-4665 -4663 0
-4665 -4664 0
4665 4663 4664 0
-4669 49 0
-4669 4665 0
4669 -49 -4665 0
-4670 -49 0
-4670 -4665 0
4670 49 4665 0
-4671 -4669 0
-4671 -4670 0
4671 4669 4670 0
-4678 4 0
-4678 4671 0
4678 -4 -4671 0
-4679 -4 0
-4679 -4671 0
4679 4 4671 0
-4680 -4678 0
-4680 -4679 0
4680 4678 4679 0
-4687 97 0
-4687 4680 0
4687 -97 -4680 0
-4688 -97 0
-4688 -4680 0
4688 97 4680 0
-4689 -4687 0
-4689 -4688 0
4689 4687 4688 0
-4690 4653 0
-4690 -4689 0
4690 -4653 4689 0
-4691 58 0
-4691 59 0
4691 -58 -59 0
-4692 -58 0
-4692 -59 0
4692 58 59 0
-4693 -4691 0
-4693 -4692 0
4693 4691 4692 0
-4700 54 0
-4700 4693 0
4700 -54 -4693 0
-4701 -54 0
-4701 -4693 0
4701 54 4693 0
-4702 -4700 0
-4702 -4701 0
4702 4700 4701 0
-4706 48 0
-4706 4702 0
4706 -48 -4702 0
-4707 -48 0
-4707 -4702 0
4707 48 4702 0
-4708 -4706 0
-4708 -4707 0
4708 4706 4707 0
-4715 3 0
-4715 4708 0
4715 -3 -4708 0
-4716 -3 0
-4716 -4708 0
4716 3 4708 0
-4717 -4715 0
-4717 -4716 0
4717 4715 4716 0
-4724 96 0
-4724 4717 0
4724 -96 -4717 0
-4725 -96 0
-4725 -4717 0
4725 96 4717 0
-4726 -4724 0
-4726 -4725 0
4726 4724 4725 0
-4727 4690 0
-4727 -4726 0
4727 -4690 4726 0
-4734 53 0
-4734 57 0
4734 -53 -57 0
-4735 -53 0
-4735 -57 0
4735 53 57 0
-4736 -4734 0
-4736 -4735 0
4736 4734 4735 0
-4749 58 0
-4749 4736 0
4749 -58 -4736 0
-4750 -58 0
-4750 -4736 0
4750 58 4736 0
-4751 -4749 0
-4751 -4750 0
4751 4749 4750 0
-4752 47 0
-4752 4751 0
4752 -47 -4751 0
-4753 -47 0
-4753 -4751 0
4753 47 4751 0
-4754 -4752 0
-4754 -4753 0
4754 4752 4753 0
-4755 2 0
-4755 4754 0
4755 -2 -4754 0
-4756 -2 0
-4756 -4754 0
4756 2 4754 0
-4757 -4755 0
-4757 -4756 0
4757 4755 4756 0
-4761 95 0
-4761 4757 0
4761 -95 -4757 0
-4762 -95 0
-4762 -4757 0
4762 95 4757 0
-4763 -4761 0
-4763 -4762 0
4763 4761 4762 0
-4764 4727 0
-4764 -4763 0
4764 -4727 4763 0
-4765 56 0
-4765 57 0
4765 -56 -57 0
-4766 -56 0
-4766 -57 0
4766 56 57 0
-4767 -4765 0
-4767 -4766 0
4767 4765 4766 0
-4774 52 0
-4774 4767 0
4774 -52 -4767 0
-4775 -52 0
-4775 -4767 0
4775 52 4767 0
-4776 -4774 0
-4776 -4775 0
4776 4774 4775 0
-4780 46 0
-4780 4776 0
4780 -46 -4776 0
-4781 -46 0
-4781 -4776 0
4781 46 4776 0
-4782 -4780 0
-4782 -4781 0
4782 4780 4781 0
-4789 7 0
-4789 4782 0
4789 -7 -4782 0
-4790 -7 0
-4790 -4782 0
4790 7 4782 0
-4791 -4789 0
-4791 -4790 0
4791 4789 4790 0
-4795 94 0
-4795 4791 0
4795 -94 -4791 0
-4796 -94 0
-4796 -4791 0
4796 94 4791 0
-4797 -4795 0
-4797 -4796 0
4797 4795 4796 0
-4798 4764 0
-4798 -4797 0
4798 -4764 4797 0
-4802 51 0
-4802 56 0
4802 -51 -56 0
-4803 -51 0
-4803 -56 0
4803 51 56 0
-4804 -4802 0
-4804 -4803 0
4804 4802 4803 0
-4817 61 0
-4817 4804 0
4817 -61 -4804 0
-4818 -61 0
-4818 -4804 0
4818 61 4804 0
-4819 -4817 0
-4819 -4818 0
4819 4817 4818 0
-4820 45 0
-4820 4819 0
4820 -45 -4819 0
-4821 -45 0
-4821 -4819 0
4821 45 4819 0
-4822 -4820 0
-4822 -4821 0
4822 4820 4821 0
-4823 6 0
-4823 4822 0
4823 -6 -4822 0
-4824 -6 0
-4824 -4822 0
4824 6 4822 0
-4825 -4823 0
-4825 -4824 0
4825 4823 4824 0
-4835 93 0
-4835 4825 0
4835 -93 -4825 0
-4836 -93 0
-4836 -4825 0
4836 93 4825 0
-4837 -4835 0
-4837 -4836 0
4837 4835 4836 0
-4838 4798 0
-4838 -4837 0
4838 -4798 4837 0
-4839 60 0
-4839 61 0
4839 -60 -61 0
-4840 -60 0
-4840 -61 0
4840 60 61 0
-4841 -4839 0
-4841 -4840 0
4841 4839 4840 0
-4848 50 0
-4848 4841 0
4848 -50 -4841 0
-4849 -50 0
-4849 -4841 0
4849 50 4841 0
-4850 -4848 0
-4850 -4849 0
4850 4848 4849 0
-4851 44 0
-4851 4850 0
4851 -44 -4850 0
-4852 -44 0
-4852 -4850 0
4852 44 4850 0
-4853 -4851 0
-4853 -4852 0
4853 4851 4852 0
-4854 5 0
-4854 4853 0
4854 -5 -4853 0
-4855 -5 0
-4855 -4853 0
4855 5 4853 0
-4856 -4854 0
-4856 -4855 0
4856 4854 4855 0
-4866 92 0
-4866 4856 0
4866 -92 -4856 0
-4867 -92 0
-4867 -4856 0
4867 92 4856 0
-4868 -4866 0
-4868 -4867 0
4868 4866 4867 0
-4869 4838 0
-4869 -4868 0
4869 -4838 4868 0
-4885 7 0
-4885 12 0
4885 -7 -12 0
-4886 -7 0
-4886 -12 0
4886 7 12 0
-4887 -4885 0
-4887 -4886 0
4887 4885 4886 0
-4870 28 0
-4870 29 0
4870 -28 -29 0
-4871 -28 0
-4871 -29 0
4871 28 29 0
-4872 -4870 0
-4872 -4871 0
4872 4870 4871 0
-4918 19 0
-4918 4872 0
4918 -19 -4872 0
-4919 -19 0
-4919 -4872 0
4919 19 4872 0
-4920 -4918 0
-4920 -4919 0
4920 4918 4919 0
-4921 4887 0
-4921 4920 0
4921 -4887 -4920 0
-4922 -4887 0
-4922 -4920 0
4922 4887 4920 0
-4923 -4921 0
-4923 -4922 0
4923 4921 4922 0
-4879 51 0
-4879 53 0
4879 -51 -53 0
-4880 -51 0
-4880 -53 0
4880 51 53 0
-4881 -4879 0
-4881 -4880 0
4881 4879 4880 0
-4909 4767 0
-4909 4881 0
4909 -4767 -4881 0
-4910 -4767 0
-4910 -4881 0
4910 4767 4881 0
-4911 -4909 0
-4911 -4910 0
4911 4909 4910 0
-4873 35 0
-4873 36 0
4873 -35 -36 0
-4874 -35 0
-4874 -36 0
4874 35 36 0
-4875 -4873 0
-4875 -4874 0
4875 4873 4874 0
-4876 44 0
-4876 46 0
4876 -44 -46 0
-4877 -44 0
-4877 -46 0
4877 44 46 0
-4878 -4876 0
-4878 -4877 0
4878 4876 4877 0
-4924 4875 0
-4924 4878 0
4924 -4875 -4878 0
-4925 -4875 0
-4925 -4878 0
4925 4875 4878 0
-4926 -4924 0
-4926 -4925 0
4926 4924 4925 0
-4972 4911 0
-4972 4926 0
4972 -4911 -4926 0
-4973 -4911 0
-4973 -4926 0
4973 4911 4926 0
-4974 -4972 0
-4974 -4973 0
4974 4972 4973 0
-4975 4923 0
-4975 4974 0
4975 -4923 -4974 0
-4976 -4923 0
-4976 -4974 0
4976 4923 4974 0
-4977 -4975 0
-4977 -4976 0
4977 4975 4976 0
-4993 -109 0
-4993 4977 0
4993 109 -4977 0
-4994 109 0
-4994 -4977 0
4994 -109 4977 0
-4995 -4993 0
-4995 -4994 0
4995 4993 4994 0
-4996 2 0
-4996 4 0
4996 -2 -4 0
-4997 -2 0
-4997 -4 0
4997 2 4 0
-4998 -4996 0
-4998 -4997 0
4998 4996 4997 0
-5023 6 0
-5023 8 0
5023 -6 -8 0
-5024 -6 0
-5024 -8 0
5024 6 8 0
-5025 -5023 0
-5025 -5024 0
5025 5023 5024 0
-5026 4998 0
-5026 5025 0
5026 -4998 -5025 0
-5027 -4998 0
-5027 -5025 0
5027 4998 5025 0
-5028 -5026 0
-5028 -5027 0
5028 5026 5027 0
-4999 12 0
-4999 13 0
4999 -12 -13 0
-5000 -12 0
-5000 -13 0
5000 12 13 0
-5001 -4999 0
-5001 -5000 0
5001 4999 5000 0
-5029 10 0
-5029 5001 0
5029 -10 -5001 0
-5030 -10 0
-5030 -5001 0
5030 10 5001 0
-5031 -5029 0
-5031 -5030 0
5031 5029 5030 0
-5068 5028 0
-5068 5031 0
5068 -5028 -5031 0
-5069 -5028 0
-5069 -5031 0
5069 5028 5031 0
-5070 -5068 0
-5070 -5069 0
5070 5068 5069 0
-5002 20 0
-5002 21 0
5002 -20 -21 0
-5003 -20 0
-5003 -21 0
5003 20 21 0
-5004 -5002 0
-5004 -5003 0
5004 5002 5003 0
-5008 22 0
-5008 23 0
5008 -22 -23 0
-5009 -22 0
-5009 -23 0
5009 22 23 0
-5010 -5008 0
-5010 -5009 0
5010 5008 5009 0
-5047 25 0
-5047 5010 0
5047 -25 -5010 0
-5048 -25 0
-5048 -5010 0
5048 25 5010 0
-5049 -5047 0
-5049 -5048 0
5049 5047 5048 0
-5071 5004 0
-5071 5049 0
5071 -5004 -5049 0
-5072 -5004 0
-5072 -5049 0
5072 5004 5049 0
-5073 -5071 0
-5073 -5072 0
5073 5071 5072 0
-5014 26 0
-5014 27 0
5014 -26 -27 0
-5015 -26 0
-5015 -27 0
5015 26 27 0
-5016 -5014 0
-5016 -5015 0
5016 5014 5015 0
-5059 28 0
-5059 5016 0
5059 -28 -5016 0
-5060 -28 0
-5060 -5016 0
5060 28 5016 0
-5061 -5059 0
-5061 -5060 0
5061 5059 5060 0
-5101 31 0
-5101 5061 0
5101 -31 -5061 0
-5102 -31 0
-5102 -5061 0
5102 31 5061 0
-5103 -5101 0
-5103 -5102 0
5103 5101 5102 0
-5116 5073 0
-5116 5103 0
5116 -5073 -5103 0
-5117 -5073 0
-5117 -5103 0
5117 5073 5103 0
-5118 -5116 0
-5118 -5117 0
5118 5116 5117 0
-5119 5070 0
-5119 5118 0
5119 -5070 -5118 0
-5120 -5070 0
-5120 -5118 0
5120 5070 5118 0
-5121 -5119 0
-5121 -5120 0
5121 5119 5120 0
-5020 40 0
-5020 41 0
5020 -40 -41 0
-5021 -40 0
-5021 -41 0
5021 40 41 0
-5022 -5020 0
-5022 -5021 0
5022 5020 5021 0
-5065 45 0
-5065 47 0
5065 -45 -47 0
-5066 -45 0
-5066 -47 0
5066 45 47 0
-5067 -5065 0
-5067 -5066 0
5067 5065 5066 0
-5110 5022 0
-5110 5067 0
5110 -5022 -5067 0
-5111 -5022 0
-5111 -5067 0
5111 5022 5067 0
-5112 -5110 0
-5112 -5111 0
5112 5110 5111 0
-5167 57 0
-5167 5112 0
5167 -57 -5112 0
-5168 -57 0
-5168 -5112 0
5168 57 5112 0
-5169 -5167 0
-5169 -5168 0
5169 5167 5168 0
-5170 5121 0
-5170 5169 0
5170 -5121 -5169 0
-5171 -5121 0
-5171 -5169 0
5171 5121 5169 0
-5172 -5170 0
-5172 -5171 0
5172 5170 5171 0
-5179 -108 0
-5179 5172 0
5179 108 -5172 0
-5180 108 0
-5180 -5172 0
5180 -108 5172 0
-5181 -5179 0
-5181 -5180 0
5181 5179 5180 0
-5182 3 0
-5182 5 0
5182 -3 -5 0
-5183 -3 0
-5183 -5 0
5183 3 5 0
-5184 -5182 0
-5184 -5183 0
5184 5182 5183 0
-5197 7 0
-5197 9 0
5197 -7 -9 0
-5198 -7 0
-5198 -9 0
5198 7 9 0
-5199 -5197 0
-5199 -5198 0
5199 5197 5198 0
-5200 5184 0
-5200 5199 0
5200 -5184 -5199 0
-5201 -5184 0
-5201 -5199 0
5201 5184 5199 0
-5202 -5200 0
-5202 -5201 0
5202 5200 5201 0
-5203 11 0
-5203 5001 0
5203 -11 -5001 0
-5204 -11 0
-5204 -5001 0
5204 11 5001 0
-5205 -5203 0
-5205 -5204 0
5205 5203 5204 0
-5236 5202 0
-5236 5205 0
5236 -5202 -5205 0
-5237 -5202 0
-5237 -5205 0
5237 5202 5205 0
-5238 -5236 0
-5238 -5237 0
5238 5236 5237 0
-5188 24 0
-5188 25 0
5188 -24 -25 0
-5189 -24 0
-5189 -25 0
5189 24 25 0
-5190 -5188 0
-5190 -5189 0
5190 5188 5189 0
-5221 22 0
-5221 5190 0
5221 -22 -5190 0
-5222 -22 0
-5222 -5190 0
5222 22 5190 0
-5223 -5221 0
-5223 -5222 0
5223 5221 5222 0
-5239 5004 0
-5239 5223 0
5239 -5004 -5223 0
-5240 -5004 0
-5240 -5223 0
5240 5004 5223 0
-5241 -5239 0
-5241 -5240 0
5241 5239 5240 0
-5191 30 0
-5191 31 0
5191 -30 -31 0
-5192 -30 0
-5192 -31 0
5192 30 31 0
-5193 -5191 0
-5193 -5192 0
5193 5191 5192 0
-5266 5016 0
-5266 5193 0
5266 -5016 -5193 0
-5267 -5016 0
-5267 -5193 0
5267 5016 5193 0
-5268 -5266 0
-5268 -5267 0
5268 5266 5267 0
-5281 5241 0
-5281 5268 0
5281 -5241 -5268 0
-5282 -5241 0
-5282 -5268 0
5282 5241 5268 0
-5283 -5281 0
-5283 -5282 0
5283 5281 5282 0
-5284 5238 0
-5284 5283 0
5284 -5238 -5283 0
-5285 -5238 0
-5285 -5283 0
5285 5238 5283 0
-5286 -5284 0
-5286 -5285 0
5286 5284 5285 0
-5194 39 0
-5194 40 0
5194 -39 -40 0
-5195 -39 0
-5195 -40 0
5195 39 40 0
-5196 -5194 0
-5196 -5195 0
5196 5194 5195 0
-5275 4878 0
-5275 5196 0
5275 -4878 -5196 0
-5276 -4878 0
-5276 -5196 0
5276 4878 5196 0
-5277 -5275 0
-5277 -5276 0
5277 5275 5276 0
-5335 56 0
-5335 5277 0
5335 -56 -5277 0
-5336 -56 0
-5336 -5277 0
5336 56 5277 0
-5337 -5335 0
-5337 -5336 0
5337 5335 5336 0
-5338 5286 0
-5338 5337 0
5338 -5286 -5337 0
-5339 -5286 0
-5339 -5337 0
5339 5286 5337 0
-5340 -5338 0
-5340 -5339 0
5340 5338 5339 0
-5347 -107 0
-5347 5340 0
5347 107 -5340 0
-5348 107 0
-5348 -5340 0
5348 -107 5340 0
-5349 -5347 0
-5349 -5348 0
5349 5347 5348 0
-5374 6 0
-5374 13 0
5374 -6 -13 0
-5375 -6 0
-5375 -13 0
5375 6 13 0
-5376 -5374 0
-5376 -5375 0
5376 5374 5375 0
-5350 29 0
-5350 30 0
5350 -29 -30 0
-5351 -29 0
-5351 -30 0
5351 29 30 0
-5352 -5350 0
-5352 -5351 0
5352 5350 5351 0
-5359 22 0
-5359 24 0
5359 -22 -24 0
-5360 -22 0
-5360 -24 0
5360 22 24 0
-5361 -5359 0
-5361 -5360 0
5361 5359 5360 0
-5377 18 0
-5377 5361 0
5377 -18 -5361 0
-5378 -18 0
-5378 -5361 0
5378 18 5361 0
-5379 -5377 0
-5379 -5378 0
5379 5377 5378 0
-5446 5352 0
-5446 5379 0
5446 -5352 -5379 0
-5447 -5352 0
-5447 -5379 0
5447 5352 5379 0
-5448 -5446 0
-5448 -5447 0
5448 5446 5447 0
-5449 5376 0
-5449 5448 0
5449 -5376 -5448 0
-5450 -5376 0
-5450 -5448 0
5450 5376 5448 0
-5451 -5449 0
-5451 -5450 0
5451 5449 5450 0
-5371 50 0
-5371 52 0
5371 -50 -52 0
-5372 -50 0
-5372 -52 0
5372 50 52 0
-5373 -5371 0
-5373 -5372 0
5373 5371 5372 0
-5443 4767 0
-5443 5373 0
5443 -4767 -5373 0
-5444 -4767 0
-5444 -5373 0
5444 4767 5373 0
-5445 -5443 0
-5445 -5444 0
5445 5443 5444 0
-5353 34 0
-5353 35 0
5353 -34 -35 0
-5354 -34 0
-5354 -35 0
5354 34 35 0
-5355 -5353 0
-5355 -5354 0
5355 5353 5354 0
-5356 38 0
-5356 39 0
5356 -38 -39 0
-5357 -38 0
-5357 -39 0
5357 38 39 0
-5358 -5356 0
-5358 -5357 0
5358 5356 5357 0
-5365 5022 0
-5365 5358 0
5365 -5022 -5358 0
-5366 -5022 0
-5366 -5358 0
5366 5022 5358 0
-5367 -5365 0
-5367 -5366 0
5367 5365 5366 0
-5410 5355 0
-5410 5367 0
5410 -5355 -5367 0
-5411 -5355 0
-5411 -5367 0
5411 5355 5367 0
-5412 -5410 0
-5412 -5411 0
5412 5410 5411 0
-5452 5067 0
-5452 5412 0
5452 -5067 -5412 0
-5453 -5067 0
-5453 -5412 0
5453 5067 5412 0
-5454 -5452 0
-5454 -5453 0
5454 5452 5453 0
-5539 5445 0
-5539 5454 0
5539 -5445 -5454 0
-5540 -5445 0
-5540 -5454 0
5540 5445 5454 0
-5541 -5539 0
-5541 -5540 0
5541 5539 5540 0
-5542 5451 0
-5542 5541 0
5542 -5451 -5541 0
-5543 -5451 0
-5543 -5541 0
5543 5451 5541 0
-5544 -5542 0
-5544 -5543 0
5544 5542 5543 0
-5566 -106 0
-5566 5544 0
5566 106 -5544 0
-5567 106 0
-5567 -5544 0
5567 -106 5544 0
-5568 -5566 0
-5568 -5567 0
5568 5566 5567 0
-5578 14 0
-5578 16 0
5578 -14 -16 0
-5579 -14 0
-5579 -16 0
5579 14 16 0
-5580 -5578 0
-5580 -5579 0
5580 5578 5579 0
-5602 7 0
-5602 5580 0
5602 -7 -5580 0
-5603 -7 0
-5603 -5580 0
5603 7 5580 0
-5604 -5602 0
-5604 -5603 0
5604 5602 5603 0
-5572 32 0
-5572 33 0
5572 -32 -33 0
-5573 -32 0
-5573 -33 0
5573 32 33 0
-5574 -5572 0
-5574 -5573 0
5574 5572 5573 0
-5569 18 0
-5569 19 0
5569 -18 -19 0
-5570 -18 0
-5570 -19 0
5570 18 19 0
-5571 -5569 0
-5571 -5570 0
5571 5569 5570 0
-5605 23 0
-5605 5571 0
5605 -23 -5571 0
-5606 -23 0
-5606 -5571 0
5606 23 5571 0
-5607 -5605 0
-5607 -5606 0
5607 5605 5606 0
-5647 5574 0
-5647 5607 0
5647 -5574 -5607 0
-5648 -5574 0
-5648 -5607 0
5648 5574 5607 0
-5649 -5647 0
-5649 -5648 0
5649 5647 5648 0
-5650 5604 0
-5650 5649 0
5650 -5604 -5649 0
-5651 -5604 0
-5651 -5649 0
5651 5604 5649 0
-5652 -5650 0
-5652 -5651 0
5652 5650 5651 0
-5593 34 0
-5593 37 0
5593 -34 -37 0
-5594 -34 0
-5594 -37 0
5594 34 37 0
-5595 -5593 0
-5595 -5594 0
5595 5593 5594 0
-5638 5196 0
-5638 5595 0
5638 -5196 -5595 0
-5639 -5196 0
-5639 -5595 0
5639 5196 5595 0
-5640 -5638 0
-5640 -5639 0
5640 5638 5639 0
-5644 57 0
-5644 4881 0
5644 -57 -4881 0
-5645 -57 0
-5645 -4881 0
5645 57 4881 0
-5646 -5644 0
-5646 -5645 0
5646 5644 5645 0
-5704 5640 0
-5704 5646 0
5704 -5640 -5646 0
-5705 -5640 0
-5705 -5646 0
5705 5640 5646 0
-5706 -5704 0
-5706 -5705 0
5706 5704 5705 0
-5707 5652 0
-5707 5706 0
5707 -5652 -5706 0
-5708 -5652 0
-5708 -5706 0
5708 5652 5706 0
-5709 -5707 0
-5709 -5708 0
5709 5707 5708 0
-5725 -105 0
-5725 5709 0
5725 105 -5709 0
-5726 105 0
-5726 -5709 0
5726 -105 5709 0
-5727 -5725 0
-5727 -5726 0
5727 5725 5726 0
-5737 15 0
-5737 17 0
5737 -15 -17 0
-5738 -15 0
-5738 -17 0
5738 15 17 0
-5739 -5737 0
-5739 -5738 0
5739 5737 5738 0
-5761 6 0
-5761 5739 0
5761 -6 -5739 0
-5762 -6 0
-5762 -5739 0
5762 6 5739 0
-5763 -5761 0
-5763 -5762 0
5763 5761 5762 0
-5764 22 0
-5764 5571 0
5764 -22 -5571 0
-5765 -22 0
-5765 -5571 0
5765 22 5571 0
-5766 -5764 0
-5766 -5765 0
5766 5764 5765 0
-5803 5574 0
-5803 5766 0
5803 -5574 -5766 0
-5804 -5574 0
-5804 -5766 0
5804 5574 5766 0
-5805 -5803 0
-5805 -5804 0
5805 5803 5804 0
-5806 5763 0
-5806 5805 0
5806 -5763 -5805 0
-5807 -5763 0
-5807 -5805 0
5807 5763 5805 0
-5808 -5806 0
-5808 -5807 0
5808 5806 5807 0
-5440 56 0
-5440 5373 0
5440 -56 -5373 0
-5441 -56 0
-5441 -5373 0
5441 56 5373 0
-5442 -5440 0
-5442 -5441 0
5442 5440 5441 0
-5731 36 0
-5731 37 0
5731 -36 -37 0
-5732 -36 0
-5732 -37 0
5732 36 37 0
-5733 -5731 0
-5733 -5732 0
5733 5731 5732 0
-5755 5358 0
-5755 5733 0
5755 -5358 -5733 0
-5756 -5358 0
-5756 -5733 0
5756 5358 5733 0
-5757 -5755 0
-5757 -5756 0
5757 5755 5756 0
-5854 5442 0
-5854 5757 0
5854 -5442 -5757 0
-5855 -5442 0
-5855 -5757 0
5855 5442 5757 0
-5856 -5854 0
-5856 -5855 0
5856 5854 5855 0
-5857 5808 0
-5857 5856 0
5857 -5808 -5856 0
-5858 -5808 0
-5858 -5856 0
5858 5808 5856 0
-5859 -5857 0
-5859 -5858 0
5859 5857 5858 0
-5875 -104 0
-5875 5859 0
5875 104 -5859 0
-5876 104 0
-5876 -5859 0
5876 -104 5859 0
-5877 -5875 0
-5877 -5876 0
5877 5875 5876 0
-5878 13 0
-5878 15 0
5878 -13 -15 0
-5879 -13 0
-5879 -15 0
5879 13 15 0
-5880 -5878 0
-5880 -5879 0
5880 5878 5879 0
-5896 7 0
-5896 5880 0
5896 -7 -5880 0
-5897 -7 0
-5897 -5880 0
5897 7 5880 0
-5898 -5896 0
-5898 -5897 0
5898 5896 5897 0
-5884 30 0
-5884 32 0
5884 -30 -32 0
-5885 -30 0
-5885 -32 0
5885 30 32 0
-5886 -5884 0
-5886 -5885 0
5886 5884 5885 0
-5905 29 0
-5905 5886 0
5905 -29 -5886 0
-5906 -29 0
-5906 -5886 0
5906 29 5886 0
-5907 -5905 0
-5907 -5906 0
5907 5905 5906 0
-5932 19 0
-5932 5907 0
5932 -19 -5907 0
-5933 -19 0
-5933 -5907 0
5933 19 5907 0
-5934 -5932 0
-5934 -5933 0
5934 5932 5933 0
-5935 5898 0
-5935 5934 0
5935 -5898 -5934 0
-5936 -5898 0
-5936 -5934 0
5936 5898 5934 0
-5937 -5935 0
-5937 -5936 0
5937 5935 5936 0
-5929 51 0
-5929 4767 0
5929 -51 -4767 0
-5930 -51 0
-5930 -4767 0
5930 51 4767 0
-5931 -5929 0
-5931 -5930 0
5931 5929 5930 0
-5890 35 0
-5890 5733 0
5890 -35 -5733 0
-5891 -35 0
-5891 -5733 0
5891 35 5733 0
-5892 -5890 0
-5892 -5891 0
5892 5890 5891 0
-5938 5067 0
-5938 5892 0
5938 -5067 -5892 0
-5939 -5067 0
-5939 -5892 0
5939 5067 5892 0
-5940 -5938 0
-5940 -5939 0
5940 5938 5939 0
-6001 5931 0
-6001 5940 0
6001 -5931 -5940 0
-6002 -5931 0
-6002 -5940 0
6002 5931 5940 0
-6003 -6001 0
-6003 -6002 0
6003 6001 6002 0
-6004 5937 0
-6004 6003 0
6004 -5937 -6003 0
-6005 -5937 0
-6005 -6003 0
6005 5937 6003 0
-6006 -6004 0
-6006 -6005 0
6006 6004 6005 0
-6022 -103 0
-6022 6006 0
6022 103 -6006 0
-6023 103 0
-6023 -6006 0
6023 -103 6006 0
-6024 -6022 0
-6024 -6023 0
6024 6022 6023 0
-6025 6 0
-6025 4998 0
6025 -6 -4998 0
-6026 -6 0
-6026 -4998 0
6026 6 4998 0
-6027 -6025 0
-6027 -6026 0
6027 6025 6026 0
-6031 14 0
-6031 6027 0
6031 -14 -6027 0
-6032 -14 0
-6032 -6027 0
6032 14 6027 0
-6033 -6031 0
-6033 -6032 0
6033 6031 6032 0
-6058 5073 0
-6058 6033 0
6058 -5073 -6033 0
-6059 -5073 0
-6059 -6033 0
6059 5073 6033 0
-6060 -6058 0
-6060 -6059 0
6060 6058 6059 0
-6049 5022 0
-6049 5733 0
6049 -5022 -5733 0
-6050 -5022 0
-6050 -5733 0
6050 5022 5733 0
-6051 -6049 0
-6051 -6050 0
6051 6049 6050 0
-6055 52 0
-6055 57 0
6055 -52 -57 0
-6056 -52 0
-6056 -57 0
6056 52 57 0
-6057 -6055 0
-6057 -6056 0
6057 6055 6056 0
-6091 6051 0
-6091 6057 0
6091 -6051 -6057 0
-6092 -6051 0
-6092 -6057 0
6092 6051 6057 0
-6093 -6091 0
-6093 -6092 0
6093 6091 6092 0
-6094 6060 0
-6094 6093 0
6094 -6060 -6093 0
-6095 -6060 0
-6095 -6093 0
6095 6060 6093 0
-6096 -6094 0
-6096 -6095 0
6096 6094 6095 0
-6106 -102 0
-6106 6096 0
6106 102 -6096 0
-6107 102 0
-6107 -6096 0
6107 -102 6096 0
-6108 -6106 0
-6108 -6107 0
6108 6106 6107 0
-6112 7 0
-6112 5184 0
6112 -7 -5184 0
-6113 -7 0
-6113 -5184 0
6113 7 5184 0
-6114 -6112 0
-6114 -6113 0
6114 6112 6113 0
-6115 19 0
-6115 5004 0
6115 -19 -5004 0
-6116 -19 0
-6116 -5004 0
6116 19 5004 0
-6117 -6115 0
-6117 -6116 0
6117 6115 6116 0
-6121 5223 0
-6121 6117 0
6121 -5223 -6117 0
-6122 -5223 0
-6122 -6117 0
6122 5223 6117 0
-6123 -6121 0
-6123 -6122 0
6123 6121 6122 0
-6148 6114 0
-6148 6123 0
6148 -6114 -6123 0
-6149 -6114 0
-6149 -6123 0
6149 6114 6123 0
-6150 -6148 0
-6150 -6149 0
6150 6148 6149 0
-6142 4875 0
-6142 5196 0
6142 -4875 -5196 0
-6143 -4875 0
-6143 -5196 0
6143 4875 5196 0
-6144 -6142 0
-6144 -6143 0
6144 6142 6143 0
-6184 4804 0
-6184 6144 0
6184 -4804 -6144 0
-6185 -4804 0
-6185 -6144 0
6185 4804 6144 0
-6186 -6184 0
-6186 -6185 0
6186 6184 6185 0
-6187 6150 0
-6187 6186 0
6187 -6150 -6186 0
-6188 -6150 0
-6188 -6186 0
6188 6150 6186 0
-6189 -6187 0
-6189 -6188 0
6189 6187 6188 0
-6199 -101 0
-6199 6189 0
6199 101 -6189 0
-6200 101 0
-6200 -6189 0
6200 -101 6189 0
-6201 -6199 0
-6201 -6200 0
6201 6199 6200 0
-6202 6 0
-6202 12 0
6202 -6 -12 0
-6203 -6 0
-6203 -12 0
6203 6 12 0
-6204 -6202 0
-6204 -6203 0
6204 6202 6203 0
-6208 4872 0
-6208 5361 0
6208 -4872 -5361 0
-6209 -4872 0
-6209 -5361 0
6209 4872 5361 0
-6210 -6208 0
-6210 -6209 0
6210 6208 6209 0
-6232 6204 0
-6232 6210 0
6232 -6204 -6210 0
-6233 -6204 0
-6233 -6210 0
6233 6204 6210 0
-6234 -6232 0
-6234 -6233 0
6234 6232 6233 0
-6235 4878 0
-6235 5367 0
6235 -4878 -5367 0
-6236 -4878 0
-6236 -5367 0
6236 4878 5367 0
-6237 -6235 0
-6237 -6236 0
6237 6235 6236 0
-6289 4776 0
-6289 6237 0
6289 -4776 -6237 0
-6290 -4776 0
-6290 -6237 0
6290 4776 6237 0
-6291 -6289 0
-6291 -6290 0
6291 6289 6290 0
-6292 6234 0
-6292 6291 0
6292 -6234 -6291 0
-6293 -6234 0
-6293 -6291 0
6293 6234 6291 0
-6294 -6292 0
-6294 -6293 0
6294 6292 6293 0
-6313 -100 0
-6313 6294 0
6313 100 -6294 0
-6314 100 0
-6314 -6294 0
6314 -100 6294 0
-6315 -6313 0
-6315 -6314 0
6315 6313 6314 0
-6316 7 0
-6316 8 0
6316 -7 -8 0
-6317 -7 0
-6317 -8 0
6317 7 8 0
-6318 -6316 0
-6318 -6317 0
6318 6316 6317 0
-6337 5031 0
-6337 6318 0
6337 -5031 -6318 0
-6338 -5031 0
-6338 -6318 0
6338 5031 6318 0
-6339 -6337 0
-6339 -6338 0
6339 6337 6338 0
-6340 18 0
-6340 23 0
6340 -18 -23 0
-6341 -18 0
-6341 -23 0
6341 18 23 0
-6342 -6340 0
-6342 -6341 0
6342 6340 6341 0
-6409 5103 0
-6409 6342 0
6409 -5103 -6342 0
-6410 -5103 0
-6410 -6342 0
6410 5103 6342 0
-6411 -6409 0
-6411 -6410 0
6411 6409 6410 0
-6412 6339 0
-6412 6411 0
6412 -6339 -6411 0
-6413 -6339 0
-6413 -6411 0
6413 6339 6411 0
-6414 -6412 0
-6414 -6413 0
6414 6412 6413 0
-6319 50 0
-6319 51 0
6319 -50 -51 0
-6320 -50 0
-6320 -51 0
6320 50 51 0
-6321 -6319 0
-6321 -6320 0
6321 6319 6320 0
-6334 52 0
-6334 6321 0
6334 -52 -6321 0
-6335 -52 0
-6335 -6321 0
6335 52 6321 0
-6336 -6334 0
-6336 -6335 0
6336 6334 6335 0
-6403 57 0
-6403 6336 0
6403 -57 -6336 0
-6404 -57 0
-6404 -6336 0
6404 57 6336 0
-6405 -6403 0
-6405 -6404 0
6405 6403 6404 0
-6379 5196 0
-6379 5355 0
6379 -5196 -5355 0
-6380 -5196 0
-6380 -5355 0
6380 5196 5355 0
-6381 -6379 0
-6381 -6380 0
6381 6379 6380 0
-6415 5067 0
-6415 6381 0
6415 -5067 -6381 0
-6416 -5067 0
-6416 -6381 0
6416 5067 6381 0
-6417 -6415 0
-6417 -6416 0
6417 6415 6416 0
-6499 6405 0
-6499 6417 0
6499 -6405 -6417 0
-6500 -6405 0
-6500 -6417 0
6500 6405 6417 0
-6501 -6499 0
-6501 -6500 0
6501 6499 6500 0
-6502 6414 0
-6502 6501 0
6502 -6414 -6501 0
-6503 -6414 0
-6503 -6501 0
6503 6414 6501 0
-6504 -6502 0
-6504 -6503 0
6504 6502 6503 0
-6523 -99 0
-6523 6504 0
6523 99 -6504 0
-6524 99 0
-6524 -6504 0
6524 -99 6504 0
-6525 -6523 0
-6525 -6524 0
6525 6523 6524 0
-6577 5205 0
-6577 5580 0
6577 -5205 -5580 0
-6578 -5205 0
-6578 -5580 0
6578 5205 5580 0
-6579 -6577 0
-6579 -6578 0
6579 6577 6578 0
-6580 4543 0
-6580 6579 0
6580 -4543 -6579 0
-6581 -4543 0
-6581 -6579 0
6581 4543 6579 0
-6582 -6580 0
-6582 -6581 0
6582 6580 6581 0
-6550 5193 0
-6550 5574 0
6550 -5193 -5574 0
-6551 -5193 0
-6551 -5574 0
6551 5193 5574 0
-6552 -6550 0
-6552 -6551 0
6552 6550 6551 0
-6613 5016 0
-6613 6552 0
6613 -5016 -6552 0
-6614 -5016 0
-6614 -6552 0
6614 5016 6552 0
-6615 -6613 0
-6615 -6614 0
6615 6613 6614 0
-6670 4278 0
-6670 6615 0
6670 -4278 -6615 0
-6671 -4278 0
-6671 -6615 0
6671 4278 6615 0
-6672 -6670 0
-6672 -6671 0
6672 6670 6671 0
-6673 6582 0
-6673 6672 0
6673 -6582 -6672 0
-6674 -6582 0
-6674 -6672 0
6674 6582 6672 0
-6675 -6673 0
-6675 -6674 0
6675 6673 6674 0
-6532 52 0
-6532 53 0
6532 -52 -53 0
-6533 -52 0
-6533 -53 0
6533 52 53 0
-6534 -6532 0
-6534 -6533 0
6534 6532 6533 0
-6571 51 0
-6571 6534 0
6571 -51 -6534 0
-6572 -51 0
-6572 -6534 0
6572 51 6534 0
-6573 -6571 0
-6573 -6572 0
6573 6571 6572 0
-6661 56 0
-6661 6573 0
6661 -56 -6573 0
-6662 -56 0
-6662 -6573 0
6662 56 6573 0
-6663 -6661 0
-6663 -6662 0
6663 6661 6662 0
-6562 35 0
-6562 37 0
6562 -35 -37 0
-6563 -35 0
-6563 -37 0
6563 35 37 0
-6564 -6562 0
-6564 -6563 0
6564 6562 6563 0
-6637 5358 0
-6637 6564 0
6637 -5358 -6564 0
-6638 -5358 0
-6638 -6564 0
6638 5358 6564 0
-6639 -6637 0
-6639 -6638 0
6639 6637 6638 0
-6676 4878 0
-6676 6639 0
6676 -4878 -6639 0
-6677 -4878 0
-6677 -6639 0
6677 4878 6639 0
-6678 -6676 0
-6678 -6677 0
6678 6676 6677 0
-6760 6663 0
-6760 6678 0
6760 -6663 -6678 0
-6761 -6663 0
-6761 -6678 0
6761 6663 6678 0
-6762 -6760 0
-6762 -6761 0
6762 6760 6761 0
-6763 6675 0
-6763 6762 0
6763 -6675 -6762 0
-6764 -6675 0
-6764 -6762 0
6764 6675 6762 0
-6765 -6763 0
-6765 -6764 0
6765 6763 6764 0
-6784 -98 0
-6784 6765 0
6784 98 -6765 0
-6785 98 0
-6785 -6765 0
6785 -98 6765 0
-6786 -6784 0
-6786 -6785 0
6786 6784 6785 0
-6808 4543 0
-6808 5880 0
6808 -4543 -5880 0
-6809 -4543 0
-6809 -5880 0
6809 4543 5880 0
-6810 -6808 0
-6810 -6809 0
6810 6808 6809 0
-6811 19 0
-6811 5361 0
6811 -19 -5361 0
-6812 -19 0
-6812 -5361 0
6812 19 5361 0
-6813 -6811 0
-6813 -6812 0
6813 6811 6812 0
-6790 26 0
-6790 29 0
6790 -26 -29 0
-6791 -26 0
-6791 -29 0
6791 26 29 0
-6792 -6790 0
-6792 -6791 0
6792 6790 6791 0
-6799 32 0
-6799 5193 0
6799 -32 -5193 0
-6800 -32 0
-6800 -5193 0
6800 32 5193 0
-6801 -6799 0
-6801 -6800 0
6801 6799 6800 0
-6838 6792 0
-6838 6801 0
6838 -6792 -6801 0
-6839 -6792 0
-6839 -6801 0
6839 6792 6801 0
-6840 -6838 0
-6840 -6839 0
6840 6838 6839 0
-6874 6813 0
-6874 6840 0
6874 -6813 -6840 0
-6875 -6813 0
-6875 -6840 0
6875 6813 6840 0
-6876 -6874 0
-6876 -6875 0
6876 6874 6875 0
-6877 6810 0
-6877 6876 0
6877 -6810 -6876 0
-6878 -6810 0
-6878 -6876 0
6878 6810 6876 0
-6879 -6877 0
-6879 -6878 0
6879 6877 6878 0
-6859 5367 0
-6859 5892 0
6859 -5367 -5892 0
-6860 -5367 0
-6860 -5892 0
6860 5367 5892 0
-6861 -6859 0
-6861 -6860 0
6861 6859 6860 0
-6880 45 0
-6880 6861 0
6880 -45 -6861 0
-6881 -45 0
-6881 -6861 0
6881 45 6861 0
-6882 -6880 0
-6882 -6881 0
6882 6880 6881 0
-6955 5931 0
-6955 6882 0
6955 -5931 -6882 0
-6956 -5931 0
-6956 -6882 0
6956 5931 6882 0
-6957 -6955 0
-6957 -6956 0
6957 6955 6956 0
-6958 6879 0
-6958 6957 0
6958 -6879 -6957 0
-6959 -6879 0
-6959 -6957 0
6959 6879 6957 0
-6960 -6958 0
-6960 -6959 0
6960 6958 6959 0
-6982 -97 0
-6982 6960 0
6982 97 -6960 0
-6983 97 0
-6983 -6960 0
6983 -97 6960 0
-6984 -6982 0
-6984 -6983 0
6984 6982 6983 0
-6988 14 0
-6988 6318 0
6988 -14 -6318 0
-6989 -14 0
-6989 -6318 0
6989 14 6318 0
-6990 -6988 0
-6990 -6989 0
6990 6988 6989 0
-7015 23 0
-7015 5193 0
7015 -23 -5193 0
-7016 -23 0
-7016 -5193 0
7016 23 5193 0
-7017 -7015 0
-7017 -7016 0
7017 7015 7016 0
-7018 6990 0
-7018 7017 0
7018 -6990 -7017 0
-7019 -6990 0
-7019 -7017 0
7019 6990 7017 0
-7020 -7018 0
-7020 -7019 0
7020 7018 7019 0
-7006 5196 0
-7006 5733 0
7006 -5196 -5733 0
-7007 -5196 0
-7007 -5733 0
7007 5196 5733 0
-7008 -7006 0
-7008 -7007 0
7008 7006 7007 0
-7021 46 0
-7021 7008 0
7021 -46 -7008 0
-7022 -46 0
-7022 -7008 0
7022 46 7008 0
-7023 -7021 0
-7023 -7022 0
7023 7021 7022 0
-7081 6057 0
-7081 7023 0
7081 -6057 -7023 0
-7082 -6057 0
-7082 -7023 0
7082 6057 7023 0
-7083 -7081 0
-7083 -7082 0
7083 7081 7082 0
-7084 7020 0
-7084 7083 0
7084 -7020 -7083 0
-7085 -7020 0
-7085 -7083 0
7085 7020 7083 0
-7086 -7084 0
-7086 -7085 0
7086 7084 7085 0
-7102 -96 0
-7102 7086 0
7102 96 -7086 0
-7103 96 0
-7103 -7086 0
7103 -96 7086 0
-7104 -7102 0
-7104 -7103 0
7104 7102 7103 0
-7135 4278 0
-7135 5352 0
7135 -4278 -5352 0
-7136 -4278 0
-7136 -5352 0
7136 4278 5352 0
-7137 -7135 0
-7137 -7136 0
7137 7135 7136 0
-7138 5376 0
-7138 7137 0
7138 -5376 -7137 0
-7139 -5376 0
-7139 -7137 0
7139 5376 7137 0
-7140 -7138 0
-7140 -7139 0
7140 7138 7139 0
-7126 4875 0
-7126 5358 0
7126 -4875 -5358 0
-7127 -4875 0
-7127 -5358 0
7127 4875 5358 0
-7128 -7126 0
-7128 -7127 0
7128 7126 7127 0
-7141 45 0
-7141 7128 0
7141 -45 -7128 0
-7142 -45 0
-7142 -7128 0
7142 45 7128 0
-7143 -7141 0
-7143 -7142 0
7143 7141 7142 0
-7195 4804 0
-7195 7143 0
7195 -4804 -7143 0
-7196 -4804 0
-7196 -7143 0
7196 4804 7143 0
-7197 -7195 0
-7197 -7196 0
7197 7195 7196 0
-7198 7140 0
-7198 7197 0
7198 -7140 -7197 0
-7199 -7140 0
-7199 -7197 0
7199 7140 7197 0
-7200 -7198 0
-7200 -7199 0
7200 7198 7199 0
-7216 -95 0
-7216 7200 0
7216 95 -7200 0
-7217 95 0
-7217 -7200 0
7217 -95 7200 0
-7218 -7216 0
-7218 -7217 0
7218 7216 7217 0
-7219 -94 0
-7219 4791 0
7219 94 -4791 0
-7220 94 0
-7220 -4791 0
7220 -94 4791 0
-7221 -7219 0
-7221 -7220 0
7221 7219 7220 0
-7240 12 0
-7240 6027 0
7240 -12 -6027 0
-7241 -12 0
-7241 -6027 0
7241 12 6027 0
-7242 -7240 0
-7242 -7241 0
7242 7240 7241 0
-7231 18 0
-7231 5004 0
7231 -18 -5004 0
-7232 -18 0
-7232 -5004 0
7232 18 5004 0
-7233 -7231 0
-7233 -7232 0
7233 7231 7232 0
-7243 5049 0
-7243 7233 0
7243 -5049 -7233 0
-7244 -5049 0
-7244 -7233 0
7244 5049 7233 0
-7245 -7243 0
-7245 -7244 0
7245 7243 7244 0
-7315 4872 0
-7315 7245 0
7315 -4872 -7245 0
-7316 -4872 0
-7316 -7245 0
7316 4872 7245 0
-7317 -7315 0
-7317 -7316 0
7317 7315 7316 0
-7318 7242 0
-7318 7317 0
7318 -7242 -7317 0
-7319 -7242 0
-7319 -7317 0
7319 7242 7317 0
-7320 -7318 0
-7320 -7319 0
7320 7318 7319 0
-7222 44 0
-7222 45 0
7222 -44 -45 0
-7223 -44 0
-7223 -45 0
7223 44 45 0
-7224 -7222 0
-7224 -7223 0
7224 7222 7223 0
-7237 46 0
-7237 7224 0
7237 -46 -7224 0
-7238 -46 0
-7238 -7224 0
7238 46 7224 0
-7239 -7237 0
-7239 -7238 0
7239 7237 7238 0
-7282 5022 0
-7282 5355 0
7282 -5022 -5355 0
-7283 -5022 0
-7283 -5355 0
7283 5022 5355 0
-7284 -7282 0
-7284 -7283 0
7284 7282 7283 0
-7321 7239 0
-7321 7284 0
7321 -7239 -7284 0
-7322 -7239 0
-7322 -7284 0
7322 7239 7284 0
-7323 -7321 0
-7323 -7322 0
7323 7321 7322 0
-7405 6405 0
-7405 7323 0
7405 -6405 -7323 0
-7406 -6405 0
-7406 -7323 0
7406 6405 7323 0
-7407 -7405 0
-7407 -7406 0
7407 7405 7406 0
-7408 7320 0
-7408 7407 0
7408 -7320 -7407 0
-7409 -7320 0
-7409 -7407 0
7409 7320 7407 0
-7410 -7408 0
-7410 -7409 0
7410 7408 7409 0
-7432 -93 0
-7432 7410 0
7432 93 -7410 0
-7433 93 0
-7433 -7410 0
7433 -93 7410 0
-7434 -7432 0
-7434 -7433 0
7434 7432 7433 0
-7438 5184 0
-7438 6318 0
7438 -5184 -6318 0
-7439 -5184 0
-7439 -6318 0
7439 5184 6318 0
-7440 -7438 0
-7440 -7439 0
7440 7438 7439 0
-7441 10 0
-7441 13 0
7441 -10 -13 0
-7442 -10 0
-7442 -13 0
7442 10 13 0
-7443 -7441 0
-7443 -7442 0
7443 7441 7442 0
-7465 5580 0
-7465 7443 0
7465 -5580 -7443 0
-7466 -5580 0
-7466 -7443 0
7466 5580 7443 0
-7467 -7465 0
-7467 -7466 0
7467 7465 7466 0
-7468 7440 0
-7468 7467 0
7468 -7440 -7467 0
-7469 -7440 0
-7469 -7467 0
7469 7440 7467 0
-7470 -7468 0
-7470 -7469 0
7470 7468 7469 0
-7444 29 0
-7444 5016 0
7444 -29 -5016 0
-7445 -29 0
-7445 -5016 0
7445 29 5016 0
-7446 -7444 0
-7446 -7445 0
7446 7444 7445 0
-7456 31 0
-7456 5574 0
7456 -31 -5574 0
-7457 -31 0
-7457 -5574 0
7457 31 5574 0
-7458 -7456 0
-7458 -7457 0
7458 7456 7457 0
-7501 7446 0
-7501 7458 0
7501 -7446 -7458 0
-7502 -7446 0
-7502 -7458 0
7502 7446 7458 0
-7503 -7501 0
-7503 -7502 0
7503 7501 7502 0
-7546 6123 0
-7546 7503 0
7546 -6123 -7503 0
-7547 -6123 0
-7547 -7503 0
7547 6123 7503 0
-7548 -7546 0
-7548 -7547 0
7548 7546 7547 0
-7549 7470 0
-7549 7548 0
7549 -7470 -7548 0
-7550 -7470 0
-7550 -7548 0
7550 7470 7548 0
-7551 -7549 0
-7551 -7550 0
7551 7549 7550 0
-7435 46 0
-7435 47 0
7435 -46 -47 0
-7436 -46 0
-7436 -47 0
7436 46 47 0
-7437 -7435 0
-7437 -7436 0
7437 7435 7436 0
-7459 45 0
-7459 7437 0
7459 -45 -7437 0
-7460 -45 0
-7460 -7437 0
7460 45 7437 0
-7461 -7459 0
-7461 -7460 0
7461 7459 7460 0
-7525 5196 0
-7525 6564 0
7525 -5196 -6564 0
-7526 -5196 0
-7526 -6564 0
7526 5196 6564 0
-7527 -7525 0
-7527 -7526 0
7527 7525 7526 0
-7552 7461 0
-7552 7527 0
7552 -7461 -7527 0
-7553 -7461 0
-7553 -7527 0
7553 7461 7527 0
-7554 -7552 0
-7554 -7553 0
7554 7552 7553 0
-7639 6663 0
-7639 7554 0
7639 -6663 -7554 0
-7640 -6663 0
-7640 -7554 0
7640 6663 7554 0
-7641 -7639 0
-7641 -7640 0
7641 7639 7640 0
-7642 7551 0
-7642 7641 0
7642 -7551 -7641 0
-7643 -7551 0
-7643 -7641 0
7643 7551 7641 0
-7644 -7642 0
-7644 -7643 0
7644 7642 7643 0
-7663 -92 0
-7663 7644 0
7663 92 -7644 0
-7664 92 0
-7664 -7644 0
7664 -92 7644 0
-7665 -7663 0
-7665 -7664 0
7665 7663 7664 0
-7666 3 0
-7666 4543 0
7666 -3 -4543 0
-7667 -3 0
-7667 -4543 0
7667 3 4543 0
-7668 -7666 0
-7668 -7667 0
7668 7666 7667 0
-7681 13 0
-7681 7668 0
7681 -13 -7668 0
-7682 -13 0
-7682 -7668 0
7682 13 7668 0
-7683 -7681 0
-7683 -7682 0
7683 7681 7682 0
-7684 20 0
-7684 5223 0
7684 -20 -5223 0
-7685 -20 0
-7685 -5223 0
7685 20 5223 0
-7686 -7684 0
-7686 -7685 0
7686 7684 7685 0
-7711 5193 0
-7711 6792 0
7711 -5193 -6792 0
-7712 -5193 0
-7712 -6792 0
7712 5193 6792 0
-7713 -7711 0
-7713 -7712 0
7713 7711 7712 0
-7726 7686 0
-7726 7713 0
7726 -7686 -7713 0
-7727 -7686 0
-7727 -7713 0
7727 7686 7713 0
-7728 -7726 0
-7728 -7727 0
7728 7726 7727 0
-7729 7683 0
-7729 7728 0
7729 -7683 -7728 0
-7730 -7683 0
-7730 -7728 0
7730 7683 7728 0
-7731 -7729 0
-7731 -7730 0
7731 7729 7730 0
-7678 40 0
-7678 5358 0
7678 -40 -5358 0
-7679 -40 0
-7679 -5358 0
7679 40 5358 0
-7680 -7678 0
-7680 -7679 0
7680 7678 7679 0
-7717 45 0
-7717 7680 0
7717 -45 -7680 0
-7718 -45 0
-7718 -7680 0
7718 45 7680 0
-7719 -7717 0
-7719 -7718 0
7719 7717 7718 0
-7795 4776 0
-7795 7719 0
7795 -4776 -7719 0
-7796 -4776 0
-7796 -7719 0
7796 4776 7719 0
-7797 -7795 0
-7797 -7796 0
7797 7795 7796 0
-7798 7731 0
-7798 7797 0
7798 -7731 -7797 0
-7799 -7731 0
-7799 -7797 0
7799 7731 7797 0
-7800 -7798 0
-7800 -7799 0
7800 7798 7799 0
-7819 -91 0
-7819 7800 0
7819 91 -7800 0
-7820 91 0
-7820 -7800 0
7820 -91 7800 0
-7821 -7819 0
-7821 -7820 0
7821 7819 7820 0
-7825 2 0
-7825 6318 0
7825 -2 -6318 0
-7826 -2 0
-7826 -6318 0
7826 2 6318 0
-7827 -7825 0
-7827 -7826 0
7827 7825 7826 0
-7828 23 0
-7828 5190 0
7828 -23 -5190 0
-7829 -23 0
-7829 -5190 0
7829 23 5190 0
-7830 -7828 0
-7830 -7829 0
7830 7828 7829 0
-7834 18 0
-7834 7830 0
7834 -18 -7830 0
-7835 -18 0
-7835 -7830 0
7835 18 7830 0
-7836 -7834 0
-7836 -7835 0
7836 7834 7835 0
-7870 5193 0
-7870 7836 0
7870 -5193 -7836 0
-7871 -5193 0
-7871 -7836 0
7871 5193 7836 0
-7872 -7870 0
-7872 -7871 0
7872 7870 7871 0
-7873 7827 0
-7873 7872 0
7873 -7827 -7872 0
-7874 -7827 0
-7874 -7872 0
7874 7827 7872 0
-7875 -7873 0
-7875 -7874 0
7875 7873 7874 0
-6376 39 0
-6376 5355 0
6376 -39 -5355 0
-6377 -39 0
-6377 -5355 0
6377 39 5355 0
-6378 -6376 0
-6378 -6377 0
6378 6376 6377 0
-7876 46 0
-7876 6378 0
7876 -46 -6378 0
-7877 -46 0
-7877 -6378 0
7877 46 6378 0
-7878 -7876 0
-7878 -7877 0
7878 7876 7877 0
-7936 6405 0
-7936 7878 0
7936 -6405 -7878 0
-7937 -6405 0
-7937 -7878 0
7937 6405 7878 0
-7938 -7936 0
-7938 -7937 0
7938 7936 7937 0
-7939 7875 0
-7939 7938 0
7939 -7875 -7938 0
-7940 -7875 0
-7940 -7938 0
7940 7875 7938 0
-7941 -7939 0
-7941 -7940 0
7941 7939 7940 0
-7957 -90 0
-7957 7941 0
7957 90 -7941 0
-7958 90 0
-7958 -7941 0
7958 -90 7941 0
-7959 -7957 0
-7959 -7958 0
7959 7957 7958 0
-7960 6 0
-7960 7 0
7960 -6 -7 0
-7961 -6 0
-7961 -7 0
7961 6 7 0
-7962 -7960 0
-7962 -7961 0
7962 7960 7961 0
-7972 13 0
-7972 5580 0
7972 -13 -5580 0
-7973 -13 0
-7973 -5580 0
7973 13 5580 0
-7974 -7972 0
-7974 -7973 0
7974 7972 7973 0
-7975 7962 0
-7975 7974 0
7975 -7962 -7974 0
-7976 -7962 0
-7976 -7974 0
7976 7962 7974 0
-7977 -7975 0
-7977 -7976 0
7977 7975 7976 0
-7966 24 0
-7966 5010 0
7966 -24 -5010 0
-7967 -24 0
-7967 -5010 0
7967 24 5010 0
-7968 -7966 0
-7968 -7967 0
7968 7966 7967 0
-7978 19 0
-7978 7968 0
7978 -19 -7968 0
-7979 -19 0
-7979 -7968 0
7979 19 7968 0
-7980 -7978 0
-7980 -7979 0
7980 7978 7979 0
-7969 30 0
-7969 5574 0
7969 -30 -5574 0
-7970 -30 0
-7970 -5574 0
7970 30 5574 0
-7971 -7969 0
-7971 -7970 0
7971 7969 7970 0
-7996 29 0
-7996 7971 0
7996 -29 -7971 0
-7997 -29 0
-7997 -7971 0
7997 29 7971 0
-7998 -7996 0
-7998 -7997 0
7998 7996 7997 0
-8029 7980 0
-8029 7998 0
8029 -7980 -7998 0
-8030 -7980 0
-8030 -7998 0
8030 7980 7998 0
-8031 -8029 0
-8031 -8030 0
8031 8029 8030 0
-8032 7977 0
-8032 8031 0
8032 -7977 -8031 0
-8033 -7977 0
-8033 -8031 0
8033 7977 8031 0
-8034 -8032 0
-8034 -8033 0
8034 8032 8033 0
-8020 38 0
-8020 6564 0
8020 -38 -6564 0
-8021 -38 0
-8021 -6564 0
8021 38 6564 0
-8022 -8020 0
-8022 -8021 0
8022 8020 8021 0
-8035 45 0
-8035 8022 0
8035 -45 -8022 0
-8036 -45 0
-8036 -8022 0
8036 45 8022 0
-8037 -8035 0
-8037 -8036 0
8037 8035 8036 0
-8116 6663 0
-8116 8037 0
8116 -6663 -8037 0
-8117 -6663 0
-8117 -8037 0
8117 6663 8037 0
-8118 -8116 0
-8118 -8117 0
8118 8116 8117 0
-8119 8034 0
-8119 8118 0
8119 -8034 -8118 0
-8120 -8034 0
-8120 -8118 0
8120 8034 8118 0
-8121 -8119 0
-8121 -8120 0
8121 8119 8120 0
-8140 -89 0
-8140 8121 0
8140 89 -8121 0
-8141 89 0
-8141 -8121 0
8141 -89 8121 0
-8142 -8140 0
-8142 -8141 0
8142 8140 8141 0
-8146 15 0
-8146 7962 0
8146 -15 -7962 0
-8147 -15 0
-8147 -7962 0
8147 15 7962 0
-8148 -8146 0
-8148 -8147 0
8148 8146 8147 0
-8149 19 0
-8149 5010 0
8149 -19 -5010 0
-8150 -19 0
-8150 -5010 0
8150 19 5010 0
-8151 -8149 0
-8151 -8150 0
8151 8149 8150 0
-8170 32 0
-8170 8151 0
8170 -32 -8151 0
-8171 -32 0
-8171 -8151 0
8171 32 8151 0
-8172 -8170 0
-8172 -8171 0
8172 8170 8171 0
-8173 8148 0
-8173 8172 0
8173 -8148 -8172 0
-8174 -8148 0
-8174 -8172 0
8174 8148 8172 0
-8175 -8173 0
-8175 -8174 0
8175 8173 8174 0
-8167 38 0
-8167 5892 0
8167 -38 -5892 0
-8168 -38 0
-8168 -5892 0
8168 38 5892 0
-8169 -8167 0
-8169 -8168 0
8169 8167 8168 0
-8176 46 0
-8176 8169 0
8176 -46 -8169 0
-8177 -46 0
-8177 -8169 0
8177 46 8169 0
-8178 -8176 0
-8178 -8177 0
8178 8176 8177 0
-8230 5931 0
-8230 8178 0
8230 -5931 -8178 0
-8231 -5931 0
-8231 -8178 0
8231 5931 8178 0
-8232 -8230 0
-8232 -8231 0
8232 8230 8231 0
-8233 8175 0
-8233 8232 0
8233 -8175 -8232 0
-8234 -8175 0
-8234 -8232 0
8234 8175 8232 0
-8235 -8233 0
-8235 -8234 0
8235 8233 8234 0
-8254 -88 0
-8254 8235 0
8254 88 -8235 0
-8255 88 0
-8255 -8235 0
8255 -88 8235 0
-8256 -8254 0
-8256 -8255 0
8256 8254 8255 0
-8257 12 0
-8257 14 0
8257 -12 -14 0
-8258 -12 0
-8258 -14 0
8258 12 14 0
-8259 -8257 0
-8259 -8258 0
8259 8257 8258 0
-8260 7962 0
-8260 8259 0
8260 -7962 -8259 0
-8261 -7962 0
-8261 -8259 0
8261 7962 8259 0
-8262 -8260 0
-8262 -8261 0
8262 8260 8261 0
-8263 22 0
-8263 4872 0
8263 -22 -4872 0
-8264 -22 0
-8264 -4872 0
8264 22 4872 0
-8265 -8263 0
-8265 -8264 0
8265 8263 8264 0
-8278 8262 0
-8278 8265 0
8278 -8262 -8265 0
-8279 -8262 0
-8279 -8265 0
8279 8262 8265 0
-8280 -8278 0
-8280 -8279 0
8280 8278 8279 0
-8143 38 0
-8143 5733 0
8143 -38 -5733 0
-8144 -38 0
-8144 -5733 0
8144 38 5733 0
-8145 -8143 0
-8145 -8144 0
8145 8143 8144 0
-8281 7239 0
-8281 8145 0
8281 -7239 -8145 0
-8282 -7239 0
-8282 -8145 0
8282 7239 8145 0
-8283 -8281 0
-8283 -8282 0
8283 8281 8282 0
-8326 6057 0
-8326 8283 0
8326 -6057 -8283 0
-8327 -6057 0
-8327 -8283 0
8327 6057 8283 0
-8328 -8326 0
-8328 -8327 0
8328 8326 8327 0
-8329 8280 0
-8329 8328 0
8329 -8280 -8328 0
-8330 -8280 0
-8330 -8328 0
8330 8280 8328 0
-8331 -8329 0
-8331 -8330 0
8331 8329 8330 0
-8350 -87 0
-8350 8331 0
8350 87 -8331 0
-8351 87 0
-8351 -8331 0
8351 -87 8331 0
-8352 -8350 0
-8352 -8351 0
8352 8350 8351 0
-8353 8 0
-8353 7962 0
8353 -8 -7962 0
-8354 -8 0
-8354 -7962 0
8354 8 7962 0
-8355 -8353 0
-8355 -8354 0
8355 8353 8354 0
-8356 4998 0
-8356 8355 0
8356 -4998 -8355 0
-8357 -4998 0
-8357 -8355 0
8357 4998 8355 0
-8358 -8356 0
-8358 -8357 0
8358 8356 8357 0
-8368 7443 0
-8368 8358 0
8368 -7443 -8358 0
-8369 -7443 0
-8369 -8358 0
8369 7443 8358 0
-8370 -8368 0
-8370 -8369 0
8370 8368 8369 0
-8371 5049 0
-8371 6117 0
8371 -5049 -6117 0
-8372 -5049 0
-8372 -6117 0
8372 5049 6117 0
-8373 -8371 0
-8373 -8372 0
8373 8371 8372 0
-8401 31 0
-8401 7446 0
8401 -31 -7446 0
-8402 -31 0
-8402 -7446 0
8402 31 7446 0
-8403 -8401 0
-8403 -8402 0
8403 8401 8402 0
-8455 8373 0
-8455 8403 0
8455 -8373 -8403 0
-8456 -8373 0
-8456 -8403 0
8456 8373 8403 0
-8457 -8455 0
-8457 -8456 0
8457 8455 8456 0
-8458 8370 0
-8458 8457 0
8458 -8370 -8457 0
-8459 -8370 0
-8459 -8457 0
8459 8370 8457 0
-8460 -8458 0
-8460 -8459 0
8460 8458 8459 0
-8365 38 0
-8365 5022 0
8365 -38 -5022 0
-8366 -38 0
-8366 -5022 0
8366 38 5022 0
-8367 -8365 0
-8367 -8366 0
8367 8365 8366 0
-8425 4875 0
-8425 8367 0
8425 -4875 -8367 0
-8426 -4875 0
-8426 -8367 0
8426 4875 8367 0
-8427 -8425 0
-8427 -8426 0
8427 8425 8426 0
-8461 7461 0
-8461 8427 0
8461 -7461 -8427 0
-8462 -7461 0
-8462 -8427 0
8462 7461 8427 0
-8463 -8461 0
-8463 -8462 0
8463 8461 8462 0
-8548 4804 0
-8548 8463 0
8548 -4804 -8463 0
-8549 -4804 0
-8549 -8463 0
8549 4804 8463 0
-8550 -8548 0
-8550 -8549 0
8550 8548 8549 0
-8551 8460 0
-8551 8550 0
8551 -8460 -8550 0
-8552 -8460 0
-8552 -8550 0
8552 8460 8550 0
-8553 -8551 0
-8553 -8552 0
8553 8551 8552 0
-8575 -86 0
-8575 8553 0
8575 86 -8553 0
-8576 86 0
-8576 -8553 0
8576 -86 8553 0
-8577 -8575 0
-8577 -8576 0
8577 8575 8576 0
-8578 3 0
-8578 6 0
8578 -3 -6 0
-8579 -3 0
-8579 -6 0
8579 3 6 0
-8580 -8578 0
-8580 -8579 0
8580 8578 8579 0
-8584 14 0
-8584 8580 0
8584 -14 -8580 0
-8585 -14 0
-8585 -8580 0
8585 14 8580 0
-8586 -8584 0
-8586 -8585 0
8586 8584 8585 0
-6109 19 0
-6109 20 0
6109 -19 -20 0
-6110 -19 0
-6110 -20 0
6110 19 20 0
-6111 -6109 0
-6111 -6110 0
6111 6109 6110 0
-8587 5223 0
-8587 6111 0
8587 -5223 -6111 0
-8588 -5223 0
-8588 -6111 0
8588 5223 6111 0
-8589 -8587 0
-8589 -8588 0
8589 8587 8588 0
-8629 8586 0
-8629 8589 0
8629 -8586 -8589 0
-8630 -8586 0
-8630 -8589 0
8630 8586 8589 0
-8631 -8629 0
-8631 -8630 0
8631 8629 8630 0
-6322 51 0
-6322 52 0
6322 -51 -52 0
-6323 -51 0
-6323 -52 0
6323 51 52 0
-6324 -6322 0
-6324 -6323 0
6324 6322 6323 0
-8626 4767 0
-8626 6324 0
8626 -4767 -6324 0
-8627 -4767 0
-8627 -6324 0
8627 4767 6324 0
-8628 -8626 0
-8628 -8627 0
8628 8626 8627 0
-8617 35 0
-8617 7680 0
8617 -35 -7680 0
-8618 -35 0
-8618 -7680 0
8618 35 7680 0
-8619 -8617 0
-8619 -8618 0
8619 8617 8618 0
-8632 46 0
-8632 8619 0
8632 -46 -8619 0
-8633 -46 0
-8633 -8619 0
8633 46 8619 0
-8634 -8632 0
-8634 -8633 0
8634 8632 8633 0
-8695 8628 0
-8695 8634 0
8695 -8628 -8634 0
-8696 -8628 0
-8696 -8634 0
8696 8628 8634 0
-8697 -8695 0
-8697 -8696 0
8697 8695 8696 0
-8698 8631 0
-8698 8697 0
8698 -8631 -8697 0
-8699 -8631 0
-8699 -8697 0
8699 8631 8697 0
-8700 -8698 0
-8700 -8699 0
8700 8698 8699 0
-8728 -85 0
-8728 8700 0
8728 85 -8700 0
-8729 85 0
-8729 -8700 0
8729 -85 8700 0
-8730 -8728 0
-8730 -8729 0
8730 8728 8729 0
-8731 2 0
-8731 7 0
8731 -2 -7 0
-8732 -2 0
-8732 -7 0
8732 2 7 0
-8733 -8731 0
-8733 -8732 0
8733 8731 8732 0
-8734 12 0
-8734 8733 0
8734 -12 -8733 0
-8735 -12 0
-8735 -8733 0
8735 12 8733 0
-8736 -8734 0
-8736 -8735 0
8736 8734 8735 0
-8737 19 0
-8737 7830 0
8737 -19 -7830 0
-8738 -19 0
-8738 -7830 0
8738 19 7830 0
-8739 -8737 0
-8739 -8738 0
8739 8737 8738 0
-8773 4872 0
-8773 8739 0
8773 -4872 -8739 0
-8774 -4872 0
-8774 -8739 0
8774 4872 8739 0
-8775 -8773 0
-8775 -8774 0
8775 8773 8774 0
-8776 8736 0
-8776 8775 0
8776 -8736 -8775 0
-8777 -8736 0
-8777 -8775 0
8777 8736 8775 0
-8778 -8776 0
-8778 -8777 0
8778 8776 8777 0
-6406 57 0
-6406 6324 0
6406 -57 -6324 0
-6407 -57 0
-6407 -6324 0
6407 57 6324 0
-6408 -6406 0
-6408 -6407 0
6408 6406 6407 0
-7855 35 0
-7855 39 0
7855 -35 -39 0
-7856 -35 0
-7856 -39 0
7856 35 39 0
-7857 -7855 0
-7857 -7856 0
7857 7855 7856 0
-8779 7239 0
-8779 7857 0
8779 -7239 -7857 0
-8780 -7239 0
-8780 -7857 0
8780 7239 7857 0
-8781 -8779 0
-8781 -8780 0
8781 8779 8780 0
-8854 6408 0
-8854 8781 0
8854 -6408 -8781 0
-8855 -6408 0
-8855 -8781 0
8855 6408 8781 0
-8856 -8854 0
-8856 -8855 0
8856 8854 8855 0
-8857 8778 0
-8857 8856 0
8857 -8778 -8856 0
-8858 -8778 0
-8858 -8856 0
8858 8778 8856 0
-8859 -8857 0
-8859 -8858 0
8859 8857 8858 0
-8884 -84 0
-8884 8859 0
8884 84 -8859 0
-8885 84 0
-8885 -8859 0
8885 -84 8859 0
-8886 -8884 0
-8886 -8885 0
8886 8884 8885 0
-8893 7443 0
-8893 8355 0
8893 -7443 -8355 0
-8894 -7443 0
-8894 -8355 0
8894 7443 8355 0
-8895 -8893 0
-8895 -8894 0
8895 8893 8894 0
-8896 18 0
-8896 7968 0
8896 -18 -7968 0
-8897 -18 0
-8897 -7968 0
8897 18 7968 0
-8898 -8896 0
-8898 -8897 0
8898 8896 8897 0
-8956 8403 0
-8956 8898 0
8956 -8403 -8898 0
-8957 -8403 0
-8957 -8898 0
8957 8403 8898 0
-8958 -8956 0
-8958 -8957 0
8958 8956 8957 0
-8959 8895 0
-8959 8958 0
8959 -8895 -8958 0
-8960 -8895 0
-8960 -8958 0
8960 8895 8958 0
-8961 -8959 0
-8961 -8960 0
8961 8959 8960 0
-8953 56 0
-8953 6321 0
8953 -56 -6321 0
-8954 -56 0
-8954 -6321 0
8954 56 6321 0
-8955 -8953 0
-8955 -8954 0
8955 8953 8954 0
-8935 34 0
-8935 38 0
8935 -34 -38 0
-8936 -34 0
-8936 -38 0
8936 34 38 0
-8937 -8935 0
-8937 -8936 0
8937 8935 8936 0
-8962 7461 0
-8962 8937 0
8962 -7461 -8937 0
-8963 -7461 0
-8963 -8937 0
8963 7461 8937 0
-8964 -8962 0
-8964 -8963 0
8964 8962 8963 0
-9040 8955 0
-9040 8964 0
9040 -8955 -8964 0
-9041 -8955 0
-9041 -8964 0
9041 8955 8964 0
-9042 -9040 0
-9042 -9041 0
9042 9040 9041 0
-9043 8961 0
-9043 9042 0
9043 -8961 -9042 0
-9044 -8961 0
-9044 -9042 0
9044 8961 9042 0
-9045 -9043 0
-9045 -9044 0
9045 9043 9044 0
-9064 -83 0
-9064 9045 0
9064 83 -9045 0
-9065 83 0
-9065 -9045 0
9065 -83 9045 0
-9066 -9064 0
-9066 -9065 0
9066 9064 9065 0
-9067 9 0
-9067 7962 0
9067 -9 -7962 0
-9068 -9 0
-9068 -7962 0
9068 9 7962 0
-9069 -9067 0
-9069 -9068 0
9069 9067 9068 0
-9073 7974 0
-9073 9069 0
9073 -7974 -9069 0
-9074 -7974 0
-9074 -9069 0
9074 7974 9069 0
-9075 -9073 0
-9075 -9074 0
9075 9073 9074 0
-9076 5010 0
-9076 5571 0
9076 -5010 -5571 0
-9077 -5010 0
-9077 -5571 0
9077 5010 5571 0
-9078 -9076 0
-9078 -9077 0
9078 9076 9077 0
-9109 6552 0
-9109 6792 0
9109 -6552 -6792 0
-9110 -6552 0
-9110 -6792 0
9110 6552 6792 0
-9111 -9109 0
-9111 -9110 0
9111 9109 9110 0
-9142 9078 0
-9142 9111 0
9142 -9078 -9111 0
-9143 -9078 0
-9143 -9111 0
9143 9078 9111 0
-9144 -9142 0
-9144 -9143 0
9144 9142 9143 0
-9145 9075 0
-9145 9144 0
9145 -9075 -9144 0
-9146 -9075 0
-9146 -9144 0
9146 9075 9144 0
-9147 -9145 0
-9147 -9146 0
9147 9145 9146 0
-9070 50 0
-9070 53 0
9070 -50 -53 0
-9071 -50 0
-9071 -53 0
9071 50 53 0
-9072 -9070 0
-9072 -9071 0
9072 9070 9071 0
-9139 4767 0
-9139 9072 0
9139 -4767 -9072 0
-9140 -4767 0
-9140 -9072 0
9140 4767 9072 0
-9141 -9139 0
-9141 -9140 0
9141 9139 9140 0
-5734 37 0
-5734 38 0
5734 -37 -38 0
-5735 -37 0
-5735 -38 0
5735 37 38 0
-5736 -5734 0
-5736 -5735 0
5736 5734 5735 0
-9148 45 0
-9148 5736 0
9148 -45 -5736 0
-9149 -45 0
-9149 -5736 0
9149 45 5736 0
-9150 -9148 0
-9150 -9149 0
9150 9148 9149 0
-9220 9141 0
-9220 9150 0
9220 -9141 -9150 0
-9221 -9141 0
-9221 -9150 0
9221 9141 9150 0
-9222 -9220 0
-9222 -9221 0
9222 9220 9221 0
-9223 9147 0
-9223 9222 0
9223 -9147 -9222 0
-9224 -9147 0
-9224 -9222 0
9224 9147 9222 0
-9225 -9223 0
-9225 -9224 0
9225 9223 9224 0
-9253 -82 0
-9253 9225 0
9253 82 -9225 0
-9254 82 0
-9254 -9225 0
9254 -82 9225 0
-9255 -9253 0
-9255 -9254 0
9255 9253 9254 0
-9256 14 0
-9256 15 0
9256 -14 -15 0
-9257 -14 0
-9257 -15 0
9257 14 15 0
-9258 -9256 0
-9258 -9257 0
9258 9256 9257 0
-9265 16 0
-9265 9258 0
9265 -16 -9258 0
-9266 -16 0
-9266 -9258 0
9266 16 9258 0
-9267 -9265 0
-9267 -9266 0
9267 9265 9266 0
-9268 8355 0
-9268 9267 0
9268 -8355 -9267 0
-9269 -8355 0
-9269 -9267 0
9269 8355 9267 0
-9270 -9268 0
-9270 -9269 0
9270 9268 9269 0
-9283 22 0
-9283 5193 0
9283 -22 -5193 0
-9284 -22 0
-9284 -5193 0
9284 22 5193 0
-9285 -9283 0
-9285 -9284 0
9285 9283 9284 0
-9286 9270 0
-9286 9285 0
9286 -9270 -9285 0
-9287 -9270 0
-9287 -9285 0
9287 9270 9285 0
-9288 -9286 0
-9288 -9287 0
9288 9286 9287 0
-9280 57 0
-9280 6534 0
9280 -57 -6534 0
-9281 -57 0
-9281 -6534 0
9281 57 6534 0
-9282 -9280 0
-9282 -9281 0
9282 9280 9281 0
-8359 36 0
-8359 38 0
8359 -36 -38 0
-8360 -36 0
-8360 -38 0
8360 36 38 0
-8361 -8359 0
-8361 -8360 0
8361 8359 8360 0
-9289 46 0
-9289 8361 0
9289 -46 -8361 0
-9290 -46 0
-9290 -8361 0
9290 46 8361 0
-9291 -9289 0
-9291 -9290 0
9291 9289 9290 0
-9322 9282 0
-9322 9291 0
9322 -9282 -9291 0
-9323 -9282 0
-9323 -9291 0
9323 9282 9291 0
-9324 -9322 0
-9324 -9323 0
9324 9322 9323 0
-9325 9288 0
-9325 9324 0
9325 -9288 -9324 0
-9326 -9288 0
-9326 -9324 0
9326 9288 9324 0
-9327 -9325 0
-9327 -9326 0
9327 9325 9326 0
-9343 -81 0
-9343 9327 0
9343 81 -9327 0
-9344 81 0
-9344 -9327 0
9344 -81 9327 0
-9345 -9343 0
-9345 -9344 0
9345 9343 9344 0
-9346 4998 0
-9346 7962 0
9346 -4998 -7962 0
-9347 -4998 0
-9347 -7962 0
9347 4998 7962 0
-9348 -9346 0
-9348 -9347 0
9348 9346 9347 0
-9349 13 0
-9349 9258 0
9349 -13 -9258 0
-9350 -13 0
-9350 -9258 0
9350 13 9258 0
-9351 -9349 0
-9351 -9350 0
9351 9349 9350 0
-9355 9348 0
-9355 9351 0
9355 -9348 -9351 0
-9356 -9348 0
-9356 -9351 0
9356 9348 9351 0
-9357 -9355 0
-9357 -9356 0
9357 9355 9356 0
-9394 5352 0
-9394 8373 0
9394 -5352 -8373 0
-9395 -5352 0
-9395 -8373 0
9395 5352 8373 0
-9396 -9394 0
-9396 -9395 0
9396 9394 9395 0
-9397 9357 0
-9397 9396 0
9397 -9357 -9396 0
-9398 -9357 0
-9398 -9396 0
9398 9357 9396 0
-9399 -9397 0
-9399 -9398 0
9399 9397 9398 0
-8623 56 0
-8623 6324 0
8623 -56 -6324 0
-8624 -56 0
-8624 -6324 0
8624 56 6324 0
-8625 -8623 0
-8625 -8624 0
8625 8623 8624 0
-9388 35 0
-9388 8367 0
9388 -35 -8367 0
-9389 -35 0
-9389 -8367 0
9389 35 8367 0
-9390 -9388 0
-9390 -9389 0
9390 9388 9389 0
-9400 45 0
-9400 9390 0
9400 -45 -9390 0
-9401 -45 0
-9401 -9390 0
9401 45 9390 0
-9402 -9400 0
-9402 -9401 0
9402 9400 9401 0
-9472 8625 0
-9472 9402 0
9472 -8625 -9402 0
-9473 -8625 0
-9473 -9402 0
9473 8625 9402 0
-9474 -9472 0
-9474 -9473 0
9474 9472 9473 0
-9475 9399 0
-9475 9474 0
9475 -9399 -9474 0
-9476 -9399 0
-9476 -9474 0
9476 9399 9474 0
-9477 -9475 0
-9477 -9476 0
9477 9475 9476 0
-9502 -80 0
-9502 9477 0
9502 80 -9477 0
-9503 80 0
-9503 -9477 0
9503 -80 9477 0
-9504 -9502 0
-9504 -9503 0
9504 9502 9503 0
-6526 13 0
-6526 14 0
6526 -13 -14 0
-6527 -13 0
-6527 -14 0
6527 13 14 0
-6528 -6526 0
-6528 -6527 0
6528 6526 6527 0
-9505 6528 0
-9505 8355 0
9505 -6528 -8355 0
-9506 -6528 0
-9506 -8355 0
9506 6528 8355 0
-9507 -9505 0
-9507 -9506 0
9507 9505 9506 0
-9517 29 0
-9517 8151 0
9517 -29 -8151 0
-9518 -29 0
-9518 -8151 0
9518 29 8151 0
-9519 -9517 0
-9519 -9518 0
9519 9517 9518 0
-9520 9507 0
-9520 9519 0
9520 -9507 -9519 0
-9521 -9507 0
-9521 -9519 0
9521 9507 9519 0
-9522 -9520 0
-9522 -9521 0
9522 9520 9521 0
-7225 45 0
-7225 46 0
7225 -45 -46 0
-7226 -45 0
-7226 -46 0
7226 45 46 0
-7227 -7225 0
-7227 -7226 0
7227 7225 7226 0
-9523 3899 0
-9523 7227 0
9523 -3899 -7227 0
-9524 -3899 0
-9524 -7227 0
9524 3899 7227 0
-9525 -9523 0
-9525 -9524 0
9525 9523 9524 0
-9562 8628 0
-9562 9525 0
9562 -8628 -9525 0
-9563 -8628 0
-9563 -9525 0
9563 8628 9525 0
-9564 -9562 0
-9564 -9563 0
9564 9562 9563 0
-9565 9522 0
-9565 9564 0
9565 -9522 -9564 0
-9566 -9522 0
-9566 -9564 0
9566 9522 9564 0
-9567 -9565 0
-9567 -9566 0
9567 9565 9566 0
-9595 -79 0
-9595 9567 0
9595 79 -9567 0
-9596 79 0
-9596 -9567 0
9596 -79 9567 0
-9597 -9595 0
-9597 -9596 0
9597 9595 9596 0
-9598 13 0
-9598 7962 0
9598 -13 -7962 0
-9599 -13 0
-9599 -7962 0
9599 13 7962 0
-9600 -9598 0
-9600 -9599 0
9600 9598 9599 0
-9601 29 0
-9601 4278 0
9601 -29 -4278 0
-9602 -29 0
-9602 -4278 0
9602 29 4278 0
-9603 -9601 0
-9603 -9602 0
9603 9601 9602 0
-9604 9600 0
-9604 9603 0
9604 -9600 -9603 0
-9605 -9600 0
-9605 -9603 0
9605 9600 9603 0
-9606 -9604 0
-9606 -9605 0
9606 9604 9605 0
-9619 6408 0
-9619 9525 0
9619 -6408 -9525 0
-9620 -6408 0
-9620 -9525 0
9620 6408 9525 0
-9621 -9619 0
-9621 -9620 0
9621 9619 9620 0
-9622 9606 0
-9622 9621 0
9622 -9606 -9621 0
-9623 -9606 0
-9623 -9621 0
9623 9606 9621 0
-9624 -9622 0
-9624 -9623 0
9624 9622 9623 0
-9643 -78 0
-9643 9624 0
9643 78 -9624 0
-9644 78 0
-9644 -9624 0
9644 -78 9624 0
-9645 -9643 0
-9645 -9644 0
9645 9643 9644 0
-9646 12 0
-9646 9348 0
9646 -12 -9348 0
-9647 -12 0
-9647 -9348 0
9647 12 9348 0
-9648 -9646 0
-9648 -9647 0
9648 9646 9647 0
-9679 28 0
-9679 7245 0
9679 -28 -7245 0
-9680 -28 0
-9680 -7245 0
9680 28 7245 0
-9681 -9679 0
-9681 -9680 0
9681 9679 9680 0
-9682 9648 0
-9682 9681 0
9682 -9648 -9681 0
-9683 -9648 0
-9683 -9681 0
9683 9648 9681 0
-9684 -9682 0
-9684 -9683 0
9684 9682 9683 0
-9658 34 0
-9658 8367 0
9658 -34 -8367 0
-9659 -34 0
-9659 -8367 0
9659 34 8367 0
-9660 -9658 0
-9660 -9659 0
9660 9658 9659 0
-9685 7224 0
-9685 9660 0
9685 -7224 -9660 0
-9686 -7224 0
-9686 -9660 0
9686 7224 9660 0
-9687 -9685 0
-9687 -9686 0
9687 9685 9686 0
-9757 8955 0
-9757 9687 0
9757 -8955 -9687 0
-9758 -8955 0
-9758 -9687 0
9758 8955 9687 0
-9759 -9757 0
-9759 -9758 0
9759 9757 9758 0
-9760 9684 0
-9760 9759 0
9760 -9684 -9759 0
-9761 -9684 0
-9761 -9759 0
9761 9684 9759 0
-9762 -9760 0
-9762 -9761 0
9762 9760 9761 0
-9787 -77 0
-9787 9762 0
9787 77 -9762 0
-9788 77 0
-9788 -9762 0
9788 -77 9762 0
-9789 -9787 0
-9789 -9788 0
9789 9787 9788 0
-9790 3 0
-9790 5025 0
9790 -3 -5025 0
-9791 -3 0
-9791 -5025 0
9791 3 5025 0
-9792 -9790 0
-9792 -9791 0
9792 9790 9791 0
-9805 5031 0
-9805 5580 0
9805 -5031 -5580 0
-9806 -5031 0
-9806 -5580 0
9806 5031 5580 0
-9807 -9805 0
-9807 -9806 0
9807 9805 9806 0
-9808 9792 0
-9808 9807 0
9808 -9792 -9807 0
-9809 -9792 0
-9809 -9807 0
9809 9792 9807 0
-9810 -9808 0
-9810 -9809 0
9810 9808 9809 0
-9799 20 0
-9799 5571 0
9799 -20 -5571 0
-9800 -20 0
-9800 -5571 0
9800 20 5571 0
-9801 -9799 0
-9801 -9800 0
9801 9799 9800 0
-9811 5223 0
-9811 9801 0
9811 -5223 -9801 0
-9812 -5223 0
-9812 -9801 0
9812 5223 9801 0
-9813 -9811 0
-9813 -9812 0
9813 9811 9812 0
-9853 5016 0
-9853 7458 0
9853 -5016 -7458 0
-9854 -5016 0
-9854 -7458 0
9854 5016 7458 0
-9855 -9853 0
-9855 -9854 0
9855 9853 9854 0
-9895 9813 0
-9895 9855 0
9895 -9813 -9855 0
-9896 -9813 0
-9896 -9855 0
9896 9813 9855 0
-9897 -9895 0
-9897 -9896 0
9897 9895 9896 0
-9898 9810 0
-9898 9897 0
9898 -9810 -9897 0
-9899 -9810 0
-9899 -9897 0
9899 9810 9897 0
-9900 -9898 0
-9900 -9899 0
9900 9898 9899 0
-9802 44 0
-9802 47 0
9802 -44 -47 0
-9803 -44 0
-9803 -47 0
9803 44 47 0
-9804 -9802 0
-9804 -9803 0
9804 9802 9803 0
-9868 37 0
-9868 7680 0
9868 -37 -7680 0
-9869 -37 0
-9869 -7680 0
9869 37 7680 0
-9870 -9868 0
-9870 -9869 0
9870 9868 9869 0
-9901 9804 0
-9901 9870 0
9901 -9804 -9870 0
-9902 -9804 0
-9902 -9870 0
9902 9804 9870 0
-9903 -9901 0
-9903 -9902 0
9903 9901 9902 0
-9988 9141 0
-9988 9903 0
9988 -9141 -9903 0
-9989 -9141 0
-9989 -9903 0
9989 9141 9903 0
-9990 -9988 0
-9990 -9989 0
9990 9988 9989 0
-9991 9900 0
-9991 9990 0
9991 -9900 -9990 0
-9992 -9900 0
-9992 -9990 0
9992 9900 9990 0
-9993 -9991 0
-9993 -9992 0
9993 9991 9992 0
-10042 -76 0
-10042 9993 0
10042 76 -9993 0
-10043 76 0
-10043 -9993 0
10043 -76 9993 0
-10044 -10042 0
-10044 -10043 0
10044 10042 10043 0
-10045 8 0
-10045 9 0
10045 -8 -9 0
-10046 -8 0
-10046 -9 0
10046 8 9 0
-10047 -10045 0
-10047 -10046 0
10047 10045 10046 0
-10051 7 0
-10051 10047 0
10051 -7 -10047 0
-10052 -7 0
-10052 -10047 0
10052 7 10047 0
-10053 -10051 0
-10053 -10052 0
10053 10051 10052 0
-10054 2 0
-10054 10053 0
10054 -2 -10053 0
-10055 -2 0
-10055 -10053 0
10055 2 10053 0
-10056 -10054 0
-10056 -10055 0
10056 10054 10055 0
-10063 10 0
-10063 9267 0
10063 -10 -9267 0
-10064 -10 0
-10064 -9267 0
10064 10 9267 0
-10065 -10063 0
-10065 -10064 0
10065 10063 10064 0
-10066 10056 0
-10066 10065 0
10066 -10056 -10065 0
-10067 -10056 0
-10067 -10065 0
10067 10056 10065 0
-10068 -10066 0
-10068 -10067 0
10068 10066 10067 0
-10087 30 0
-10087 7830 0
10087 -30 -7830 0
-10088 -30 0
-10088 -7830 0
10088 30 7830 0
-10089 -10087 0
-10089 -10088 0
10089 10087 10088 0
-10090 10068 0
-10090 10089 0
10090 -10068 -10089 0
-10091 -10068 0
-10091 -10089 0
10091 10068 10089 0
-10092 -10090 0
-10092 -10091 0
10092 10090 10091 0
-10093 3874 0
-10093 7437 0
10093 -3874 -7437 0
-10094 -3874 0
-10094 -7437 0
10094 3874 7437 0
-10095 -10093 0
-10095 -10094 0
10095 10093 10094 0
-10135 9282 0
-10135 10095 0
10135 -9282 -10095 0
-10136 -9282 0
-10136 -10095 0
10136 9282 10095 0
-10137 -10135 0
-10137 -10136 0
10137 10135 10136 0
-10138 10092 0
-10138 10137 0
10138 -10092 -10137 0
-10139 -10092 0
-10139 -10137 0
10139 10092 10137 0
-10140 -10138 0
-10140 -10139 0
10140 10138 10139 0
-10171 -75 0
-10171 10140 0
10171 75 -10140 0
-10172 75 0
-10172 -10140 0
10172 -75 10140 0
-10173 -10171 0
-10173 -10172 0
10173 10171 10172 0
-10174 7962 0
-10174 10047 0
10174 -7962 -10047 0
-10175 -7962 0
-10175 -10047 0
10175 7962 10047 0
-10176 -10174 0
-10176 -10175 0
10176 10174 10175 0
-10180 9351 0
-10180 10176 0
10180 -9351 -10176 0
-10181 -9351 0
-10181 -10176 0
10181 9351 10176 0
-10182 -10180 0
-10182 -10181 0
10182 10180 10181 0
-10195 29 0
-10195 7980 0
10195 -29 -7980 0
-10196 -29 0
-10196 -7980 0
10196 29 7980 0
-10197 -10195 0
-10197 -10196 0
10197 10195 10196 0
-10198 10182 0
-10198 10197 0
10198 -10182 -10197 0
-10199 -10182 0
-10199 -10197 0
10199 10182 10197 0
-10200 -10198 0
-10200 -10199 0
10200 10198 10199 0
-10228 8625 0
-10228 9525 0
10228 -8625 -9525 0
-10229 -8625 0
-10229 -9525 0
10229 8625 9525 0
-10230 -10228 0
-10230 -10229 0
10230 10228 10229 0
-10231 10200 0
-10231 10230 0
10231 -10200 -10230 0
-10232 -10200 0
-10232 -10230 0
10232 10200 10230 0
-10233 -10231 0
-10233 -10232 0
10233 10231 10232 0
-10264 -74 0
-10264 10233 0
10264 74 -10233 0
-10265 74 0
-10265 -10233 0
10265 -74 10233 0
-10266 -10264 0
-10266 -10265 0
10266 10264 10265 0
-10267 2 0
-10267 5025 0
10267 -2 -5025 0
-10268 -2 0
-10268 -5025 0
10268 2 5025 0
-10269 -10267 0
-10269 -10268 0
10269 10267 10268 0
-10270 7974 0
-10270 10269 0
10270 -7974 -10269 0
-10271 -7974 0
-10271 -10269 0
10271 7974 10269 0
-10272 -10270 0
-10272 -10271 0
10272 10270 10271 0
-10276 29 0
-10276 5574 0
10276 -29 -5574 0
-10277 -29 0
-10277 -5574 0
10277 29 5574 0
-10278 -10276 0
-10278 -10277 0
10278 10276 10277 0
-10297 5766 0
-10297 10278 0
10297 -5766 -10278 0
-10298 -5766 0
-10298 -10278 0
10298 5766 10278 0
-10299 -10297 0
-10299 -10298 0
10299 10297 10298 0
-10300 10272 0
-10300 10299 0
10300 -10272 -10299 0
-10301 -10272 0
-10301 -10299 0
10301 10272 10299 0
-10302 -10300 0
-10302 -10301 0
10302 10300 10301 0
-6568 37 0
-6568 5358 0
6568 -37 -5358 0
-6569 -37 0
-6569 -5358 0
6569 37 5358 0
-6570 -6568 0
-6570 -6569 0
6570 6568 6569 0
-10303 6570 0
-10303 7227 0
10303 -6570 -7227 0
-10304 -6570 0
-10304 -7227 0
10304 6570 7227 0
-10305 -10303 0
-10305 -10304 0
10305 10303 10304 0
-10378 9141 0
-10378 10305 0
10378 -9141 -10305 0
-10379 -9141 0
-10379 -10305 0
10379 9141 10305 0
-10380 -10378 0
-10380 -10379 0
10380 10378 10379 0
-10381 10302 0
-10381 10380 0
10381 -10302 -10380 0
-10382 -10302 0
-10382 -10380 0
10382 10302 10380 0
-10383 -10381 0
-10383 -10382 0
10383 10381 10382 0
-10435 -73 0
-10435 10383 0
10435 73 -10383 0
-10436 73 0
-10436 -10383 0
10436 -73 10383 0
-10437 -10435 0
-10437 -10436 0
10437 10435 10436 0
-10441 13 0
-10441 9267 0
10441 -13 -9267 0
-10442 -13 0
-10442 -9267 0
10442 13 9267 0
-10443 -10441 0
-10443 -10442 0
10443 10441 10442 0
-10447 29 0
-10447 10443 0
10447 -29 -10443 0
-10448 -29 0
-10448 -10443 0
10448 29 10443 0
-10449 -10447 0
-10449 -10448 0
10449 10447 10448 0
-10450 36 0
-10450 7227 0
10450 -36 -7227 0
-10451 -36 0
-10451 -7227 0
10451 36 7227 0
-10452 -10450 0
-10452 -10451 0
10452 10450 10451 0
-10471 9282 0
-10471 10452 0
10471 -9282 -10452 0
-10472 -9282 0
-10472 -10452 0
10472 9282 10452 0
-10473 -10471 0
-10473 -10472 0
10473 10471 10472 0
-10474 10449 0
-10474 10473 0
10474 -10449 -10473 0
-10475 -10449 0
-10475 -10473 0
10475 10449 10473 0
-10476 -10474 0
-10476 -10475 0
10476 10474 10475 0
-10501 -72 0
-10501 10476 0
10501 72 -10476 0
-10502 72 0
-10502 -10476 0
10502 -72 10476 0
-10503 -10501 0
-10503 -10502 0
10503 10501 10502 0
-10504 12 0
-10504 9258 0
10504 -12 -9258 0
-10505 -12 0
-10505 -9258 0
10505 12 9258 0
-10506 -10504 0
-10506 -10505 0
10506 10504 10505 0
-10519 19 0
-10519 28 0
10519 -19 -28 0
-10520 -19 0
-10520 -28 0
10520 19 28 0
-10521 -10519 0
-10521 -10520 0
10521 10519 10520 0
-10522 10506 0
-10522 10521 0
10522 -10506 -10521 0
-10523 -10506 0
-10523 -10521 0
10523 10506 10521 0
-10524 -10522 0
-10524 -10523 0
10524 10522 10523 0
-10525 35 0
-10525 7224 0
10525 -35 -7224 0
-10526 -35 0
-10526 -7224 0
10526 35 7224 0
-10527 -10525 0
-10527 -10526 0
10527 10525 10526 0
-10546 8625 0
-10546 10527 0
10546 -8625 -10527 0
-10547 -8625 0
-10547 -10527 0
10547 8625 10527 0
-10548 -10546 0
-10548 -10547 0
10548 10546 10547 0
-10549 10524 0
-10549 10548 0
10549 -10524 -10548 0
-10550 -10524 0
-10550 -10548 0
10550 10524 10548 0
-10551 -10549 0
-10551 -10550 0
10551 10549 10550 0
-10576 -71 0
-10576 10551 0
10576 71 -10551 0
-10577 71 0
-10577 -10551 0
10577 -71 10551 0
-10578 -10576 0
-10578 -10577 0
10578 10576 10577 0
-10579 8 0
-10579 4998 0
10579 -8 -4998 0
-10580 -8 0
-10580 -4998 0
10580 8 4998 0
-10581 -10579 0
-10581 -10580 0
10581 10579 10580 0
-10582 14 0
-10582 5031 0
10582 -14 -5031 0
-10583 -14 0
-10583 -5031 0
10583 14 5031 0
-10584 -10582 0
-10584 -10583 0
10584 10582 10583 0
-10585 10581 0
-10585 10584 0
10585 -10581 -10584 0
-10586 -10581 0
-10586 -10584 0
10586 10581 10584 0
-10587 -10585 0
-10587 -10586 0
10587 10585 10586 0
-10609 31 0
-10609 5016 0
10609 -31 -5016 0
-10610 -31 0
-10610 -5016 0
10610 31 5016 0
-10611 -10609 0
-10611 -10610 0
10611 10609 10610 0
-10636 8373 0
-10636 10611 0
10636 -8373 -10611 0
-10637 -8373 0
-10637 -10611 0
10637 8373 10611 0
-10638 -10636 0
-10638 -10637 0
10638 10636 10637 0
-10639 10587 0
-10639 10638 0
10639 -10587 -10638 0
-10640 -10587 0
-10640 -10638 0
10640 10587 10638 0
-10641 -10639 0
-10641 -10640 0
10641 10639 10640 0
-7285 35 0
-7285 5022 0
7285 -35 -5022 0
-7286 -35 0
-7286 -5022 0
7286 35 5022 0
-7287 -7285 0
-7287 -7286 0
7287 7285 7286 0
-10642 7287 0
-10642 9804 0
10642 -7287 -9804 0
-10643 -7287 0
-10643 -9804 0
10643 7287 9804 0
-10644 -10642 0
-10644 -10643 0
10644 10642 10643 0
-10717 8628 0
-10717 10644 0
10717 -8628 -10644 0
-10718 -8628 0
-10718 -10644 0
10718 8628 10644 0
-10719 -10717 0
-10719 -10718 0
10719 10717 10718 0
-10720 10641 0
-10720 10719 0
10720 -10641 -10719 0
-10721 -10641 0
-10721 -10719 0
10721 10641 10719 0
-10722 -10720 0
-10722 -10721 0
10722 10720 10721 0
-10759 -70 0
-10759 10722 0
10759 70 -10722 0
-10760 70 0
-10760 -10722 0
10760 -70 10722 0
-10761 -10759 0
-10761 -10760 0
10761 10759 10760 0
-10762 2 0
-10762 3 0
10762 -2 -3 0
-10763 -2 0
-10763 -3 0
10763 2 3 0
-10764 -10762 0
-10764 -10763 0
10764 10762 10763 0
-10765 4 0
-10765 10764 0
10765 -4 -10764 0
-10766 -4 0
-10766 -10764 0
10766 4 10764 0
-10767 -10765 0
-10767 -10766 0
10767 10765 10766 0
-10768 10053 0
-10768 10767 0
10768 -10053 -10767 0
-10769 -10053 0
-10769 -10767 0
10769 10053 10767 0
-10770 -10768 0
-10770 -10769 0
10770 10768 10769 0
-10774 10 0
-10774 10770 0
10774 -10 -10770 0
-10775 -10 0
-10775 -10770 0
10775 10 10770 0
-10776 -10774 0
-10776 -10775 0
10776 10774 10775 0
-7822 23 0
-7822 24 0
7822 -23 -24 0
-7823 -23 0
-7823 -24 0
7823 23 24 0
-7824 -7822 0
-7824 -7823 0
7824 7822 7823 0
-8740 19 0
-8740 7824 0
8740 -19 -7824 0
-8741 -19 0
-8741 -7824 0
8741 19 7824 0
-8742 -8740 0
-8742 -8741 0
8742 8740 8741 0
-10792 30 0
-10792 8742 0
10792 -30 -8742 0
-10793 -30 0
-10793 -8742 0
10793 30 8742 0
-10794 -10792 0
-10794 -10793 0
10794 10792 10793 0
-10795 10776 0
-10795 10794 0
10795 -10776 -10794 0
-10796 -10776 0
-10796 -10794 0
10796 10776 10794 0
-10797 -10795 0
-10797 -10796 0
10797 10795 10796 0
-10771 39 0
-10771 41 0
10771 -39 -41 0
-10772 -39 0
-10772 -41 0
10772 39 41 0
-10773 -10771 0
-10773 -10772 0
10773 10771 10772 0
-10780 35 0
-10780 10773 0
10780 -35 -10773 0
-10781 -35 0
-10781 -10773 0
10781 35 10773 0
-10782 -10780 0
-10782 -10781 0
10782 10780 10781 0
-10798 7437 0
-10798 10782 0
10798 -7437 -10782 0
-10799 -7437 0
-10799 -10782 0
10799 7437 10782 0
-10800 -10798 0
-10800 -10799 0
10800 10798 10799 0
-10852 6408 0
-10852 10800 0
10852 -6408 -10800 0
-10853 -6408 0
-10853 -10800 0
10853 6408 10800 0
-10854 -10852 0
-10854 -10853 0
10854 10852 10853 0
-10855 10797 0
-10855 10854 0
10855 -10797 -10854 0
-10856 -10797 0
-10856 -10854 0
10856 10797 10854 0
-10857 -10855 0
-10857 -10856 0
10857 10855 10856 0
-10891 -69 0
-10891 10857 0
10891 69 -10857 0
-10892 69 0
-10892 -10857 0
10892 -69 10857 0
-10893 -10891 0
-10893 -10892 0
10893 10891 10892 0
-10894 10176 0
-10894 10764 0
10894 -10176 -10764 0
-10895 -10176 0
-10895 -10764 0
10895 10176 10764 0
-10896 -10894 0
-10896 -10895 0
10896 10894 10895 0
-10897 13 0
-10897 10896 0
10897 -13 -10896 0
-10898 -13 0
-10898 -10896 0
10898 13 10896 0
-10899 -10897 0
-10899 -10898 0
10899 10897 10898 0
-8899 18 0
-8899 5010 0
8899 -18 -5010 0
-8900 -18 0
-8900 -5010 0
8900 18 5010 0
-8901 -8899 0
-8901 -8900 0
8901 8899 8900 0
-10912 29 0
-10912 8901 0
10912 -29 -8901 0
-10913 -29 0
-10913 -8901 0
10913 29 8901 0
-10914 -10912 0
-10914 -10913 0
10914 10912 10913 0
-10915 10899 0
-10915 10914 0
10915 -10899 -10914 0
-10916 -10899 0
-10916 -10914 0
10916 10899 10914 0
-10917 -10915 0
-10917 -10916 0
10917 10915 10916 0
-8362 38 0
-8362 40 0
8362 -38 -40 0
-8363 -38 0
-8363 -40 0
8363 38 40 0
-8364 -8362 0
-8364 -8363 0
8364 8362 8363 0
-9655 34 0
-9655 8364 0
9655 -34 -8364 0
-9656 -34 0
-9656 -8364 0
9656 34 8364 0
-9657 -9655 0
-9657 -9656 0
9657 9655 9656 0
-10918 7227 0
-10918 9657 0
10918 -7227 -9657 0
-10919 -7227 0
-10919 -9657 0
10919 7227 9657 0
-10920 -10918 0
-10920 -10919 0
10920 10918 10919 0
-10972 8955 0
-10972 10920 0
10972 -8955 -10920 0
-10973 -8955 0
-10973 -10920 0
10973 8955 10920 0
-10974 -10972 0
-10974 -10973 0
10974 10972 10973 0
-10975 10917 0
-10975 10974 0
10975 -10917 -10974 0
-10976 -10917 0
-10976 -10974 0
10976 10917 10974 0
-10977 -10975 0
-10977 -10976 0
10977 10975 10976 0
-11011 -68 0
-11011 10977 0
11011 68 -10977 0
-11012 68 0
-11012 -10977 0
11012 -68 10977 0
-11013 -11011 0
-11013 -11012 0
11013 11011 11012 0
-11014 5031 0
-11014 10269 0
11014 -5031 -10269 0
-11015 -5031 0
-11015 -10269 0
11015 5031 10269 0
-11016 -11014 0
-11016 -11015 0
11016 11014 11015 0
-5383 18 0
-5383 22 0
5383 -18 -22 0
-5384 -18 0
-5384 -22 0
5384 18 22 0
-5385 -5383 0
-5385 -5384 0
5385 5383 5384 0
-11029 5385 0
-11029 10611 0
11029 -5385 -10611 0
-11030 -5385 0
-11030 -10611 0
11030 5385 10611 0
-11031 -11029 0
-11031 -11030 0
11031 11029 11030 0
-11032 11016 0
-11032 11031 0
11032 -11016 -11031 0
-11033 -11016 0
-11033 -11031 0
11033 11016 11031 0
-11034 -11032 0
-11034 -11033 0
11034 11032 11033 0
-5404 5355 0
-5404 5358 0
5404 -5355 -5358 0
-5405 -5355 0
-5405 -5358 0
5405 5355 5358 0
-5406 -5404 0
-5406 -5405 0
5406 5404 5405 0
-11035 5406 0
-11035 9804 0
11035 -5406 -9804 0
-11036 -5406 0
-11036 -9804 0
11036 5406 9804 0
-11037 -11035 0
-11037 -11036 0
11037 11035 11036 0
-11098 5445 0
-11098 11037 0
11098 -5445 -11037 0
-11099 -5445 0
-11099 -11037 0
11099 5445 11037 0
-11100 -11098 0
-11100 -11099 0
11100 11098 11099 0
-11101 11034 0
-11101 11100 0
11101 -11034 -11100 0
-11102 -11034 0
-11102 -11100 0
11102 11034 11100 0
-11103 -11101 0
-11103 -11102 0
11103 11101 11102 0
-11143 -67 0
-11143 11103 0
11143 67 -11103 0
-11144 67 0
-11144 -11103 0
11144 -67 11103 0
-11145 -11143 0
-11145 -11144 0
11145 11143 11144 0
-11149 10 0
-11149 5580 0
11149 -10 -5580 0
-11150 -10 0
-11150 -5580 0
11150 10 5580 0
-11151 -11149 0
-11151 -11150 0
11151 11149 11150 0
-11152 10047 0
-11152 11151 0
11152 -10047 -11151 0
-11153 -10047 0
-11153 -11151 0
11153 10047 11151 0
-11154 -11152 0
-11154 -11153 0
11154 11152 11153 0
-11179 5571 0
-11179 7971 0
11179 -5571 -7971 0
-11180 -5571 0
-11180 -7971 0
11180 5571 7971 0
-11181 -11179 0
-11181 -11180 0
11181 11179 11180 0
-11182 11154 0
-11182 11181 0
11182 -11154 -11181 0
-11183 -11154 0
-11183 -11181 0
11183 11154 11181 0
-11184 -11182 0
-11184 -11183 0
11184 11182 11183 0
-11185 5595 0
-11185 7437 0
11185 -5595 -7437 0
-11186 -5595 0
-11186 -7437 0
11186 5595 7437 0
-11187 -11185 0
-11187 -11186 0
11187 11185 11186 0
-11248 5646 0
-11248 11187 0
11248 -5646 -11187 0
-11249 -5646 0
-11249 -11187 0
11249 5646 11187 0
-11250 -11248 0
-11250 -11249 0
11250 11248 11249 0
-11251 11184 0
-11251 11250 0
11251 -11184 -11250 0
-11252 -11184 0
-11252 -11250 0
11252 11184 11250 0
-11253 -11251 0
-11253 -11252 0
11253 11251 11252 0
-11278 -66 0
-11278 11253 0
11278 66 -11253 0
-11279 66 0
-11279 -11253 0
11279 -66 11253 0
-11280 -11278 0
-11280 -11279 0
11280 11278 11279 0
-11281 13 0
-11281 5739 0
11281 -13 -5739 0
-11282 -13 0
-11282 -5739 0
11282 13 5739 0
-11283 -11281 0
-11283 -11282 0
11283 11281 11282 0
-11284 10047 0
-11284 11283 0
11284 -10047 -11283 0
-11285 -10047 0
-11285 -11283 0
11285 10047 11283 0
-11286 -11284 0
-11286 -11285 0
11286 11284 11285 0
-11311 5571 0
-11311 10278 0
11311 -5571 -10278 0
-11312 -5571 0
-11312 -10278 0
11312 5571 10278 0
-11313 -11311 0
-11313 -11312 0
11313 11311 11312 0
-11314 11286 0
-11314 11313 0
11314 -11286 -11313 0
-11315 -11286 0
-11315 -11313 0
11315 11286 11313 0
-11316 -11314 0
-11316 -11315 0
11316 11314 11315 0
-11317 5733 0
-11317 7227 0
11317 -5733 -7227 0
-11318 -5733 0
-11318 -7227 0
11318 5733 7227 0
-11319 -11317 0
-11319 -11318 0
11319 11317 11318 0
-11365 65 0
-11365 5442 0
11365 -65 -5442 0
-11366 -65 0
-11366 -5442 0
11366 65 5442 0
-11367 -11365 0
-11367 -11366 0
11367 11365 11366 0
-11374 11319 0
-11374 11367 0
11374 -11319 -11367 0
-11375 -11319 0
-11375 -11367 0
11375 11319 11367 0
-11376 -11374 0
-11376 -11375 0
11376 11374 11375 0
-11377 11316 0
-11377 11376 0
11377 -11316 -11376 0
-11378 -11316 0
-11378 -11376 0
11378 11316 11376 0
-11379 -11377 0
-11379 -11378 0
11379 11377 11378 0
-11404 13 0
-11404 10581 0
11404 -13 -10581 0
-11405 -13 0
-11405 -10581 0
11405 13 10581 0
-11406 -11404 0
-11406 -11405 0
11406 11404 11405 0
-11428 29 0
-11428 8373 0
11428 -29 -8373 0
-11429 -29 0
-11429 -8373 0
11429 29 8373 0
-11430 -11428 0
-11430 -11429 0
11430 11428 11429 0
-11431 11406 0
-11431 11430 0
11431 -11406 -11430 0
-11432 -11406 0
-11432 -11430 0
11432 11406 11430 0
-11433 -11431 0
-11433 -11432 0
11433 11431 11432 0
-11416 4875 0
-11416 5022 0
11416 -4875 -5022 0
-11417 -4875 0
-11417 -5022 0
11417 4875 5022 0
-11418 -11416 0
-11418 -11417 0
11418 11416 11417 0
-11434 7227 0
-11434 11418 0
11434 -7227 -11418 0
-11435 -7227 0
-11435 -11418 0
11435 7227 11418 0
-11436 -11434 0
-11436 -11435 0
11436 11434 11435 0
-11503 64 0
-11503 4911 0
11503 -64 -4911 0
-11504 -64 0
-11504 -4911 0
11504 64 4911 0
-11505 -11503 0
-11505 -11504 0
11505 11503 11504 0
-11515 11436 0
-11515 11505 0
11515 -11436 -11505 0
-11516 -11436 0
-11516 -11505 0
11516 11436 11505 0
-11517 -11515 0
-11517 -11516 0
11517 11515 11516 0
-11518 11433 0
-11518 11517 0
11518 -11433 -11517 0
-11519 -11433 0
-11519 -11517 0
11519 11433 11517 0
-11520 -11518 0
-11520 -11519 0
11520 11518 11519 0
-10189 29 0
-10189 7824 0
10189 -29 -7824 0
-10190 -29 0
-10190 -7824 0
10190 29 7824 0
-10191 -10189 0
-10191 -10190 0
10191 10189 10190 0
-11548 7 0
-11548 10767 0
11548 -7 -10767 0
-11549 -7 0
-11549 -10767 0
11549 7 10767 0
-11550 -11548 0
-11550 -11549 0
11550 11548 11549 0
-11551 13 0
-11551 11550 0
11551 -13 -11550 0
-11552 -13 0
-11552 -11550 0
11552 13 11550 0
-11553 -11551 0
-11553 -11552 0
11553 11551 11552 0
-11563 10191 0
-11563 11553 0
11563 -10191 -11553 0
-11564 -10191 0
-11564 -11553 0
11564 10191 11553 0
-11565 -11563 0
-11565 -11564 0
11565 11563 11564 0
-11557 7227 0
-11557 10773 0
11557 -7227 -10773 0
-11558 -7227 0
-11558 -10773 0
11558 7227 10773 0
-11559 -11557 0
-11559 -11558 0
11559 11557 11558 0
-11560 57 0
-11560 63 0
11560 -57 -63 0
-11561 -57 0
-11561 -63 0
11561 57 63 0
-11562 -11560 0
-11562 -11561 0
11562 11560 11561 0
-11587 11559 0
-11587 11562 0
11587 -11559 -11562 0
-11588 -11559 0
-11588 -11562 0
11588 11559 11562 0
-11589 -11587 0
-11589 -11588 0
11589 11587 11588 0
-11590 11565 0
-11590 11589 0
11590 -11565 -11589 0
-11591 -11565 0
-11591 -11589 0
11591 11565 11589 0
-11592 -11590 0
-11592 -11591 0
11592 11590 11591 0
-11605 7962 0
-11605 10764 0
11605 -7962 -10764 0
-11606 -7962 0
-11606 -10764 0
11606 7962 10764 0
-11607 -11605 0
-11607 -11606 0
11607 11605 11606 0
-11608 12 0
-11608 11607 0
11608 -12 -11607 0
-11609 -12 0
-11609 -11607 0
11609 12 11607 0
-11610 -11608 0
-11610 -11609 0
11610 11608 11609 0
-11611 28 0
-11611 5010 0
11611 -28 -5010 0
-11612 -28 0
-11612 -5010 0
11612 28 5010 0
-11613 -11611 0
-11613 -11612 0
11613 11611 11612 0
-11629 11610 0
-11629 11613 0
11629 -11610 -11613 0
-11630 -11610 0
-11630 -11613 0
11630 11610 11613 0
-11631 -11629 0
-11631 -11630 0
11631 11629 11630 0
-11620 7224 0
-11620 8364 0
11620 -7224 -8364 0
-11621 -7224 0
-11621 -8364 0
11621 7224 8364 0
-11622 -11620 0
-11622 -11621 0
11622 11620 11621 0
-11626 56 0
-11626 62 0
11626 -56 -62 0
-11627 -56 0
-11627 -62 0
11627 56 62 0
-11628 -11626 0
-11628 -11627 0
11628 11626 11627 0
-11653 11622 0
-11653 11628 0
11653 -11622 -11628 0
-11654 -11622 0
-11654 -11628 0
11654 11622 11628 0
-11655 -11653 0
-11655 -11654 0
11655 11653 11654 0
-11656 11631 0
-11656 11655 0
11656 -11631 -11655 0
-11657 -11631 0
-11657 -11655 0
11657 11631 11655 0
-11658 -11656 0
-11658 -11657 0
11658 11656 11657 0
-11671 12 0
-11671 4998 0
11671 -12 -4998 0
-11672 -12 0
-11672 -4998 0
11672 12 4998 0
-11673 -11671 0
-11673 -11672 0
11673 11671 11672 0
-11683 7317 0
-11683 11673 0
11683 -7317 -11673 0
-11684 -7317 0
-11684 -11673 0
11684 7317 11673 0
-11685 -11683 0
-11685 -11684 0
11685 11683 11684 0
-11686 4878 0
-11686 7284 0
11686 -4878 -7284 0
-11687 -4878 0
-11687 -7284 0
11687 4878 7284 0
-11688 -11686 0
-11688 -11687 0
11688 11686 11687 0
-11734 61 0
-11734 5445 0
11734 -61 -5445 0
-11735 -61 0
-11735 -5445 0
11735 61 5445 0
-11736 -11734 0
-11736 -11735 0
11736 11734 11735 0
-11740 11688 0
-11740 11736 0
11740 -11688 -11736 0
-11741 -11688 0
-11741 -11736 0
11741 11688 11736 0
-11742 -11740 0
-11742 -11741 0
11742 11740 11741 0
-11743 11685 0
-11743 11742 0
11743 -11685 -11742 0
-11744 -11685 0
-11744 -11742 0
11744 11685 11742 0
-11745 -11743 0
-11745 -11744 0
11745 11743 11744 0
-11773 6318 0
-11773 10767 0
11773 -6318 -10767 0
-11774 -6318 0
-11774 -10767 0
11774 6318 10767 0
-11775 -11773 0
-11775 -11774 0
11775 11773 11774 0
-11782 9807 0
-11782 11775 0
11782 -9807 -11775 0
-11783 -9807 0
-11783 -11775 0
11783 9807 11775 0
-11784 -11782 0
-11784 -11783 0
11784 11782 11783 0
-11785 5571 0
-11785 7824 0
11785 -5571 -7824 0
-11786 -5571 0
-11786 -7824 0
11786 5571 7824 0
-11787 -11785 0
-11787 -11786 0
11787 11785 11786 0
-11809 5061 0
-11809 7458 0
11809 -5061 -7458 0
-11810 -5061 0
-11810 -7458 0
11810 5061 7458 0
-11811 -11809 0
-11811 -11810 0
11811 11809 11810 0
-11839 11787 0
-11839 11811 0
11839 -11787 -11811 0
-11840 -11787 0
-11840 -11811 0
11840 11787 11811 0
-11841 -11839 0
-11841 -11840 0
11841 11839 11840 0
-11842 11784 0
-11842 11841 0
11842 -11784 -11841 0
-11843 -11784 0
-11843 -11841 0
11843 11784 11841 0
-11844 -11842 0
-11844 -11843 0
11844 11842 11843 0
-11827 5595 0
-11827 10773 0
11827 -5595 -10773 0
-11828 -5595 0
-11828 -10773 0
11828 5595 10773 0
-11829 -11827 0
-11829 -11828 0
11829 11827 11828 0
-11845 5067 0
-11845 11829 0
11845 -5067 -11829 0
-11846 -5067 0
-11846 -11829 0
11846 5067 11829 0
-11847 -11845 0
-11847 -11846 0
11847 11845 11846 0
-11920 60 0
-11920 5646 0
11920 -60 -5646 0
-11921 -60 0
-11921 -5646 0
11921 60 5646 0
-11922 -11920 0
-11922 -11921 0
11922 11920 11921 0
-11926 11847 0
-11926 11922 0
11926 -11847 -11922 0
-11927 -11847 0
-11927 -11922 0
11927 11847 11922 0
-11928 -11926 0
-11928 -11927 0
11928 11926 11927 0
-11929 11844 0
-11929 11928 0
11929 -11844 -11928 0
-11930 -11844 0
-11930 -11928 0
11930 11844 11928 0
-11931 -11929 0
-11931 -11930 0
11931 11929 11930 0
-11953 9069 0
-11953 10764 0
11953 -9069 -10764 0
-11954 -9069 0
-11954 -10764 0
11954 9069 10764 0
-11955 -11953 0
-11955 -11954 0
11955 11953 11954 0
-11965 5205 0
-11965 5739 0
11965 -5205 -5739 0
-11966 -5205 0
-11966 -5739 0
11966 5205 5739 0
-11967 -11965 0
-11967 -11966 0
11967 11965 11966 0
-11968 11955 0
-11968 11967 0
11968 -11955 -11967 0
-11969 -11955 0
-11969 -11967 0
11969 11955 11967 0
-11970 -11968 0
-11970 -11969 0
11970 11968 11969 0
-12019 6615 0
-12019 9078 0
12019 -6615 -9078 0
-12020 -6615 0
-12020 -9078 0
12020 6615 9078 0
-12021 -12019 0
-12021 -12020 0
12021 12019 12020 0
-12022 11970 0
-12022 12021 0
12022 -11970 -12021 0
-12023 -11970 0
-12023 -12021 0
12023 11970 12021 0
-12024 -12022 0
-12024 -12023 0
12024 12022 12023 0
-12004 5733 0
-12004 8364 0
12004 -5733 -8364 0
-12005 -5733 0
-12005 -8364 0
12005 5733 8364 0
-12006 -12004 0
-12006 -12005 0
12006 12004 12005 0
-12025 4878 0
-12025 12006 0
12025 -4878 -12006 0
-12026 -4878 0
-12026 -12006 0
12026 4878 12006 0
-12027 -12025 0
-12027 -12026 0
12027 12025 12026 0
-12103 59 0
-12103 5442 0
12103 -59 -5442 0
-12104 -59 0
-12104 -5442 0
12104 59 5442 0
-12105 -12103 0
-12105 -12104 0
12105 12103 12104 0
-12109 12027 0
-12109 12105 0
12109 -12027 -12105 0
-12110 -12027 0
-12110 -12105 0
12110 12027 12105 0
-12111 -12109 0
-12111 -12110 0
12111 12109 12110 0
-12112 12024 0
-12112 12111 0
12112 -12024 -12111 0
-12113 -12024 0
-12113 -12111 0
12113 12024 12111 0
-12114 -12112 0
-12114 -12113 0
12114 12112 12113 0
-12136 2 0
-12136 6 0
12136 -2 -6 0
-12137 -2 0
-12137 -6 0
12137 2 6 0
-12138 -12136 0
-12138 -12137 0
12138 12136 12137 0
-12145 13 0
-12145 12138 0
12145 -13 -12138 0
-12146 -13 0
-12146 -12138 0
12146 13 12138 0
-12147 -12145 0
-12147 -12146 0
12147 12145 12146 0
-12157 7137 0
-12157 12147 0
12157 -7137 -12147 0
-12158 -7137 0
-12158 -12147 0
12158 7137 12147 0
-12159 -12157 0
-12159 -12158 0
12159 12157 12158 0
-12160 5067 0
-12160 7128 0
12160 -5067 -7128 0
-12161 -5067 0
-12161 -7128 0
12161 5067 7128 0
-12162 -12160 0
-12162 -12161 0
12162 12160 12161 0
-12211 58 0
-12211 4911 0
12211 -58 -4911 0
-12212 -58 0
-12212 -4911 0
12212 58 4911 0
-12213 -12211 0
-12213 -12212 0
12213 12211 12212 0
-12214 12162 0
-12214 12213 0
12214 -12162 -12213 0
-12215 -12162 0
-12215 -12213 0
12215 12162 12213 0
-12216 -12214 0
-12216 -12215 0
12216 12214 12215 0
-12217 12159 0
-12217 12216 0
12217 -12159 -12216 0
-12218 -12159 0
-12218 -12216 0
12218 12159 12216 0
-12219 -12217 0
-12219 -12218 0
12219 12217 12218 0
-12244 16 0
-12244 17 0
12244 -16 -17 0
-12245 -16 0
-12245 -17 0
12245 16 17 0
-12246 -12244 0
-12246 -12245 0
12246 12244 12245 0
-12247 14 0
-12247 12246 0
12247 -14 -12246 0
-12248 -14 0
-12248 -12246 0
12248 14 12246 0
-12249 -12247 0
-12249 -12248 0
12249 12247 12248 0
-12301 19 0
-12301 32 0
12301 -19 -32 0
-12302 -19 0
-12302 -32 0
12302 19 32 0
-12303 -12301 0
-12303 -12302 0
12303 12301 12302 0
-12304 12249 0
-12304 12303 0
12304 -12249 -12303 0
-12305 -12249 0
-12305 -12303 0
12305 12249 12303 0
-12306 -12304 0
-12306 -12305 0
12306 12304 12305 0
-12262 37 0
-12262 5355 0
12262 -37 -5355 0
-12263 -37 0
-12263 -5355 0
12263 37 5355 0
-12264 -12262 0
-12264 -12263 0
12264 12262 12263 0
-12265 50 0
-12265 6534 0
12265 -50 -6534 0
-12266 -50 0
-12266 -6534 0
12266 50 6534 0
-12267 -12265 0
-12267 -12266 0
12267 12265 12266 0
-12298 55 0
-12298 12267 0
12298 -55 -12267 0
-12299 -55 0
-12299 -12267 0
12299 55 12267 0
-12300 -12298 0
-12300 -12299 0
12300 12298 12299 0
-12319 12264 0
-12319 12300 0
12319 -12264 -12300 0
-12320 -12264 0
-12320 -12300 0
12320 12264 12300 0
-12321 -12319 0
-12321 -12320 0
12321 12319 12320 0
-12322 12306 0
-12322 12321 0
12322 -12306 -12321 0
-12323 -12306 0
-12323 -12321 0
12323 12306 12321 0
-12324 -12322 0
-12324 -12323 0
12324 12322 12323 0
-12337 17 0
-12337 9258 0
12337 -17 -9258 0
-12338 -17 0
-12338 -9258 0
12338 17 9258 0
-12339 -12337 0
-12339 -12338 0
12339 12337 12338 0
-12376 18 0
-12376 5574 0
12376 -18 -5574 0
-12377 -18 0
-12377 -5574 0
12377 18 5574 0
-12378 -12376 0
-12378 -12377 0
12378 12376 12377 0
-12379 12339 0
-12379 12378 0
12379 -12339 -12378 0
-12380 -12339 0
-12380 -12378 0
12380 12339 12378 0
-12381 -12379 0
-12381 -12380 0
12381 12379 12380 0
-12343 53 0
-12343 6321 0
12343 -53 -6321 0
-12344 -53 0
-12344 -6321 0
12344 53 6321 0
-12345 -12343 0
-12345 -12344 0
12345 12343 12344 0
-12373 54 0
-12373 12345 0
12373 -54 -12345 0
-12374 -54 0
-12374 -12345 0
12374 54 12345 0
-12375 -12373 0
-12375 -12374 0
12375 12373 12374 0
-12388 4875 0
-12388 12375 0
12388 -4875 -12375 0
-12389 -4875 0
-12389 -12375 0
12389 4875 12375 0
-12390 -12388 0
-12390 -12389 0
12390 12388 12389 0
-12391 12381 0
-12391 12390 0
12391 -12381 -12390 0
-12392 -12381 0
-12392 -12390 0
12392 12381 12390 0
-12393 -12391 0
-12393 -12392 0
12393 12391 12392 0
-12424 49 0
-12424 7437 0
12424 -49 -7437 0
-12425 -49 0
-12425 -7437 0
12425 49 7437 0
-12426 -12424 0
-12426 -12425 0
12426 12424 12425 0
-12442 44 0
-12442 12426 0
12442 -44 -12426 0
-12443 -44 0
-12443 -12426 0
12443 44 12426 0
-12444 -12442 0
-12444 -12443 0
12444 12442 12443 0
-12400 10 0
-12400 11 0
12400 -10 -11 0
-12401 -10 0
-12401 -11 0
12401 10 11 0
-12402 -12400 0
-12402 -12401 0
12402 12400 12401 0
-12403 13 0
-12403 12402 0
12403 -13 -12402 0
-12404 -13 0
-12404 -12402 0
12404 13 12402 0
-12405 -12403 0
-12405 -12404 0
12405 12403 12404 0
-12430 8 0
-12430 12405 0
12430 -8 -12405 0
-12431 -8 0
-12431 -12405 0
12431 8 12405 0
-12432 -12430 0
-12432 -12431 0
12432 12430 12431 0
-12415 26 0
-12415 4872 0
12415 -26 -4872 0
-12416 -26 0
-12416 -4872 0
12416 26 4872 0
-12417 -12415 0
-12417 -12416 0
12417 12415 12416 0
-12439 31 0
-12439 12417 0
12439 -31 -12417 0
-12440 -31 0
-12440 -12417 0
12440 31 12417 0
-12441 -12439 0
-12441 -12440 0
12441 12439 12440 0
-12451 12432 0
-12451 12441 0
12451 -12432 -12441 0
-12452 -12432 0
-12452 -12441 0
12452 12432 12441 0
-12453 -12451 0
-12453 -12452 0
12453 12451 12452 0
-12463 12444 0
-12463 12453 0
12463 -12444 -12453 0
-12464 -12444 0
-12464 -12453 0
12464 12444 12453 0
-12465 -12463 0
-12465 -12464 0
12465 12463 12464 0
-12466 47 0
-12466 48 0
12466 -47 -48 0
-12467 -47 0
-12467 -48 0
12467 47 48 0
-12468 -12466 0
-12468 -12467 0
12468 12466 12467 0
-12496 7224 0
-12496 12468 0
12496 -7224 -12468 0
-12497 -7224 0
-12497 -12468 0
12497 7224 12468 0
-12498 -12496 0
-12498 -12497 0
12498 12496 12497 0
-5185 11 0
-5185 12 0
5185 -11 -12 0
-5186 -11 0
-5186 -12 0
5186 11 12 0
-5187 -5185 0
-5187 -5186 0
5187 5185 5186 0
-12481 5187 0
-12481 10047 0
12481 -5187 -10047 0
-12482 -5187 0
-12482 -10047 0
12482 5187 10047 0
-12483 -12481 0
-12483 -12482 0
12483 12481 12482 0
-12490 30 0
-12490 7446 0
12490 -30 -7446 0
-12491 -30 0
-12491 -7446 0
12491 30 7446 0
-12492 -12490 0
-12492 -12491 0
12492 12490 12491 0
-12502 12483 0
-12502 12492 0
12502 -12483 -12492 0
-12503 -12483 0
-12503 -12492 0
12503 12483 12492 0
-12504 -12502 0
-12504 -12503 0
12504 12502 12503 0
-12511 12498 0
-12511 12504 0
12511 -12498 -12504 0
-12512 -12498 0
-12512 -12504 0
12512 12498 12504 0
-12513 -12511 0
-12513 -12512 0
12513 12511 12512 0
-12547 43 0
-12547 8367 0
12547 -43 -8367 0
-12548 -43 0
-12548 -8367 0
12548 43 8367 0
-12549 -12547 0
-12549 -12548 0
12549 12547 12548 0
-12514 4 0
-12514 5 0
12514 -4 -5 0
-12515 -4 0
-12515 -5 0
12515 4 5 0
-12516 -12514 0
-12516 -12515 0
12516 12514 12515 0
-12517 2 0
-12517 12516 0
12517 -2 -12516 0
-12518 -2 0
-12518 -12516 0
12518 2 12516 0
-12519 -12517 0
-12519 -12518 0
12519 12517 12518 0
-12520 7 0
-12520 12519 0
12520 -7 -12519 0
-12521 -7 0
-12521 -12519 0
12521 7 12519 0
-12522 -12520 0
-12522 -12521 0
12522 12520 12521 0
-12532 20 0
-12532 5049 0
12532 -20 -5049 0
-12533 -20 0
-12533 -5049 0
12533 20 5049 0
-12534 -12532 0
-12534 -12533 0
12534 12532 12533 0
-12550 12522 0
-12550 12534 0
12550 -12522 -12534 0
-12551 -12522 0
-12551 -12534 0
12551 12522 12534 0
-12552 -12550 0
-12552 -12551 0
12552 12550 12551 0
-12562 12549 0
-12562 12552 0
12562 -12549 -12552 0
-12563 -12549 0
-12563 -12552 0
12563 12549 12552 0
-12564 -12562 0
-12564 -12563 0
12564 12562 12563 0
-12583 41 0
-12583 5358 0
12583 -41 -5358 0
-12584 -41 0
-12584 -5358 0
12584 41 5358 0
-12585 -12583 0
-12585 -12584 0
12585 12583 12584 0
-12604 42 0
-12604 12585 0
12604 -42 -12585 0
-12605 -42 0
-12605 -12585 0
12605 42 12585 0
-12606 -12604 0
-12606 -12605 0
12606 12604 12605 0
-12565 5 0
-12565 10764 0
12565 -5 -10764 0
-12566 -5 0
-12566 -10764 0
12566 5 10764 0
-12567 -12565 0
-12567 -12566 0
12567 12565 12566 0
-12574 6 0
-12574 12567 0
12574 -6 -12567 0
-12575 -6 0
-12575 -12567 0
12575 6 12567 0
-12576 -12574 0
-12576 -12575 0
12576 12574 12575 0
-12589 5004 0
-12589 7824 0
12589 -5004 -7824 0
-12590 -5004 0
-12590 -7824 0
12590 5004 7824 0
-12591 -12589 0
-12591 -12590 0
12591 12589 12590 0
-12607 12576 0
-12607 12591 0
12607 -12576 -12591 0
-12608 -12576 0
-12608 -12591 0
12608 12576 12591 0
-12609 -12607 0
-12609 -12608 0
12609 12607 12608 0
-12616 12606 0
-12616 12609 0
12616 -12606 -12609 0
-12617 -12606 0
-12617 -12609 0
12617 12606 12609 0
-12618 -12616 0
-12618 -12617 0
12618 12616 12617 0
-12619 -12564 0
-12619 -12618 0
12619 12564 12618 0
-12620 -12513 0
-12620 12619 0
12620 12513 -12619 0
-12621 -12465 0
-12621 12620 0
12621 12465 -12620 0
-12622 -12393 0
-12622 12621 0
12622 12393 -12621 0
-12623 -12324 0
-12623 12622 0
12623 12324 -12622 0
-12624 -12219 0
-12624 12623 0
12624 12219 -12623 0
-12625 -12114 0
-12625 12624 0
12625 12114 -12624 0
-12626 -11931 0
-12626 12625 0
12626 11931 -12625 0
-12627 -11745 0
-12627 12626 0
12627 11745 -12626 0
-12628 -11658 0
-12628 12627 0
12628 11658 -12627 0
-12629 -11592 0
-12629 12628 0
12629 11592 -12628 0
-12630 -11520 0
-12630 12629 0
12630 11520 -12629 0
-12631 -11379 0
-12631 12630 0
12631 11379 -12630 0
-12632 11280 0
-12632 12631 0
12632 -11280 -12631 0
-12633 11145 0
-12633 12632 0
12633 -11145 -12632 0
-12634 11013 0
-12634 12633 0
12634 -11013 -12633 0
-12635 10893 0
-12635 12634 0
12635 -10893 -12634 0
-12636 10761 0
-12636 12635 0
12636 -10761 -12635 0
-12637 10578 0
-12637 12636 0
12637 -10578 -12636 0
-12638 10503 0
-12638 12637 0
12638 -10503 -12637 0
-12639 10437 0
-12639 12638 0
12639 -10437 -12638 0
-12640 10266 0
-12640 12639 0
12640 -10266 -12639 0
-12641 10173 0
-12641 12640 0
12641 -10173 -12640 0
-12642 10044 0
-12642 12641 0
12642 -10044 -12641 0
-12643 9789 0
-12643 12642 0
12643 -9789 -12642 0
-12644 9645 0
-12644 12643 0
12644 -9645 -12643 0
-12645 9597 0
-12645 12644 0
12645 -9597 -12644 0
-12646 9504 0
-12646 12645 0
12646 -9504 -12645 0
-12647 9345 0
-12647 12646 0
12647 -9345 -12646 0
-12648 9255 0
-12648 12647 0
12648 -9255 -12647 0
-12649 9066 0
-12649 12648 0
12649 -9066 -12648 0
-12650 8886 0
-12650 12649 0
12650 -8886 -12649 0
-12651 8730 0
-12651 12650 0
12651 -8730 -12650 0
-12652 8577 0
-12652 12651 0
12652 -8577 -12651 0
-12653 8352 0
-12653 12652 0
12653 -8352 -12652 0
-12654 8256 0
-12654 12653 0
12654 -8256 -12653 0
-12655 8142 0
-12655 12654 0
12655 -8142 -12654 0
-12656 7959 0
-12656 12655 0
12656 -7959 -12655 0
-12657 7821 0
-12657 12656 0
12657 -7821 -12656 0
-12658 7665 0
-12658 12657 0
12658 -7665 -12657 0
-12659 7434 0
-12659 12658 0
12659 -7434 -12658 0
-12660 7221 0
-12660 12659 0
12660 -7221 -12659 0
-12661 7218 0
-12661 12660 0
12661 -7218 -12660 0
-12662 7104 0
-12662 12661 0
12662 -7104 -12661 0
-12663 6984 0
-12663 12662 0
12663 -6984 -12662 0
-12664 6786 0
-12664 12663 0
12664 -6786 -12663 0
-12665 6525 0
-12665 12664 0
12665 -6525 -12664 0
-12666 6315 0
-12666 12665 0
12666 -6315 -12665 0
-12667 6201 0
-12667 12666 0
12667 -6201 -12666 0
-12668 6108 0
-12668 12667 0
12668 -6108 -12667 0
-12669 6024 0
-12669 12668 0
12669 -6024 -12668 0
-12670 5877 0
-12670 12669 0
12670 -5877 -12669 0
-12671 5727 0
-12671 12670 0
12671 -5727 -12670 0
-12672 5568 0
-12672 12671 0
12672 -5568 -12671 0
-12673 5349 0
-12673 12672 0
12673 -5349 -12672 0
-12674 5181 0
-12674 12673 0
12674 -5181 -12673 0
-12675 4995 0
-12675 12674 0
12675 -4995 -12674 0
-12676 4869 0
-12676 -12675 0
12676 -4869 12675 0
-12706 -165 0
-12706 172 0
12706 165 -172 0
-12701 -164 0
-12701 171 0
12701 164 -171 0
-12696 -163 0
-12696 170 0
12696 163 -170 0
-12691 -162 0
-12691 169 0
12691 162 -169 0
-12686 -161 0
-12686 168 0
12686 161 -168 0
-12681 -160 0
-12681 167 0
12681 160 -167 0
-12677 -159 0
-12677 166 0
12677 159 -166 0
-12678 159 0
-12678 -166 0
12678 -159 166 0
-12679 -12677 0
-12679 -12678 0
12679 12677 12678 0
-12680 -12677 0
-12680 -12679 0
12680 12677 12679 0
-12682 160 0
-12682 -167 0
12682 -160 167 0
-12683 -12681 0
-12683 -12682 0
12683 12681 12682 0
-12684 -12680 0
-12684 12683 0
12684 12680 -12683 0
-12685 -12681 0
-12685 -12684 0
12685 12681 12684 0
-12687 161 0
-12687 -168 0
12687 -161 168 0
-12688 -12686 0
-12688 -12687 0
12688 12686 12687 0
-12689 -12685 0
-12689 12688 0
12689 12685 -12688 0
-12690 -12686 0
-12690 -12689 0
12690 12686 12689 0
-12692 162 0
-12692 -169 0
12692 -162 169 0
-12693 -12691 0
-12693 -12692 0
12693 12691 12692 0
-12694 -12690 0
-12694 12693 0
12694 12690 -12693 0
-12695 -12691 0
-12695 -12694 0
12695 12691 12694 0
-12697 163 0
-12697 -170 0
12697 -163 170 0
-12698 -12696 0
-12698 -12697 0
12698 12696 12697 0
-12699 -12695 0
-12699 12698 0
12699 12695 -12698 0
-12700 -12696 0
-12700 -12699 0
12700 12696 12699 0
-12702 164 0
-12702 -171 0
12702 -164 171 0
-12703 -12701 0
-12703 -12702 0
12703 12701 12702 0
-12704 -12700 0
-12704 12703 0
12704 12700 -12703 0
-12705 -12701 0
-12705 -12704 0
12705 12701 12704 0
-12707 165 0
-12707 -172 0
12707 -165 172 0
-12708 -12706 0
-12708 -12707 0
12708 12706 12707 0
-12709 -12705 0
-12709 12708 0
12709 12705 -12708 0
-12710 -12706 0
-12710 -12709 0
12710 12706 12709 0
-12711 12676 0
-12711 -12710 0
12711 -12676 12710 0
-12741 -158 0
-12741 165 0
12741 158 -165 0
-12736 -157 0
-12736 164 0
12736 157 -164 0
-12731 -156 0
-12731 163 0
12731 156 -163 0
-12726 -155 0
-12726 162 0
12726 155 -162 0
-12721 -154 0
-12721 161 0
12721 154 -161 0
-12716 -153 0
-12716 160 0
12716 153 -160 0
-12712 -152 0
-12712 159 0
12712 152 -159 0
-12713 152 0
-12713 -159 0
12713 -152 159 0
-12714 -12712 0
-12714 -12713 0
12714 12712 12713 0
-12715 -12712 0
-12715 -12714 0
12715 12712 12714 0
-12717 153 0
-12717 -160 0
12717 -153 160 0
-12718 -12716 0
-12718 -12717 0
12718 12716 12717 0
-12719 -12715 0
-12719 12718 0
12719 12715 -12718 0
-12720 -12716 0
-12720 -12719 0
12720 12716 12719 0
-12722 154 0
-12722 -161 0
12722 -154 161 0
-12723 -12721 0
-12723 -12722 0
12723 12721 12722 0
-12724 -12720 0
-12724 12723 0
12724 12720 -12723 0
-12725 -12721 0
-12725 -12724 0
12725 12721 12724 0
-12727 155 0
-12727 -162 0
12727 -155 162 0
-12728 -12726 0
-12728 -12727 0
12728 12726 12727 0
-12729 -12725 0
-12729 12728 0
12729 12725 -12728 0
-12730 -12726 0
-12730 -12729 0
12730 12726 12729 0
-12732 156 0
-12732 -163 0
12732 -156 163 0
-12733 -12731 0
-12733 -12732 0
12733 12731 12732 0
-12734 -12730 0
-12734 12733 0
12734 12730 -12733 0
-12735 -12731 0
-12735 -12734 0
12735 12731 12734 0
-12737 157 0
-12737 -164 0
12737 -157 164 0
-12738 -12736 0
-12738 -12737 0
12738 12736 12737 0
-12739 -12735 0
-12739 12738 0
12739 12735 -12738 0
-12740 -12736 0
-12740 -12739 0
12740 12736 12739 0
-12742 158 0
-12742 -165 0
12742 -158 165 0
-12743 -12741 0
-12743 -12742 0
12743 12741 12742 0
-12744 -12740 0
-12744 12743 0
12744 12740 -12743 0
-12745 -12741 0
-12745 -12744 0
12745 12741 12744 0
-12746 12711 0
-12746 -12745 0
12746 -12711 12745 0
-12776 -151 0
-12776 158 0
12776 151 -158 0
-12771 -150 0
-12771 157 0
12771 150 -157 0
-12766 -149 0
-12766 156 0
12766 149 -156 0
-12761 -148 0
-12761 155 0
12761 148 -155 0
-12756 -147 0
-12756 154 0
12756 147 -154 0
-12751 -146 0
-12751 153 0
12751 146 -153 0
-12747 -145 0
-12747 152 0
12747 145 -152 0
-12748 145 0
-12748 -152 0
12748 -145 152 0
-12749 -12747 0
-12749 -12748 0
12749 12747 12748 0
-12750 -12747 0
-12750 -12749 0
12750 12747 12749 0
-12752 146 0
-12752 -153 0
12752 -146 153 0
-12753 -12751 0
-12753 -12752 0
12753 12751 12752 0
-12754 -12750 0
-12754 12753 0
12754 12750 -12753 0
-12755 -12751 0
-12755 -12754 0
12755 12751 12754 0
-12757 147 0
-12757 -154 0
12757 -147 154 0
-12758 -12756 0
-12758 -12757 0
12758 12756 12757 0
-12759 -12755 0
-12759 12758 0
12759 12755 -12758 0
-12760 -12756 0
-12760 -12759 0
12760 12756 12759 0
-12762 148 0
-12762 -155 0
12762 -148 155 0
-12763 -12761 0
-12763 -12762 0
12763 12761 12762 0
-12764 -12760 0
-12764 12763 0
12764 12760 -12763 0
-12765 -12761 0
-12765 -12764 0
12765 12761 12764 0
-12767 149 0
-12767 -156 0
12767 -149 156 0
-12768 -12766 0
-12768 -12767 0
12768 12766 12767 0
-12769 -12765 0
-12769 12768 0
12769 12765 -12768 0
-12770 -12766 0
-12770 -12769 0
12770 12766 12769 0
-12772 150 0
-12772 -157 0
12772 -150 157 0
-12773 -12771 0
-12773 -12772 0
12773 12771 12772 0
-12774 -12770 0
-12774 12773 0
12774 12770 -12773 0
-12775 -12771 0
-12775 -12774 0
12775 12771 12774 0
-12777 151 0
-12777 -158 0
12777 -151 158 0
-12778 -12776 0
-12778 -12777 0
12778 12776 12777 0
-12779 -12775 0
-12779 12778 0
12779 12775 -12778 0
-12780 -12776 0
-12780 -12779 0
12780 12776 12779 0
-12781 12746 0
-12781 -12780 0
12781 -12746 12780 0
-12811 -144 0
-12811 151 0
12811 144 -151 0
-12806 -143 0
-12806 150 0
12806 143 -150 0
-12801 -142 0
-12801 149 0
12801 142 -149 0
-12796 -141 0
-12796 148 0
12796 141 -148 0
-12791 -140 0
-12791 147 0
12791 140 -147 0
-12786 -139 0
-12786 146 0
12786 139 -146 0
-12782 -138 0
-12782 145 0
12782 138 -145 0
-12783 138 0
-12783 -145 0
12783 -138 145 0
-12784 -12782 0
-12784 -12783 0
12784 12782 12783 0
-12785 -12782 0
-12785 -12784 0
12785 12782 12784 0
-12787 139 0
-12787 -146 0
12787 -139 146 0
-12788 -12786 0
-12788 -12787 0
12788 12786 12787 0
-12789 -12785 0
-12789 12788 0
12789 12785 -12788 0
-12790 -12786 0
-12790 -12789 0
12790 12786 12789 0
-12792 140 0
-12792 -147 0
12792 -140 147 0
-12793 -12791 0
-12793 -12792 0
12793 12791 12792 0
-12794 -12790 0
-12794 12793 0
12794 12790 -12793 0
-12795 -12791 0
-12795 -12794 0
12795 12791 12794 0
-12797 141 0
-12797 -148 0
12797 -141 148 0
-12798 -12796 0
-12798 -12797 0
12798 12796 12797 0
-12799 -12795 0
-12799 12798 0
12799 12795 -12798 0
-12800 -12796 0
-12800 -12799 0
12800 12796 12799 0
-12802 142 0
-12802 -149 0
12802 -142 149 0
-12803 -12801 0
-12803 -12802 0
12803 12801 12802 0
-12804 -12800 0
-12804 12803 0
12804 12800 -12803 0
-12805 -12801 0
-12805 -12804 0
12805 12801 12804 0
-12807 143 0
-12807 -150 0
12807 -143 150 0
-12808 -12806 0
-12808 -12807 0
12808 12806 12807 0
-12809 -12805 0
-12809 12808 0
12809 12805 -12808 0
-12810 -12806 0
-12810 -12809 0
12810 12806 12809 0
-12812 144 0
-12812 -151 0
12812 -144 151 0
-12813 -12811 0
-12813 -12812 0
12813 12811 12812 0
-12814 -12810 0
-12814 12813 0
12814 12810 -12813 0
-12815 -12811 0
-12815 -12814 0
12815 12811 12814 0
-12816 12781 0
-12816 -12815 0
12816 -12781 12815 0
-12846 -137 0
-12846 144 0
12846 137 -144 0
-12841 -136 0
-12841 143 0
12841 136 -143 0
-12836 -135 0
-12836 142 0
12836 135 -142 0
-12831 -134 0
-12831 141 0
12831 134 -141 0
-12826 -133 0
-12826 140 0
12826 133 -140 0
-12821 -132 0
-12821 139 0
12821 132 -139 0
-12817 -131 0
-12817 138 0
12817 131 -138 0
-12818 131 0
-12818 -138 0
12818 -131 138 0
-12819 -12817 0
-12819 -12818 0
12819 12817 12818 0
-12820 -12817 0
-12820 -12819 0
12820 12817 12819 0
-12822 132 0
-12822 -139 0
12822 -132 139 0
-12823 -12821 0
-12823 -12822 0
12823 12821 12822 0
-12824 -12820 0
-12824 12823 0
12824 12820 -12823 0
-12825 -12821 0
-12825 -12824 0
12825 12821 12824 0
-12827 133 0
-12827 -140 0
12827 -133 140 0
-12828 -12826 0
-12828 -12827 0
12828 12826 12827 0
-12829 -12825 0
-12829 12828 0
12829 12825 -12828 0
-12830 -12826 0
-12830 -12829 0
12830 12826 12829 0
-12832 134 0
-12832 -141 0
12832 -134 141 0
-12833 -12831 0
-12833 -12832 0
12833 12831 12832 0
-12834 -12830 0
-12834 12833 0
12834 12830 -12833 0
-12835 -12831 0
-12835 -12834 0
12835 12831 12834 0
-12837 135 0
-12837 -142 0
12837 -135 142 0
-12838 -12836 0
-12838 -12837 0
12838 12836 12837 0
-12839 -12835 0
-12839 12838 0
12839 12835 -12838 0
-12840 -12836 0
-12840 -12839 0
12840 12836 12839 0
-12842 136 0
-12842 -143 0
12842 -136 143 0
-12843 -12841 0
-12843 -12842 0
12843 12841 12842 0
-12844 -12840 0
-12844 12843 0
12844 12840 -12843 0
-12845 -12841 0
-12845 -12844 0
12845 12841 12844 0
-12847 137 0
-12847 -144 0
12847 -137 144 0
-12848 -12846 0
-12848 -12847 0
12848 12846 12847 0
-12849 -12845 0
-12849 12848 0
12849 12845 -12848 0
-12850 -12846 0
-12850 -12849 0
12850 12846 12849 0
-12851 12816 0
-12851 -12850 0
12851 -12816 12850 0
-12881 -130 0
-12881 137 0
12881 130 -137 0
-12876 -129 0
-12876 136 0
12876 129 -136 0
-12871 -128 0
-12871 135 0
12871 128 -135 0
-12866 -127 0
-12866 134 0
12866 127 -134 0
-12861 -126 0
-12861 133 0
12861 126 -133 0
-12856 -125 0
-12856 132 0
12856 125 -132 0
-12852 -124 0
-12852 131 0
12852 124 -131 0
-12853 124 0
-12853 -131 0
12853 -124 131 0
-12854 -12852 0
-12854 -12853 0
12854 12852 12853 0
-12855 -12852 0
-12855 -12854 0
12855 12852 12854 0
-12857 125 0
-12857 -132 0
12857 -125 132 0
-12858 -12856 0
-12858 -12857 0
12858 12856 12857 0
-12859 -12855 0
-12859 12858 0
12859 12855 -12858 0
-12860 -12856 0
-12860 -12859 0
12860 12856 12859 0
-12862 126 0
-12862 -133 0
12862 -126 133 0
-12863 -12861 0
-12863 -12862 0
12863 12861 12862 0
-12864 -12860 0
-12864 12863 0
12864 12860 -12863 0
-12865 -12861 0
-12865 -12864 0
12865 12861 12864 0
-12867 127 0
-12867 -134 0
12867 -127 134 0
-12868 -12866 0
-12868 -12867 0
12868 12866 12867 0
-12869 -12865 0
-12869 12868 0
12869 12865 -12868 0
-12870 -12866 0
-12870 -12869 0
12870 12866 12869 0
-12872 128 0
-12872 -135 0
12872 -128 135 0
-12873 -12871 0
-12873 -12872 0
12873 12871 12872 0
-12874 -12870 0
-12874 12873 0
12874 12870 -12873 0
-12875 -12871 0
-12875 -12874 0
12875 12871 12874 0
-12877 129 0
-12877 -136 0
12877 -129 136 0
-12878 -12876 0
-12878 -12877 0
12878 12876 12877 0
-12879 -12875 0
-12879 12878 0
12879 12875 -12878 0
-12880 -12876 0
-12880 -12879 0
12880 12876 12879 0
-12882 130 0
-12882 -137 0
12882 -130 137 0
-12883 -12881 0
-12883 -12882 0
12883 12881 12882 0
-12884 -12880 0
-12884 12883 0
12884 12880 -12883 0
-12885 -12881 0
-12885 -12884 0
12885 12881 12884 0
-12886 12851 0
-12886 -12885 0
12886 -12851 12885 0
-12916 -123 0
-12916 130 0
12916 123 -130 0
-12911 -122 0
-12911 129 0
12911 122 -129 0
-12906 -121 0
-12906 128 0
12906 121 -128 0
-12901 -120 0
-12901 127 0
12901 120 -127 0
-12896 -119 0
-12896 126 0
12896 119 -126 0
-12891 -118 0
-12891 125 0
12891 118 -125 0
-12887 -117 0
-12887 124 0
12887 117 -124 0
-12888 117 0
-12888 -124 0
12888 -117 124 0
-12889 -12887 0
-12889 -12888 0
12889 12887 12888 0
-12890 -12887 0
-12890 -12889 0
12890 12887 12889 0
-12892 118 0
-12892 -125 0
12892 -118 125 0
-12893 -12891 0
-12893 -12892 0
12893 12891 12892 0
-12894 -12890 0
-12894 12893 0
12894 12890 -12893 0
-12895 -12891 0
-12895 -12894 0
12895 12891 12894 0
-12897 119 0
-12897 -126 0
12897 -119 126 0
-12898 -12896 0
-12898 -12897 0
12898 12896 12897 0
-12899 -12895 0
-12899 12898 0
12899 12895 -12898 0
-12900 -12896 0
-12900 -12899 0
12900 12896 12899 0
-12902 120 0
-12902 -127 0
12902 -120 127 0
-12903 -12901 0
-12903 -12902 0
12903 12901 12902 0
-12904 -12900 0
-12904 12903 0
12904 12900 -12903 0
-12905 -12901 0
-12905 -12904 0
12905 12901 12904 0
-12907 121 0
-12907 -128 0
12907 -121 128 0
-12908 -12906 0
-12908 -12907 0
12908 12906 12907 0
-12909 -12905 0
-12909 12908 0
12909 12905 -12908 0
-12910 -12906 0
-12910 -12909 0
12910 12906 12909 0
-12912 122 0
-12912 -129 0
12912 -122 129 0
-12913 -12911 0
-12913 -12912 0
12913 12911 12912 0
-12914 -12910 0
-12914 12913 0
12914 12910 -12913 0
-12915 -12911 0
-12915 -12914 0
12915 12911 12914 0
-12917 123 0
-12917 -130 0
12917 -123 130 0
-12918 -12916 0
-12918 -12917 0
12918 12916 12917 0
-12919 -12915 0
-12919 12918 0
12919 12915 -12918 0
-12920 -12916 0
-12920 -12919 0
12920 12916 12919 0
-12921 12886 0
-12921 -12920 0
12921 -12886 12920 0
-12951 -116 0
-12951 123 0
12951 116 -123 0
-12946 -115 0
-12946 122 0
12946 115 -122 0
-12941 -114 0
-12941 121 0
12941 114 -121 0
-12936 -113 0
-12936 120 0
12936 113 -120 0
-12931 -112 0
-12931 119 0
12931 112 -119 0
-12926 -111 0
-12926 118 0
12926 111 -118 0
-12922 -110 0
-12922 117 0
12922 110 -117 0
-12923 110 0
-12923 -117 0
12923 -110 117 0
-12924 -12922 0
-12924 -12923 0
12924 12922 12923 0
-12925 -12922 0
-12925 -12924 0
12925 12922 12924 0
-12927 111 0
-12927 -118 0
12927 -111 118 0
-12928 -12926 0
-12928 -12927 0
12928 12926 12927 0
-12929 -12925 0
-12929 12928 0
12929 12925 -12928 0
-12930 -12926 0
-12930 -12929 0
12930 12926 12929 0
-12932 112 0
-12932 -119 0
12932 -112 119 0
-12933 -12931 0
-12933 -12932 0
12933 12931 12932 0
-12934 -12930 0
-12934 12933 0
12934 12930 -12933 0
-12935 -12931 0
-12935 -12934 0
12935 12931 12934 0
-12937 113 0
-12937 -120 0
12937 -113 120 0
-12938 -12936 0
-12938 -12937 0
12938 12936 12937 0
-12939 -12935 0
-12939 12938 0
12939 12935 -12938 0
-12940 -12936 0
-12940 -12939 0
12940 12936 12939 0
-12942 114 0
-12942 -121 0
12942 -114 121 0
-12943 -12941 0
-12943 -12942 0
12943 12941 12942 0
-12944 -12940 0
-12944 12943 0
12944 12940 -12943 0
-12945 -12941 0
-12945 -12944 0
12945 12941 12944 0
-12947 115 0
-12947 -122 0
12947 -115 122 0
-12948 -12946 0
-12948 -12947 0
12948 12946 12947 0
-12949 -12945 0
-12949 12948 0
12949 12945 -12948 0
-12950 -12946 0
-12950 -12949 0
12950 12946 12949 0
-12952 116 0
-12952 -123 0
12952 -116 123 0
-12953 -12951 0
-12953 -12952 0
12953 12951 12952 0
-12954 -12950 0
-12954 12953 0
12954 12950 -12953 0
-12955 -12951 0
-12955 -12954 0
12955 12951 12954 0
-12956 12921 0
-12956 -12955 0
12956 -12921 12955 0
12956 0
