p cnf 1762 4536
7 -1581 0
-7 1581 0
1499 -1760 0
-1499 1760 0
-1502 -7 0
-1502 1499 0
1502 7 -1499 0
-1500 7 0
-1500 -1499 0
1500 -7 1499 0
13 -1587 0
-13 1587 0
615 -1692 0
-615 1692 0
-618 -13 0
-618 615 0
618 13 -615 0
-616 13 0
-616 -615 0
616 -13 615 0
9 -1583 0
-9 1583 0
683 -1700 0
-683 1700 0
-686 -9 0
-686 683 0
686 9 -683 0
-684 9 0
-684 -683 0
684 -9 683 0
10 -1584 0
-10 1584 0
666 -1698 0
-666 1698 0
-669 -10 0
-669 666 0
669 10 -666 0
-667 10 0
-667 -666 0
667 -10 666 0
11 -1585 0
-11 1585 0
649 -1696 0
-649 1696 0
-652 -11 0
-652 649 0
652 11 -649 0
-650 11 0
-650 -649 0
650 -11 649 0
12 -1586 0
-12 1586 0
632 -1694 0
-632 1694 0
-635 -12 0
-635 632 0
635 12 -632 0
-633 12 0
-633 -632 0
633 -12 632 0
19 -1593 0
-19 1593 0
513 -1680 0
-513 1680 0
-516 -19 0
-516 513 0
516 19 -513 0
-514 19 0
-514 -513 0
514 -19 513 0
15 -1589 0
-15 1589 0
581 -1688 0
-581 1688 0
-584 -15 0
-584 581 0
584 15 -581 0
-582 15 0
-582 -581 0
582 -15 581 0
16 -1590 0
-16 1590 0
564 -1686 0
-564 1686 0
-567 -16 0
-567 564 0
567 16 -564 0
-565 16 0
-565 -564 0
565 -16 564 0
17 -1591 0
-17 1591 0
547 -1684 0
-547 1684 0
-550 -17 0
-550 547 0
550 17 -547 0
-548 17 0
-548 -547 0
548 -17 547 0
18 -1592 0
-18 1592 0
530 -1682 0
-530 1682 0
-533 -18 0
-533 530 0
533 18 -530 0
-531 18 0
-531 -530 0
531 -18 530 0
24 -1598 0
-24 1598 0
428 -1670 0
-428 1670 0
-431 -24 0
-431 428 0
431 24 -428 0
-429 24 0
-429 -428 0
429 -24 428 0
20 -1594 0
-20 1594 0
496 -1678 0
-496 1678 0
-499 -20 0
-499 496 0
499 20 -496 0
-497 20 0
-497 -496 0
497 -20 496 0
21 -1595 0
-21 1595 0
479 -1676 0
-479 1676 0
-482 -21 0
-482 479 0
482 21 -479 0
-480 21 0
-480 -479 0
480 -21 479 0
22 -1596 0
-22 1596 0
462 -1674 0
-462 1674 0
-465 -22 0
-465 462 0
465 22 -462 0
-463 22 0
-463 -462 0
463 -22 462 0
23 -1597 0
-23 1597 0
445 -1672 0
-445 1672 0
-448 -23 0
-448 445 0
448 23 -445 0
-446 23 0
-446 -445 0
446 -23 445 0
30 -1604 0
-30 1604 0
326 -1658 0
-326 1658 0
-329 -30 0
-329 326 0
329 30 -326 0
-327 30 0
-327 -326 0
327 -30 326 0
26 -1600 0
-26 1600 0
394 -1666 0
-394 1666 0
-397 -26 0
-397 394 0
397 26 -394 0
-395 26 0
-395 -394 0
395 -26 394 0
27 -1601 0
-27 1601 0
377 -1664 0
-377 1664 0
-380 -27 0
-380 377 0
380 27 -377 0
-378 27 0
-378 -377 0
378 -27 377 0
28 -1602 0
-28 1602 0
360 -1662 0
-360 1662 0
-363 -28 0
-363 360 0
363 28 -360 0
-361 28 0
-361 -360 0
361 -28 360 0
29 -1603 0
-29 1603 0
343 -1660 0
-343 1660 0
-346 -29 0
-346 343 0
346 29 -343 0
-344 29 0
-344 -343 0
344 -29 343 0
36 -1610 0
-36 1610 0
224 -1646 0
-224 1646 0
-227 -36 0
-227 224 0
227 36 -224 0
-225 36 0
-225 -224 0
225 -36 224 0
32 -1606 0
-32 1606 0
292 -1654 0
-292 1654 0
-295 -32 0
-295 292 0
295 32 -292 0
-293 32 0
-293 -292 0
293 -32 292 0
33 -1607 0
-33 1607 0
275 -1652 0
-275 1652 0
-278 -33 0
-278 275 0
278 33 -275 0
-276 33 0
-276 -275 0
276 -33 275 0
34 -1608 0
-34 1608 0
258 -1650 0
-258 1650 0
-261 -34 0
-261 258 0
261 34 -258 0
-259 34 0
-259 -258 0
259 -34 258 0
35 -1609 0
-35 1609 0
241 -1648 0
-241 1648 0
-244 -35 0
-244 241 0
244 35 -241 0
-242 35 0
-242 -241 0
242 -35 241 0
42 -1616 0
-42 1616 0
138 -1636 0
-138 1636 0
-141 -42 0
-141 138 0
141 42 -138 0
-139 42 0
-139 -138 0
139 -42 138 0
38 -1612 0
-38 1612 0
190 -1642 0
-190 1642 0
-193 -38 0
-193 190 0
193 38 -190 0
-191 38 0
-191 -190 0
191 -38 190 0
39 -1613 0
-39 1613 0
181 -1641 0
-181 1641 0
-184 -39 0
-184 181 0
184 39 -181 0
-182 39 0
-182 -181 0
182 -39 181 0
40 -1614 0
-40 1614 0
172 -1640 0
-172 1640 0
-175 -40 0
-175 172 0
175 40 -172 0
-173 40 0
-173 -172 0
173 -40 172 0
41 -1615 0
-41 1615 0
155 -1638 0
-155 1638 0
-158 -41 0
-158 155 0
158 41 -155 0
-156 41 0
-156 -155 0
156 -41 155 0
44 -1618 0
-44 1618 0
104 -1632 0
-104 1632 0
-107 -44 0
-107 104 0
107 44 -104 0
-105 44 0
-105 -104 0
105 -44 104 0
45 -1619 0
-45 1619 0
95 -1631 0
-95 1631 0
-98 -45 0
-98 95 0
98 45 -95 0
-96 45 0
-96 -95 0
96 -45 95 0
46 -1620 0
-46 1620 0
86 -1630 0
-86 1630 0
-89 -46 0
-89 86 0
89 46 -86 0
-87 46 0
-87 -86 0
87 -46 86 0
47 -1621 0
-47 1621 0
69 -1628 0
-69 1628 0
-72 -47 0
-72 69 0
72 47 -69 0
-70 47 0
-70 -69 0
70 -47 69 0
48 -1622 0
-48 1622 0
880 -1715 0
-880 1715 0
-883 -48 0
-883 880 0
883 48 -880 0
-881 48 0
-881 -880 0
881 -48 880 0
49 -1623 0
-49 1623 0
60 -1627 0
-60 1627 0
-63 -49 0
-63 60 0
63 49 -60 0
-61 49 0
-61 -60 0
61 -49 60 0
50 -1624 0
-50 1624 0
52 -1626 0
-52 1626 0
-54 -50 0
-54 52 0
54 50 -52 0
-53 50 0
-53 -52 0
53 -50 52 0
3 -1577 0
-3 1577 0
4 -1578 0
-4 1578 0
8 -1582 0
-8 1582 0
700 -1702 0
-700 1702 0
-703 -8 0
-703 700 0
703 8 -700 0
-701 8 0
-701 -700 0
701 -8 700 0
-55 -53 0
-55 -54 0
55 53 54 0
43 -1617 0
-43 1617 0
-56 43 0
-56 -52 0
56 -43 52 0
-57 -43 0
-57 52 0
57 43 -52 0
-58 -56 0
-58 -57 0
58 56 57 0
-59 55 0
-59 58 0
59 -55 -58 0
-62 59 0
-62 -61 0
62 -59 61 0
-64 62 0
-64 -63 0
64 -62 63 0
-65 42 0
-65 -60 0
65 -42 60 0
-66 -42 0
-66 60 0
66 42 -60 0
-67 -65 0
-67 -66 0
67 65 66 0
-68 64 0
-68 67 0
68 -64 -67 0
-71 68 0
-71 -70 0
71 -68 70 0
-73 71 0
-73 -72 0
73 -71 72 0
-74 41 0
-74 -69 0
74 -41 69 0
-75 -41 0
-75 69 0
75 41 -69 0
-76 -74 0
-76 -75 0
76 74 75 0
77 -1629 0
-77 1629 0
-78 76 0
-78 77 0
78 -76 -77 0
-79 73 0
-79 -78 0
79 -73 78 0
-80 -76 0
-80 -77 0
80 76 77 0
-81 79 0
-81 -80 0
81 -79 80 0
-82 48 0
-82 -77 0
82 -48 77 0
-83 -48 0
-83 77 0
83 48 -77 0
-84 -82 0
-84 -83 0
84 82 83 0
-85 81 0
-85 84 0
85 -81 -84 0
-88 85 0
-88 -87 0
88 -85 87 0
-90 88 0
-90 -89 0
90 -88 89 0
-91 40 0
-91 -86 0
91 -40 86 0
-92 -40 0
-92 86 0
92 40 -86 0
-93 -91 0
-93 -92 0
93 91 92 0
-94 90 0
-94 93 0
94 -90 -93 0
-97 94 0
-97 -96 0
97 -94 96 0
-99 97 0
-99 -98 0
99 -97 98 0
-100 39 0
-100 -95 0
100 -39 95 0
-101 -39 0
-101 95 0
101 39 -95 0
-102 -100 0
-102 -101 0
102 100 101 0
-103 99 0
-103 102 0
103 -99 -102 0
-106 103 0
-106 -105 0
106 -103 105 0
-108 106 0
-108 -107 0
108 -106 107 0
-109 38 0
-109 -104 0
109 -38 104 0
-110 -38 0
-110 104 0
110 38 -104 0
-111 -109 0
-111 -110 0
111 109 110 0
112 -1633 0
-112 1633 0
-113 111 0
-113 112 0
113 -111 -112 0
-114 108 0
-114 -113 0
114 -108 113 0
-115 -111 0
-115 -112 0
115 111 112 0
-116 114 0
-116 -115 0
116 -114 115 0
51 -1625 0
-51 1625 0
-117 51 0
-117 -112 0
117 -51 112 0
-118 -51 0
-118 112 0
118 51 -112 0
-119 -117 0
-119 -118 0
119 117 118 0
-120 116 0
-120 119 0
120 -116 -119 0
121 -1634 0
-121 1634 0
-122 43 0
-122 -121 0
122 -43 121 0
-123 120 0
-123 -122 0
123 -120 122 0
-124 -43 0
-124 121 0
124 43 -121 0
-125 123 0
-125 -124 0
125 -123 124 0
37 -1611 0
-37 1611 0
-126 37 0
-126 -121 0
126 -37 121 0
-127 -37 0
-127 121 0
127 37 -121 0
-128 -126 0
-128 -127 0
128 126 127 0
129 -1635 0
-129 1635 0
-130 128 0
-130 129 0
130 -128 -129 0
-131 125 0
-131 -130 0
131 -125 130 0
-132 -128 0
-132 -129 0
132 128 129 0
-133 131 0
-133 -132 0
133 -131 132 0
-134 46 0
-134 -129 0
134 -46 129 0
-135 -46 0
-135 129 0
135 46 -129 0
-136 -134 0
-136 -135 0
136 134 135 0
-137 133 0
-137 136 0
137 -133 -136 0
-140 137 0
-140 -139 0
140 -137 139 0
-142 140 0
-142 -141 0
142 -140 141 0
-143 36 0
-143 -138 0
143 -36 138 0
-144 -36 0
-144 138 0
144 36 -138 0
-145 -143 0
-145 -144 0
145 143 144 0
146 -1637 0
-146 1637 0
-147 145 0
-147 146 0
147 -145 -146 0
-148 142 0
-148 -147 0
148 -142 147 0
-149 -145 0
-149 -146 0
149 145 146 0
-150 148 0
-150 -149 0
150 -148 149 0
-151 45 0
-151 -146 0
151 -45 146 0
-152 -45 0
-152 146 0
152 45 -146 0
-153 -151 0
-153 -152 0
153 151 152 0
-154 150 0
-154 153 0
154 -150 -153 0
-157 154 0
-157 -156 0
157 -154 156 0
-159 157 0
-159 -158 0
159 -157 158 0
-160 35 0
-160 -155 0
160 -35 155 0
-161 -35 0
-161 155 0
161 35 -155 0
-162 -160 0
-162 -161 0
162 160 161 0
163 -1639 0
-163 1639 0
-164 162 0
-164 163 0
164 -162 -163 0
-165 159 0
-165 -164 0
165 -159 164 0
-166 -162 0
-166 -163 0
166 162 163 0
-167 165 0
-167 -166 0
167 -165 166 0
-168 44 0
-168 -163 0
168 -44 163 0
-169 -44 0
-169 163 0
169 44 -163 0
-170 -168 0
-170 -169 0
170 168 169 0
-171 167 0
-171 170 0
171 -167 -170 0
-174 171 0
-174 -173 0
174 -171 173 0
-176 174 0
-176 -175 0
176 -174 175 0
-177 34 0
-177 -172 0
177 -34 172 0
-178 -34 0
-178 172 0
178 34 -172 0
-179 -177 0
-179 -178 0
179 177 178 0
-180 176 0
-180 179 0
180 -176 -179 0
-183 180 0
-183 -182 0
183 -180 182 0
-185 183 0
-185 -184 0
185 -183 184 0
-186 33 0
-186 -181 0
186 -33 181 0
-187 -33 0
-187 181 0
187 33 -181 0
-188 -186 0
-188 -187 0
188 186 187 0
-189 185 0
-189 188 0
189 -185 -188 0
-192 189 0
-192 -191 0
192 -189 191 0
-194 192 0
-194 -193 0
194 -192 193 0
-195 32 0
-195 -190 0
195 -32 190 0
-196 -32 0
-196 190 0
196 32 -190 0
-197 -195 0
-197 -196 0
197 195 196 0
198 -1643 0
-198 1643 0
-199 197 0
-199 198 0
199 -197 -198 0
-200 194 0
-200 -199 0
200 -194 199 0
-201 -197 0
-201 -198 0
201 197 198 0
-202 200 0
-202 -201 0
202 -200 201 0
-203 47 0
-203 -198 0
203 -47 198 0
-204 -47 0
-204 198 0
204 47 -198 0
-205 -203 0
-205 -204 0
205 203 204 0
-206 202 0
-206 205 0
206 -202 -205 0
207 -1644 0
-207 1644 0
-208 37 0
-208 -207 0
208 -37 207 0
-209 206 0
-209 -208 0
209 -206 208 0
-210 -37 0
-210 207 0
210 37 -207 0
-211 209 0
-211 -210 0
211 -209 210 0
31 -1605 0
-31 1605 0
-212 31 0
-212 -207 0
212 -31 207 0
-213 -31 0
-213 207 0
213 31 -207 0
-214 -212 0
-214 -213 0
214 212 213 0
215 -1645 0
-215 1645 0
-216 214 0
-216 215 0
216 -214 -215 0
-217 211 0
-217 -216 0
217 -211 216 0
-218 -214 0
-218 -215 0
218 214 215 0
-219 217 0
-219 -218 0
219 -217 218 0
-220 40 0
-220 -215 0
220 -40 215 0
-221 -40 0
-221 215 0
221 40 -215 0
-222 -220 0
-222 -221 0
222 220 221 0
-223 219 0
-223 222 0
223 -219 -222 0
-226 223 0
-226 -225 0
226 -223 225 0
-228 226 0
-228 -227 0
228 -226 227 0
-229 30 0
-229 -224 0
229 -30 224 0
-230 -30 0
-230 224 0
230 30 -224 0
-231 -229 0
-231 -230 0
231 229 230 0
232 -1647 0
-232 1647 0
-233 231 0
-233 232 0
233 -231 -232 0
-234 228 0
-234 -233 0
234 -228 233 0
-235 -231 0
-235 -232 0
235 231 232 0
-236 234 0
-236 -235 0
236 -234 235 0
-237 39 0
-237 -232 0
237 -39 232 0
-238 -39 0
-238 232 0
238 39 -232 0
-239 -237 0
-239 -238 0
239 237 238 0
-240 236 0
-240 239 0
240 -236 -239 0
-243 240 0
-243 -242 0
243 -240 242 0
-245 243 0
-245 -244 0
245 -243 244 0
-246 29 0
-246 -241 0
246 -29 241 0
-247 -29 0
-247 241 0
247 29 -241 0
-248 -246 0
-248 -247 0
248 246 247 0
249 -1649 0
-249 1649 0
-250 248 0
-250 249 0
250 -248 -249 0
-251 245 0
-251 -250 0
251 -245 250 0
-252 -248 0
-252 -249 0
252 248 249 0
-253 251 0
-253 -252 0
253 -251 252 0
-254 38 0
-254 -249 0
254 -38 249 0
-255 -38 0
-255 249 0
255 38 -249 0
-256 -254 0
-256 -255 0
256 254 255 0
-257 253 0
-257 256 0
257 -253 -256 0
-260 257 0
-260 -259 0
260 -257 259 0
-262 260 0
-262 -261 0
262 -260 261 0
-263 28 0
-263 -258 0
263 -28 258 0
-264 -28 0
-264 258 0
264 28 -258 0
-265 -263 0
-265 -264 0
265 263 264 0
266 -1651 0
-266 1651 0
-267 265 0
-267 266 0
267 -265 -266 0
-268 262 0
-268 -267 0
268 -262 267 0
-269 -265 0
-269 -266 0
269 265 266 0
-270 268 0
-270 -269 0
270 -268 269 0
-271 43 0
-271 -266 0
271 -43 266 0
-272 -43 0
-272 266 0
272 43 -266 0
-273 -271 0
-273 -272 0
273 271 272 0
-274 270 0
-274 273 0
274 -270 -273 0
-277 274 0
-277 -276 0
277 -274 276 0
-279 277 0
-279 -278 0
279 -277 278 0
-280 27 0
-280 -275 0
280 -27 275 0
-281 -27 0
-281 275 0
281 27 -275 0
-282 -280 0
-282 -281 0
282 280 281 0
283 -1653 0
-283 1653 0
-284 282 0
-284 283 0
284 -282 -283 0
-285 279 0
-285 -284 0
285 -279 284 0
-286 -282 0
-286 -283 0
286 282 283 0
-287 285 0
-287 -286 0
287 -285 286 0
-288 42 0
-288 -283 0
288 -42 283 0
-289 -42 0
-289 283 0
289 42 -283 0
-290 -288 0
-290 -289 0
290 288 289 0
-291 287 0
-291 290 0
291 -287 -290 0
-294 291 0
-294 -293 0
294 -291 293 0
-296 294 0
-296 -295 0
296 -294 295 0
-297 26 0
-297 -292 0
297 -26 292 0
-298 -26 0
-298 292 0
298 26 -292 0
-299 -297 0
-299 -298 0
299 297 298 0
300 -1655 0
-300 1655 0
-301 299 0
-301 300 0
301 -299 -300 0
-302 296 0
-302 -301 0
302 -296 301 0
-303 -299 0
-303 -300 0
303 299 300 0
-304 302 0
-304 -303 0
304 -302 303 0
-305 41 0
-305 -300 0
305 -41 300 0
-306 -41 0
-306 300 0
306 41 -300 0
-307 -305 0
-307 -306 0
307 305 306 0
-308 304 0
-308 307 0
308 -304 -307 0
309 -1656 0
-309 1656 0
-310 31 0
-310 -309 0
310 -31 309 0
-311 308 0
-311 -310 0
311 -308 310 0
-312 -31 0
-312 309 0
312 31 -309 0
-313 311 0
-313 -312 0
313 -311 312 0
25 -1599 0
-25 1599 0
-314 25 0
-314 -309 0
314 -25 309 0
-315 -25 0
-315 309 0
315 25 -309 0
-316 -314 0
-316 -315 0
316 314 315 0
317 -1657 0
-317 1657 0
-318 316 0
-318 317 0
318 -316 -317 0
-319 313 0
-319 -318 0
319 -313 318 0
-320 -316 0
-320 -317 0
320 316 317 0
-321 319 0
-321 -320 0
321 -319 320 0
-322 34 0
-322 -317 0
322 -34 317 0
-323 -34 0
-323 317 0
323 34 -317 0
-324 -322 0
-324 -323 0
324 322 323 0
-325 321 0
-325 324 0
325 -321 -324 0
-328 325 0
-328 -327 0
328 -325 327 0
-330 328 0
-330 -329 0
330 -328 329 0
-331 24 0
-331 -326 0
331 -24 326 0
-332 -24 0
-332 326 0
332 24 -326 0
-333 -331 0
-333 -332 0
333 331 332 0
334 -1659 0
-334 1659 0
-335 333 0
-335 334 0
335 -333 -334 0
-336 330 0
-336 -335 0
336 -330 335 0
-337 -333 0
-337 -334 0
337 333 334 0
-338 336 0
-338 -337 0
338 -336 337 0
-339 33 0
-339 -334 0
339 -33 334 0
-340 -33 0
-340 334 0
340 33 -334 0
-341 -339 0
-341 -340 0
341 339 340 0
-342 338 0
-342 341 0
342 -338 -341 0
-345 342 0
-345 -344 0
345 -342 344 0
-347 345 0
-347 -346 0
347 -345 346 0
-348 23 0
-348 -343 0
348 -23 343 0
-349 -23 0
-349 343 0
349 23 -343 0
-350 -348 0
-350 -349 0
350 348 349 0
351 -1661 0
-351 1661 0
-352 350 0
-352 351 0
352 -350 -351 0
-353 347 0
-353 -352 0
353 -347 352 0
-354 -350 0
-354 -351 0
354 350 351 0
-355 353 0
-355 -354 0
355 -353 354 0
-356 32 0
-356 -351 0
356 -32 351 0
-357 -32 0
-357 351 0
357 32 -351 0
-358 -356 0
-358 -357 0
358 356 357 0
-359 355 0
-359 358 0
359 -355 -358 0
-362 359 0
-362 -361 0
362 -359 361 0
-364 362 0
-364 -363 0
364 -362 363 0
-365 22 0
-365 -360 0
365 -22 360 0
-366 -22 0
-366 360 0
366 22 -360 0
-367 -365 0
-367 -366 0
367 365 366 0
368 -1663 0
-368 1663 0
-369 367 0
-369 368 0
369 -367 -368 0
-370 364 0
-370 -369 0
370 -364 369 0
-371 -367 0
-371 -368 0
371 367 368 0
-372 370 0
-372 -371 0
372 -370 371 0
-373 37 0
-373 -368 0
373 -37 368 0
-374 -37 0
-374 368 0
374 37 -368 0
-375 -373 0
-375 -374 0
375 373 374 0
-376 372 0
-376 375 0
376 -372 -375 0
-379 376 0
-379 -378 0
379 -376 378 0
-381 379 0
-381 -380 0
381 -379 380 0
-382 21 0
-382 -377 0
382 -21 377 0
-383 -21 0
-383 377 0
383 21 -377 0
-384 -382 0
-384 -383 0
384 382 383 0
385 -1665 0
-385 1665 0
-386 384 0
-386 385 0
386 -384 -385 0
-387 381 0
-387 -386 0
387 -381 386 0
-388 -384 0
-388 -385 0
388 384 385 0
-389 387 0
-389 -388 0
389 -387 388 0
-390 36 0
-390 -385 0
390 -36 385 0
-391 -36 0
-391 385 0
391 36 -385 0
-392 -390 0
-392 -391 0
392 390 391 0
-393 389 0
-393 392 0
393 -389 -392 0
-396 393 0
-396 -395 0
396 -393 395 0
-398 396 0
-398 -397 0
398 -396 397 0
-399 20 0
-399 -394 0
399 -20 394 0
-400 -20 0
-400 394 0
400 20 -394 0
-401 -399 0
-401 -400 0
401 399 400 0
402 -1667 0
-402 1667 0
-403 401 0
-403 402 0
403 -401 -402 0
-404 398 0
-404 -403 0
404 -398 403 0
-405 -401 0
-405 -402 0
405 401 402 0
-406 404 0
-406 -405 0
406 -404 405 0
-407 35 0
-407 -402 0
407 -35 402 0
-408 -35 0
-408 402 0
408 35 -402 0
-409 -407 0
-409 -408 0
409 407 408 0
-410 406 0
-410 409 0
410 -406 -409 0
411 -1668 0
-411 1668 0
-412 25 0
-412 -411 0
412 -25 411 0
-413 410 0
-413 -412 0
413 -410 412 0
-414 -25 0
-414 411 0
414 25 -411 0
-415 413 0
-415 -414 0
415 -413 414 0
-416 19 0
-416 -411 0
416 -19 411 0
-417 -19 0
-417 411 0
417 19 -411 0
-418 -416 0
-418 -417 0
418 416 417 0
419 -1669 0
-419 1669 0
-420 418 0
-420 419 0
420 -418 -419 0
-421 415 0
-421 -420 0
421 -415 420 0
-422 -418 0
-422 -419 0
422 418 419 0
-423 421 0
-423 -422 0
423 -421 422 0
-424 28 0
-424 -419 0
424 -28 419 0
-425 -28 0
-425 419 0
425 28 -419 0
-426 -424 0
-426 -425 0
426 424 425 0
-427 423 0
-427 426 0
427 -423 -426 0
-430 427 0
-430 -429 0
430 -427 429 0
-432 430 0
-432 -431 0
432 -430 431 0
-433 18 0
-433 -428 0
433 -18 428 0
-434 -18 0
-434 428 0
434 18 -428 0
-435 -433 0
-435 -434 0
435 433 434 0
436 -1671 0
-436 1671 0
-437 435 0
-437 436 0
437 -435 -436 0
-438 432 0
-438 -437 0
438 -432 437 0
-439 -435 0
-439 -436 0
439 435 436 0
-440 438 0
-440 -439 0
440 -438 439 0
-441 27 0
-441 -436 0
441 -27 436 0
-442 -27 0
-442 436 0
442 27 -436 0
-443 -441 0
-443 -442 0
443 441 442 0
-444 440 0
-444 443 0
444 -440 -443 0
-447 444 0
-447 -446 0
447 -444 446 0
-449 447 0
-449 -448 0
449 -447 448 0
-450 17 0
-450 -445 0
450 -17 445 0
-451 -17 0
-451 445 0
451 17 -445 0
-452 -450 0
-452 -451 0
452 450 451 0
453 -1673 0
-453 1673 0
-454 452 0
-454 453 0
454 -452 -453 0
-455 449 0
-455 -454 0
455 -449 454 0
-456 -452 0
-456 -453 0
456 452 453 0
-457 455 0
-457 -456 0
457 -455 456 0
-458 26 0
-458 -453 0
458 -26 453 0
-459 -26 0
-459 453 0
459 26 -453 0
-460 -458 0
-460 -459 0
460 458 459 0
-461 457 0
-461 460 0
461 -457 -460 0
-464 461 0
-464 -463 0
464 -461 463 0
-466 464 0
-466 -465 0
466 -464 465 0
-467 16 0
-467 -462 0
467 -16 462 0
-468 -16 0
-468 462 0
468 16 -462 0
-469 -467 0
-469 -468 0
469 467 468 0
470 -1675 0
-470 1675 0
-471 469 0
-471 470 0
471 -469 -470 0
-472 466 0
-472 -471 0
472 -466 471 0
-473 -469 0
-473 -470 0
473 469 470 0
-474 472 0
-474 -473 0
474 -472 473 0
-475 31 0
-475 -470 0
475 -31 470 0
-476 -31 0
-476 470 0
476 31 -470 0
-477 -475 0
-477 -476 0
477 475 476 0
-478 474 0
-478 477 0
478 -474 -477 0
-481 478 0
-481 -480 0
481 -478 480 0
-483 481 0
-483 -482 0
483 -481 482 0
-484 15 0
-484 -479 0
484 -15 479 0
-485 -15 0
-485 479 0
485 15 -479 0
-486 -484 0
-486 -485 0
486 484 485 0
487 -1677 0
-487 1677 0
-488 486 0
-488 487 0
488 -486 -487 0
-489 483 0
-489 -488 0
489 -483 488 0
-490 -486 0
-490 -487 0
490 486 487 0
-491 489 0
-491 -490 0
491 -489 490 0
-492 30 0
-492 -487 0
492 -30 487 0
-493 -30 0
-493 487 0
493 30 -487 0
-494 -492 0
-494 -493 0
494 492 493 0
-495 491 0
-495 494 0
495 -491 -494 0
-498 495 0
-498 -497 0
498 -495 497 0
-500 498 0
-500 -499 0
500 -498 499 0
14 -1588 0
-14 1588 0
-501 14 0
-501 -496 0
501 -14 496 0
-502 -14 0
-502 496 0
502 14 -496 0
-503 -501 0
-503 -502 0
503 501 502 0
504 -1679 0
-504 1679 0
-505 503 0
-505 504 0
505 -503 -504 0
-506 500 0
-506 -505 0
506 -500 505 0
-507 -503 0
-507 -504 0
507 503 504 0
-508 506 0
-508 -507 0
508 -506 507 0
-509 29 0
-509 -504 0
509 -29 504 0
-510 -29 0
-510 504 0
510 29 -504 0
-511 -509 0
-511 -510 0
511 509 510 0
-512 508 0
-512 511 0
512 -508 -511 0
-515 512 0
-515 -514 0
515 -512 514 0
-517 515 0
-517 -516 0
517 -515 516 0
-518 13 0
-518 -513 0
518 -13 513 0
-519 -13 0
-519 513 0
519 13 -513 0
-520 -518 0
-520 -519 0
520 518 519 0
521 -1681 0
-521 1681 0
-522 520 0
-522 521 0
522 -520 -521 0
-523 517 0
-523 -522 0
523 -517 522 0
-524 -520 0
-524 -521 0
524 520 521 0
-525 523 0
-525 -524 0
525 -523 524 0
-526 22 0
-526 -521 0
526 -22 521 0
-527 -22 0
-527 521 0
527 22 -521 0
-528 -526 0
-528 -527 0
528 526 527 0
-529 525 0
-529 528 0
529 -525 -528 0
-532 529 0
-532 -531 0
532 -529 531 0
-534 532 0
-534 -533 0
534 -532 533 0
-535 12 0
-535 -530 0
535 -12 530 0
-536 -12 0
-536 530 0
536 12 -530 0
-537 -535 0
-537 -536 0
537 535 536 0
538 -1683 0
-538 1683 0
-539 537 0
-539 538 0
539 -537 -538 0
-540 534 0
-540 -539 0
540 -534 539 0
-541 -537 0
-541 -538 0
541 537 538 0
-542 540 0
-542 -541 0
542 -540 541 0
-543 21 0
-543 -538 0
543 -21 538 0
-544 -21 0
-544 538 0
544 21 -538 0
-545 -543 0
-545 -544 0
545 543 544 0
-546 542 0
-546 545 0
546 -542 -545 0
-549 546 0
-549 -548 0
549 -546 548 0
-551 549 0
-551 -550 0
551 -549 550 0
-552 11 0
-552 -547 0
552 -11 547 0
-553 -11 0
-553 547 0
553 11 -547 0
-554 -552 0
-554 -553 0
554 552 553 0
555 -1685 0
-555 1685 0
-556 554 0
-556 555 0
556 -554 -555 0
-557 551 0
-557 -556 0
557 -551 556 0
-558 -554 0
-558 -555 0
558 554 555 0
-559 557 0
-559 -558 0
559 -557 558 0
-560 20 0
-560 -555 0
560 -20 555 0
-561 -20 0
-561 555 0
561 20 -555 0
-562 -560 0
-562 -561 0
562 560 561 0
-563 559 0
-563 562 0
563 -559 -562 0
-566 563 0
-566 -565 0
566 -563 565 0
-568 566 0
-568 -567 0
568 -566 567 0
-569 10 0
-569 -564 0
569 -10 564 0
-570 -10 0
-570 564 0
570 10 -564 0
-571 -569 0
-571 -570 0
571 569 570 0
572 -1687 0
-572 1687 0
-573 571 0
-573 572 0
573 -571 -572 0
-574 568 0
-574 -573 0
574 -568 573 0
-575 -571 0
-575 -572 0
575 571 572 0
-576 574 0
-576 -575 0
576 -574 575 0
-577 25 0
-577 -572 0
577 -25 572 0
-578 -25 0
-578 572 0
578 25 -572 0
-579 -577 0
-579 -578 0
579 577 578 0
-580 576 0
-580 579 0
580 -576 -579 0
-583 580 0
-583 -582 0
583 -580 582 0
-585 583 0
-585 -584 0
585 -583 584 0
-586 9 0
-586 -581 0
586 -9 581 0
-587 -9 0
-587 581 0
587 9 -581 0
-588 -586 0
-588 -587 0
588 586 587 0
589 -1689 0
-589 1689 0
-590 588 0
-590 589 0
590 -588 -589 0
-591 585 0
-591 -590 0
591 -585 590 0
-592 -588 0
-592 -589 0
592 588 589 0
-593 591 0
-593 -592 0
593 -591 592 0
-594 24 0
-594 -589 0
594 -24 589 0
-595 -24 0
-595 589 0
595 24 -589 0
-596 -594 0
-596 -595 0
596 594 595 0
-597 593 0
-597 596 0
597 -593 -596 0
598 -1690 0
-598 1690 0
-599 14 0
-599 -598 0
599 -14 598 0
-600 597 0
-600 -599 0
600 -597 599 0
-601 -14 0
-601 598 0
601 14 -598 0
-602 600 0
-602 -601 0
602 -600 601 0
-603 8 0
-603 -598 0
603 -8 598 0
-604 -8 0
-604 598 0
604 8 -598 0
-605 -603 0
-605 -604 0
605 603 604 0
606 -1691 0
-606 1691 0
-607 605 0
-607 606 0
607 -605 -606 0
-608 602 0
-608 -607 0
608 -602 607 0
-609 -605 0
-609 -606 0
609 605 606 0
-610 608 0
-610 -609 0
610 -608 609 0
-611 23 0
-611 -606 0
611 -23 606 0
-612 -23 0
-612 606 0
612 23 -606 0
-613 -611 0
-613 -612 0
613 611 612 0
-614 610 0
-614 613 0
614 -610 -613 0
-617 614 0
-617 -616 0
617 -614 616 0
-619 617 0
-619 -618 0
619 -617 618 0
-620 7 0
-620 -615 0
620 -7 615 0
-621 -7 0
-621 615 0
621 7 -615 0
-622 -620 0
-622 -621 0
622 620 621 0
623 -1693 0
-623 1693 0
-624 622 0
-624 623 0
624 -622 -623 0
-625 619 0
-625 -624 0
625 -619 624 0
-626 -622 0
-626 -623 0
626 622 623 0
-627 625 0
-627 -626 0
627 -625 626 0
-628 16 0
-628 -623 0
628 -16 623 0
-629 -16 0
-629 623 0
629 16 -623 0
-630 -628 0
-630 -629 0
630 628 629 0
-631 627 0
-631 630 0
631 -627 -630 0
-634 631 0
-634 -633 0
634 -631 633 0
-636 634 0
-636 -635 0
636 -634 635 0
6 -1580 0
-6 1580 0
-637 6 0
-637 -632 0
637 -6 632 0
-638 -6 0
-638 632 0
638 6 -632 0
-639 -637 0
-639 -638 0
639 637 638 0
640 -1695 0
-640 1695 0
-641 639 0
-641 640 0
641 -639 -640 0
-642 636 0
-642 -641 0
642 -636 641 0
-643 -639 0
-643 -640 0
643 639 640 0
-644 642 0
-644 -643 0
644 -642 643 0
-645 15 0
-645 -640 0
645 -15 640 0
-646 -15 0
-646 640 0
646 15 -640 0
-647 -645 0
-647 -646 0
647 645 646 0
-648 644 0
-648 647 0
648 -644 -647 0
-651 648 0
-651 -650 0
651 -648 650 0
-653 651 0
-653 -652 0
653 -651 652 0
5 -1579 0
-5 1579 0
-654 5 0
-654 -649 0
654 -5 649 0
-655 -5 0
-655 649 0
655 5 -649 0
-656 -654 0
-656 -655 0
656 654 655 0
657 -1697 0
-657 1697 0
-658 656 0
-658 657 0
658 -656 -657 0
-659 653 0
-659 -658 0
659 -653 658 0
-660 -656 0
-660 -657 0
660 656 657 0
-661 659 0
-661 -660 0
661 -659 660 0
-662 14 0
-662 -657 0
662 -14 657 0
-663 -14 0
-663 657 0
663 14 -657 0
-664 -662 0
-664 -663 0
664 662 663 0
-665 661 0
-665 664 0
665 -661 -664 0
-668 665 0
-668 -667 0
668 -665 667 0
-670 668 0
-670 -669 0
670 -668 669 0
-671 4 0
-671 -666 0
671 -4 666 0
-672 -4 0
-672 666 0
672 4 -666 0
-673 -671 0
-673 -672 0
673 671 672 0
674 -1699 0
-674 1699 0
-675 673 0
-675 674 0
675 -673 -674 0
-676 670 0
-676 -675 0
676 -670 675 0
-677 -673 0
-677 -674 0
677 673 674 0
-678 676 0
-678 -677 0
678 -676 677 0
-679 19 0
-679 -674 0
679 -19 674 0
-680 -19 0
-680 674 0
680 19 -674 0
-681 -679 0
-681 -680 0
681 679 680 0
-682 678 0
-682 681 0
682 -678 -681 0
-685 682 0
-685 -684 0
685 -682 684 0
-687 685 0
-687 -686 0
687 -685 686 0
-688 3 0
-688 -683 0
688 -3 683 0
-689 -3 0
-689 683 0
689 3 -683 0
-690 -688 0
-690 -689 0
690 688 689 0
691 -1701 0
-691 1701 0
-692 690 0
-692 691 0
692 -690 -691 0
-693 687 0
-693 -692 0
693 -687 692 0
-694 -690 0
-694 -691 0
694 690 691 0
-695 693 0
-695 -694 0
695 -693 694 0
-696 18 0
-696 -691 0
696 -18 691 0
-697 -18 0
-697 691 0
697 18 -691 0
-698 -696 0
-698 -697 0
698 696 697 0
-699 695 0
-699 698 0
699 -695 -698 0
-702 699 0
-702 -701 0
702 -699 701 0
-704 702 0
-704 -703 0
704 -702 703 0
2 -1576 0
-2 1576 0
-705 2 0
-705 -700 0
705 -2 700 0
-706 -2 0
-706 700 0
706 2 -700 0
-707 -705 0
-707 -706 0
707 705 706 0
708 -1703 0
-708 1703 0
-709 707 0
-709 708 0
709 -707 -708 0
-710 704 0
-710 -709 0
710 -704 709 0
-711 -707 0
-711 -708 0
711 707 708 0
-712 710 0
-712 -711 0
712 -710 711 0
-713 17 0
-713 -708 0
713 -17 708 0
-714 -17 0
-714 708 0
714 17 -708 0
-715 -713 0
-715 -714 0
715 713 714 0
-716 712 0
-716 715 0
716 -712 -715 0
-717 -667 0
-717 716 0
717 667 -716 0
-718 -669 0
-718 717 0
718 669 -717 0
-719 7 0
-719 -666 0
719 -7 666 0
-720 -7 0
-720 666 0
720 7 -666 0
-721 -719 0
-721 -720 0
721 719 720 0
-722 718 0
-722 721 0
722 -718 -721 0
-723 -684 0
-723 722 0
723 684 -722 0
-724 -686 0
-724 723 0
724 686 -723 0
-725 6 0
-725 -683 0
725 -6 683 0
-726 -6 0
-726 683 0
726 6 -683 0
-727 -725 0
-727 -726 0
727 725 726 0
-728 724 0
-728 727 0
728 -724 -727 0
-729 -701 0
-729 728 0
729 701 -728 0
-730 -703 0
-730 729 0
730 703 -729 0
-731 5 0
-731 -700 0
731 -5 700 0
-732 -5 0
-732 700 0
732 5 -700 0
-733 -731 0
-733 -732 0
733 731 732 0
734 -1704 0
-734 1704 0
-735 733 0
-735 734 0
735 -733 -734 0
-736 730 0
-736 -735 0
736 -730 735 0
-737 -733 0
-737 -734 0
737 733 734 0
-738 736 0
-738 -737 0
738 -736 737 0
-739 51 0
-739 -734 0
739 -51 734 0
-740 -51 0
-740 734 0
740 51 -734 0
-741 -739 0
-741 -740 0
741 739 740 0
-742 738 0
-742 741 0
742 -738 -741 0
-743 -616 0
-743 742 0
743 616 -742 0
-744 -618 0
-744 743 0
744 618 -743 0
-745 4 0
-745 -615 0
745 -4 615 0
-746 -4 0
-746 615 0
746 4 -615 0
-747 -745 0
-747 -746 0
747 745 746 0
748 -1705 0
-748 1705 0
-749 747 0
-749 748 0
749 -747 -748 0
-750 744 0
-750 -749 0
750 -744 749 0
-751 -747 0
-751 -748 0
751 747 748 0
-752 750 0
-752 -751 0
752 -750 751 0
-753 50 0
-753 -748 0
753 -50 748 0
-754 -50 0
-754 748 0
754 50 -748 0
-755 -753 0
-755 -754 0
755 753 754 0
-756 752 0
-756 755 0
756 -752 -755 0
-757 -633 0
-757 756 0
757 633 -756 0
-758 -635 0
-758 757 0
758 635 -757 0
-759 3 0
-759 -632 0
759 -3 632 0
-760 -3 0
-760 632 0
760 3 -632 0
-761 -759 0
-761 -760 0
761 759 760 0
762 -1706 0
-762 1706 0
-763 761 0
-763 762 0
763 -761 -762 0
-764 758 0
-764 -763 0
764 -758 763 0
-765 -761 0
-765 -762 0
765 761 762 0
-766 764 0
-766 -765 0
766 -764 765 0
-767 49 0
-767 -762 0
767 -49 762 0
-768 -49 0
-768 762 0
768 49 -762 0
-769 -767 0
-769 -768 0
769 767 768 0
-770 766 0
-770 769 0
770 -766 -769 0
-771 -650 0
-771 770 0
771 650 -770 0
-772 -652 0
-772 771 0
772 652 -771 0
-773 2 0
-773 -649 0
773 -2 649 0
-774 -2 0
-774 649 0
774 2 -649 0
-775 -773 0
-775 -774 0
775 773 774 0
776 -1707 0
-776 1707 0
-777 775 0
-777 776 0
777 -775 -776 0
-778 772 0
-778 -777 0
778 -772 777 0
-779 -775 0
-779 -776 0
779 775 776 0
-780 778 0
-780 -779 0
780 -778 779 0
-781 48 0
-781 -776 0
781 -48 776 0
-782 -48 0
-782 776 0
782 48 -776 0
-783 -781 0
-783 -782 0
783 781 782 0
-784 780 0
-784 783 0
784 -780 -783 0
-785 -4 0
-785 784 0
785 4 -784 0
-786 -3 0
-786 785 0
786 3 -785 0
-787 -70 0
-787 786 0
787 70 -786 0
-788 -72 0
-788 787 0
788 72 -787 0
-789 2 0
-789 -69 0
789 -2 69 0
-790 -2 0
-790 69 0
790 2 -69 0
-791 -789 0
-791 -790 0
791 789 790 0
792 -1708 0
-792 1708 0
-793 791 0
-793 792 0
793 -791 -792 0
-794 788 0
-794 -793 0
794 -788 793 0
-795 -791 0
-795 -792 0
795 791 792 0
-796 794 0
-796 -795 0
796 -794 795 0
-797 51 0
-797 -792 0
797 -51 792 0
-798 -51 0
-798 792 0
798 51 -792 0
-799 -797 0
-799 -798 0
799 797 798 0
-800 796 0
-800 799 0
800 -796 -799 0
-801 -87 0
-801 800 0
801 87 -800 0
-802 -89 0
-802 801 0
802 89 -801 0
-803 7 0
-803 -86 0
803 -7 86 0
-804 -7 0
-804 86 0
804 7 -86 0
-805 -803 0
-805 -804 0
805 803 804 0
806 -1709 0
-806 1709 0
-807 805 0
-807 806 0
807 -805 -806 0
-808 802 0
-808 -807 0
808 -802 807 0
-809 -805 0
-809 -806 0
809 805 806 0
-810 808 0
-810 -809 0
810 -808 809 0
-811 50 0
-811 -806 0
811 -50 806 0
-812 -50 0
-812 806 0
812 50 -806 0
-813 -811 0
-813 -812 0
813 811 812 0
-814 810 0
-814 813 0
814 -810 -813 0
-815 -96 0
-815 814 0
815 96 -814 0
-816 -98 0
-816 815 0
816 98 -815 0
-817 6 0
-817 -95 0
817 -6 95 0
-818 -6 0
-818 95 0
818 6 -95 0
-819 -817 0
-819 -818 0
819 817 818 0
820 -1710 0
-820 1710 0
-821 819 0
-821 820 0
821 -819 -820 0
-822 816 0
-822 -821 0
822 -816 821 0
-823 -819 0
-823 -820 0
823 819 820 0
-824 822 0
-824 -823 0
824 -822 823 0
-825 49 0
-825 -820 0
825 -49 820 0
-826 -49 0
-826 820 0
826 49 -820 0
-827 -825 0
-827 -826 0
827 825 826 0
-828 824 0
-828 827 0
828 -824 -827 0
-829 -105 0
-829 828 0
829 105 -828 0
-830 -107 0
-830 829 0
830 107 -829 0
-831 5 0
-831 -104 0
831 -5 104 0
-832 -5 0
-832 104 0
832 5 -104 0
-833 -831 0
-833 -832 0
833 831 832 0
834 -1711 0
-834 1711 0
-835 833 0
-835 834 0
835 -833 -834 0
-836 830 0
-836 -835 0
836 -830 835 0
-837 -833 0
-837 -834 0
837 833 834 0
-838 836 0
-838 -837 0
838 -836 837 0
-839 48 0
-839 -834 0
839 -48 834 0
-840 -48 0
-840 834 0
840 48 -834 0
-841 -839 0
-841 -840 0
841 839 840 0
-842 838 0
-842 841 0
842 -838 -841 0
843 -1712 0
-843 1712 0
-844 51 0
-844 -843 0
844 -51 843 0
-845 842 0
-845 -844 0
845 -842 844 0
-846 -51 0
-846 843 0
846 51 -843 0
-847 845 0
-847 -846 0
847 -845 846 0
-848 37 0
-848 -843 0
848 -37 843 0
-849 -37 0
-849 843 0
849 37 -843 0
-850 -848 0
-850 -849 0
850 848 849 0
-851 847 0
-851 850 0
851 -847 -850 0
-852 -53 0
-852 851 0
852 53 -851 0
-853 -54 0
-853 852 0
853 54 -852 0
-854 36 0
-854 -52 0
854 -36 52 0
-855 -36 0
-855 52 0
855 36 -52 0
-856 -854 0
-856 -855 0
856 854 855 0
857 -1713 0
-857 1713 0
-858 856 0
-858 857 0
858 -856 -857 0
-859 853 0
-859 -858 0
859 -853 858 0
-860 -856 0
-860 -857 0
860 856 857 0
-861 859 0
-861 -860 0
861 -859 860 0
-862 51 0
-862 -857 0
862 -51 857 0
-863 -51 0
-863 857 0
863 51 -857 0
-864 -862 0
-864 -863 0
864 862 863 0
-865 861 0
-865 864 0
865 -861 -864 0
-866 -61 0
-866 865 0
866 61 -865 0
-867 -63 0
-867 866 0
867 63 -866 0
-868 35 0
-868 -60 0
868 -35 60 0
-869 -35 0
-869 60 0
869 35 -60 0
-870 -868 0
-870 -869 0
870 868 869 0
871 -1714 0
-871 1714 0
-872 870 0
-872 871 0
872 -870 -871 0
-873 867 0
-873 -872 0
873 -867 872 0
-874 -870 0
-874 -871 0
874 870 871 0
-875 873 0
-875 -874 0
875 -873 874 0
-876 50 0
-876 -871 0
876 -50 871 0
-877 -50 0
-877 871 0
877 50 -871 0
-878 -876 0
-878 -877 0
878 876 877 0
-879 875 0
-879 878 0
879 -875 -878 0
-882 879 0
-882 -881 0
882 -879 881 0
-884 882 0
-884 -883 0
884 -882 883 0
-885 34 0
-885 -880 0
885 -34 880 0
-886 -34 0
-886 880 0
886 34 -880 0
-887 -885 0
-887 -886 0
887 885 886 0
888 -1716 0
-888 1716 0
-889 887 0
-889 888 0
889 -887 -888 0
-890 884 0
-890 -889 0
890 -884 889 0
-891 -887 0
-891 -888 0
891 887 888 0
-892 890 0
-892 -891 0
892 -890 891 0
-893 49 0
-893 -888 0
893 -49 888 0
-894 -49 0
-894 888 0
894 49 -888 0
-895 -893 0
-895 -894 0
895 893 894 0
-896 892 0
-896 895 0
896 -892 -895 0
-897 -881 0
-897 896 0
897 881 -896 0
-898 -883 0
-898 897 0
898 883 -897 0
-899 33 0
-899 -880 0
899 -33 880 0
-900 -33 0
-900 880 0
900 33 -880 0
-901 -899 0
-901 -900 0
901 899 900 0
-902 898 0
-902 901 0
902 -898 -901 0
-903 -32 0
-903 902 0
903 32 -902 0
-904 -70 0
-904 903 0
904 70 -903 0
-905 -72 0
-905 904 0
905 72 -904 0
-906 31 0
-906 -69 0
906 -31 69 0
-907 -31 0
-907 69 0
907 31 -69 0
-908 -906 0
-908 -907 0
908 906 907 0
-909 905 0
-909 908 0
909 -905 -908 0
-910 -87 0
-910 909 0
910 87 -909 0
-911 -89 0
-911 910 0
911 89 -910 0
-912 30 0
-912 -86 0
912 -30 86 0
-913 -30 0
-913 86 0
913 30 -86 0
-914 -912 0
-914 -913 0
914 912 913 0
915 -1717 0
-915 1717 0
-916 914 0
-916 915 0
916 -914 -915 0
-917 911 0
-917 -916 0
917 -911 916 0
-918 -914 0
-918 -915 0
918 914 915 0
-919 917 0
-919 -918 0
919 -917 918 0
-920 47 0
-920 -915 0
920 -47 915 0
-921 -47 0
-921 915 0
921 47 -915 0
-922 -920 0
-922 -921 0
922 920 921 0
-923 919 0
-923 922 0
923 -919 -922 0
-924 -96 0
-924 923 0
924 96 -923 0
-925 -98 0
-925 924 0
925 98 -924 0
-926 29 0
-926 -95 0
926 -29 95 0
-927 -29 0
-927 95 0
927 29 -95 0
-928 -926 0
-928 -927 0
928 926 927 0
929 -1718 0
-929 1718 0
-930 928 0
-930 929 0
930 -928 -929 0
-931 925 0
-931 -930 0
931 -925 930 0
-932 -928 0
-932 -929 0
932 928 929 0
-933 931 0
-933 -932 0
933 -931 932 0
-934 46 0
-934 -929 0
934 -46 929 0
-935 -46 0
-935 929 0
935 46 -929 0
-936 -934 0
-936 -935 0
936 934 935 0
-937 933 0
-937 936 0
937 -933 -936 0
-938 -105 0
-938 937 0
938 105 -937 0
-939 -107 0
-939 938 0
939 107 -938 0
-940 28 0
-940 -104 0
940 -28 104 0
-941 -28 0
-941 104 0
941 28 -104 0
-942 -940 0
-942 -941 0
942 940 941 0
943 -1719 0
-943 1719 0
-944 942 0
-944 943 0
944 -942 -943 0
-945 939 0
-945 -944 0
945 -939 944 0
-946 -942 0
-946 -943 0
946 942 943 0
-947 945 0
-947 -946 0
947 -945 946 0
-948 45 0
-948 -943 0
948 -45 943 0
-949 -45 0
-949 943 0
949 45 -943 0
-950 -948 0
-950 -949 0
950 948 949 0
-951 947 0
-951 950 0
951 -947 -950 0
-952 -105 0
-952 951 0
952 105 -951 0
-953 -107 0
-953 952 0
953 107 -952 0
-954 27 0
-954 -104 0
954 -27 104 0
-955 -27 0
-955 104 0
955 27 -104 0
-956 -954 0
-956 -955 0
956 954 955 0
-957 953 0
-957 956 0
957 -953 -956 0
-958 -26 0
-958 957 0
958 26 -957 0
-959 -156 0
-959 958 0
959 156 -958 0
-960 -158 0
-960 959 0
960 158 -959 0
-961 25 0
-961 -155 0
961 -25 155 0
-962 -25 0
-962 155 0
962 25 -155 0
-963 -961 0
-963 -962 0
963 961 962 0
964 -1720 0
-964 1720 0
-965 963 0
-965 964 0
965 -963 -964 0
-966 960 0
-966 -965 0
966 -960 965 0
-967 -963 0
-967 -964 0
967 963 964 0
-968 966 0
-968 -967 0
968 -966 967 0
-969 42 0
-969 -964 0
969 -42 964 0
-970 -42 0
-970 964 0
970 42 -964 0
-971 -969 0
-971 -970 0
971 969 970 0
-972 968 0
-972 971 0
972 -968 -971 0
-973 -173 0
-973 972 0
973 173 -972 0
-974 -175 0
-974 973 0
974 175 -973 0
-975 24 0
-975 -172 0
975 -24 172 0
-976 -24 0
-976 172 0
976 24 -172 0
-977 -975 0
-977 -976 0
977 975 976 0
978 -1721 0
-978 1721 0
-979 977 0
-979 978 0
979 -977 -978 0
-980 974 0
-980 -979 0
980 -974 979 0
-981 -977 0
-981 -978 0
981 977 978 0
-982 980 0
-982 -981 0
982 -980 981 0
-983 41 0
-983 -978 0
983 -41 978 0
-984 -41 0
-984 978 0
984 41 -978 0
-985 -983 0
-985 -984 0
985 983 984 0
-986 982 0
-986 985 0
986 -982 -985 0
-987 -182 0
-987 986 0
987 182 -986 0
-988 -184 0
-988 987 0
988 184 -987 0
-989 23 0
-989 -181 0
989 -23 181 0
-990 -23 0
-990 181 0
990 23 -181 0
-991 -989 0
-991 -990 0
991 989 990 0
992 -1722 0
-992 1722 0
-993 991 0
-993 992 0
993 -991 -992 0
-994 988 0
-994 -993 0
994 -988 993 0
-995 -991 0
-995 -992 0
995 991 992 0
-996 994 0
-996 -995 0
996 -994 995 0
-997 40 0
-997 -992 0
997 -40 992 0
-998 -40 0
-998 992 0
998 40 -992 0
-999 -997 0
-999 -998 0
999 997 998 0
-1000 996 0
-1000 999 0
1000 -996 -999 0
-1001 -191 0
-1001 1000 0
1001 191 -1000 0
-1002 -193 0
-1002 1001 0
1002 193 -1001 0
-1003 22 0
-1003 -190 0
1003 -22 190 0
-1004 -22 0
-1004 190 0
1004 22 -190 0
-1005 -1003 0
-1005 -1004 0
1005 1003 1004 0
1006 -1723 0
-1006 1723 0
-1007 1005 0
-1007 1006 0
1007 -1005 -1006 0
-1008 1002 0
-1008 -1007 0
1008 -1002 1007 0
-1009 -1005 0
-1009 -1006 0
1009 1005 1006 0
-1010 1008 0
-1010 -1009 0
1010 -1008 1009 0
-1011 39 0
-1011 -1006 0
1011 -39 1006 0
-1012 -39 0
-1012 1006 0
1012 39 -1006 0
-1013 -1011 0
-1013 -1012 0
1013 1011 1012 0
-1014 1010 0
-1014 1013 0
1014 -1010 -1013 0
-1015 -191 0
-1015 1014 0
1015 191 -1014 0
-1016 -193 0
-1016 1015 0
1016 193 -1015 0
-1017 21 0
-1017 -190 0
1017 -21 190 0
-1018 -21 0
-1018 190 0
1018 21 -190 0
-1019 -1017 0
-1019 -1018 0
1019 1017 1018 0
1020 -1724 0
-1020 1724 0
-1021 1019 0
-1021 1020 0
1021 -1019 -1020 0
-1022 1016 0
-1022 -1021 0
1022 -1016 1021 0
-1023 -1019 0
-1023 -1020 0
1023 1019 1020 0
-1024 1022 0
-1024 -1023 0
1024 -1022 1023 0
-1025 43 0
-1025 -1020 0
1025 -43 1020 0
-1026 -43 0
-1026 1020 0
1026 43 -1020 0
-1027 -1025 0
-1027 -1026 0
1027 1025 1026 0
-1028 1024 0
-1028 1027 0
1028 -1024 -1027 0
-1029 -139 0
-1029 1028 0
1029 139 -1028 0
-1030 -141 0
-1030 1029 0
1030 141 -1029 0
-1031 20 0
-1031 -138 0
1031 -20 138 0
-1032 -20 0
-1032 138 0
1032 20 -138 0
-1033 -1031 0
-1033 -1032 0
1033 1031 1032 0
1034 -1725 0
-1034 1725 0
-1035 1033 0
-1035 1034 0
1035 -1033 -1034 0
-1036 1030 0
-1036 -1035 0
1036 -1030 1035 0
-1037 -1033 0
-1037 -1034 0
1037 1033 1034 0
-1038 1036 0
-1038 -1037 0
1038 -1036 1037 0
-1039 43 0
-1039 -1034 0
1039 -43 1034 0
-1040 -43 0
-1040 1034 0
1040 43 -1034 0
-1041 -1039 0
-1041 -1040 0
1041 1039 1040 0
-1042 1038 0
-1042 1041 0
1042 -1038 -1041 0
-1043 -242 0
-1043 1042 0
1043 242 -1042 0
-1044 -244 0
-1044 1043 0
1044 244 -1043 0
-1045 19 0
-1045 -241 0
1045 -19 241 0
-1046 -19 0
-1046 241 0
1046 19 -241 0
-1047 -1045 0
-1047 -1046 0
1047 1045 1046 0
1048 -1726 0
-1048 1726 0
-1049 1047 0
-1049 1048 0
1049 -1047 -1048 0
-1050 1044 0
-1050 -1049 0
1050 -1044 1049 0
-1051 -1047 0
-1051 -1048 0
1051 1047 1048 0
-1052 1050 0
-1052 -1051 0
1052 -1050 1051 0
-1053 36 0
-1053 -1048 0
1053 -36 1048 0
-1054 -36 0
-1054 1048 0
1054 36 -1048 0
-1055 -1053 0
-1055 -1054 0
1055 1053 1054 0
-1056 1052 0
-1056 1055 0
1056 -1052 -1055 0
-1057 -259 0
-1057 1056 0
1057 259 -1056 0
-1058 -261 0
-1058 1057 0
1058 261 -1057 0
-1059 18 0
-1059 -258 0
1059 -18 258 0
-1060 -18 0
-1060 258 0
1060 18 -258 0
-1061 -1059 0
-1061 -1060 0
1061 1059 1060 0
1062 -1727 0
-1062 1727 0
-1063 1061 0
-1063 1062 0
1063 -1061 -1062 0
-1064 1058 0
-1064 -1063 0
1064 -1058 1063 0
-1065 -1061 0
-1065 -1062 0
1065 1061 1062 0
-1066 1064 0
-1066 -1065 0
1066 -1064 1065 0
-1067 35 0
-1067 -1062 0
1067 -35 1062 0
-1068 -35 0
-1068 1062 0
1068 35 -1062 0
-1069 -1067 0
-1069 -1068 0
1069 1067 1068 0
-1070 1066 0
-1070 1069 0
1070 -1066 -1069 0
-1071 -276 0
-1071 1070 0
1071 276 -1070 0
-1072 -278 0
-1072 1071 0
1072 278 -1071 0
-1073 17 0
-1073 -275 0
1073 -17 275 0
-1074 -17 0
-1074 275 0
1074 17 -275 0
-1075 -1073 0
-1075 -1074 0
1075 1073 1074 0
1076 -1728 0
-1076 1728 0
-1077 1075 0
-1077 1076 0
1077 -1075 -1076 0
-1078 1072 0
-1078 -1077 0
1078 -1072 1077 0
-1079 -1075 0
-1079 -1076 0
1079 1075 1076 0
-1080 1078 0
-1080 -1079 0
1080 -1078 1079 0
-1081 34 0
-1081 -1076 0
1081 -34 1076 0
-1082 -34 0
-1082 1076 0
1082 34 -1076 0
-1083 -1081 0
-1083 -1082 0
1083 1081 1082 0
-1084 1080 0
-1084 1083 0
1084 -1080 -1083 0
-1085 -293 0
-1085 1084 0
1085 293 -1084 0
-1086 -295 0
-1086 1085 0
1086 295 -1085 0
-1087 16 0
-1087 -292 0
1087 -16 292 0
-1088 -16 0
-1088 292 0
1088 16 -292 0
-1089 -1087 0
-1089 -1088 0
1089 1087 1088 0
1090 -1729 0
-1090 1729 0
-1091 1089 0
-1091 1090 0
1091 -1089 -1090 0
-1092 1086 0
-1092 -1091 0
1092 -1086 1091 0
-1093 -1089 0
-1093 -1090 0
1093 1089 1090 0
-1094 1092 0
-1094 -1093 0
1094 -1092 1093 0
-1095 33 0
-1095 -1090 0
1095 -33 1090 0
-1096 -33 0
-1096 1090 0
1096 33 -1090 0
-1097 -1095 0
-1097 -1096 0
1097 1095 1096 0
-1098 1094 0
-1098 1097 0
1098 -1094 -1097 0
-1099 -293 0
-1099 1098 0
1099 293 -1098 0
-1100 -295 0
-1100 1099 0
1100 295 -1099 0
-1101 15 0
-1101 -292 0
1101 -15 292 0
-1102 -15 0
-1102 292 0
1102 15 -292 0
-1103 -1101 0
-1103 -1102 0
1103 1101 1102 0
1104 -1730 0
-1104 1730 0
-1105 1103 0
-1105 1104 0
1105 -1103 -1104 0
-1106 1100 0
-1106 -1105 0
1106 -1100 1105 0
-1107 -1103 0
-1107 -1104 0
1107 1103 1104 0
-1108 1106 0
-1108 -1107 0
1108 -1106 1107 0
-1109 37 0
-1109 -1104 0
1109 -37 1104 0
-1110 -37 0
-1110 1104 0
1110 37 -1104 0
-1111 -1109 0
-1111 -1110 0
1111 1109 1110 0
-1112 1108 0
-1112 1111 0
1112 -1108 -1111 0
-1113 -225 0
-1113 1112 0
1113 225 -1112 0
-1114 -227 0
-1114 1113 0
1114 227 -1113 0
-1115 14 0
-1115 -224 0
1115 -14 224 0
-1116 -14 0
-1116 224 0
1116 14 -224 0
-1117 -1115 0
-1117 -1116 0
1117 1115 1116 0
1118 -1731 0
-1118 1731 0
-1119 1117 0
-1119 1118 0
1119 -1117 -1118 0
-1120 1114 0
-1120 -1119 0
1120 -1114 1119 0
-1121 -1117 0
-1121 -1118 0
1121 1117 1118 0
-1122 1120 0
-1122 -1121 0
1122 -1120 1121 0
-1123 37 0
-1123 -1118 0
1123 -37 1118 0
-1124 -37 0
-1124 1118 0
1124 37 -1118 0
-1125 -1123 0
-1125 -1124 0
1125 1123 1124 0
-1126 1122 0
-1126 1125 0
1126 -1122 -1125 0
-1127 -344 0
-1127 1126 0
1127 344 -1126 0
-1128 -346 0
-1128 1127 0
1128 346 -1127 0
-1129 13 0
-1129 -343 0
1129 -13 343 0
-1130 -13 0
-1130 343 0
1130 13 -343 0
-1131 -1129 0
-1131 -1130 0
1131 1129 1130 0
1132 -1732 0
-1132 1732 0
-1133 1131 0
-1133 1132 0
1133 -1131 -1132 0
-1134 1128 0
-1134 -1133 0
1134 -1128 1133 0
-1135 -1131 0
-1135 -1132 0
1135 1131 1132 0
-1136 1134 0
-1136 -1135 0
1136 -1134 1135 0
-1137 30 0
-1137 -1132 0
1137 -30 1132 0
-1138 -30 0
-1138 1132 0
1138 30 -1132 0
-1139 -1137 0
-1139 -1138 0
1139 1137 1138 0
-1140 1136 0
-1140 1139 0
1140 -1136 -1139 0
-1141 -361 0
-1141 1140 0
1141 361 -1140 0
-1142 -363 0
-1142 1141 0
1142 363 -1141 0
-1143 12 0
-1143 -360 0
1143 -12 360 0
-1144 -12 0
-1144 360 0
1144 12 -360 0
-1145 -1143 0
-1145 -1144 0
1145 1143 1144 0
1146 -1733 0
-1146 1733 0
-1147 1145 0
-1147 1146 0
1147 -1145 -1146 0
-1148 1142 0
-1148 -1147 0
1148 -1142 1147 0
-1149 -1145 0
-1149 -1146 0
1149 1145 1146 0
-1150 1148 0
-1150 -1149 0
1150 -1148 1149 0
-1151 29 0
-1151 -1146 0
1151 -29 1146 0
-1152 -29 0
-1152 1146 0
1152 29 -1146 0
-1153 -1151 0
-1153 -1152 0
1153 1151 1152 0
-1154 1150 0
-1154 1153 0
1154 -1150 -1153 0
-1155 -378 0
-1155 1154 0
1155 378 -1154 0
-1156 -380 0
-1156 1155 0
1156 380 -1155 0
-1157 11 0
-1157 -377 0
1157 -11 377 0
-1158 -11 0
-1158 377 0
1158 11 -377 0
-1159 -1157 0
-1159 -1158 0
1159 1157 1158 0
1160 -1734 0
-1160 1734 0
-1161 1159 0
-1161 1160 0
1161 -1159 -1160 0
-1162 1156 0
-1162 -1161 0
1162 -1156 1161 0
-1163 -1159 0
-1163 -1160 0
1163 1159 1160 0
-1164 1162 0
-1164 -1163 0
1164 -1162 1163 0
-1165 28 0
-1165 -1160 0
1165 -28 1160 0
-1166 -28 0
-1166 1160 0
1166 28 -1160 0
-1167 -1165 0
-1167 -1166 0
1167 1165 1166 0
-1168 1164 0
-1168 1167 0
1168 -1164 -1167 0
-1169 -395 0
-1169 1168 0
1169 395 -1168 0
-1170 -397 0
-1170 1169 0
1170 397 -1169 0
-1171 10 0
-1171 -394 0
1171 -10 394 0
-1172 -10 0
-1172 394 0
1172 10 -394 0
-1173 -1171 0
-1173 -1172 0
1173 1171 1172 0
1174 -1735 0
-1174 1735 0
-1175 1173 0
-1175 1174 0
1175 -1173 -1174 0
-1176 1170 0
-1176 -1175 0
1176 -1170 1175 0
-1177 -1173 0
-1177 -1174 0
1177 1173 1174 0
-1178 1176 0
-1178 -1177 0
1178 -1176 1177 0
-1179 27 0
-1179 -1174 0
1179 -27 1174 0
-1180 -27 0
-1180 1174 0
1180 27 -1174 0
-1181 -1179 0
-1181 -1180 0
1181 1179 1180 0
-1182 1178 0
-1182 1181 0
1182 -1178 -1181 0
-1183 -395 0
-1183 1182 0
1183 395 -1182 0
-1184 -397 0
-1184 1183 0
1184 397 -1183 0
-1185 9 0
-1185 -394 0
1185 -9 394 0
-1186 -9 0
-1186 394 0
1186 9 -394 0
-1187 -1185 0
-1187 -1186 0
1187 1185 1186 0
1188 -1736 0
-1188 1736 0
-1189 1187 0
-1189 1188 0
1189 -1187 -1188 0
-1190 1184 0
-1190 -1189 0
1190 -1184 1189 0
-1191 -1187 0
-1191 -1188 0
1191 1187 1188 0
-1192 1190 0
-1192 -1191 0
1192 -1190 1191 0
-1193 31 0
-1193 -1188 0
1193 -31 1188 0
-1194 -31 0
-1194 1188 0
1194 31 -1188 0
-1195 -1193 0
-1195 -1194 0
1195 1193 1194 0
-1196 1192 0
-1196 1195 0
1196 -1192 -1195 0
-1197 -327 0
-1197 1196 0
1197 327 -1196 0
-1198 -329 0
-1198 1197 0
1198 329 -1197 0
-1199 8 0
-1199 -326 0
1199 -8 326 0
-1200 -8 0
-1200 326 0
1200 8 -326 0
-1201 -1199 0
-1201 -1200 0
1201 1199 1200 0
1202 -1737 0
-1202 1737 0
-1203 1201 0
-1203 1202 0
1203 -1201 -1202 0
-1204 1198 0
-1204 -1203 0
1204 -1198 1203 0
-1205 -1201 0
-1205 -1202 0
1205 1201 1202 0
-1206 1204 0
-1206 -1205 0
1206 -1204 1205 0
-1207 31 0
-1207 -1202 0
1207 -31 1202 0
-1208 -31 0
-1208 1202 0
1208 31 -1202 0
-1209 -1207 0
-1209 -1208 0
1209 1207 1208 0
-1210 1206 0
-1210 1209 0
1210 -1206 -1209 0
-1211 -446 0
-1211 1210 0
1211 446 -1210 0
-1212 -448 0
-1212 1211 0
1212 448 -1211 0
-1213 7 0
-1213 -445 0
1213 -7 445 0
-1214 -7 0
-1214 445 0
1214 7 -445 0
-1215 -1213 0
-1215 -1214 0
1215 1213 1214 0
1216 -1738 0
-1216 1738 0
-1217 1215 0
-1217 1216 0
1217 -1215 -1216 0
-1218 1212 0
-1218 -1217 0
1218 -1212 1217 0
-1219 -1215 0
-1219 -1216 0
1219 1215 1216 0
-1220 1218 0
-1220 -1219 0
1220 -1218 1219 0
-1221 24 0
-1221 -1216 0
1221 -24 1216 0
-1222 -24 0
-1222 1216 0
1222 24 -1216 0
-1223 -1221 0
-1223 -1222 0
1223 1221 1222 0
-1224 1220 0
-1224 1223 0
1224 -1220 -1223 0
-1225 -463 0
-1225 1224 0
1225 463 -1224 0
-1226 -465 0
-1226 1225 0
1226 465 -1225 0
-1227 6 0
-1227 -462 0
1227 -6 462 0
-1228 -6 0
-1228 462 0
1228 6 -462 0
-1229 -1227 0
-1229 -1228 0
1229 1227 1228 0
1230 -1739 0
-1230 1739 0
-1231 1229 0
-1231 1230 0
1231 -1229 -1230 0
-1232 1226 0
-1232 -1231 0
1232 -1226 1231 0
-1233 -1229 0
-1233 -1230 0
1233 1229 1230 0
-1234 1232 0
-1234 -1233 0
1234 -1232 1233 0
-1235 23 0
-1235 -1230 0
1235 -23 1230 0
-1236 -23 0
-1236 1230 0
1236 23 -1230 0
-1237 -1235 0
-1237 -1236 0
1237 1235 1236 0
-1238 1234 0
-1238 1237 0
1238 -1234 -1237 0
-1239 -480 0
-1239 1238 0
1239 480 -1238 0
-1240 -482 0
-1240 1239 0
1240 482 -1239 0
-1241 5 0
-1241 -479 0
1241 -5 479 0
-1242 -5 0
-1242 479 0
1242 5 -479 0
-1243 -1241 0
-1243 -1242 0
1243 1241 1242 0
1244 -1740 0
-1244 1740 0
-1245 1243 0
-1245 1244 0
1245 -1243 -1244 0
-1246 1240 0
-1246 -1245 0
1246 -1240 1245 0
-1247 -1243 0
-1247 -1244 0
1247 1243 1244 0
-1248 1246 0
-1248 -1247 0
1248 -1246 1247 0
-1249 22 0
-1249 -1244 0
1249 -22 1244 0
-1250 -22 0
-1250 1244 0
1250 22 -1244 0
-1251 -1249 0
-1251 -1250 0
1251 1249 1250 0
-1252 1248 0
-1252 1251 0
1252 -1248 -1251 0
-1253 -497 0
-1253 1252 0
1253 497 -1252 0
-1254 -499 0
-1254 1253 0
1254 499 -1253 0
-1255 4 0
-1255 -496 0
1255 -4 496 0
-1256 -4 0
-1256 496 0
1256 4 -496 0
-1257 -1255 0
-1257 -1256 0
1257 1255 1256 0
1258 -1741 0
-1258 1741 0
-1259 1257 0
-1259 1258 0
1259 -1257 -1258 0
-1260 1254 0
-1260 -1259 0
1260 -1254 1259 0
-1261 -1257 0
-1261 -1258 0
1261 1257 1258 0
-1262 1260 0
-1262 -1261 0
1262 -1260 1261 0
-1263 21 0
-1263 -1258 0
1263 -21 1258 0
-1264 -21 0
-1264 1258 0
1264 21 -1258 0
-1265 -1263 0
-1265 -1264 0
1265 1263 1264 0
-1266 1262 0
-1266 1265 0
1266 -1262 -1265 0
-1267 -497 0
-1267 1266 0
1267 497 -1266 0
-1268 -499 0
-1268 1267 0
1268 499 -1267 0
-1269 3 0
-1269 -496 0
1269 -3 496 0
-1270 -3 0
-1270 496 0
1270 3 -496 0
-1271 -1269 0
-1271 -1270 0
1271 1269 1270 0
1272 -1742 0
-1272 1742 0
-1273 1271 0
-1273 1272 0
1273 -1271 -1272 0
-1274 1268 0
-1274 -1273 0
1274 -1268 1273 0
-1275 -1271 0
-1275 -1272 0
1275 1271 1272 0
-1276 1274 0
-1276 -1275 0
1276 -1274 1275 0
-1277 25 0
-1277 -1272 0
1277 -25 1272 0
-1278 -25 0
-1278 1272 0
1278 25 -1272 0
-1279 -1277 0
-1279 -1278 0
1279 1277 1278 0
-1280 1276 0
-1280 1279 0
1280 -1276 -1279 0
-1281 -429 0
-1281 1280 0
1281 429 -1280 0
-1282 -431 0
-1282 1281 0
1282 431 -1281 0
-1283 2 0
-1283 -428 0
1283 -2 428 0
-1284 -2 0
-1284 428 0
1284 2 -428 0
-1285 -1283 0
-1285 -1284 0
1285 1283 1284 0
1286 -1743 0
-1286 1743 0
-1287 1285 0
-1287 1286 0
1287 -1285 -1286 0
-1288 1282 0
-1288 -1287 0
1288 -1282 1287 0
-1289 -1285 0
-1289 -1286 0
1289 1285 1286 0
-1290 1288 0
-1290 -1289 0
1290 -1288 1289 0
-1291 25 0
-1291 -1286 0
1291 -25 1286 0
-1292 -25 0
-1292 1286 0
1292 25 -1286 0
-1293 -1291 0
-1293 -1292 0
1293 1291 1292 0
-1294 1290 0
-1294 1293 0
1294 -1290 -1293 0
-1295 -531 0
-1295 1294 0
1295 531 -1294 0
-1296 -533 0
-1296 1295 0
1296 533 -1295 0
-1297 17 0
-1297 -530 0
1297 -17 530 0
-1298 -17 0
-1298 530 0
1298 17 -530 0
-1299 -1297 0
-1299 -1298 0
1299 1297 1298 0
-1300 1296 0
-1300 1299 0
1300 -1296 -1299 0
-1301 -548 0
-1301 1300 0
1301 548 -1300 0
-1302 -550 0
-1302 1301 0
1302 550 -1301 0
-1303 16 0
-1303 -547 0
1303 -16 547 0
-1304 -16 0
-1304 547 0
1304 16 -547 0
-1305 -1303 0
-1305 -1304 0
1305 1303 1304 0
-1306 1302 0
-1306 1305 0
1306 -1302 -1305 0
-1307 -565 0
-1307 1306 0
1307 565 -1306 0
-1308 -567 0
-1308 1307 0
1308 567 -1307 0
-1309 15 0
-1309 -564 0
1309 -15 564 0
-1310 -15 0
-1310 564 0
1310 15 -564 0
-1311 -1309 0
-1311 -1310 0
1311 1309 1310 0
1312 -1744 0
-1312 1744 0
-1313 1311 0
-1313 1312 0
1313 -1311 -1312 0
-1314 1308 0
-1314 -1313 0
1314 -1308 1313 0
-1315 -1311 0
-1315 -1312 0
1315 1311 1312 0
-1316 1314 0
-1316 -1315 0
1316 -1314 1315 0
-1317 51 0
-1317 -1312 0
1317 -51 1312 0
-1318 -51 0
-1318 1312 0
1318 51 -1312 0
-1319 -1317 0
-1319 -1318 0
1319 1317 1318 0
-1320 1316 0
-1320 1319 0
1320 -1316 -1319 0
-1321 -582 0
-1321 1320 0
1321 582 -1320 0
-1322 -584 0
-1322 1321 0
1322 584 -1321 0
-1323 14 0
-1323 -581 0
1323 -14 581 0
-1324 -14 0
-1324 581 0
1324 14 -581 0
-1325 -1323 0
-1325 -1324 0
1325 1323 1324 0
1326 -1745 0
-1326 1745 0
-1327 1325 0
-1327 1326 0
1327 -1325 -1326 0
-1328 1322 0
-1328 -1327 0
1328 -1322 1327 0
-1329 -1325 0
-1329 -1326 0
1329 1325 1326 0
-1330 1328 0
-1330 -1329 0
1330 -1328 1329 0
-1331 50 0
-1331 -1326 0
1331 -50 1326 0
-1332 -50 0
-1332 1326 0
1332 50 -1326 0
-1333 -1331 0
-1333 -1332 0
1333 1331 1332 0
-1334 1330 0
-1334 1333 0
1334 -1330 -1333 0
-1335 -514 0
-1335 1334 0
1335 514 -1334 0
-1336 -516 0
-1336 1335 0
1336 516 -1335 0
-1337 14 0
-1337 -513 0
1337 -14 513 0
-1338 -14 0
-1338 513 0
1338 14 -513 0
-1339 -1337 0
-1339 -1338 0
1339 1337 1338 0
1340 -1746 0
-1340 1746 0
-1341 1339 0
-1341 1340 0
1341 -1339 -1340 0
-1342 1336 0
-1342 -1341 0
1342 -1336 1341 0
-1343 -1339 0
-1343 -1340 0
1343 1339 1340 0
-1344 1342 0
-1344 -1343 0
1344 -1342 1343 0
-1345 49 0
-1345 -1340 0
1345 -49 1340 0
-1346 -49 0
-1346 1340 0
1346 49 -1340 0
-1347 -1345 0
-1347 -1346 0
1347 1345 1346 0
-1348 1344 0
-1348 1347 0
1348 -1344 -1347 0
-1349 -514 0
-1349 1348 0
1349 514 -1348 0
-1350 -516 0
-1350 1349 0
1350 516 -1349 0
-1351 18 0
-1351 -513 0
1351 -18 513 0
-1352 -18 0
-1352 513 0
1352 18 -513 0
-1353 -1351 0
-1353 -1352 0
1353 1351 1352 0
1354 -1747 0
-1354 1747 0
-1355 1353 0
-1355 1354 0
1355 -1353 -1354 0
-1356 1350 0
-1356 -1355 0
1356 -1350 1355 0
-1357 -1353 0
-1357 -1354 0
1357 1353 1354 0
-1358 1356 0
-1358 -1357 0
1358 -1356 1357 0
-1359 48 0
-1359 -1354 0
1359 -48 1354 0
-1360 -48 0
-1360 1354 0
1360 48 -1354 0
-1361 -1359 0
-1361 -1360 0
1361 1359 1360 0
-1362 1358 0
-1362 1361 0
1362 -1358 -1361 0
-1363 -633 0
-1363 1362 0
1363 633 -1362 0
-1364 -635 0
-1364 1363 0
1364 635 -1363 0
-1365 11 0
-1365 -632 0
1365 -11 632 0
-1366 -11 0
-1366 632 0
1366 11 -632 0
-1367 -1365 0
-1367 -1366 0
1367 1365 1366 0
-1368 1364 0
-1368 1367 0
1368 -1364 -1367 0
-1369 -650 0
-1369 1368 0
1369 650 -1368 0
-1370 -652 0
-1370 1369 0
1370 652 -1369 0
-1371 10 0
-1371 -649 0
1371 -10 649 0
-1372 -10 0
-1372 649 0
1372 10 -649 0
-1373 -1371 0
-1373 -1372 0
1373 1371 1372 0
-1374 1370 0
-1374 1373 0
1374 -1370 -1373 0
-1375 -667 0
-1375 1374 0
1375 667 -1374 0
-1376 -669 0
-1376 1375 0
1376 669 -1375 0
-1377 9 0
-1377 -666 0
1377 -9 666 0
-1378 -9 0
-1378 666 0
1378 9 -666 0
-1379 -1377 0
-1379 -1378 0
1379 1377 1378 0
1380 -1748 0
-1380 1748 0
-1381 1379 0
-1381 1380 0
1381 -1379 -1380 0
-1382 1376 0
-1382 -1381 0
1382 -1376 1381 0
-1383 -1379 0
-1383 -1380 0
1383 1379 1380 0
-1384 1382 0
-1384 -1383 0
1384 -1382 1383 0
-1385 47 0
-1385 -1380 0
1385 -47 1380 0
-1386 -47 0
-1386 1380 0
1386 47 -1380 0
-1387 -1385 0
-1387 -1386 0
1387 1385 1386 0
-1388 1384 0
-1388 1387 0
1388 -1384 -1387 0
-1389 -684 0
-1389 1388 0
1389 684 -1388 0
-1390 -686 0
-1390 1389 0
1390 686 -1389 0
-1391 8 0
-1391 -683 0
1391 -8 683 0
-1392 -8 0
-1392 683 0
1392 8 -683 0
-1393 -1391 0
-1393 -1392 0
1393 1391 1392 0
1394 -1749 0
-1394 1749 0
-1395 1393 0
-1395 1394 0
1395 -1393 -1394 0
-1396 1390 0
-1396 -1395 0
1396 -1390 1395 0
-1397 -1393 0
-1397 -1394 0
1397 1393 1394 0
-1398 1396 0
-1398 -1397 0
1398 -1396 1397 0
-1399 46 0
-1399 -1394 0
1399 -46 1394 0
-1400 -46 0
-1400 1394 0
1400 46 -1394 0
-1401 -1399 0
-1401 -1400 0
1401 1399 1400 0
-1402 1398 0
-1402 1401 0
1402 -1398 -1401 0
-1403 -616 0
-1403 1402 0
1403 616 -1402 0
-1404 -618 0
-1404 1403 0
1404 618 -1403 0
-1405 8 0
-1405 -615 0
1405 -8 615 0
-1406 -8 0
-1406 615 0
1406 8 -615 0
-1407 -1405 0
-1407 -1406 0
1407 1405 1406 0
1408 -1750 0
-1408 1750 0
-1409 1407 0
-1409 1408 0
1409 -1407 -1408 0
-1410 1404 0
-1410 -1409 0
1410 -1404 1409 0
-1411 -1407 0
-1411 -1408 0
1411 1407 1408 0
-1412 1410 0
-1412 -1411 0
1412 -1410 1411 0
-1413 45 0
-1413 -1408 0
1413 -45 1408 0
-1414 -45 0
-1414 1408 0
1414 45 -1408 0
-1415 -1413 0
-1415 -1414 0
1415 1413 1414 0
-1416 1412 0
-1416 1415 0
1416 -1412 -1415 0
-1417 -616 0
-1417 1416 0
1417 616 -1416 0
-1418 -618 0
-1418 1417 0
1418 618 -1417 0
-1419 12 0
-1419 -615 0
1419 -12 615 0
-1420 -12 0
-1420 615 0
1420 12 -615 0
-1421 -1419 0
-1421 -1420 0
1421 1419 1420 0
1422 -1751 0
-1422 1751 0
-1423 1421 0
-1423 1422 0
1423 -1421 -1422 0
-1424 1418 0
-1424 -1423 0
1424 -1418 1423 0
-1425 -1421 0
-1425 -1422 0
1425 1421 1422 0
-1426 1424 0
-1426 -1425 0
1426 -1424 1425 0
-1427 44 0
-1427 -1422 0
1427 -44 1422 0
-1428 -44 0
-1428 1422 0
1428 44 -1422 0
-1429 -1427 0
-1429 -1428 0
1429 1427 1428 0
-1430 1426 0
-1430 1429 0
1430 -1426 -1429 0
1431 -1752 0
-1431 1752 0
-1432 6 0
-1432 -1431 0
1432 -6 1431 0
-1433 1430 0
-1433 -1432 0
1433 -1430 1432 0
-1434 -6 0
-1434 1431 0
1434 6 -1431 0
-1435 1433 0
-1435 -1434 0
1435 -1433 1434 0
-1436 5 0
-1436 -1431 0
1436 -5 1431 0
-1437 -5 0
-1437 1431 0
1437 5 -1431 0
-1438 -1436 0
-1438 -1437 0
1438 1436 1437 0
1439 -1753 0
-1439 1753 0
-1440 1438 0
-1440 1439 0
1440 -1438 -1439 0
-1441 1435 0
-1441 -1440 0
1441 -1435 1440 0
-1442 -1438 0
-1442 -1439 0
1442 1438 1439 0
-1443 1441 0
-1443 -1442 0
1443 -1441 1442 0
-1444 43 0
-1444 -1439 0
1444 -43 1439 0
-1445 -43 0
-1445 1439 0
1445 43 -1439 0
-1446 -1444 0
-1446 -1445 0
1446 1444 1445 0
-1447 1443 0
-1447 1446 0
1447 -1443 -1446 0
1448 -1754 0
-1448 1754 0
-1449 5 0
-1449 -1448 0
1449 -5 1448 0
-1450 1447 0
-1450 -1449 0
1450 -1447 1449 0
-1451 -5 0
-1451 1448 0
1451 5 -1448 0
-1452 1450 0
-1452 -1451 0
1452 -1450 1451 0
-1453 4 0
-1453 -1448 0
1453 -4 1448 0
-1454 -4 0
-1454 1448 0
1454 4 -1448 0
-1455 -1453 0
-1455 -1454 0
1455 1453 1454 0
1456 -1755 0
-1456 1755 0
-1457 1455 0
-1457 1456 0
1457 -1455 -1456 0
-1458 1452 0
-1458 -1457 0
1458 -1452 1457 0
-1459 -1455 0
-1459 -1456 0
1459 1455 1456 0
-1460 1458 0
-1460 -1459 0
1460 -1458 1459 0
-1461 42 0
-1461 -1456 0
1461 -42 1456 0
-1462 -42 0
-1462 1456 0
1462 42 -1456 0
-1463 -1461 0
-1463 -1462 0
1463 1461 1462 0
-1464 1460 0
-1464 1463 0
1464 -1460 -1463 0
1465 -1756 0
-1465 1756 0
-1466 4 0
-1466 -1465 0
1466 -4 1465 0
-1467 1464 0
-1467 -1466 0
1467 -1464 1466 0
-1468 -4 0
-1468 1465 0
1468 4 -1465 0
-1469 1467 0
-1469 -1468 0
1469 -1467 1468 0
-1470 3 0
-1470 -1465 0
1470 -3 1465 0
-1471 -3 0
-1471 1465 0
1471 3 -1465 0
-1472 -1470 0
-1472 -1471 0
1472 1470 1471 0
1473 -1757 0
-1473 1757 0
-1474 1472 0
-1474 1473 0
1474 -1472 -1473 0
-1475 1469 0
-1475 -1474 0
1475 -1469 1474 0
-1476 -1472 0
-1476 -1473 0
1476 1472 1473 0
-1477 1475 0
-1477 -1476 0
1477 -1475 1476 0
-1478 41 0
-1478 -1473 0
1478 -41 1473 0
-1479 -41 0
-1479 1473 0
1479 41 -1473 0
-1480 -1478 0
-1480 -1479 0
1480 1478 1479 0
-1481 1477 0
-1481 1480 0
1481 -1477 -1480 0
1482 -1758 0
-1482 1758 0
-1483 3 0
-1483 -1482 0
1483 -3 1482 0
-1484 1481 0
-1484 -1483 0
1484 -1481 1483 0
-1485 -3 0
-1485 1482 0
1485 3 -1482 0
-1486 1484 0
-1486 -1485 0
1486 -1484 1485 0
-1487 2 0
-1487 -1482 0
1487 -2 1482 0
-1488 -2 0
-1488 1482 0
1488 2 -1482 0
-1489 -1487 0
-1489 -1488 0
1489 1487 1488 0
1490 -1759 0
-1490 1759 0
-1491 1489 0
-1491 1490 0
1491 -1489 -1490 0
-1492 1486 0
-1492 -1491 0
1492 -1486 1491 0
-1493 -1489 0
-1493 -1490 0
1493 1489 1490 0
-1494 1492 0
-1494 -1493 0
1494 -1492 1493 0
-1495 40 0
-1495 -1490 0
1495 -40 1490 0
-1496 -40 0
-1496 1490 0
1496 40 -1490 0
-1497 -1495 0
-1497 -1496 0
1497 1495 1496 0
-1498 1494 0
-1498 1497 0
1498 -1494 -1497 0
-1501 1498 0
-1501 -1500 0
1501 -1498 1500 0
-1503 1501 0
-1503 -1502 0
1503 -1501 1502 0
-1504 2 0
-1504 -1499 0
1504 -2 1499 0
-1505 -2 0
-1505 1499 0
1505 2 -1499 0
-1506 -1504 0
-1506 -1505 0
1506 1504 1505 0
1507 -1761 0
-1507 1761 0
-1508 1506 0
-1508 1507 0
1508 -1506 -1507 0
-1509 1503 0
-1509 -1508 0
1509 -1503 1508 0
-1510 -1506 0
-1510 -1507 0
1510 1506 1507 0
-1511 1509 0
-1511 -1510 0
1511 -1509 1510 0
-1512 39 0
-1512 -1507 0
1512 -39 1507 0
-1513 -39 0
-1513 1507 0
1513 39 -1507 0
-1514 -1512 0
-1514 -1513 0
1514 1512 1513 0
-1515 1511 0
-1515 1514 0
1515 -1511 -1514 0
-1516 -1500 0
-1516 1515 0
1516 1500 -1515 0
-1517 -1502 0
-1517 1516 0
1517 1502 -1516 0
-1518 6 0
-1518 -1499 0
1518 -6 1499 0
-1519 -6 0
-1519 1499 0
1519 6 -1499 0
-1520 -1518 0
-1520 -1519 0
1520 1518 1519 0
1521 -1762 0
-1521 1762 0
-1522 1520 0
-1522 1521 0
1522 -1520 -1521 0
-1523 1517 0
-1523 -1522 0
1523 -1517 1522 0
-1524 -1520 0
-1524 -1521 0
1524 1520 1521 0
-1525 1523 0
-1525 -1524 0
1525 -1523 1524 0
-1526 38 0
-1526 -1521 0
1526 -38 1521 0
-1527 -38 0
-1527 1521 0
1527 38 -1521 0
-1528 -1526 0
-1528 -1527 0
1528 1526 1527 0
-1529 1525 0
-1529 1528 0
1529 -1525 -1528 0
-1530 -2 0
-1530 -5 0
1530 2 5 0
-1531 -6 0
-1531 1530 0
1531 6 -1530 0
-1532 -7 0
-1532 1531 0
1532 7 -1531 0
-1533 -8 0
-1533 1532 0
1533 8 -1532 0
-1534 -9 0
-1534 1533 0
1534 9 -1533 0
-1535 -10 0
-1535 1534 0
1535 10 -1534 0
-1536 -11 0
-1536 1535 0
1536 11 -1535 0
-1537 -12 0
-1537 1536 0
1537 12 -1536 0
-1538 -13 0
-1538 1537 0
1538 13 -1537 0
-1539 -14 0
-1539 1538 0
1539 14 -1538 0
-1540 -15 0
-1540 1539 0
1540 15 -1539 0
-1541 -16 0
-1541 1540 0
1541 16 -1540 0
-1542 -17 0
-1542 1541 0
1542 17 -1541 0
-1543 -18 0
-1543 1542 0
1543 18 -1542 0
-1544 -19 0
-1544 1543 0
1544 19 -1543 0
-1545 -20 0
-1545 1544 0
1545 20 -1544 0
-1546 -21 0
-1546 1545 0
1546 21 -1545 0
-1547 -22 0
-1547 1546 0
1547 22 -1546 0
-1548 -23 0
-1548 1547 0
1548 23 -1547 0
-1549 -24 0
-1549 1548 0
1549 24 -1548 0
-1550 -25 0
-1550 1549 0
1550 25 -1549 0
-1551 -27 0
-1551 1550 0
1551 27 -1550 0
-1552 -28 0
-1552 1551 0
1552 28 -1551 0
-1553 -29 0
-1553 1552 0
1553 29 -1552 0
-1554 -30 0
-1554 1553 0
1554 30 -1553 0
-1555 -31 0
-1555 1554 0
1555 31 -1554 0
-1556 -33 0
-1556 1555 0
1556 33 -1555 0
-1557 -34 0
-1557 1556 0
1557 34 -1556 0
-1558 -35 0
-1558 1557 0
1558 35 -1557 0
-1559 -36 0
-1559 1558 0
1559 36 -1558 0
-1560 -37 0
-1560 1559 0
1560 37 -1559 0
-1561 -38 0
-1561 1560 0
1561 38 -1560 0
-1562 -39 0
-1562 1561 0
1562 39 -1561 0
-1563 -40 0
-1563 1562 0
1563 40 -1562 0
-1564 -41 0
-1564 1563 0
1564 41 -1563 0
-1565 -42 0
-1565 1564 0
1565 42 -1564 0
-1566 -43 0
-1566 1565 0
1566 43 -1565 0
-1567 -44 0
-1567 1566 0
1567 44 -1566 0
-1568 -45 0
-1568 1567 0
1568 45 -1567 0
-1569 -46 0
-1569 1568 0
1569 46 -1568 0
-1570 -47 0
-1570 1569 0
1570 47 -1569 0
-1571 -48 0
-1571 1570 0
1571 48 -1570 0
-1572 -49 0
-1572 1571 0
1572 49 -1571 0
-1573 -50 0
-1573 1572 0
1573 50 -1572 0
-1574 -51 0
-1574 1573 0
1574 51 -1573 0
-1575 1529 0
-1575 -1574 0
1575 -1529 1574 0
1575 0
