p cnf 2450 6108
8 -2147 0
-8 2147 0
1287 -2387 0
-1287 2387 0
-1290 -8 0
-1290 1287 0
1290 8 -1287 0
-1288 8 0
-1288 -1287 0
1288 -8 1287 0
9 -2148 0
-9 2148 0
1043 -2363 0
-1043 2363 0
-1046 -9 0
-1046 1043 0
1046 9 -1043 0
-1044 9 0
-1044 -1043 0
1044 -9 1043 0
10 -2149 0
-10 2149 0
1125 -2372 0
-1125 2372 0
-1128 -10 0
-1128 1125 0
1128 10 -1125 0
-1126 10 0
-1126 -1125 0
1126 -10 1125 0
11 -2150 0
-11 2150 0
1108 -2370 0
-1108 2370 0
-1111 -11 0
-1111 1108 0
1111 11 -1108 0
-1109 11 0
-1109 -1108 0
1109 -11 1108 0
12 -2151 0
-12 2151 0
1091 -2368 0
-1091 2368 0
-1094 -12 0
-1094 1091 0
1094 12 -1091 0
-1092 12 0
-1092 -1091 0
1092 -12 1091 0
13 -2152 0
-13 2152 0
1060 -2365 0
-1060 2365 0
-1063 -13 0
-1063 1060 0
1063 13 -1060 0
-1061 13 0
-1061 -1060 0
1061 -13 1060 0
15 -2154 0
-15 2154 0
944 -2352 0
-944 2352 0
-947 -15 0
-947 944 0
947 15 -944 0
-945 15 0
-945 -944 0
945 -15 944 0
16 -2155 0
-16 2155 0
1026 -2361 0
-1026 2361 0
-1029 -16 0
-1029 1026 0
1029 16 -1026 0
-1027 16 0
-1027 -1026 0
1027 -16 1026 0
17 -2156 0
-17 2156 0
1009 -2359 0
-1009 2359 0
-1012 -17 0
-1012 1009 0
1012 17 -1009 0
-1010 17 0
-1010 -1009 0
1010 -17 1009 0
18 -2157 0
-18 2157 0
992 -2357 0
-992 2357 0
-995 -18 0
-995 992 0
995 18 -992 0
-993 18 0
-993 -992 0
993 -18 992 0
19 -2158 0
-19 2158 0
961 -2354 0
-961 2354 0
-964 -19 0
-964 961 0
964 19 -961 0
-962 19 0
-962 -961 0
962 -19 961 0
21 -2160 0
-21 2160 0
845 -2341 0
-845 2341 0
-848 -21 0
-848 845 0
848 21 -845 0
-846 21 0
-846 -845 0
846 -21 845 0
22 -2161 0
-22 2161 0
927 -2350 0
-927 2350 0
-930 -22 0
-930 927 0
930 22 -927 0
-928 22 0
-928 -927 0
928 -22 927 0
23 -2162 0
-23 2162 0
910 -2348 0
-910 2348 0
-913 -23 0
-913 910 0
913 23 -910 0
-911 23 0
-911 -910 0
911 -23 910 0
24 -2163 0
-24 2163 0
893 -2346 0
-893 2346 0
-896 -24 0
-896 893 0
896 24 -893 0
-894 24 0
-894 -893 0
894 -24 893 0
25 -2164 0
-25 2164 0
862 -2343 0
-862 2343 0
-865 -25 0
-865 862 0
865 25 -862 0
-863 25 0
-863 -862 0
863 -25 862 0
27 -2166 0
-27 2166 0
746 -2330 0
-746 2330 0
-749 -27 0
-749 746 0
749 27 -746 0
-747 27 0
-747 -746 0
747 -27 746 0
28 -2167 0
-28 2167 0
828 -2339 0
-828 2339 0
-831 -28 0
-831 828 0
831 28 -828 0
-829 28 0
-829 -828 0
829 -28 828 0
29 -2168 0
-29 2168 0
811 -2337 0
-811 2337 0
-814 -29 0
-814 811 0
814 29 -811 0
-812 29 0
-812 -811 0
812 -29 811 0
30 -2169 0
-30 2169 0
794 -2335 0
-794 2335 0
-797 -30 0
-797 794 0
797 30 -794 0
-795 30 0
-795 -794 0
795 -30 794 0
31 -2170 0
-31 2170 0
763 -2332 0
-763 2332 0
-766 -31 0
-766 763 0
766 31 -763 0
-764 31 0
-764 -763 0
764 -31 763 0
33 -2172 0
-33 2172 0
647 -2319 0
-647 2319 0
-650 -33 0
-650 647 0
650 33 -647 0
-648 33 0
-648 -647 0
648 -33 647 0
34 -2173 0
-34 2173 0
729 -2328 0
-729 2328 0
-732 -34 0
-732 729 0
732 34 -729 0
-730 34 0
-730 -729 0
730 -34 729 0
35 -2174 0
-35 2174 0
712 -2326 0
-712 2326 0
-715 -35 0
-715 712 0
715 35 -712 0
-713 35 0
-713 -712 0
713 -35 712 0
36 -2175 0
-36 2175 0
695 -2324 0
-695 2324 0
-698 -36 0
-698 695 0
698 36 -695 0
-696 36 0
-696 -695 0
696 -36 695 0
37 -2176 0
-37 2176 0
664 -2321 0
-664 2321 0
-667 -37 0
-667 664 0
667 37 -664 0
-665 37 0
-665 -664 0
665 -37 664 0
39 -2178 0
-39 2178 0
548 -2308 0
-548 2308 0
-551 -39 0
-551 548 0
551 39 -548 0
-549 39 0
-549 -548 0
549 -39 548 0
40 -2179 0
-40 2179 0
630 -2317 0
-630 2317 0
-633 -40 0
-633 630 0
633 40 -630 0
-631 40 0
-631 -630 0
631 -40 630 0
41 -2180 0
-41 2180 0
613 -2315 0
-613 2315 0
-616 -41 0
-616 613 0
616 41 -613 0
-614 41 0
-614 -613 0
614 -41 613 0
42 -2181 0
-42 2181 0
596 -2313 0
-596 2313 0
-599 -42 0
-599 596 0
599 42 -596 0
-597 42 0
-597 -596 0
597 -42 596 0
43 -2182 0
-43 2182 0
565 -2310 0
-565 2310 0
-568 -43 0
-568 565 0
568 43 -565 0
-566 43 0
-566 -565 0
566 -43 565 0
45 -2184 0
-45 2184 0
465 -2299 0
-465 2299 0
-468 -45 0
-468 465 0
468 45 -465 0
-466 45 0
-466 -465 0
466 -45 465 0
46 -2185 0
-46 2185 0
531 -2306 0
-531 2306 0
-534 -46 0
-534 531 0
534 46 -531 0
-532 46 0
-532 -531 0
532 -46 531 0
47 -2186 0
-47 2186 0
514 -2304 0
-514 2304 0
-517 -47 0
-517 514 0
517 47 -514 0
-515 47 0
-515 -514 0
515 -47 514 0
48 -2187 0
-48 2187 0
497 -2302 0
-497 2302 0
-500 -48 0
-500 497 0
500 48 -497 0
-498 48 0
-498 -497 0
498 -48 497 0
49 -2188 0
-49 2188 0
474 -2300 0
-474 2300 0
-477 -49 0
-477 474 0
477 49 -474 0
-475 49 0
-475 -474 0
475 -49 474 0
51 -2190 0
-51 2190 0
398 -2292 0
-398 2292 0
-401 -51 0
-401 398 0
401 51 -398 0
-399 51 0
-399 -398 0
399 -51 398 0
52 -2191 0
-52 2191 0
448 -2297 0
-448 2297 0
-451 -52 0
-451 448 0
451 52 -448 0
-449 52 0
-449 -448 0
449 -52 448 0
53 -2192 0
-53 2192 0
431 -2295 0
-431 2295 0
-434 -53 0
-434 431 0
434 53 -431 0
-432 53 0
-432 -431 0
432 -53 431 0
54 -2193 0
-54 2193 0
422 -2294 0
-422 2294 0
-425 -54 0
-425 422 0
425 54 -422 0
-423 54 0
-423 -422 0
423 -54 422 0
55 -2194 0
-55 2194 0
407 -2293 0
-407 2293 0
-410 -55 0
-410 407 0
410 55 -407 0
-408 55 0
-408 -407 0
408 -55 407 0
56 -2195 0
-56 2195 0
299 -2281 0
-299 2281 0
-302 -56 0
-302 299 0
302 56 -299 0
-300 56 0
-300 -299 0
300 -56 299 0
57 -2196 0
-57 2196 0
381 -2290 0
-381 2290 0
-384 -57 0
-384 381 0
384 57 -381 0
-382 57 0
-382 -381 0
382 -57 381 0
58 -2197 0
-58 2197 0
364 -2288 0
-364 2288 0
-367 -58 0
-367 364 0
367 58 -364 0
-365 58 0
-365 -364 0
365 -58 364 0
59 -2198 0
-59 2198 0
347 -2286 0
-347 2286 0
-350 -59 0
-350 347 0
350 59 -347 0
-348 59 0
-348 -347 0
348 -59 347 0
60 -2199 0
-60 2199 0
330 -2284 0
-330 2284 0
-333 -60 0
-333 330 0
333 60 -330 0
-331 60 0
-331 -330 0
331 -60 330 0
62 -2201 0
-62 2201 0
232 -2274 0
-232 2274 0
-235 -62 0
-235 232 0
235 62 -232 0
-233 62 0
-233 -232 0
233 -62 232 0
63 -2202 0
-63 2202 0
282 -2279 0
-282 2279 0
-285 -63 0
-285 282 0
285 63 -282 0
-283 63 0
-283 -282 0
283 -63 282 0
64 -2203 0
-64 2203 0
265 -2277 0
-265 2277 0
-268 -64 0
-268 265 0
268 64 -265 0
-266 64 0
-266 -265 0
266 -64 265 0
65 -2204 0
-65 2204 0
256 -2276 0
-256 2276 0
-259 -65 0
-259 256 0
259 65 -256 0
-257 65 0
-257 -256 0
257 -65 256 0
67 -2206 0
-67 2206 0
223 -2273 0
-223 2273 0
-226 -67 0
-226 223 0
226 67 -223 0
-224 67 0
-224 -223 0
224 -67 223 0
4 -2143 0
-4 2143 0
7 -2146 0
-7 2146 0
1159 -2376 0
-1159 2376 0
-1162 -7 0
-1162 1159 0
1162 7 -1159 0
-1160 7 0
-1160 -1159 0
1160 -7 1159 0
66 -2205 0
-66 2205 0
197 -2271 0
-197 2271 0
-200 -66 0
-200 197 0
200 66 -197 0
-198 66 0
-198 -197 0
198 -66 197 0
68 -2207 0
-68 2207 0
69 -2208 0
-69 2208 0
70 -2209 0
-70 2209 0
71 -2210 0
-71 2210 0
72 -2211 0
-72 2211 0
73 -2212 0
-73 2212 0
74 -2213 0
-74 2213 0
75 -2214 0
-75 2214 0
76 -2215 0
-76 2215 0
77 -2216 0
-77 2216 0
78 -2217 0
-78 2217 0
79 -2218 0
-79 2218 0
80 -2219 0
-80 2219 0
81 -2220 0
-81 2220 0
82 -2221 0
-82 2221 0
83 -2222 0
-83 2222 0
84 -2223 0
-84 2223 0
85 -2224 0
-85 2224 0
86 -2225 0
-86 2225 0
87 -2226 0
-87 2226 0
88 -2227 0
-88 2227 0
89 -2228 0
-89 2228 0
90 -2229 0
-90 2229 0
91 -2230 0
-91 2230 0
92 -2231 0
-92 2231 0
93 -2232 0
-93 2232 0
94 -2233 0
-94 2233 0
95 -2234 0
-95 2234 0
96 -2235 0
-96 2235 0
97 -2236 0
-97 2236 0
98 -2237 0
-98 2237 0
99 -2238 0
-99 2238 0
100 -2239 0
-100 2239 0
101 -2240 0
-101 2240 0
102 -2241 0
-102 2241 0
103 -2242 0
-103 2242 0
104 -2243 0
-104 2243 0
105 -2244 0
-105 2244 0
106 -2245 0
-106 2245 0
107 -2246 0
-107 2246 0
108 -2247 0
-108 2247 0
109 -2248 0
-109 2248 0
110 -2249 0
-110 2249 0
111 -2250 0
-111 2250 0
112 -2251 0
-112 2251 0
113 -2252 0
-113 2252 0
114 -2253 0
-114 2253 0
115 -2254 0
-115 2254 0
116 -2255 0
-116 2255 0
117 -2256 0
-117 2256 0
118 -2257 0
-118 2257 0
119 -2258 0
-119 2258 0
120 -2259 0
-120 2259 0
121 -2260 0
-121 2260 0
122 -2261 0
-122 2261 0
123 -2262 0
-123 2262 0
124 -2263 0
-124 2263 0
125 -2264 0
-125 2264 0
126 -2265 0
-126 2265 0
127 -2266 0
-127 2266 0
128 -2267 0
-128 2267 0
129 -2268 0
-129 2268 0
130 -2269 0
-130 2269 0
2 -2141 0
-2 2141 0
131 -2270 0
-131 2270 0
-132 -2 0
-132 -131 0
132 2 131 0
-133 -130 0
-133 132 0
133 130 -132 0
-134 -129 0
-134 133 0
134 129 -133 0
-135 -128 0
-135 134 0
135 128 -134 0
-136 -127 0
-136 135 0
136 127 -135 0
-137 -126 0
-137 136 0
137 126 -136 0
-138 -125 0
-138 137 0
138 125 -137 0
-139 -124 0
-139 138 0
139 124 -138 0
-140 -123 0
-140 139 0
140 123 -139 0
-141 -122 0
-141 140 0
141 122 -140 0
-142 -121 0
-142 141 0
142 121 -141 0
-143 -120 0
-143 142 0
143 120 -142 0
-144 -119 0
-144 143 0
144 119 -143 0
-145 -118 0
-145 144 0
145 118 -144 0
-146 -117 0
-146 145 0
146 117 -145 0
-147 -116 0
-147 146 0
147 116 -146 0
-148 -115 0
-148 147 0
148 115 -147 0
-149 -114 0
-149 148 0
149 114 -148 0
-150 -113 0
-150 149 0
150 113 -149 0
-151 -112 0
-151 150 0
151 112 -150 0
-152 -111 0
-152 151 0
152 111 -151 0
-153 -110 0
-153 152 0
153 110 -152 0
-154 -109 0
-154 153 0
154 109 -153 0
-155 -108 0
-155 154 0
155 108 -154 0
-156 -107 0
-156 155 0
156 107 -155 0
-157 -106 0
-157 156 0
157 106 -156 0
-158 -105 0
-158 157 0
158 105 -157 0
-159 -104 0
-159 158 0
159 104 -158 0
-160 -103 0
-160 159 0
160 103 -159 0
-161 -102 0
-161 160 0
161 102 -160 0
-162 -101 0
-162 161 0
162 101 -161 0
-163 -100 0
-163 162 0
163 100 -162 0
-164 -99 0
-164 163 0
164 99 -163 0
-165 -98 0
-165 164 0
165 98 -164 0
-166 -97 0
-166 165 0
166 97 -165 0
-167 -96 0
-167 166 0
167 96 -166 0
-168 -95 0
-168 167 0
168 95 -167 0
-169 -94 0
-169 168 0
169 94 -168 0
-170 -93 0
-170 169 0
170 93 -169 0
-171 -92 0
-171 170 0
171 92 -170 0
-172 -91 0
-172 171 0
172 91 -171 0
-173 -90 0
-173 172 0
173 90 -172 0
-174 -89 0
-174 173 0
174 89 -173 0
-175 -88 0
-175 174 0
175 88 -174 0
-176 -87 0
-176 175 0
176 87 -175 0
-177 -86 0
-177 176 0
177 86 -176 0
-178 -85 0
-178 177 0
178 85 -177 0
-179 -84 0
-179 178 0
179 84 -178 0
-180 -83 0
-180 179 0
180 83 -179 0
-181 -82 0
-181 180 0
181 82 -180 0
-182 -81 0
-182 181 0
182 81 -181 0
-183 -80 0
-183 182 0
183 80 -182 0
-184 -79 0
-184 183 0
184 79 -183 0
-185 -78 0
-185 184 0
185 78 -184 0
-186 -77 0
-186 185 0
186 77 -185 0
-187 -76 0
-187 186 0
187 76 -186 0
-188 -75 0
-188 187 0
188 75 -187 0
-189 -74 0
-189 188 0
189 74 -188 0
-190 -73 0
-190 189 0
190 73 -189 0
-191 -72 0
-191 190 0
191 72 -190 0
-192 -71 0
-192 191 0
192 71 -191 0
-193 -70 0
-193 192 0
193 70 -192 0
-194 -69 0
-194 193 0
194 69 -193 0
-195 -68 0
-195 194 0
195 68 -194 0
-196 -67 0
-196 195 0
196 67 -195 0
-199 -196 0
-199 -198 0
199 196 198 0
-201 199 0
-201 -200 0
201 -199 200 0
-202 19 0
-202 -197 0
202 -19 197 0
-203 -19 0
-203 197 0
203 19 -197 0
-204 -202 0
-204 -203 0
204 202 203 0
205 -2272 0
-205 2272 0
-206 204 0
-206 205 0
206 -204 -205 0
-207 201 0
-207 -206 0
207 -201 206 0
-208 -204 0
-208 -205 0
208 204 205 0
-209 207 0
-209 -208 0
209 -207 208 0
-210 67 0
-210 -205 0
210 -67 205 0
-211 -67 0
-211 205 0
211 67 -205 0
-212 -210 0
-212 -211 0
212 210 211 0
-213 209 0
-213 212 0
213 -209 -212 0
-214 -198 0
-214 213 0
214 198 -213 0
-215 -200 0
-215 214 0
215 200 -214 0
-216 18 0
-216 -197 0
216 -18 197 0
-217 -18 0
-217 197 0
217 18 -197 0
-218 -216 0
-218 -217 0
218 216 217 0
-219 215 0
-219 218 0
219 -215 -218 0
-220 -17 0
-220 219 0
220 17 -219 0
-221 -16 0
-221 220 0
221 16 -220 0
-222 -15 0
-222 221 0
222 15 -221 0
-225 222 0
-225 -224 0
225 -222 224 0
-227 225 0
-227 -226 0
227 -225 226 0
14 -2153 0
-14 2153 0
-228 14 0
-228 -223 0
228 -14 223 0
-229 -14 0
-229 223 0
229 14 -223 0
-230 -228 0
-230 -229 0
230 228 229 0
-231 227 0
-231 230 0
231 -227 -230 0
-234 231 0
-234 -233 0
234 -231 233 0
-236 234 0
-236 -235 0
236 -234 235 0
-237 13 0
-237 -232 0
237 -13 232 0
-238 -13 0
-238 232 0
238 13 -232 0
-239 -237 0
-239 -238 0
239 237 238 0
240 -2275 0
-240 2275 0
-241 239 0
-241 240 0
241 -239 -240 0
-242 236 0
-242 -241 0
242 -236 241 0
-243 -239 0
-243 -240 0
243 239 240 0
-244 242 0
-244 -243 0
244 -242 243 0
-245 63 0
-245 -240 0
245 -63 240 0
-246 -63 0
-246 240 0
246 63 -240 0
-247 -245 0
-247 -246 0
247 245 246 0
-248 244 0
-248 247 0
248 -244 -247 0
-249 -233 0
-249 248 0
249 233 -248 0
-250 -235 0
-250 249 0
250 235 -249 0
-251 12 0
-251 -232 0
251 -12 232 0
-252 -12 0
-252 232 0
252 12 -232 0
-253 -251 0
-253 -252 0
253 251 252 0
-254 250 0
-254 253 0
254 -250 -253 0
-255 -11 0
-255 254 0
255 11 -254 0
-258 255 0
-258 -257 0
258 -255 257 0
-260 258 0
-260 -259 0
260 -258 259 0
-261 10 0
-261 -256 0
261 -10 256 0
-262 -10 0
-262 256 0
262 10 -256 0
-263 -261 0
-263 -262 0
263 261 262 0
-264 260 0
-264 263 0
264 -260 -263 0
-267 264 0
-267 -266 0
267 -264 266 0
-269 267 0
-269 -268 0
269 -267 268 0
-270 9 0
-270 -265 0
270 -9 265 0
-271 -9 0
-271 265 0
271 9 -265 0
-272 -270 0
-272 -271 0
272 270 271 0
273 -2278 0
-273 2278 0
-274 272 0
-274 273 0
274 -272 -273 0
-275 269 0
-275 -274 0
275 -269 274 0
-276 -272 0
-276 -273 0
276 272 273 0
-277 275 0
-277 -276 0
277 -275 276 0
-278 65 0
-278 -273 0
278 -65 273 0
-279 -65 0
-279 273 0
279 65 -273 0
-280 -278 0
-280 -279 0
280 278 279 0
-281 277 0
-281 280 0
281 -277 -280 0
-284 281 0
-284 -283 0
284 -281 283 0
-286 284 0
-286 -285 0
286 -284 285 0
-287 8 0
-287 -282 0
287 -8 282 0
-288 -8 0
-288 282 0
288 8 -282 0
-289 -287 0
-289 -288 0
289 287 288 0
290 -2280 0
-290 2280 0
-291 289 0
-291 290 0
291 -289 -290 0
-292 286 0
-292 -291 0
292 -286 291 0
-293 -289 0
-293 -290 0
293 289 290 0
-294 292 0
-294 -293 0
294 -292 293 0
-295 64 0
-295 -290 0
295 -64 290 0
-296 -64 0
-296 290 0
296 64 -290 0
-297 -295 0
-297 -296 0
297 295 296 0
-298 294 0
-298 297 0
298 -294 -297 0
-301 298 0
-301 -300 0
301 -298 300 0
-303 301 0
-303 -302 0
303 -301 302 0
-304 7 0
-304 -299 0
304 -7 299 0
-305 -7 0
-305 299 0
305 7 -299 0
-306 -304 0
-306 -305 0
306 304 305 0
307 -2282 0
-307 2282 0
-308 306 0
-308 307 0
308 -306 -307 0
-309 303 0
-309 -308 0
309 -303 308 0
-310 -306 0
-310 -307 0
310 306 307 0
-311 309 0
-311 -310 0
311 -309 310 0
-312 57 0
-312 -307 0
312 -57 307 0
-313 -57 0
-313 307 0
313 57 -307 0
-314 -312 0
-314 -313 0
314 312 313 0
-315 311 0
-315 314 0
315 -311 -314 0
-316 -300 0
-316 315 0
316 300 -315 0
-317 -302 0
-317 316 0
317 302 -316 0
6 -2145 0
-6 2145 0
-318 6 0
-318 -299 0
318 -6 299 0
-319 -6 0
-319 299 0
319 6 -299 0
-320 -318 0
-320 -319 0
320 318 319 0
321 -2283 0
-321 2283 0
-322 320 0
-322 321 0
322 -320 -321 0
-323 317 0
-323 -322 0
323 -317 322 0
-324 -320 0
-324 -321 0
324 320 321 0
-325 323 0
-325 -324 0
325 -323 324 0
61 -2200 0
-61 2200 0
-326 61 0
-326 -321 0
326 -61 321 0
-327 -61 0
-327 321 0
327 61 -321 0
-328 -326 0
-328 -327 0
328 326 327 0
-329 325 0
-329 328 0
329 -325 -328 0
-332 329 0
-332 -331 0
332 -329 331 0
-334 332 0
-334 -333 0
334 -332 333 0
5 -2144 0
-5 2144 0
-335 5 0
-335 -330 0
335 -5 330 0
-336 -5 0
-336 330 0
336 5 -330 0
-337 -335 0
-337 -336 0
337 335 336 0
338 -2285 0
-338 2285 0
-339 337 0
-339 338 0
339 -337 -338 0
-340 334 0
-340 -339 0
340 -334 339 0
-341 -337 0
-341 -338 0
341 337 338 0
-342 340 0
-342 -341 0
342 -340 341 0
-343 61 0
-343 -338 0
343 -61 338 0
-344 -61 0
-344 338 0
344 61 -338 0
-345 -343 0
-345 -344 0
345 343 344 0
-346 342 0
-346 345 0
346 -342 -345 0
-349 346 0
-349 -348 0
349 -346 348 0
-351 349 0
-351 -350 0
351 -349 350 0
-352 4 0
-352 -347 0
352 -4 347 0
-353 -4 0
-353 347 0
353 4 -347 0
-354 -352 0
-354 -353 0
354 352 353 0
355 -2287 0
-355 2287 0
-356 354 0
-356 355 0
356 -354 -355 0
-357 351 0
-357 -356 0
357 -351 356 0
-358 -354 0
-358 -355 0
358 354 355 0
-359 357 0
-359 -358 0
359 -357 358 0
-360 60 0
-360 -355 0
360 -60 355 0
-361 -60 0
-361 355 0
361 60 -355 0
-362 -360 0
-362 -361 0
362 360 361 0
-363 359 0
-363 362 0
363 -359 -362 0
-366 363 0
-366 -365 0
366 -363 365 0
-368 366 0
-368 -367 0
368 -366 367 0
3 -2142 0
-3 2142 0
-369 3 0
-369 -364 0
369 -3 364 0
-370 -3 0
-370 364 0
370 3 -364 0
-371 -369 0
-371 -370 0
371 369 370 0
372 -2289 0
-372 2289 0
-373 371 0
-373 372 0
373 -371 -372 0
-374 368 0
-374 -373 0
374 -368 373 0
-375 -371 0
-375 -372 0
375 371 372 0
-376 374 0
-376 -375 0
376 -374 375 0
-377 59 0
-377 -372 0
377 -59 372 0
-378 -59 0
-378 372 0
378 59 -372 0
-379 -377 0
-379 -378 0
379 377 378 0
-380 376 0
-380 379 0
380 -376 -379 0
-383 380 0
-383 -382 0
383 -380 382 0
-385 383 0
-385 -384 0
385 -383 384 0
-386 2 0
-386 -381 0
386 -2 381 0
-387 -2 0
-387 381 0
387 2 -381 0
-388 -386 0
-388 -387 0
388 386 387 0
389 -2291 0
-389 2291 0
-390 388 0
-390 389 0
390 -388 -389 0
-391 385 0
-391 -390 0
391 -385 390 0
-392 -388 0
-392 -389 0
392 388 389 0
-393 391 0
-393 -392 0
393 -391 392 0
-394 58 0
-394 -389 0
394 -58 389 0
-395 -58 0
-395 389 0
395 58 -389 0
-396 -394 0
-396 -395 0
396 394 395 0
-397 393 0
-397 396 0
397 -393 -396 0
-400 397 0
-400 -399 0
400 -397 399 0
-402 400 0
-402 -401 0
402 -400 401 0
50 -2189 0
-50 2189 0
-403 50 0
-403 -398 0
403 -50 398 0
-404 -50 0
-404 398 0
404 50 -398 0
-405 -403 0
-405 -404 0
405 403 404 0
-406 402 0
-406 405 0
406 -402 -405 0
-409 406 0
-409 -408 0
409 -406 408 0
-411 409 0
-411 -410 0
411 -409 410 0
-412 50 0
-412 -407 0
412 -50 407 0
-413 -50 0
-413 407 0
413 50 -407 0
-414 -412 0
-414 -413 0
414 412 413 0
-415 411 0
-415 414 0
415 -411 -414 0
-416 -408 0
-416 415 0
416 408 -415 0
-417 -410 0
-417 416 0
417 410 -416 0
-418 54 0
-418 -407 0
418 -54 407 0
-419 -54 0
-419 407 0
419 54 -407 0
-420 -418 0
-420 -419 0
420 418 419 0
-421 417 0
-421 420 0
421 -417 -420 0
-424 421 0
-424 -423 0
424 -421 423 0
-426 424 0
-426 -425 0
426 -424 425 0
-427 53 0
-427 -422 0
427 -53 422 0
-428 -53 0
-428 422 0
428 53 -422 0
-429 -427 0
-429 -428 0
429 427 428 0
-430 426 0
-430 429 0
430 -426 -429 0
-433 430 0
-433 -432 0
433 -430 432 0
-435 433 0
-435 -434 0
435 -433 434 0
-436 52 0
-436 -431 0
436 -52 431 0
-437 -52 0
-437 431 0
437 52 -431 0
-438 -436 0
-438 -437 0
438 436 437 0
439 -2296 0
-439 2296 0
-440 438 0
-440 439 0
440 -438 -439 0
-441 435 0
-441 -440 0
441 -435 440 0
-442 -438 0
-442 -439 0
442 438 439 0
-443 441 0
-443 -442 0
443 -441 442 0
-444 67 0
-444 -439 0
444 -67 439 0
-445 -67 0
-445 439 0
445 67 -439 0
-446 -444 0
-446 -445 0
446 444 445 0
-447 443 0
-447 446 0
447 -443 -446 0
-450 447 0
-450 -449 0
450 -447 449 0
-452 450 0
-452 -451 0
452 -450 451 0
-453 51 0
-453 -448 0
453 -51 448 0
-454 -51 0
-454 448 0
454 51 -448 0
-455 -453 0
-455 -454 0
455 453 454 0
456 -2298 0
-456 2298 0
-457 455 0
-457 456 0
457 -455 -456 0
-458 452 0
-458 -457 0
458 -452 457 0
-459 -455 0
-459 -456 0
459 455 456 0
-460 458 0
-460 -459 0
460 -458 459 0
-461 66 0
-461 -456 0
461 -66 456 0
-462 -66 0
-462 456 0
462 66 -456 0
-463 -461 0
-463 -462 0
463 461 462 0
-464 460 0
-464 463 0
464 -460 -463 0
-467 464 0
-467 -466 0
467 -464 466 0
-469 467 0
-469 -468 0
469 -467 468 0
44 -2183 0
-44 2183 0
-470 44 0
-470 -465 0
470 -44 465 0
-471 -44 0
-471 465 0
471 44 -465 0
-472 -470 0
-472 -471 0
472 470 471 0
-473 469 0
-473 472 0
473 -469 -472 0
-476 473 0
-476 -475 0
476 -473 475 0
-478 476 0
-478 -477 0
478 -476 477 0
-479 44 0
-479 -474 0
479 -44 474 0
-480 -44 0
-480 474 0
480 44 -474 0
-481 -479 0
-481 -480 0
481 479 480 0
-482 478 0
-482 481 0
482 -478 -481 0
-483 -475 0
-483 482 0
483 475 -482 0
-484 -477 0
-484 483 0
484 477 -483 0
-485 48 0
-485 -474 0
485 -48 474 0
-486 -48 0
-486 474 0
486 48 -474 0
-487 -485 0
-487 -486 0
487 485 486 0
488 -2301 0
-488 2301 0
-489 487 0
-489 488 0
489 -487 -488 0
-490 484 0
-490 -489 0
490 -484 489 0
-491 -487 0
-491 -488 0
491 487 488 0
-492 490 0
-492 -491 0
492 -490 491 0
-493 65 0
-493 -488 0
493 -65 488 0
-494 -65 0
-494 488 0
494 65 -488 0
-495 -493 0
-495 -494 0
495 493 494 0
-496 492 0
-496 495 0
496 -492 -495 0
-499 496 0
-499 -498 0
499 -496 498 0
-501 499 0
-501 -500 0
501 -499 500 0
-502 47 0
-502 -497 0
502 -47 497 0
-503 -47 0
-503 497 0
503 47 -497 0
-504 -502 0
-504 -503 0
504 502 503 0
505 -2303 0
-505 2303 0
-506 504 0
-506 505 0
506 -504 -505 0
-507 501 0
-507 -506 0
507 -501 506 0
-508 -504 0
-508 -505 0
508 504 505 0
-509 507 0
-509 -508 0
509 -507 508 0
-510 64 0
-510 -505 0
510 -64 505 0
-511 -64 0
-511 505 0
511 64 -505 0
-512 -510 0
-512 -511 0
512 510 511 0
-513 509 0
-513 512 0
513 -509 -512 0
-516 513 0
-516 -515 0
516 -513 515 0
-518 516 0
-518 -517 0
518 -516 517 0
-519 46 0
-519 -514 0
519 -46 514 0
-520 -46 0
-520 514 0
520 46 -514 0
-521 -519 0
-521 -520 0
521 519 520 0
522 -2305 0
-522 2305 0
-523 521 0
-523 522 0
523 -521 -522 0
-524 518 0
-524 -523 0
524 -518 523 0
-525 -521 0
-525 -522 0
525 521 522 0
-526 524 0
-526 -525 0
526 -524 525 0
-527 63 0
-527 -522 0
527 -63 522 0
-528 -63 0
-528 522 0
528 63 -522 0
-529 -527 0
-529 -528 0
529 527 528 0
-530 526 0
-530 529 0
530 -526 -529 0
-533 530 0
-533 -532 0
533 -530 532 0
-535 533 0
-535 -534 0
535 -533 534 0
-536 45 0
-536 -531 0
536 -45 531 0
-537 -45 0
-537 531 0
537 45 -531 0
-538 -536 0
-538 -537 0
538 536 537 0
539 -2307 0
-539 2307 0
-540 538 0
-540 539 0
540 -538 -539 0
-541 535 0
-541 -540 0
541 -535 540 0
-542 -538 0
-542 -539 0
542 538 539 0
-543 541 0
-543 -542 0
543 -541 542 0
-544 62 0
-544 -539 0
544 -62 539 0
-545 -62 0
-545 539 0
545 62 -539 0
-546 -544 0
-546 -545 0
546 544 545 0
-547 543 0
-547 546 0
547 -543 -546 0
-550 547 0
-550 -549 0
550 -547 549 0
-552 550 0
-552 -551 0
552 -550 551 0
38 -2177 0
-38 2177 0
-553 38 0
-553 -548 0
553 -38 548 0
-554 -38 0
-554 548 0
554 38 -548 0
-555 -553 0
-555 -554 0
555 553 554 0
556 -2309 0
-556 2309 0
-557 555 0
-557 556 0
557 -555 -556 0
-558 552 0
-558 -557 0
558 -552 557 0
-559 -555 0
-559 -556 0
559 555 556 0
-560 558 0
-560 -559 0
560 -558 559 0
-561 61 0
-561 -556 0
561 -61 556 0
-562 -61 0
-562 556 0
562 61 -556 0
-563 -561 0
-563 -562 0
563 561 562 0
-564 560 0
-564 563 0
564 -560 -563 0
-567 564 0
-567 -566 0
567 -564 566 0
-569 567 0
-569 -568 0
569 -567 568 0
-570 38 0
-570 -565 0
570 -38 565 0
-571 -38 0
-571 565 0
571 38 -565 0
-572 -570 0
-572 -571 0
572 570 571 0
573 -2311 0
-573 2311 0
-574 572 0
-574 573 0
574 -572 -573 0
-575 569 0
-575 -574 0
575 -569 574 0
-576 -572 0
-576 -573 0
576 572 573 0
-577 575 0
-577 -576 0
577 -575 576 0
-578 60 0
-578 -573 0
578 -60 573 0
-579 -60 0
-579 573 0
579 60 -573 0
-580 -578 0
-580 -579 0
580 578 579 0
-581 577 0
-581 580 0
581 -577 -580 0
-582 -566 0
-582 581 0
582 566 -581 0
-583 -568 0
-583 582 0
583 568 -582 0
-584 42 0
-584 -565 0
584 -42 565 0
-585 -42 0
-585 565 0
585 42 -565 0
-586 -584 0
-586 -585 0
586 584 585 0
587 -2312 0
-587 2312 0
-588 586 0
-588 587 0
588 -586 -587 0
-589 583 0
-589 -588 0
589 -583 588 0
-590 -586 0
-590 -587 0
590 586 587 0
-591 589 0
-591 -590 0
591 -589 590 0
-592 59 0
-592 -587 0
592 -59 587 0
-593 -59 0
-593 587 0
593 59 -587 0
-594 -592 0
-594 -593 0
594 592 593 0
-595 591 0
-595 594 0
595 -591 -594 0
-598 595 0
-598 -597 0
598 -595 597 0
-600 598 0
-600 -599 0
600 -598 599 0
-601 41 0
-601 -596 0
601 -41 596 0
-602 -41 0
-602 596 0
602 41 -596 0
-603 -601 0
-603 -602 0
603 601 602 0
604 -2314 0
-604 2314 0
-605 603 0
-605 604 0
605 -603 -604 0
-606 600 0
-606 -605 0
606 -600 605 0
-607 -603 0
-607 -604 0
607 603 604 0
-608 606 0
-608 -607 0
608 -606 607 0
-609 58 0
-609 -604 0
609 -58 604 0
-610 -58 0
-610 604 0
610 58 -604 0
-611 -609 0
-611 -610 0
611 609 610 0
-612 608 0
-612 611 0
612 -608 -611 0
-615 612 0
-615 -614 0
615 -612 614 0
-617 615 0
-617 -616 0
617 -615 616 0
-618 40 0
-618 -613 0
618 -40 613 0
-619 -40 0
-619 613 0
619 40 -613 0
-620 -618 0
-620 -619 0
620 618 619 0
621 -2316 0
-621 2316 0
-622 620 0
-622 621 0
622 -620 -621 0
-623 617 0
-623 -622 0
623 -617 622 0
-624 -620 0
-624 -621 0
624 620 621 0
-625 623 0
-625 -624 0
625 -623 624 0
-626 57 0
-626 -621 0
626 -57 621 0
-627 -57 0
-627 621 0
627 57 -621 0
-628 -626 0
-628 -627 0
628 626 627 0
-629 625 0
-629 628 0
629 -625 -628 0
-632 629 0
-632 -631 0
632 -629 631 0
-634 632 0
-634 -633 0
634 -632 633 0
-635 39 0
-635 -630 0
635 -39 630 0
-636 -39 0
-636 630 0
636 39 -630 0
-637 -635 0
-637 -636 0
637 635 636 0
638 -2318 0
-638 2318 0
-639 637 0
-639 638 0
639 -637 -638 0
-640 634 0
-640 -639 0
640 -634 639 0
-641 -637 0
-641 -638 0
641 637 638 0
-642 640 0
-642 -641 0
642 -640 641 0
-643 56 0
-643 -638 0
643 -56 638 0
-644 -56 0
-644 638 0
644 56 -638 0
-645 -643 0
-645 -644 0
645 643 644 0
-646 642 0
-646 645 0
646 -642 -645 0
-649 646 0
-649 -648 0
649 -646 648 0
-651 649 0
-651 -650 0
651 -649 650 0
32 -2171 0
-32 2171 0
-652 32 0
-652 -647 0
652 -32 647 0
-653 -32 0
-653 647 0
653 32 -647 0
-654 -652 0
-654 -653 0
654 652 653 0
655 -2320 0
-655 2320 0
-656 654 0
-656 655 0
656 -654 -655 0
-657 651 0
-657 -656 0
657 -651 656 0
-658 -654 0
-658 -655 0
658 654 655 0
-659 657 0
-659 -658 0
659 -657 658 0
-660 55 0
-660 -655 0
660 -55 655 0
-661 -55 0
-661 655 0
661 55 -655 0
-662 -660 0
-662 -661 0
662 660 661 0
-663 659 0
-663 662 0
663 -659 -662 0
-666 663 0
-666 -665 0
666 -663 665 0
-668 666 0
-668 -667 0
668 -666 667 0
-669 32 0
-669 -664 0
669 -32 664 0
-670 -32 0
-670 664 0
670 32 -664 0
-671 -669 0
-671 -670 0
671 669 670 0
672 -2322 0
-672 2322 0
-673 671 0
-673 672 0
673 -671 -672 0
-674 668 0
-674 -673 0
674 -668 673 0
-675 -671 0
-675 -672 0
675 671 672 0
-676 674 0
-676 -675 0
676 -674 675 0
-677 54 0
-677 -672 0
677 -54 672 0
-678 -54 0
-678 672 0
678 54 -672 0
-679 -677 0
-679 -678 0
679 677 678 0
-680 676 0
-680 679 0
680 -676 -679 0
-681 -665 0
-681 680 0
681 665 -680 0
-682 -667 0
-682 681 0
682 667 -681 0
-683 36 0
-683 -664 0
683 -36 664 0
-684 -36 0
-684 664 0
684 36 -664 0
-685 -683 0
-685 -684 0
685 683 684 0
686 -2323 0
-686 2323 0
-687 685 0
-687 686 0
687 -685 -686 0
-688 682 0
-688 -687 0
688 -682 687 0
-689 -685 0
-689 -686 0
689 685 686 0
-690 688 0
-690 -689 0
690 -688 689 0
-691 53 0
-691 -686 0
691 -53 686 0
-692 -53 0
-692 686 0
692 53 -686 0
-693 -691 0
-693 -692 0
693 691 692 0
-694 690 0
-694 693 0
694 -690 -693 0
-697 694 0
-697 -696 0
697 -694 696 0
-699 697 0
-699 -698 0
699 -697 698 0
-700 35 0
-700 -695 0
700 -35 695 0
-701 -35 0
-701 695 0
701 35 -695 0
-702 -700 0
-702 -701 0
702 700 701 0
703 -2325 0
-703 2325 0
-704 702 0
-704 703 0
704 -702 -703 0
-705 699 0
-705 -704 0
705 -699 704 0
-706 -702 0
-706 -703 0
706 702 703 0
-707 705 0
-707 -706 0
707 -705 706 0
-708 52 0
-708 -703 0
708 -52 703 0
-709 -52 0
-709 703 0
709 52 -703 0
-710 -708 0
-710 -709 0
710 708 709 0
-711 707 0
-711 710 0
711 -707 -710 0
-714 711 0
-714 -713 0
714 -711 713 0
-716 714 0
-716 -715 0
716 -714 715 0
-717 34 0
-717 -712 0
717 -34 712 0
-718 -34 0
-718 712 0
718 34 -712 0
-719 -717 0
-719 -718 0
719 717 718 0
720 -2327 0
-720 2327 0
-721 719 0
-721 720 0
721 -719 -720 0
-722 716 0
-722 -721 0
722 -716 721 0
-723 -719 0
-723 -720 0
723 719 720 0
-724 722 0
-724 -723 0
724 -722 723 0
-725 51 0
-725 -720 0
725 -51 720 0
-726 -51 0
-726 720 0
726 51 -720 0
-727 -725 0
-727 -726 0
727 725 726 0
-728 724 0
-728 727 0
728 -724 -727 0
-731 728 0
-731 -730 0
731 -728 730 0
-733 731 0
-733 -732 0
733 -731 732 0
-734 33 0
-734 -729 0
734 -33 729 0
-735 -33 0
-735 729 0
735 33 -729 0
-736 -734 0
-736 -735 0
736 734 735 0
737 -2329 0
-737 2329 0
-738 736 0
-738 737 0
738 -736 -737 0
-739 733 0
-739 -738 0
739 -733 738 0
-740 -736 0
-740 -737 0
740 736 737 0
-741 739 0
-741 -740 0
741 -739 740 0
-742 50 0
-742 -737 0
742 -50 737 0
-743 -50 0
-743 737 0
743 50 -737 0
-744 -742 0
-744 -743 0
744 742 743 0
-745 741 0
-745 744 0
745 -741 -744 0
-748 745 0
-748 -747 0
748 -745 747 0
-750 748 0
-750 -749 0
750 -748 749 0
26 -2165 0
-26 2165 0
-751 26 0
-751 -746 0
751 -26 746 0
-752 -26 0
-752 746 0
752 26 -746 0
-753 -751 0
-753 -752 0
753 751 752 0
754 -2331 0
-754 2331 0
-755 753 0
-755 754 0
755 -753 -754 0
-756 750 0
-756 -755 0
756 -750 755 0
-757 -753 0
-757 -754 0
757 753 754 0
-758 756 0
-758 -757 0
758 -756 757 0
-759 49 0
-759 -754 0
759 -49 754 0
-760 -49 0
-760 754 0
760 49 -754 0
-761 -759 0
-761 -760 0
761 759 760 0
-762 758 0
-762 761 0
762 -758 -761 0
-765 762 0
-765 -764 0
765 -762 764 0
-767 765 0
-767 -766 0
767 -765 766 0
-768 26 0
-768 -763 0
768 -26 763 0
-769 -26 0
-769 763 0
769 26 -763 0
-770 -768 0
-770 -769 0
770 768 769 0
771 -2333 0
-771 2333 0
-772 770 0
-772 771 0
772 -770 -771 0
-773 767 0
-773 -772 0
773 -767 772 0
-774 -770 0
-774 -771 0
774 770 771 0
-775 773 0
-775 -774 0
775 -773 774 0
-776 48 0
-776 -771 0
776 -48 771 0
-777 -48 0
-777 771 0
777 48 -771 0
-778 -776 0
-778 -777 0
778 776 777 0
-779 775 0
-779 778 0
779 -775 -778 0
-780 -764 0
-780 779 0
780 764 -779 0
-781 -766 0
-781 780 0
781 766 -780 0
-782 30 0
-782 -763 0
782 -30 763 0
-783 -30 0
-783 763 0
783 30 -763 0
-784 -782 0
-784 -783 0
784 782 783 0
785 -2334 0
-785 2334 0
-786 784 0
-786 785 0
786 -784 -785 0
-787 781 0
-787 -786 0
787 -781 786 0
-788 -784 0
-788 -785 0
788 784 785 0
-789 787 0
-789 -788 0
789 -787 788 0
-790 47 0
-790 -785 0
790 -47 785 0
-791 -47 0
-791 785 0
791 47 -785 0
-792 -790 0
-792 -791 0
792 790 791 0
-793 789 0
-793 792 0
793 -789 -792 0
-796 793 0
-796 -795 0
796 -793 795 0
-798 796 0
-798 -797 0
798 -796 797 0
-799 29 0
-799 -794 0
799 -29 794 0
-800 -29 0
-800 794 0
800 29 -794 0
-801 -799 0
-801 -800 0
801 799 800 0
802 -2336 0
-802 2336 0
-803 801 0
-803 802 0
803 -801 -802 0
-804 798 0
-804 -803 0
804 -798 803 0
-805 -801 0
-805 -802 0
805 801 802 0
-806 804 0
-806 -805 0
806 -804 805 0
-807 46 0
-807 -802 0
807 -46 802 0
-808 -46 0
-808 802 0
808 46 -802 0
-809 -807 0
-809 -808 0
809 807 808 0
-810 806 0
-810 809 0
810 -806 -809 0
-813 810 0
-813 -812 0
813 -810 812 0
-815 813 0
-815 -814 0
815 -813 814 0
-816 28 0
-816 -811 0
816 -28 811 0
-817 -28 0
-817 811 0
817 28 -811 0
-818 -816 0
-818 -817 0
818 816 817 0
819 -2338 0
-819 2338 0
-820 818 0
-820 819 0
820 -818 -819 0
-821 815 0
-821 -820 0
821 -815 820 0
-822 -818 0
-822 -819 0
822 818 819 0
-823 821 0
-823 -822 0
823 -821 822 0
-824 45 0
-824 -819 0
824 -45 819 0
-825 -45 0
-825 819 0
825 45 -819 0
-826 -824 0
-826 -825 0
826 824 825 0
-827 823 0
-827 826 0
827 -823 -826 0
-830 827 0
-830 -829 0
830 -827 829 0
-832 830 0
-832 -831 0
832 -830 831 0
-833 27 0
-833 -828 0
833 -27 828 0
-834 -27 0
-834 828 0
834 27 -828 0
-835 -833 0
-835 -834 0
835 833 834 0
836 -2340 0
-836 2340 0
-837 835 0
-837 836 0
837 -835 -836 0
-838 832 0
-838 -837 0
838 -832 837 0
-839 -835 0
-839 -836 0
839 835 836 0
-840 838 0
-840 -839 0
840 -838 839 0
-841 44 0
-841 -836 0
841 -44 836 0
-842 -44 0
-842 836 0
842 44 -836 0
-843 -841 0
-843 -842 0
843 841 842 0
-844 840 0
-844 843 0
844 -840 -843 0
-847 844 0
-847 -846 0
847 -844 846 0
-849 847 0
-849 -848 0
849 -847 848 0
20 -2159 0
-20 2159 0
-850 20 0
-850 -845 0
850 -20 845 0
-851 -20 0
-851 845 0
851 20 -845 0
-852 -850 0
-852 -851 0
852 850 851 0
853 -2342 0
-853 2342 0
-854 852 0
-854 853 0
854 -852 -853 0
-855 849 0
-855 -854 0
855 -849 854 0
-856 -852 0
-856 -853 0
856 852 853 0
-857 855 0
-857 -856 0
857 -855 856 0
-858 43 0
-858 -853 0
858 -43 853 0
-859 -43 0
-859 853 0
859 43 -853 0
-860 -858 0
-860 -859 0
860 858 859 0
-861 857 0
-861 860 0
861 -857 -860 0
-864 861 0
-864 -863 0
864 -861 863 0
-866 864 0
-866 -865 0
866 -864 865 0
-867 20 0
-867 -862 0
867 -20 862 0
-868 -20 0
-868 862 0
868 20 -862 0
-869 -867 0
-869 -868 0
869 867 868 0
870 -2344 0
-870 2344 0
-871 869 0
-871 870 0
871 -869 -870 0
-872 866 0
-872 -871 0
872 -866 871 0
-873 -869 0
-873 -870 0
873 869 870 0
-874 872 0
-874 -873 0
874 -872 873 0
-875 42 0
-875 -870 0
875 -42 870 0
-876 -42 0
-876 870 0
876 42 -870 0
-877 -875 0
-877 -876 0
877 875 876 0
-878 874 0
-878 877 0
878 -874 -877 0
-879 -863 0
-879 878 0
879 863 -878 0
-880 -865 0
-880 879 0
880 865 -879 0
-881 24 0
-881 -862 0
881 -24 862 0
-882 -24 0
-882 862 0
882 24 -862 0
-883 -881 0
-883 -882 0
883 881 882 0
884 -2345 0
-884 2345 0
-885 883 0
-885 884 0
885 -883 -884 0
-886 880 0
-886 -885 0
886 -880 885 0
-887 -883 0
-887 -884 0
887 883 884 0
-888 886 0
-888 -887 0
888 -886 887 0
-889 41 0
-889 -884 0
889 -41 884 0
-890 -41 0
-890 884 0
890 41 -884 0
-891 -889 0
-891 -890 0
891 889 890 0
-892 888 0
-892 891 0
892 -888 -891 0
-895 892 0
-895 -894 0
895 -892 894 0
-897 895 0
-897 -896 0
897 -895 896 0
-898 23 0
-898 -893 0
898 -23 893 0
-899 -23 0
-899 893 0
899 23 -893 0
-900 -898 0
-900 -899 0
900 898 899 0
901 -2347 0
-901 2347 0
-902 900 0
-902 901 0
902 -900 -901 0
-903 897 0
-903 -902 0
903 -897 902 0
-904 -900 0
-904 -901 0
904 900 901 0
-905 903 0
-905 -904 0
905 -903 904 0
-906 40 0
-906 -901 0
906 -40 901 0
-907 -40 0
-907 901 0
907 40 -901 0
-908 -906 0
-908 -907 0
908 906 907 0
-909 905 0
-909 908 0
909 -905 -908 0
-912 909 0
-912 -911 0
912 -909 911 0
-914 912 0
-914 -913 0
914 -912 913 0
-915 22 0
-915 -910 0
915 -22 910 0
-916 -22 0
-916 910 0
916 22 -910 0
-917 -915 0
-917 -916 0
917 915 916 0
918 -2349 0
-918 2349 0
-919 917 0
-919 918 0
919 -917 -918 0
-920 914 0
-920 -919 0
920 -914 919 0
-921 -917 0
-921 -918 0
921 917 918 0
-922 920 0
-922 -921 0
922 -920 921 0
-923 39 0
-923 -918 0
923 -39 918 0
-924 -39 0
-924 918 0
924 39 -918 0
-925 -923 0
-925 -924 0
925 923 924 0
-926 922 0
-926 925 0
926 -922 -925 0
-929 926 0
-929 -928 0
929 -926 928 0
-931 929 0
-931 -930 0
931 -929 930 0
-932 21 0
-932 -927 0
932 -21 927 0
-933 -21 0
-933 927 0
933 21 -927 0
-934 -932 0
-934 -933 0
934 932 933 0
935 -2351 0
-935 2351 0
-936 934 0
-936 935 0
936 -934 -935 0
-937 931 0
-937 -936 0
937 -931 936 0
-938 -934 0
-938 -935 0
938 934 935 0
-939 937 0
-939 -938 0
939 -937 938 0
-940 38 0
-940 -935 0
940 -38 935 0
-941 -38 0
-941 935 0
941 38 -935 0
-942 -940 0
-942 -941 0
942 940 941 0
-943 939 0
-943 942 0
943 -939 -942 0
-946 943 0
-946 -945 0
946 -943 945 0
-948 946 0
-948 -947 0
948 -946 947 0
-949 14 0
-949 -944 0
949 -14 944 0
-950 -14 0
-950 944 0
950 14 -944 0
-951 -949 0
-951 -950 0
951 949 950 0
952 -2353 0
-952 2353 0
-953 951 0
-953 952 0
953 -951 -952 0
-954 948 0
-954 -953 0
954 -948 953 0
-955 -951 0
-955 -952 0
955 951 952 0
-956 954 0
-956 -955 0
956 -954 955 0
-957 37 0
-957 -952 0
957 -37 952 0
-958 -37 0
-958 952 0
958 37 -952 0
-959 -957 0
-959 -958 0
959 957 958 0
-960 956 0
-960 959 0
960 -956 -959 0
-963 960 0
-963 -962 0
963 -960 962 0
-965 963 0
-965 -964 0
965 -963 964 0
-966 14 0
-966 -961 0
966 -14 961 0
-967 -14 0
-967 961 0
967 14 -961 0
-968 -966 0
-968 -967 0
968 966 967 0
969 -2355 0
-969 2355 0
-970 968 0
-970 969 0
970 -968 -969 0
-971 965 0
-971 -970 0
971 -965 970 0
-972 -968 0
-972 -969 0
972 968 969 0
-973 971 0
-973 -972 0
973 -971 972 0
-974 36 0
-974 -969 0
974 -36 969 0
-975 -36 0
-975 969 0
975 36 -969 0
-976 -974 0
-976 -975 0
976 974 975 0
-977 973 0
-977 976 0
977 -973 -976 0
-978 -962 0
-978 977 0
978 962 -977 0
-979 -964 0
-979 978 0
979 964 -978 0
-980 18 0
-980 -961 0
980 -18 961 0
-981 -18 0
-981 961 0
981 18 -961 0
-982 -980 0
-982 -981 0
982 980 981 0
983 -2356 0
-983 2356 0
-984 982 0
-984 983 0
984 -982 -983 0
-985 979 0
-985 -984 0
985 -979 984 0
-986 -982 0
-986 -983 0
986 982 983 0
-987 985 0
-987 -986 0
987 -985 986 0
-988 35 0
-988 -983 0
988 -35 983 0
-989 -35 0
-989 983 0
989 35 -983 0
-990 -988 0
-990 -989 0
990 988 989 0
-991 987 0
-991 990 0
991 -987 -990 0
-994 991 0
-994 -993 0
994 -991 993 0
-996 994 0
-996 -995 0
996 -994 995 0
-997 17 0
-997 -992 0
997 -17 992 0
-998 -17 0
-998 992 0
998 17 -992 0
-999 -997 0
-999 -998 0
999 997 998 0
1000 -2358 0
-1000 2358 0
-1001 999 0
-1001 1000 0
1001 -999 -1000 0
-1002 996 0
-1002 -1001 0
1002 -996 1001 0
-1003 -999 0
-1003 -1000 0
1003 999 1000 0
-1004 1002 0
-1004 -1003 0
1004 -1002 1003 0
-1005 34 0
-1005 -1000 0
1005 -34 1000 0
-1006 -34 0
-1006 1000 0
1006 34 -1000 0
-1007 -1005 0
-1007 -1006 0
1007 1005 1006 0
-1008 1004 0
-1008 1007 0
1008 -1004 -1007 0
-1011 1008 0
-1011 -1010 0
1011 -1008 1010 0
-1013 1011 0
-1013 -1012 0
1013 -1011 1012 0
-1014 16 0
-1014 -1009 0
1014 -16 1009 0
-1015 -16 0
-1015 1009 0
1015 16 -1009 0
-1016 -1014 0
-1016 -1015 0
1016 1014 1015 0
1017 -2360 0
-1017 2360 0
-1018 1016 0
-1018 1017 0
1018 -1016 -1017 0
-1019 1013 0
-1019 -1018 0
1019 -1013 1018 0
-1020 -1016 0
-1020 -1017 0
1020 1016 1017 0
-1021 1019 0
-1021 -1020 0
1021 -1019 1020 0
-1022 33 0
-1022 -1017 0
1022 -33 1017 0
-1023 -33 0
-1023 1017 0
1023 33 -1017 0
-1024 -1022 0
-1024 -1023 0
1024 1022 1023 0
-1025 1021 0
-1025 1024 0
1025 -1021 -1024 0
-1028 1025 0
-1028 -1027 0
1028 -1025 1027 0
-1030 1028 0
-1030 -1029 0
1030 -1028 1029 0
-1031 15 0
-1031 -1026 0
1031 -15 1026 0
-1032 -15 0
-1032 1026 0
1032 15 -1026 0
-1033 -1031 0
-1033 -1032 0
1033 1031 1032 0
1034 -2362 0
-1034 2362 0
-1035 1033 0
-1035 1034 0
1035 -1033 -1034 0
-1036 1030 0
-1036 -1035 0
1036 -1030 1035 0
-1037 -1033 0
-1037 -1034 0
1037 1033 1034 0
-1038 1036 0
-1038 -1037 0
1038 -1036 1037 0
-1039 32 0
-1039 -1034 0
1039 -32 1034 0
-1040 -32 0
-1040 1034 0
1040 32 -1034 0
-1041 -1039 0
-1041 -1040 0
1041 1039 1040 0
-1042 1038 0
-1042 1041 0
1042 -1038 -1041 0
-1045 1042 0
-1045 -1044 0
1045 -1042 1044 0
-1047 1045 0
-1047 -1046 0
1047 -1045 1046 0
-1048 8 0
-1048 -1043 0
1048 -8 1043 0
-1049 -8 0
-1049 1043 0
1049 8 -1043 0
-1050 -1048 0
-1050 -1049 0
1050 1048 1049 0
1051 -2364 0
-1051 2364 0
-1052 1050 0
-1052 1051 0
1052 -1050 -1051 0
-1053 1047 0
-1053 -1052 0
1053 -1047 1052 0
-1054 -1050 0
-1054 -1051 0
1054 1050 1051 0
-1055 1053 0
-1055 -1054 0
1055 -1053 1054 0
-1056 31 0
-1056 -1051 0
1056 -31 1051 0
-1057 -31 0
-1057 1051 0
1057 31 -1051 0
-1058 -1056 0
-1058 -1057 0
1058 1056 1057 0
-1059 1055 0
-1059 1058 0
1059 -1055 -1058 0
-1062 1059 0
-1062 -1061 0
1062 -1059 1061 0
-1064 1062 0
-1064 -1063 0
1064 -1062 1063 0
-1065 8 0
-1065 -1060 0
1065 -8 1060 0
-1066 -8 0
-1066 1060 0
1066 8 -1060 0
-1067 -1065 0
-1067 -1066 0
1067 1065 1066 0
1068 -2366 0
-1068 2366 0
-1069 1067 0
-1069 1068 0
1069 -1067 -1068 0
-1070 1064 0
-1070 -1069 0
1070 -1064 1069 0
-1071 -1067 0
-1071 -1068 0
1071 1067 1068 0
-1072 1070 0
-1072 -1071 0
1072 -1070 1071 0
-1073 30 0
-1073 -1068 0
1073 -30 1068 0
-1074 -30 0
-1074 1068 0
1074 30 -1068 0
-1075 -1073 0
-1075 -1074 0
1075 1073 1074 0
-1076 1072 0
-1076 1075 0
1076 -1072 -1075 0
-1077 -1061 0
-1077 1076 0
1077 1061 -1076 0
-1078 -1063 0
-1078 1077 0
1078 1063 -1077 0
-1079 12 0
-1079 -1060 0
1079 -12 1060 0
-1080 -12 0
-1080 1060 0
1080 12 -1060 0
-1081 -1079 0
-1081 -1080 0
1081 1079 1080 0
1082 -2367 0
-1082 2367 0
-1083 1081 0
-1083 1082 0
1083 -1081 -1082 0
-1084 1078 0
-1084 -1083 0
1084 -1078 1083 0
-1085 -1081 0
-1085 -1082 0
1085 1081 1082 0
-1086 1084 0
-1086 -1085 0
1086 -1084 1085 0
-1087 29 0
-1087 -1082 0
1087 -29 1082 0
-1088 -29 0
-1088 1082 0
1088 29 -1082 0
-1089 -1087 0
-1089 -1088 0
1089 1087 1088 0
-1090 1086 0
-1090 1089 0
1090 -1086 -1089 0
-1093 1090 0
-1093 -1092 0
1093 -1090 1092 0
-1095 1093 0
-1095 -1094 0
1095 -1093 1094 0
-1096 11 0
-1096 -1091 0
1096 -11 1091 0
-1097 -11 0
-1097 1091 0
1097 11 -1091 0
-1098 -1096 0
-1098 -1097 0
1098 1096 1097 0
1099 -2369 0
-1099 2369 0
-1100 1098 0
-1100 1099 0
1100 -1098 -1099 0
-1101 1095 0
-1101 -1100 0
1101 -1095 1100 0
-1102 -1098 0
-1102 -1099 0
1102 1098 1099 0
-1103 1101 0
-1103 -1102 0
1103 -1101 1102 0
-1104 28 0
-1104 -1099 0
1104 -28 1099 0
-1105 -28 0
-1105 1099 0
1105 28 -1099 0
-1106 -1104 0
-1106 -1105 0
1106 1104 1105 0
-1107 1103 0
-1107 1106 0
1107 -1103 -1106 0
-1110 1107 0
-1110 -1109 0
1110 -1107 1109 0
-1112 1110 0
-1112 -1111 0
1112 -1110 1111 0
-1113 10 0
-1113 -1108 0
1113 -10 1108 0
-1114 -10 0
-1114 1108 0
1114 10 -1108 0
-1115 -1113 0
-1115 -1114 0
1115 1113 1114 0
1116 -2371 0
-1116 2371 0
-1117 1115 0
-1117 1116 0
1117 -1115 -1116 0
-1118 1112 0
-1118 -1117 0
1118 -1112 1117 0
-1119 -1115 0
-1119 -1116 0
1119 1115 1116 0
-1120 1118 0
-1120 -1119 0
1120 -1118 1119 0
-1121 27 0
-1121 -1116 0
1121 -27 1116 0
-1122 -27 0
-1122 1116 0
1122 27 -1116 0
-1123 -1121 0
-1123 -1122 0
1123 1121 1122 0
-1124 1120 0
-1124 1123 0
1124 -1120 -1123 0
-1127 1124 0
-1127 -1126 0
1127 -1124 1126 0
-1129 1127 0
-1129 -1128 0
1129 -1127 1128 0
-1130 9 0
-1130 -1125 0
1130 -9 1125 0
-1131 -9 0
-1131 1125 0
1131 9 -1125 0
-1132 -1130 0
-1132 -1131 0
1132 1130 1131 0
1133 -2373 0
-1133 2373 0
-1134 1132 0
-1134 1133 0
1134 -1132 -1133 0
-1135 1129 0
-1135 -1134 0
1135 -1129 1134 0
-1136 -1132 0
-1136 -1133 0
1136 1132 1133 0
-1137 1135 0
-1137 -1136 0
1137 -1135 1136 0
-1138 26 0
-1138 -1133 0
1138 -26 1133 0
-1139 -26 0
-1139 1133 0
1139 26 -1133 0
-1140 -1138 0
-1140 -1139 0
1140 1138 1139 0
-1141 1137 0
-1141 1140 0
1141 -1137 -1140 0
1142 -2374 0
-1142 2374 0
-1143 3 0
-1143 -1142 0
1143 -3 1142 0
-1144 1141 0
-1144 -1143 0
1144 -1141 1143 0
-1145 -3 0
-1145 1142 0
1145 3 -1142 0
-1146 1144 0
-1146 -1145 0
1146 -1144 1145 0
-1147 2 0
-1147 -1142 0
1147 -2 1142 0
-1148 -2 0
-1148 1142 0
1148 2 -1142 0
-1149 -1147 0
-1149 -1148 0
1149 1147 1148 0
1150 -2375 0
-1150 2375 0
-1151 1149 0
-1151 1150 0
1151 -1149 -1150 0
-1152 1146 0
-1152 -1151 0
1152 -1146 1151 0
-1153 -1149 0
-1153 -1150 0
1153 1149 1150 0
-1154 1152 0
-1154 -1153 0
1154 -1152 1153 0
-1155 25 0
-1155 -1150 0
1155 -25 1150 0
-1156 -25 0
-1156 1150 0
1156 25 -1150 0
-1157 -1155 0
-1157 -1156 0
1157 1155 1156 0
-1158 1154 0
-1158 1157 0
1158 -1154 -1157 0
-1161 1158 0
-1161 -1160 0
1161 -1158 1160 0
-1163 1161 0
-1163 -1162 0
1163 -1161 1162 0
-1164 2 0
-1164 -1159 0
1164 -2 1159 0
-1165 -2 0
-1165 1159 0
1165 2 -1159 0
-1166 -1164 0
-1166 -1165 0
1166 1164 1165 0
1167 -2377 0
-1167 2377 0
-1168 1166 0
-1168 1167 0
1168 -1166 -1167 0
-1169 1163 0
-1169 -1168 0
1169 -1163 1168 0
-1170 -1166 0
-1170 -1167 0
1170 1166 1167 0
-1171 1169 0
-1171 -1170 0
1171 -1169 1170 0
-1172 24 0
-1172 -1167 0
1172 -24 1167 0
-1173 -24 0
-1173 1167 0
1173 24 -1167 0
-1174 -1172 0
-1174 -1173 0
1174 1172 1173 0
-1175 1171 0
-1175 1174 0
1175 -1171 -1174 0
-1176 -1160 0
-1176 1175 0
1176 1160 -1175 0
-1177 -1162 0
-1177 1176 0
1177 1162 -1176 0
-1178 6 0
-1178 -1159 0
1178 -6 1159 0
-1179 -6 0
-1179 1159 0
1179 6 -1159 0
-1180 -1178 0
-1180 -1179 0
1180 1178 1179 0
1181 -2378 0
-1181 2378 0
-1182 1180 0
-1182 1181 0
1182 -1180 -1181 0
-1183 1177 0
-1183 -1182 0
1183 -1177 1182 0
-1184 -1180 0
-1184 -1181 0
1184 1180 1181 0
-1185 1183 0
-1185 -1184 0
1185 -1183 1184 0
-1186 23 0
-1186 -1181 0
1186 -23 1181 0
-1187 -23 0
-1187 1181 0
1187 23 -1181 0
-1188 -1186 0
-1188 -1187 0
1188 1186 1187 0
-1189 1185 0
-1189 1188 0
1189 -1185 -1188 0
1190 -2379 0
-1190 2379 0
-1191 6 0
-1191 -1190 0
1191 -6 1190 0
-1192 1189 0
-1192 -1191 0
1192 -1189 1191 0
-1193 -6 0
-1193 1190 0
1193 6 -1190 0
-1194 1192 0
-1194 -1193 0
1194 -1192 1193 0
-1195 5 0
-1195 -1190 0
1195 -5 1190 0
-1196 -5 0
-1196 1190 0
1196 5 -1190 0
-1197 -1195 0
-1197 -1196 0
1197 1195 1196 0
1198 -2380 0
-1198 2380 0
-1199 1197 0
-1199 1198 0
1199 -1197 -1198 0
-1200 1194 0
-1200 -1199 0
1200 -1194 1199 0
-1201 -1197 0
-1201 -1198 0
1201 1197 1198 0
-1202 1200 0
-1202 -1201 0
1202 -1200 1201 0
-1203 22 0
-1203 -1198 0
1203 -22 1198 0
-1204 -22 0
-1204 1198 0
1204 22 -1198 0
-1205 -1203 0
-1205 -1204 0
1205 1203 1204 0
-1206 1202 0
-1206 1205 0
1206 -1202 -1205 0
1207 -2381 0
-1207 2381 0
-1208 5 0
-1208 -1207 0
1208 -5 1207 0
-1209 1206 0
-1209 -1208 0
1209 -1206 1208 0
-1210 -5 0
-1210 1207 0
1210 5 -1207 0
-1211 1209 0
-1211 -1210 0
1211 -1209 1210 0
-1212 4 0
-1212 -1207 0
1212 -4 1207 0
-1213 -4 0
-1213 1207 0
1213 4 -1207 0
-1214 -1212 0
-1214 -1213 0
1214 1212 1213 0
1215 -2382 0
-1215 2382 0
-1216 1214 0
-1216 1215 0
1216 -1214 -1215 0
-1217 1211 0
-1217 -1216 0
1217 -1211 1216 0
-1218 -1214 0
-1218 -1215 0
1218 1214 1215 0
-1219 1217 0
-1219 -1218 0
1219 -1217 1218 0
-1220 21 0
-1220 -1215 0
1220 -21 1215 0
-1221 -21 0
-1221 1215 0
1221 21 -1215 0
-1222 -1220 0
-1222 -1221 0
1222 1220 1221 0
-1223 1219 0
-1223 1222 0
1223 -1219 -1222 0
1224 -2383 0
-1224 2383 0
-1225 4 0
-1225 -1224 0
1225 -4 1224 0
-1226 1223 0
-1226 -1225 0
1226 -1223 1225 0
-1227 -4 0
-1227 1224 0
1227 4 -1224 0
-1228 1226 0
-1228 -1227 0
1228 -1226 1227 0
-1229 3 0
-1229 -1224 0
1229 -3 1224 0
-1230 -3 0
-1230 1224 0
1230 3 -1224 0
-1231 -1229 0
-1231 -1230 0
1231 1229 1230 0
1232 -2384 0
-1232 2384 0
-1233 1231 0
-1233 1232 0
1233 -1231 -1232 0
-1234 1228 0
-1234 -1233 0
1234 -1228 1233 0
-1235 -1231 0
-1235 -1232 0
1235 1231 1232 0
-1236 1234 0
-1236 -1235 0
1236 -1234 1235 0
-1237 20 0
-1237 -1232 0
1237 -20 1232 0
-1238 -20 0
-1238 1232 0
1238 20 -1232 0
-1239 -1237 0
-1239 -1238 0
1239 1237 1238 0
-1240 1236 0
-1240 1239 0
1240 -1236 -1239 0
-1241 -1061 0
-1241 1240 0
1241 1061 -1240 0
-1242 -1063 0
-1242 1241 0
1242 1063 -1241 0
-1243 7 0
-1243 -1060 0
1243 -7 1060 0
-1244 -7 0
-1244 1060 0
1244 7 -1060 0
-1245 -1243 0
-1245 -1244 0
1245 1243 1244 0
-1246 1242 0
-1246 1245 0
1246 -1242 -1245 0
-1247 -1092 0
-1247 1246 0
1247 1092 -1246 0
-1248 -1094 0
-1248 1247 0
1248 1094 -1247 0
-1249 6 0
-1249 -1091 0
1249 -6 1091 0
-1250 -6 0
-1250 1091 0
1250 6 -1091 0
-1251 -1249 0
-1251 -1250 0
1251 1249 1250 0
1252 -2385 0
-1252 2385 0
-1253 1251 0
-1253 1252 0
1253 -1251 -1252 0
-1254 1248 0
-1254 -1253 0
1254 -1248 1253 0
-1255 -1251 0
-1255 -1252 0
1255 1251 1252 0
-1256 1254 0
-1256 -1255 0
1256 -1254 1255 0
-1257 67 0
-1257 -1252 0
1257 -67 1252 0
-1258 -67 0
-1258 1252 0
1258 67 -1252 0
-1259 -1257 0
-1259 -1258 0
1259 1257 1258 0
-1260 1256 0
-1260 1259 0
1260 -1256 -1259 0
-1261 -1109 0
-1261 1260 0
1261 1109 -1260 0
-1262 -1111 0
-1262 1261 0
1262 1111 -1261 0
-1263 5 0
-1263 -1108 0
1263 -5 1108 0
-1264 -5 0
-1264 1108 0
1264 5 -1108 0
-1265 -1263 0
-1265 -1264 0
1265 1263 1264 0
1266 -2386 0
-1266 2386 0
-1267 1265 0
-1267 1266 0
1267 -1265 -1266 0
-1268 1262 0
-1268 -1267 0
1268 -1262 1267 0
-1269 -1265 0
-1269 -1266 0
1269 1265 1266 0
-1270 1268 0
-1270 -1269 0
1270 -1268 1269 0
-1271 66 0
-1271 -1266 0
1271 -66 1266 0
-1272 -66 0
-1272 1266 0
1272 66 -1266 0
-1273 -1271 0
-1273 -1272 0
1273 1271 1272 0
-1274 1270 0
-1274 1273 0
1274 -1270 -1273 0
-1275 -1126 0
-1275 1274 0
1275 1126 -1274 0
-1276 -1128 0
-1276 1275 0
1276 1128 -1275 0
-1277 4 0
-1277 -1125 0
1277 -4 1125 0
-1278 -4 0
-1278 1125 0
1278 4 -1125 0
-1279 -1277 0
-1279 -1278 0
1279 1277 1278 0
-1280 1276 0
-1280 1279 0
1280 -1276 -1279 0
-1281 -1044 0
-1281 1280 0
1281 1044 -1280 0
-1282 -1046 0
-1282 1281 0
1282 1046 -1281 0
-1283 3 0
-1283 -1043 0
1283 -3 1043 0
-1284 -3 0
-1284 1043 0
1284 3 -1043 0
-1285 -1283 0
-1285 -1284 0
1285 1283 1284 0
-1286 1282 0
-1286 1285 0
1286 -1282 -1285 0
-1289 1286 0
-1289 -1288 0
1289 -1286 1288 0
-1291 1289 0
-1291 -1290 0
1291 -1289 1290 0
-1292 2 0
-1292 -1287 0
1292 -2 1287 0
-1293 -2 0
-1293 1287 0
1293 2 -1287 0
-1294 -1292 0
-1294 -1293 0
1294 1292 1293 0
-1295 1291 0
-1295 1294 0
1295 -1291 -1294 0
-1296 -266 0
-1296 1295 0
1296 266 -1295 0
-1297 -268 0
-1297 1296 0
1297 268 -1296 0
-1298 7 0
-1298 -265 0
1298 -7 265 0
-1299 -7 0
-1299 265 0
1299 7 -265 0
-1300 -1298 0
-1300 -1299 0
1300 1298 1299 0
-1301 1297 0
-1301 1300 0
1301 -1297 -1300 0
-1302 -283 0
-1302 1301 0
1302 283 -1301 0
-1303 -285 0
-1303 1302 0
1303 285 -1302 0
-1304 6 0
-1304 -282 0
1304 -6 282 0
-1305 -6 0
-1305 282 0
1305 6 -282 0
-1306 -1304 0
-1306 -1305 0
1306 1304 1305 0
-1307 1303 0
-1307 1306 0
1307 -1303 -1306 0
-1308 -233 0
-1308 1307 0
1308 233 -1307 0
-1309 -235 0
-1309 1308 0
1309 235 -1308 0
-1310 5 0
-1310 -232 0
1310 -5 232 0
-1311 -5 0
-1311 232 0
1311 5 -232 0
-1312 -1310 0
-1312 -1311 0
1312 1310 1311 0
-1313 1309 0
-1313 1312 0
1313 -1309 -1312 0
-1314 -4 0
-1314 1313 0
1314 4 -1313 0
-1315 -224 0
-1315 1314 0
1315 224 -1314 0
-1316 -226 0
-1316 1315 0
1316 226 -1315 0
-1317 3 0
-1317 -223 0
1317 -3 223 0
-1318 -3 0
-1318 223 0
1318 3 -223 0
-1319 -1317 0
-1319 -1318 0
1319 1317 1318 0
-1320 1316 0
-1320 1319 0
1320 -1316 -1319 0
-1321 -257 0
-1321 1320 0
1321 257 -1320 0
-1322 -259 0
-1322 1321 0
1322 259 -1321 0
-1323 2 0
-1323 -256 0
1323 -2 256 0
-1324 -2 0
-1324 256 0
1324 2 -256 0
-1325 -1323 0
-1325 -1324 0
1325 1323 1324 0
1326 -2388 0
-1326 2388 0
-1327 1325 0
-1327 1326 0
1327 -1325 -1326 0
-1328 1322 0
-1328 -1327 0
1328 -1322 1327 0
-1329 -1325 0
-1329 -1326 0
1329 1325 1326 0
-1330 1328 0
-1330 -1329 0
1330 -1328 1329 0
-1331 66 0
-1331 -1326 0
1331 -66 1326 0
-1332 -66 0
-1332 1326 0
1332 66 -1326 0
-1333 -1331 0
-1333 -1332 0
1333 1331 1332 0
-1334 1330 0
-1334 1333 0
1334 -1330 -1333 0
-1335 -58 0
-1335 1334 0
1335 58 -1334 0
-1336 -57 0
-1336 1335 0
1336 57 -1335 0
-1337 -257 0
-1337 1336 0
1337 257 -1336 0
-1338 -259 0
-1338 1337 0
1338 259 -1337 0
-1339 56 0
-1339 -256 0
1339 -56 256 0
-1340 -56 0
-1340 256 0
1340 56 -256 0
-1341 -1339 0
-1341 -1340 0
1341 1339 1340 0
-1342 1338 0
-1342 1341 0
1342 -1338 -1341 0
-1343 -266 0
-1343 1342 0
1343 266 -1342 0
-1344 -268 0
-1344 1343 0
1344 268 -1343 0
-1345 61 0
-1345 -265 0
1345 -61 265 0
-1346 -61 0
-1346 265 0
1346 61 -265 0
-1347 -1345 0
-1347 -1346 0
1347 1345 1346 0
-1348 1344 0
-1348 1347 0
1348 -1344 -1347 0
-1349 -283 0
-1349 1348 0
1349 283 -1348 0
-1350 -285 0
-1350 1349 0
1350 285 -1349 0
-1351 60 0
-1351 -282 0
1351 -60 282 0
-1352 -60 0
-1352 282 0
1352 60 -282 0
-1353 -1351 0
-1353 -1352 0
1353 1351 1352 0
1354 -2389 0
-1354 2389 0
-1355 1353 0
-1355 1354 0
1355 -1353 -1354 0
-1356 1350 0
-1356 -1355 0
1356 -1350 1355 0
-1357 -1353 0
-1357 -1354 0
1357 1353 1354 0
-1358 1356 0
-1358 -1357 0
1358 -1356 1357 0
-1359 67 0
-1359 -1354 0
1359 -67 1354 0
-1360 -67 0
-1360 1354 0
1360 67 -1354 0
-1361 -1359 0
-1361 -1360 0
1361 1359 1360 0
-1362 1358 0
-1362 1361 0
1362 -1358 -1361 0
-1363 -233 0
-1363 1362 0
1363 233 -1362 0
-1364 -235 0
-1364 1363 0
1364 235 -1363 0
-1365 59 0
-1365 -232 0
1365 -59 232 0
-1366 -59 0
-1366 232 0
1366 59 -232 0
-1367 -1365 0
-1367 -1366 0
1367 1365 1366 0
1368 -2390 0
-1368 2390 0
-1369 1367 0
-1369 1368 0
1369 -1367 -1368 0
-1370 1364 0
-1370 -1369 0
1370 -1364 1369 0
-1371 -1367 0
-1371 -1368 0
1371 1367 1368 0
-1372 1370 0
-1372 -1371 0
1372 -1370 1371 0
-1373 66 0
-1373 -1368 0
1373 -66 1368 0
-1374 -66 0
-1374 1368 0
1374 66 -1368 0
-1375 -1373 0
-1375 -1374 0
1375 1373 1374 0
-1376 1372 0
-1376 1375 0
1376 -1372 -1375 0
1377 -2391 0
-1377 2391 0
-1378 61 0
-1378 -1377 0
1378 -61 1377 0
-1379 1376 0
-1379 -1378 0
1379 -1376 1378 0
-1380 -61 0
-1380 1377 0
1380 61 -1377 0
-1381 1379 0
-1381 -1380 0
1381 -1379 1380 0
-1382 52 0
-1382 -1377 0
1382 -52 1377 0
-1383 -52 0
-1383 1377 0
1383 52 -1377 0
-1384 -1382 0
-1384 -1383 0
1384 1382 1383 0
-1385 1381 0
-1385 1384 0
1385 -1381 -1384 0
-1386 -331 0
-1386 1385 0
1386 331 -1385 0
-1387 -333 0
-1387 1386 0
1387 333 -1386 0
-1388 51 0
-1388 -330 0
1388 -51 330 0
-1389 -51 0
-1389 330 0
1389 51 -330 0
-1390 -1388 0
-1390 -1389 0
1390 1388 1389 0
-1391 1387 0
-1391 1390 0
1391 -1387 -1390 0
-1392 -348 0
-1392 1391 0
1392 348 -1391 0
-1393 -350 0
-1393 1392 0
1393 350 -1392 0
-1394 50 0
-1394 -347 0
1394 -50 347 0
-1395 -50 0
-1395 347 0
1395 50 -347 0
-1396 -1394 0
-1396 -1395 0
1396 1394 1395 0
1397 -2392 0
-1397 2392 0
-1398 1396 0
-1398 1397 0
1398 -1396 -1397 0
-1399 1393 0
-1399 -1398 0
1399 -1393 1398 0
-1400 -1396 0
-1400 -1397 0
1400 1396 1397 0
-1401 1399 0
-1401 -1400 0
1401 -1399 1400 0
-1402 65 0
-1402 -1397 0
1402 -65 1397 0
-1403 -65 0
-1403 1397 0
1403 65 -1397 0
-1404 -1402 0
-1404 -1403 0
1404 1402 1403 0
-1405 1401 0
-1405 1404 0
1405 -1401 -1404 0
-1406 -365 0
-1406 1405 0
1406 365 -1405 0
-1407 -367 0
-1407 1406 0
1407 367 -1406 0
-1408 55 0
-1408 -364 0
1408 -55 364 0
-1409 -55 0
-1409 364 0
1409 55 -364 0
-1410 -1408 0
-1410 -1409 0
1410 1408 1409 0
1411 -2393 0
-1411 2393 0
-1412 1410 0
-1412 1411 0
1412 -1410 -1411 0
-1413 1407 0
-1413 -1412 0
1413 -1407 1412 0
-1414 -1410 0
-1414 -1411 0
1414 1410 1411 0
-1415 1413 0
-1415 -1414 0
1415 -1413 1414 0
-1416 64 0
-1416 -1411 0
1416 -64 1411 0
-1417 -64 0
-1417 1411 0
1417 64 -1411 0
-1418 -1416 0
-1418 -1417 0
1418 1416 1417 0
-1419 1415 0
-1419 1418 0
1419 -1415 -1418 0
-1420 -382 0
-1420 1419 0
1420 382 -1419 0
-1421 -384 0
-1421 1420 0
1421 384 -1420 0
-1422 54 0
-1422 -381 0
1422 -54 381 0
-1423 -54 0
-1423 381 0
1423 54 -381 0
-1424 -1422 0
-1424 -1423 0
1424 1422 1423 0
1425 -2394 0
-1425 2394 0
-1426 1424 0
-1426 1425 0
1426 -1424 -1425 0
-1427 1421 0
-1427 -1426 0
1427 -1421 1426 0
-1428 -1424 0
-1428 -1425 0
1428 1424 1425 0
-1429 1427 0
-1429 -1428 0
1429 -1427 1428 0
-1430 63 0
-1430 -1425 0
1430 -63 1425 0
-1431 -63 0
-1431 1425 0
1431 63 -1425 0
-1432 -1430 0
-1432 -1431 0
1432 1430 1431 0
-1433 1429 0
-1433 1432 0
1433 -1429 -1432 0
-1434 -300 0
-1434 1433 0
1434 300 -1433 0
-1435 -302 0
-1435 1434 0
1435 302 -1434 0
-1436 53 0
-1436 -299 0
1436 -53 299 0
-1437 -53 0
-1437 299 0
1437 53 -299 0
-1438 -1436 0
-1438 -1437 0
1438 1436 1437 0
1439 -2395 0
-1439 2395 0
-1440 1438 0
-1440 1439 0
1440 -1438 -1439 0
-1441 1435 0
-1441 -1440 0
1441 -1435 1440 0
-1442 -1438 0
-1442 -1439 0
1442 1438 1439 0
-1443 1441 0
-1443 -1442 0
1443 -1441 1442 0
-1444 62 0
-1444 -1439 0
1444 -62 1439 0
-1445 -62 0
-1445 1439 0
1445 62 -1439 0
-1446 -1444 0
-1446 -1445 0
1446 1444 1445 0
-1447 1443 0
-1447 1446 0
1447 -1443 -1446 0
-1448 -408 0
-1448 1447 0
1448 408 -1447 0
-1449 -410 0
-1449 1448 0
1449 410 -1448 0
-1450 46 0
-1450 -407 0
1450 -46 407 0
-1451 -46 0
-1451 407 0
1451 46 -407 0
-1452 -1450 0
-1452 -1451 0
1452 1450 1451 0
1453 -2396 0
-1453 2396 0
-1454 1452 0
-1454 1453 0
1454 -1452 -1453 0
-1455 1449 0
-1455 -1454 0
1455 -1449 1454 0
-1456 -1452 0
-1456 -1453 0
1456 1452 1453 0
-1457 1455 0
-1457 -1456 0
1457 -1455 1456 0
-1458 61 0
-1458 -1453 0
1458 -61 1453 0
-1459 -61 0
-1459 1453 0
1459 61 -1453 0
-1460 -1458 0
-1460 -1459 0
1460 1458 1459 0
-1461 1457 0
-1461 1460 0
1461 -1457 -1460 0
-1462 -423 0
-1462 1461 0
1462 423 -1461 0
-1463 -425 0
-1463 1462 0
1463 425 -1462 0
-1464 45 0
-1464 -422 0
1464 -45 422 0
-1465 -45 0
-1465 422 0
1465 45 -422 0
-1466 -1464 0
-1466 -1465 0
1466 1464 1465 0
1467 -2397 0
-1467 2397 0
-1468 1466 0
-1468 1467 0
1468 -1466 -1467 0
-1469 1463 0
-1469 -1468 0
1469 -1463 1468 0
-1470 -1466 0
-1470 -1467 0
1470 1466 1467 0
-1471 1469 0
-1471 -1470 0
1471 -1469 1470 0
-1472 60 0
-1472 -1467 0
1472 -60 1467 0
-1473 -60 0
-1473 1467 0
1473 60 -1467 0
-1474 -1472 0
-1474 -1473 0
1474 1472 1473 0
-1475 1471 0
-1475 1474 0
1475 -1471 -1474 0
-1476 -432 0
-1476 1475 0
1476 432 -1475 0
-1477 -434 0
-1477 1476 0
1477 434 -1476 0
-1478 44 0
-1478 -431 0
1478 -44 431 0
-1479 -44 0
-1479 431 0
1479 44 -431 0
-1480 -1478 0
-1480 -1479 0
1480 1478 1479 0
1481 -2398 0
-1481 2398 0
-1482 1480 0
-1482 1481 0
1482 -1480 -1481 0
-1483 1477 0
-1483 -1482 0
1483 -1477 1482 0
-1484 -1480 0
-1484 -1481 0
1484 1480 1481 0
-1485 1483 0
-1485 -1484 0
1485 -1483 1484 0
-1486 59 0
-1486 -1481 0
1486 -59 1481 0
-1487 -59 0
-1487 1481 0
1487 59 -1481 0
-1488 -1486 0
-1488 -1487 0
1488 1486 1487 0
-1489 1485 0
-1489 1488 0
1489 -1485 -1488 0
-1490 -449 0
-1490 1489 0
1490 449 -1489 0
-1491 -451 0
-1491 1490 0
1491 451 -1490 0
-1492 49 0
-1492 -448 0
1492 -49 448 0
-1493 -49 0
-1493 448 0
1493 49 -448 0
-1494 -1492 0
-1494 -1493 0
1494 1492 1493 0
1495 -2399 0
-1495 2399 0
-1496 1494 0
-1496 1495 0
1496 -1494 -1495 0
-1497 1491 0
-1497 -1496 0
1497 -1491 1496 0
-1498 -1494 0
-1498 -1495 0
1498 1494 1495 0
-1499 1497 0
-1499 -1498 0
1499 -1497 1498 0
-1500 58 0
-1500 -1495 0
1500 -58 1495 0
-1501 -58 0
-1501 1495 0
1501 58 -1495 0
-1502 -1500 0
-1502 -1501 0
1502 1500 1501 0
-1503 1499 0
-1503 1502 0
1503 -1499 -1502 0
-1504 -399 0
-1504 1503 0
1504 399 -1503 0
-1505 -401 0
-1505 1504 0
1505 401 -1504 0
-1506 48 0
-1506 -398 0
1506 -48 398 0
-1507 -48 0
-1507 398 0
1507 48 -398 0
-1508 -1506 0
-1508 -1507 0
1508 1506 1507 0
1509 -2400 0
-1509 2400 0
-1510 1508 0
-1510 1509 0
1510 -1508 -1509 0
-1511 1505 0
-1511 -1510 0
1511 -1505 1510 0
-1512 -1508 0
-1512 -1509 0
1512 1508 1509 0
-1513 1511 0
-1513 -1512 0
1513 -1511 1512 0
-1514 57 0
-1514 -1509 0
1514 -57 1509 0
-1515 -57 0
-1515 1509 0
1515 57 -1509 0
-1516 -1514 0
-1516 -1515 0
1516 1514 1515 0
-1517 1513 0
-1517 1516 0
1517 -1513 -1516 0
1518 -2401 0
-1518 2401 0
-1519 50 0
-1519 -1518 0
1519 -50 1518 0
-1520 1517 0
-1520 -1519 0
1520 -1517 1519 0
-1521 -50 0
-1521 1518 0
1521 50 -1518 0
-1522 1520 0
-1522 -1521 0
1522 -1520 1521 0
-1523 47 0
-1523 -1518 0
1523 -47 1518 0
-1524 -47 0
-1524 1518 0
1524 47 -1518 0
-1525 -1523 0
-1525 -1524 0
1525 1523 1524 0
1526 -2402 0
-1526 2402 0
-1527 1525 0
-1527 1526 0
1527 -1525 -1526 0
-1528 1522 0
-1528 -1527 0
1528 -1522 1527 0
-1529 -1525 0
-1529 -1526 0
1529 1525 1526 0
-1530 1528 0
-1530 -1529 0
1530 -1528 1529 0
-1531 56 0
-1531 -1526 0
1531 -56 1526 0
-1532 -56 0
-1532 1526 0
1532 56 -1526 0
-1533 -1531 0
-1533 -1532 0
1533 1531 1532 0
-1534 1530 0
-1534 1533 0
1534 -1530 -1533 0
-1535 -475 0
-1535 1534 0
1535 475 -1534 0
-1536 -477 0
-1536 1535 0
1536 477 -1535 0
-1537 40 0
-1537 -474 0
1537 -40 474 0
-1538 -40 0
-1538 474 0
1538 40 -474 0
-1539 -1537 0
-1539 -1538 0
1539 1537 1538 0
1540 -2403 0
-1540 2403 0
-1541 1539 0
-1541 1540 0
1541 -1539 -1540 0
-1542 1536 0
-1542 -1541 0
1542 -1536 1541 0
-1543 -1539 0
-1543 -1540 0
1543 1539 1540 0
-1544 1542 0
-1544 -1543 0
1544 -1542 1543 0
-1545 55 0
-1545 -1540 0
1545 -55 1540 0
-1546 -55 0
-1546 1540 0
1546 55 -1540 0
-1547 -1545 0
-1547 -1546 0
1547 1545 1546 0
-1548 1544 0
-1548 1547 0
1548 -1544 -1547 0
-1549 -498 0
-1549 1548 0
1549 498 -1548 0
-1550 -500 0
-1550 1549 0
1550 500 -1549 0
-1551 39 0
-1551 -497 0
1551 -39 497 0
-1552 -39 0
-1552 497 0
1552 39 -497 0
-1553 -1551 0
-1553 -1552 0
1553 1551 1552 0
1554 -2404 0
-1554 2404 0
-1555 1553 0
-1555 1554 0
1555 -1553 -1554 0
-1556 1550 0
-1556 -1555 0
1556 -1550 1555 0
-1557 -1553 0
-1557 -1554 0
1557 1553 1554 0
-1558 1556 0
-1558 -1557 0
1558 -1556 1557 0
-1559 54 0
-1559 -1554 0
1559 -54 1554 0
-1560 -54 0
-1560 1554 0
1560 54 -1554 0
-1561 -1559 0
-1561 -1560 0
1561 1559 1560 0
-1562 1558 0
-1562 1561 0
1562 -1558 -1561 0
-1563 -515 0
-1563 1562 0
1563 515 -1562 0
-1564 -517 0
-1564 1563 0
1564 517 -1563 0
-1565 38 0
-1565 -514 0
1565 -38 514 0
-1566 -38 0
-1566 514 0
1566 38 -514 0
-1567 -1565 0
-1567 -1566 0
1567 1565 1566 0
1568 -2405 0
-1568 2405 0
-1569 1567 0
-1569 1568 0
1569 -1567 -1568 0
-1570 1564 0
-1570 -1569 0
1570 -1564 1569 0
-1571 -1567 0
-1571 -1568 0
1571 1567 1568 0
-1572 1570 0
-1572 -1571 0
1572 -1570 1571 0
-1573 53 0
-1573 -1568 0
1573 -53 1568 0
-1574 -53 0
-1574 1568 0
1574 53 -1568 0
-1575 -1573 0
-1575 -1574 0
1575 1573 1574 0
-1576 1572 0
-1576 1575 0
1576 -1572 -1575 0
-1577 -532 0
-1577 1576 0
1577 532 -1576 0
-1578 -534 0
-1578 1577 0
1578 534 -1577 0
-1579 43 0
-1579 -531 0
1579 -43 531 0
-1580 -43 0
-1580 531 0
1580 43 -531 0
-1581 -1579 0
-1581 -1580 0
1581 1579 1580 0
1582 -2406 0
-1582 2406 0
-1583 1581 0
-1583 1582 0
1583 -1581 -1582 0
-1584 1578 0
-1584 -1583 0
1584 -1578 1583 0
-1585 -1581 0
-1585 -1582 0
1585 1581 1582 0
-1586 1584 0
-1586 -1585 0
1586 -1584 1585 0
-1587 52 0
-1587 -1582 0
1587 -52 1582 0
-1588 -52 0
-1588 1582 0
1588 52 -1582 0
-1589 -1587 0
-1589 -1588 0
1589 1587 1588 0
-1590 1586 0
-1590 1589 0
1590 -1586 -1589 0
-1591 -466 0
-1591 1590 0
1591 466 -1590 0
-1592 -468 0
-1592 1591 0
1592 468 -1591 0
-1593 42 0
-1593 -465 0
1593 -42 465 0
-1594 -42 0
-1594 465 0
1594 42 -465 0
-1595 -1593 0
-1595 -1594 0
1595 1593 1594 0
1596 -2407 0
-1596 2407 0
-1597 1595 0
-1597 1596 0
1597 -1595 -1596 0
-1598 1592 0
-1598 -1597 0
1598 -1592 1597 0
-1599 -1595 0
-1599 -1596 0
1599 1595 1596 0
-1600 1598 0
-1600 -1599 0
1600 -1598 1599 0
-1601 51 0
-1601 -1596 0
1601 -51 1596 0
-1602 -51 0
-1602 1596 0
1602 51 -1596 0
-1603 -1601 0
-1603 -1602 0
1603 1601 1602 0
-1604 1600 0
-1604 1603 0
1604 -1600 -1603 0
1605 -2408 0
-1605 2408 0
-1606 44 0
-1606 -1605 0
1606 -44 1605 0
-1607 1604 0
-1607 -1606 0
1607 -1604 1606 0
-1608 -44 0
-1608 1605 0
1608 44 -1605 0
-1609 1607 0
-1609 -1608 0
1609 -1607 1608 0
-1610 41 0
-1610 -1605 0
1610 -41 1605 0
-1611 -41 0
-1611 1605 0
1611 41 -1605 0
-1612 -1610 0
-1612 -1611 0
1612 1610 1611 0
1613 -2409 0
-1613 2409 0
-1614 1612 0
-1614 1613 0
1614 -1612 -1613 0
-1615 1609 0
-1615 -1614 0
1615 -1609 1614 0
-1616 -1612 0
-1616 -1613 0
1616 1612 1613 0
-1617 1615 0
-1617 -1616 0
1617 -1615 1616 0
-1618 50 0
-1618 -1613 0
1618 -50 1613 0
-1619 -50 0
-1619 1613 0
1619 50 -1613 0
-1620 -1618 0
-1620 -1619 0
1620 1618 1619 0
-1621 1617 0
-1621 1620 0
1621 -1617 -1620 0
-1622 -566 0
-1622 1621 0
1622 566 -1621 0
-1623 -568 0
-1623 1622 0
1623 568 -1622 0
-1624 34 0
-1624 -565 0
1624 -34 565 0
-1625 -34 0
-1625 565 0
1625 34 -565 0
-1626 -1624 0
-1626 -1625 0
1626 1624 1625 0
1627 -2410 0
-1627 2410 0
-1628 1626 0
-1628 1627 0
1628 -1626 -1627 0
-1629 1623 0
-1629 -1628 0
1629 -1623 1628 0
-1630 -1626 0
-1630 -1627 0
1630 1626 1627 0
-1631 1629 0
-1631 -1630 0
1631 -1629 1630 0
-1632 49 0
-1632 -1627 0
1632 -49 1627 0
-1633 -49 0
-1633 1627 0
1633 49 -1627 0
-1634 -1632 0
-1634 -1633 0
1634 1632 1633 0
-1635 1631 0
-1635 1634 0
1635 -1631 -1634 0
-1636 -597 0
-1636 1635 0
1636 597 -1635 0
-1637 -599 0
-1637 1636 0
1637 599 -1636 0
-1638 33 0
-1638 -596 0
1638 -33 596 0
-1639 -33 0
-1639 596 0
1639 33 -596 0
-1640 -1638 0
-1640 -1639 0
1640 1638 1639 0
1641 -2411 0
-1641 2411 0
-1642 1640 0
-1642 1641 0
1642 -1640 -1641 0
-1643 1637 0
-1643 -1642 0
1643 -1637 1642 0
-1644 -1640 0
-1644 -1641 0
1644 1640 1641 0
-1645 1643 0
-1645 -1644 0
1645 -1643 1644 0
-1646 48 0
-1646 -1641 0
1646 -48 1641 0
-1647 -48 0
-1647 1641 0
1647 48 -1641 0
-1648 -1646 0
-1648 -1647 0
1648 1646 1647 0
-1649 1645 0
-1649 1648 0
1649 -1645 -1648 0
-1650 -614 0
-1650 1649 0
1650 614 -1649 0
-1651 -616 0
-1651 1650 0
1651 616 -1650 0
-1652 32 0
-1652 -613 0
1652 -32 613 0
-1653 -32 0
-1653 613 0
1653 32 -613 0
-1654 -1652 0
-1654 -1653 0
1654 1652 1653 0
1655 -2412 0
-1655 2412 0
-1656 1654 0
-1656 1655 0
1656 -1654 -1655 0
-1657 1651 0
-1657 -1656 0
1657 -1651 1656 0
-1658 -1654 0
-1658 -1655 0
1658 1654 1655 0
-1659 1657 0
-1659 -1658 0
1659 -1657 1658 0
-1660 47 0
-1660 -1655 0
1660 -47 1655 0
-1661 -47 0
-1661 1655 0
1661 47 -1655 0
-1662 -1660 0
-1662 -1661 0
1662 1660 1661 0
-1663 1659 0
-1663 1662 0
1663 -1659 -1662 0
-1664 -631 0
-1664 1663 0
1664 631 -1663 0
-1665 -633 0
-1665 1664 0
1665 633 -1664 0
-1666 37 0
-1666 -630 0
1666 -37 630 0
-1667 -37 0
-1667 630 0
1667 37 -630 0
-1668 -1666 0
-1668 -1667 0
1668 1666 1667 0
1669 -2413 0
-1669 2413 0
-1670 1668 0
-1670 1669 0
1670 -1668 -1669 0
-1671 1665 0
-1671 -1670 0
1671 -1665 1670 0
-1672 -1668 0
-1672 -1669 0
1672 1668 1669 0
-1673 1671 0
-1673 -1672 0
1673 -1671 1672 0
-1674 46 0
-1674 -1669 0
1674 -46 1669 0
-1675 -46 0
-1675 1669 0
1675 46 -1669 0
-1676 -1674 0
-1676 -1675 0
1676 1674 1675 0
-1677 1673 0
-1677 1676 0
1677 -1673 -1676 0
-1678 -549 0
-1678 1677 0
1678 549 -1677 0
-1679 -551 0
-1679 1678 0
1679 551 -1678 0
-1680 36 0
-1680 -548 0
1680 -36 548 0
-1681 -36 0
-1681 548 0
1681 36 -548 0
-1682 -1680 0
-1682 -1681 0
1682 1680 1681 0
1683 -2414 0
-1683 2414 0
-1684 1682 0
-1684 1683 0
1684 -1682 -1683 0
-1685 1679 0
-1685 -1684 0
1685 -1679 1684 0
-1686 -1682 0
-1686 -1683 0
1686 1682 1683 0
-1687 1685 0
-1687 -1686 0
1687 -1685 1686 0
-1688 45 0
-1688 -1683 0
1688 -45 1683 0
-1689 -45 0
-1689 1683 0
1689 45 -1683 0
-1690 -1688 0
-1690 -1689 0
1690 1688 1689 0
-1691 1687 0
-1691 1690 0
1691 -1687 -1690 0
1692 -2415 0
-1692 2415 0
-1693 38 0
-1693 -1692 0
1693 -38 1692 0
-1694 1691 0
-1694 -1693 0
1694 -1691 1693 0
-1695 -38 0
-1695 1692 0
1695 38 -1692 0
-1696 1694 0
-1696 -1695 0
1696 -1694 1695 0
-1697 35 0
-1697 -1692 0
1697 -35 1692 0
-1698 -35 0
-1698 1692 0
1698 35 -1692 0
-1699 -1697 0
-1699 -1698 0
1699 1697 1698 0
1700 -2416 0
-1700 2416 0
-1701 1699 0
-1701 1700 0
1701 -1699 -1700 0
-1702 1696 0
-1702 -1701 0
1702 -1696 1701 0
-1703 -1699 0
-1703 -1700 0
1703 1699 1700 0
-1704 1702 0
-1704 -1703 0
1704 -1702 1703 0
-1705 44 0
-1705 -1700 0
1705 -44 1700 0
-1706 -44 0
-1706 1700 0
1706 44 -1700 0
-1707 -1705 0
-1707 -1706 0
1707 1705 1706 0
-1708 1704 0
-1708 1707 0
1708 -1704 -1707 0
-1709 -665 0
-1709 1708 0
1709 665 -1708 0
-1710 -667 0
-1710 1709 0
1710 667 -1709 0
-1711 28 0
-1711 -664 0
1711 -28 664 0
-1712 -28 0
-1712 664 0
1712 28 -664 0
-1713 -1711 0
-1713 -1712 0
1713 1711 1712 0
1714 -2417 0
-1714 2417 0
-1715 1713 0
-1715 1714 0
1715 -1713 -1714 0
-1716 1710 0
-1716 -1715 0
1716 -1710 1715 0
-1717 -1713 0
-1717 -1714 0
1717 1713 1714 0
-1718 1716 0
-1718 -1717 0
1718 -1716 1717 0
-1719 43 0
-1719 -1714 0
1719 -43 1714 0
-1720 -43 0
-1720 1714 0
1720 43 -1714 0
-1721 -1719 0
-1721 -1720 0
1721 1719 1720 0
-1722 1718 0
-1722 1721 0
1722 -1718 -1721 0
-1723 -696 0
-1723 1722 0
1723 696 -1722 0
-1724 -698 0
-1724 1723 0
1724 698 -1723 0
-1725 27 0
-1725 -695 0
1725 -27 695 0
-1726 -27 0
-1726 695 0
1726 27 -695 0
-1727 -1725 0
-1727 -1726 0
1727 1725 1726 0
1728 -2418 0
-1728 2418 0
-1729 1727 0
-1729 1728 0
1729 -1727 -1728 0
-1730 1724 0
-1730 -1729 0
1730 -1724 1729 0
-1731 -1727 0
-1731 -1728 0
1731 1727 1728 0
-1732 1730 0
-1732 -1731 0
1732 -1730 1731 0
-1733 42 0
-1733 -1728 0
1733 -42 1728 0
-1734 -42 0
-1734 1728 0
1734 42 -1728 0
-1735 -1733 0
-1735 -1734 0
1735 1733 1734 0
-1736 1732 0
-1736 1735 0
1736 -1732 -1735 0
-1737 -713 0
-1737 1736 0
1737 713 -1736 0
-1738 -715 0
-1738 1737 0
1738 715 -1737 0
-1739 26 0
-1739 -712 0
1739 -26 712 0
-1740 -26 0
-1740 712 0
1740 26 -712 0
-1741 -1739 0
-1741 -1740 0
1741 1739 1740 0
1742 -2419 0
-1742 2419 0
-1743 1741 0
-1743 1742 0
1743 -1741 -1742 0
-1744 1738 0
-1744 -1743 0
1744 -1738 1743 0
-1745 -1741 0
-1745 -1742 0
1745 1741 1742 0
-1746 1744 0
-1746 -1745 0
1746 -1744 1745 0
-1747 41 0
-1747 -1742 0
1747 -41 1742 0
-1748 -41 0
-1748 1742 0
1748 41 -1742 0
-1749 -1747 0
-1749 -1748 0
1749 1747 1748 0
-1750 1746 0
-1750 1749 0
1750 -1746 -1749 0
-1751 -730 0
-1751 1750 0
1751 730 -1750 0
-1752 -732 0
-1752 1751 0
1752 732 -1751 0
-1753 31 0
-1753 -729 0
1753 -31 729 0
-1754 -31 0
-1754 729 0
1754 31 -729 0
-1755 -1753 0
-1755 -1754 0
1755 1753 1754 0
1756 -2420 0
-1756 2420 0
-1757 1755 0
-1757 1756 0
1757 -1755 -1756 0
-1758 1752 0
-1758 -1757 0
1758 -1752 1757 0
-1759 -1755 0
-1759 -1756 0
1759 1755 1756 0
-1760 1758 0
-1760 -1759 0
1760 -1758 1759 0
-1761 40 0
-1761 -1756 0
1761 -40 1756 0
-1762 -40 0
-1762 1756 0
1762 40 -1756 0
-1763 -1761 0
-1763 -1762 0
1763 1761 1762 0
-1764 1760 0
-1764 1763 0
1764 -1760 -1763 0
-1765 -648 0
-1765 1764 0
1765 648 -1764 0
-1766 -650 0
-1766 1765 0
1766 650 -1765 0
-1767 30 0
-1767 -647 0
1767 -30 647 0
-1768 -30 0
-1768 647 0
1768 30 -647 0
-1769 -1767 0
-1769 -1768 0
1769 1767 1768 0
1770 -2421 0
-1770 2421 0
-1771 1769 0
-1771 1770 0
1771 -1769 -1770 0
-1772 1766 0
-1772 -1771 0
1772 -1766 1771 0
-1773 -1769 0
-1773 -1770 0
1773 1769 1770 0
-1774 1772 0
-1774 -1773 0
1774 -1772 1773 0
-1775 39 0
-1775 -1770 0
1775 -39 1770 0
-1776 -39 0
-1776 1770 0
1776 39 -1770 0
-1777 -1775 0
-1777 -1776 0
1777 1775 1776 0
-1778 1774 0
-1778 1777 0
1778 -1774 -1777 0
1779 -2422 0
-1779 2422 0
-1780 32 0
-1780 -1779 0
1780 -32 1779 0
-1781 1778 0
-1781 -1780 0
1781 -1778 1780 0
-1782 -32 0
-1782 1779 0
1782 32 -1779 0
-1783 1781 0
-1783 -1782 0
1783 -1781 1782 0
-1784 29 0
-1784 -1779 0
1784 -29 1779 0
-1785 -29 0
-1785 1779 0
1785 29 -1779 0
-1786 -1784 0
-1786 -1785 0
1786 1784 1785 0
1787 -2423 0
-1787 2423 0
-1788 1786 0
-1788 1787 0
1788 -1786 -1787 0
-1789 1783 0
-1789 -1788 0
1789 -1783 1788 0
-1790 -1786 0
-1790 -1787 0
1790 1786 1787 0
-1791 1789 0
-1791 -1790 0
1791 -1789 1790 0
-1792 38 0
-1792 -1787 0
1792 -38 1787 0
-1793 -38 0
-1793 1787 0
1793 38 -1787 0
-1794 -1792 0
-1794 -1793 0
1794 1792 1793 0
-1795 1791 0
-1795 1794 0
1795 -1791 -1794 0
-1796 -764 0
-1796 1795 0
1796 764 -1795 0
-1797 -766 0
-1797 1796 0
1797 766 -1796 0
-1798 22 0
-1798 -763 0
1798 -22 763 0
-1799 -22 0
-1799 763 0
1799 22 -763 0
-1800 -1798 0
-1800 -1799 0
1800 1798 1799 0
1801 -2424 0
-1801 2424 0
-1802 1800 0
-1802 1801 0
1802 -1800 -1801 0
-1803 1797 0
-1803 -1802 0
1803 -1797 1802 0
-1804 -1800 0
-1804 -1801 0
1804 1800 1801 0
-1805 1803 0
-1805 -1804 0
1805 -1803 1804 0
-1806 37 0
-1806 -1801 0
1806 -37 1801 0
-1807 -37 0
-1807 1801 0
1807 37 -1801 0
-1808 -1806 0
-1808 -1807 0
1808 1806 1807 0
-1809 1805 0
-1809 1808 0
1809 -1805 -1808 0
-1810 -795 0
-1810 1809 0
1810 795 -1809 0
-1811 -797 0
-1811 1810 0
1811 797 -1810 0
-1812 21 0
-1812 -794 0
1812 -21 794 0
-1813 -21 0
-1813 794 0
1813 21 -794 0
-1814 -1812 0
-1814 -1813 0
1814 1812 1813 0
1815 -2425 0
-1815 2425 0
-1816 1814 0
-1816 1815 0
1816 -1814 -1815 0
-1817 1811 0
-1817 -1816 0
1817 -1811 1816 0
-1818 -1814 0
-1818 -1815 0
1818 1814 1815 0
-1819 1817 0
-1819 -1818 0
1819 -1817 1818 0
-1820 36 0
-1820 -1815 0
1820 -36 1815 0
-1821 -36 0
-1821 1815 0
1821 36 -1815 0
-1822 -1820 0
-1822 -1821 0
1822 1820 1821 0
-1823 1819 0
-1823 1822 0
1823 -1819 -1822 0
-1824 -812 0
-1824 1823 0
1824 812 -1823 0
-1825 -814 0
-1825 1824 0
1825 814 -1824 0
-1826 20 0
-1826 -811 0
1826 -20 811 0
-1827 -20 0
-1827 811 0
1827 20 -811 0
-1828 -1826 0
-1828 -1827 0
1828 1826 1827 0
1829 -2426 0
-1829 2426 0
-1830 1828 0
-1830 1829 0
1830 -1828 -1829 0
-1831 1825 0
-1831 -1830 0
1831 -1825 1830 0
-1832 -1828 0
-1832 -1829 0
1832 1828 1829 0
-1833 1831 0
-1833 -1832 0
1833 -1831 1832 0
-1834 35 0
-1834 -1829 0
1834 -35 1829 0
-1835 -35 0
-1835 1829 0
1835 35 -1829 0
-1836 -1834 0
-1836 -1835 0
1836 1834 1835 0
-1837 1833 0
-1837 1836 0
1837 -1833 -1836 0
-1838 -829 0
-1838 1837 0
1838 829 -1837 0
-1839 -831 0
-1839 1838 0
1839 831 -1838 0
-1840 25 0
-1840 -828 0
1840 -25 828 0
-1841 -25 0
-1841 828 0
1841 25 -828 0
-1842 -1840 0
-1842 -1841 0
1842 1840 1841 0
1843 -2427 0
-1843 2427 0
-1844 1842 0
-1844 1843 0
1844 -1842 -1843 0
-1845 1839 0
-1845 -1844 0
1845 -1839 1844 0
-1846 -1842 0
-1846 -1843 0
1846 1842 1843 0
-1847 1845 0
-1847 -1846 0
1847 -1845 1846 0
-1848 34 0
-1848 -1843 0
1848 -34 1843 0
-1849 -34 0
-1849 1843 0
1849 34 -1843 0
-1850 -1848 0
-1850 -1849 0
1850 1848 1849 0
-1851 1847 0
-1851 1850 0
1851 -1847 -1850 0
-1852 -747 0
-1852 1851 0
1852 747 -1851 0
-1853 -749 0
-1853 1852 0
1853 749 -1852 0
-1854 24 0
-1854 -746 0
1854 -24 746 0
-1855 -24 0
-1855 746 0
1855 24 -746 0
-1856 -1854 0
-1856 -1855 0
1856 1854 1855 0
1857 -2428 0
-1857 2428 0
-1858 1856 0
-1858 1857 0
1858 -1856 -1857 0
-1859 1853 0
-1859 -1858 0
1859 -1853 1858 0
-1860 -1856 0
-1860 -1857 0
1860 1856 1857 0
-1861 1859 0
-1861 -1860 0
1861 -1859 1860 0
-1862 33 0
-1862 -1857 0
1862 -33 1857 0
-1863 -33 0
-1863 1857 0
1863 33 -1857 0
-1864 -1862 0
-1864 -1863 0
1864 1862 1863 0
-1865 1861 0
-1865 1864 0
1865 -1861 -1864 0
1866 -2429 0
-1866 2429 0
-1867 26 0
-1867 -1866 0
1867 -26 1866 0
-1868 1865 0
-1868 -1867 0
1868 -1865 1867 0
-1869 -26 0
-1869 1866 0
1869 26 -1866 0
-1870 1868 0
-1870 -1869 0
1870 -1868 1869 0
-1871 23 0
-1871 -1866 0
1871 -23 1866 0
-1872 -23 0
-1872 1866 0
1872 23 -1866 0
-1873 -1871 0
-1873 -1872 0
1873 1871 1872 0
1874 -2430 0
-1874 2430 0
-1875 1873 0
-1875 1874 0
1875 -1873 -1874 0
-1876 1870 0
-1876 -1875 0
1876 -1870 1875 0
-1877 -1873 0
-1877 -1874 0
1877 1873 1874 0
-1878 1876 0
-1878 -1877 0
1878 -1876 1877 0
-1879 32 0
-1879 -1874 0
1879 -32 1874 0
-1880 -32 0
-1880 1874 0
1880 32 -1874 0
-1881 -1879 0
-1881 -1880 0
1881 1879 1880 0
-1882 1878 0
-1882 1881 0
1882 -1878 -1881 0
-1883 -863 0
-1883 1882 0
1883 863 -1882 0
-1884 -865 0
-1884 1883 0
1884 865 -1883 0
-1885 16 0
-1885 -862 0
1885 -16 862 0
-1886 -16 0
-1886 862 0
1886 16 -862 0
-1887 -1885 0
-1887 -1886 0
1887 1885 1886 0
1888 -2431 0
-1888 2431 0
-1889 1887 0
-1889 1888 0
1889 -1887 -1888 0
-1890 1884 0
-1890 -1889 0
1890 -1884 1889 0
-1891 -1887 0
-1891 -1888 0
1891 1887 1888 0
-1892 1890 0
-1892 -1891 0
1892 -1890 1891 0
-1893 31 0
-1893 -1888 0
1893 -31 1888 0
-1894 -31 0
-1894 1888 0
1894 31 -1888 0
-1895 -1893 0
-1895 -1894 0
1895 1893 1894 0
-1896 1892 0
-1896 1895 0
1896 -1892 -1895 0
-1897 -894 0
-1897 1896 0
1897 894 -1896 0
-1898 -896 0
-1898 1897 0
1898 896 -1897 0
-1899 15 0
-1899 -893 0
1899 -15 893 0
-1900 -15 0
-1900 893 0
1900 15 -893 0
-1901 -1899 0
-1901 -1900 0
1901 1899 1900 0
1902 -2432 0
-1902 2432 0
-1903 1901 0
-1903 1902 0
1903 -1901 -1902 0
-1904 1898 0
-1904 -1903 0
1904 -1898 1903 0
-1905 -1901 0
-1905 -1902 0
1905 1901 1902 0
-1906 1904 0
-1906 -1905 0
1906 -1904 1905 0
-1907 30 0
-1907 -1902 0
1907 -30 1902 0
-1908 -30 0
-1908 1902 0
1908 30 -1902 0
-1909 -1907 0
-1909 -1908 0
1909 1907 1908 0
-1910 1906 0
-1910 1909 0
1910 -1906 -1909 0
-1911 -911 0
-1911 1910 0
1911 911 -1910 0
-1912 -913 0
-1912 1911 0
1912 913 -1911 0
-1913 14 0
-1913 -910 0
1913 -14 910 0
-1914 -14 0
-1914 910 0
1914 14 -910 0
-1915 -1913 0
-1915 -1914 0
1915 1913 1914 0
1916 -2433 0
-1916 2433 0
-1917 1915 0
-1917 1916 0
1917 -1915 -1916 0
-1918 1912 0
-1918 -1917 0
1918 -1912 1917 0
-1919 -1915 0
-1919 -1916 0
1919 1915 1916 0
-1920 1918 0
-1920 -1919 0
1920 -1918 1919 0
-1921 29 0
-1921 -1916 0
1921 -29 1916 0
-1922 -29 0
-1922 1916 0
1922 29 -1916 0
-1923 -1921 0
-1923 -1922 0
1923 1921 1922 0
-1924 1920 0
-1924 1923 0
1924 -1920 -1923 0
-1925 -928 0
-1925 1924 0
1925 928 -1924 0
-1926 -930 0
-1926 1925 0
1926 930 -1925 0
-1927 19 0
-1927 -927 0
1927 -19 927 0
-1928 -19 0
-1928 927 0
1928 19 -927 0
-1929 -1927 0
-1929 -1928 0
1929 1927 1928 0
1930 -2434 0
-1930 2434 0
-1931 1929 0
-1931 1930 0
1931 -1929 -1930 0
-1932 1926 0
-1932 -1931 0
1932 -1926 1931 0
-1933 -1929 0
-1933 -1930 0
1933 1929 1930 0
-1934 1932 0
-1934 -1933 0
1934 -1932 1933 0
-1935 28 0
-1935 -1930 0
1935 -28 1930 0
-1936 -28 0
-1936 1930 0
1936 28 -1930 0
-1937 -1935 0
-1937 -1936 0
1937 1935 1936 0
-1938 1934 0
-1938 1937 0
1938 -1934 -1937 0
-1939 -846 0
-1939 1938 0
1939 846 -1938 0
-1940 -848 0
-1940 1939 0
1940 848 -1939 0
-1941 18 0
-1941 -845 0
1941 -18 845 0
-1942 -18 0
-1942 845 0
1942 18 -845 0
-1943 -1941 0
-1943 -1942 0
1943 1941 1942 0
1944 -2435 0
-1944 2435 0
-1945 1943 0
-1945 1944 0
1945 -1943 -1944 0
-1946 1940 0
-1946 -1945 0
1946 -1940 1945 0
-1947 -1943 0
-1947 -1944 0
1947 1943 1944 0
-1948 1946 0
-1948 -1947 0
1948 -1946 1947 0
-1949 27 0
-1949 -1944 0
1949 -27 1944 0
-1950 -27 0
-1950 1944 0
1950 27 -1944 0
-1951 -1949 0
-1951 -1950 0
1951 1949 1950 0
-1952 1948 0
-1952 1951 0
1952 -1948 -1951 0
1953 -2436 0
-1953 2436 0
-1954 20 0
-1954 -1953 0
1954 -20 1953 0
-1955 1952 0
-1955 -1954 0
1955 -1952 1954 0
-1956 -20 0
-1956 1953 0
1956 20 -1953 0
-1957 1955 0
-1957 -1956 0
1957 -1955 1956 0
-1958 17 0
-1958 -1953 0
1958 -17 1953 0
-1959 -17 0
-1959 1953 0
1959 17 -1953 0
-1960 -1958 0
-1960 -1959 0
1960 1958 1959 0
1961 -2437 0
-1961 2437 0
-1962 1960 0
-1962 1961 0
1962 -1960 -1961 0
-1963 1957 0
-1963 -1962 0
1963 -1957 1962 0
-1964 -1960 0
-1964 -1961 0
1964 1960 1961 0
-1965 1963 0
-1965 -1964 0
1965 -1963 1964 0
-1966 26 0
-1966 -1961 0
1966 -26 1961 0
-1967 -26 0
-1967 1961 0
1967 26 -1961 0
-1968 -1966 0
-1968 -1967 0
1968 1966 1967 0
-1969 1965 0
-1969 1968 0
1969 -1965 -1968 0
-1970 -962 0
-1970 1969 0
1970 962 -1969 0
-1971 -964 0
-1971 1970 0
1971 964 -1970 0
-1972 10 0
-1972 -961 0
1972 -10 961 0
-1973 -10 0
-1973 961 0
1973 10 -961 0
-1974 -1972 0
-1974 -1973 0
1974 1972 1973 0
1975 -2438 0
-1975 2438 0
-1976 1974 0
-1976 1975 0
1976 -1974 -1975 0
-1977 1971 0
-1977 -1976 0
1977 -1971 1976 0
-1978 -1974 0
-1978 -1975 0
1978 1974 1975 0
-1979 1977 0
-1979 -1978 0
1979 -1977 1978 0
-1980 25 0
-1980 -1975 0
1980 -25 1975 0
-1981 -25 0
-1981 1975 0
1981 25 -1975 0
-1982 -1980 0
-1982 -1981 0
1982 1980 1981 0
-1983 1979 0
-1983 1982 0
1983 -1979 -1982 0
-1984 -993 0
-1984 1983 0
1984 993 -1983 0
-1985 -995 0
-1985 1984 0
1985 995 -1984 0
-1986 9 0
-1986 -992 0
1986 -9 992 0
-1987 -9 0
-1987 992 0
1987 9 -992 0
-1988 -1986 0
-1988 -1987 0
1988 1986 1987 0
1989 -2439 0
-1989 2439 0
-1990 1988 0
-1990 1989 0
1990 -1988 -1989 0
-1991 1985 0
-1991 -1990 0
1991 -1985 1990 0
-1992 -1988 0
-1992 -1989 0
1992 1988 1989 0
-1993 1991 0
-1993 -1992 0
1993 -1991 1992 0
-1994 24 0
-1994 -1989 0
1994 -24 1989 0
-1995 -24 0
-1995 1989 0
1995 24 -1989 0
-1996 -1994 0
-1996 -1995 0
1996 1994 1995 0
-1997 1993 0
-1997 1996 0
1997 -1993 -1996 0
-1998 -1010 0
-1998 1997 0
1998 1010 -1997 0
-1999 -1012 0
-1999 1998 0
1999 1012 -1998 0
-2000 8 0
-2000 -1009 0
2000 -8 1009 0
-2001 -8 0
-2001 1009 0
2001 8 -1009 0
-2002 -2000 0
-2002 -2001 0
2002 2000 2001 0
2003 -2440 0
-2003 2440 0
-2004 2002 0
-2004 2003 0
2004 -2002 -2003 0
-2005 1999 0
-2005 -2004 0
2005 -1999 2004 0
-2006 -2002 0
-2006 -2003 0
2006 2002 2003 0
-2007 2005 0
-2007 -2006 0
2007 -2005 2006 0
-2008 23 0
-2008 -2003 0
2008 -23 2003 0
-2009 -23 0
-2009 2003 0
2009 23 -2003 0
-2010 -2008 0
-2010 -2009 0
2010 2008 2009 0
-2011 2007 0
-2011 2010 0
2011 -2007 -2010 0
-2012 -1027 0
-2012 2011 0
2012 1027 -2011 0
-2013 -1029 0
-2013 2012 0
2013 1029 -2012 0
-2014 13 0
-2014 -1026 0
2014 -13 1026 0
-2015 -13 0
-2015 1026 0
2015 13 -1026 0
-2016 -2014 0
-2016 -2015 0
2016 2014 2015 0
2017 -2441 0
-2017 2441 0
-2018 2016 0
-2018 2017 0
2018 -2016 -2017 0
-2019 2013 0
-2019 -2018 0
2019 -2013 2018 0
-2020 -2016 0
-2020 -2017 0
2020 2016 2017 0
-2021 2019 0
-2021 -2020 0
2021 -2019 2020 0
-2022 22 0
-2022 -2017 0
2022 -22 2017 0
-2023 -22 0
-2023 2017 0
2023 22 -2017 0
-2024 -2022 0
-2024 -2023 0
2024 2022 2023 0
-2025 2021 0
-2025 2024 0
2025 -2021 -2024 0
-2026 -945 0
-2026 2025 0
2026 945 -2025 0
-2027 -947 0
-2027 2026 0
2027 947 -2026 0
-2028 12 0
-2028 -944 0
2028 -12 944 0
-2029 -12 0
-2029 944 0
2029 12 -944 0
-2030 -2028 0
-2030 -2029 0
2030 2028 2029 0
2031 -2442 0
-2031 2442 0
-2032 2030 0
-2032 2031 0
2032 -2030 -2031 0
-2033 2027 0
-2033 -2032 0
2033 -2027 2032 0
-2034 -2030 0
-2034 -2031 0
2034 2030 2031 0
-2035 2033 0
-2035 -2034 0
2035 -2033 2034 0
-2036 21 0
-2036 -2031 0
2036 -21 2031 0
-2037 -21 0
-2037 2031 0
2037 21 -2031 0
-2038 -2036 0
-2038 -2037 0
2038 2036 2037 0
-2039 2035 0
-2039 2038 0
2039 -2035 -2038 0
2040 -2443 0
-2040 2443 0
-2041 14 0
-2041 -2040 0
2041 -14 2040 0
-2042 2039 0
-2042 -2041 0
2042 -2039 2041 0
-2043 -14 0
-2043 2040 0
2043 14 -2040 0
-2044 2042 0
-2044 -2043 0
2044 -2042 2043 0
-2045 11 0
-2045 -2040 0
2045 -11 2040 0
-2046 -11 0
-2046 2040 0
2046 11 -2040 0
-2047 -2045 0
-2047 -2046 0
2047 2045 2046 0
2048 -2444 0
-2048 2444 0
-2049 2047 0
-2049 2048 0
2049 -2047 -2048 0
-2050 2044 0
-2050 -2049 0
2050 -2044 2049 0
-2051 -2047 0
-2051 -2048 0
2051 2047 2048 0
-2052 2050 0
-2052 -2051 0
2052 -2050 2051 0
-2053 20 0
-2053 -2048 0
2053 -20 2048 0
-2054 -20 0
-2054 2048 0
2054 20 -2048 0
-2055 -2053 0
-2055 -2054 0
2055 2053 2054 0
-2056 2052 0
-2056 2055 0
2056 -2052 -2055 0
-2057 -1061 0
-2057 2056 0
2057 1061 -2056 0
-2058 -1063 0
-2058 2057 0
2058 1063 -2057 0
-2059 4 0
-2059 -1060 0
2059 -4 1060 0
-2060 -4 0
-2060 1060 0
2060 4 -1060 0
-2061 -2059 0
-2061 -2060 0
2061 2059 2060 0
2062 -2445 0
-2062 2445 0
-2063 2061 0
-2063 2062 0
2063 -2061 -2062 0
-2064 2058 0
-2064 -2063 0
2064 -2058 2063 0
-2065 -2061 0
-2065 -2062 0
2065 2061 2062 0
-2066 2064 0
-2066 -2065 0
2066 -2064 2065 0
-2067 19 0
-2067 -2062 0
2067 -19 2062 0
-2068 -19 0
-2068 2062 0
2068 19 -2062 0
-2069 -2067 0
-2069 -2068 0
2069 2067 2068 0
-2070 2066 0
-2070 2069 0
2070 -2066 -2069 0
-2071 -1092 0
-2071 2070 0
2071 1092 -2070 0
-2072 -1094 0
-2072 2071 0
2072 1094 -2071 0
-2073 3 0
-2073 -1091 0
2073 -3 1091 0
-2074 -3 0
-2074 1091 0
2074 3 -1091 0
-2075 -2073 0
-2075 -2074 0
2075 2073 2074 0
2076 -2446 0
-2076 2446 0
-2077 2075 0
-2077 2076 0
2077 -2075 -2076 0
-2078 2072 0
-2078 -2077 0
2078 -2072 2077 0
-2079 -2075 0
-2079 -2076 0
2079 2075 2076 0
-2080 2078 0
-2080 -2079 0
2080 -2078 2079 0
-2081 18 0
-2081 -2076 0
2081 -18 2076 0
-2082 -18 0
-2082 2076 0
2082 18 -2076 0
-2083 -2081 0
-2083 -2082 0
2083 2081 2082 0
-2084 2080 0
-2084 2083 0
2084 -2080 -2083 0
-2085 -1109 0
-2085 2084 0
2085 1109 -2084 0
-2086 -1111 0
-2086 2085 0
2086 1111 -2085 0
-2087 2 0
-2087 -1108 0
2087 -2 1108 0
-2088 -2 0
-2088 1108 0
2088 2 -1108 0
-2089 -2087 0
-2089 -2088 0
2089 2087 2088 0
2090 -2447 0
-2090 2447 0
-2091 2089 0
-2091 2090 0
2091 -2089 -2090 0
-2092 2086 0
-2092 -2091 0
2092 -2086 2091 0
-2093 -2089 0
-2093 -2090 0
2093 2089 2090 0
-2094 2092 0
-2094 -2093 0
2094 -2092 2093 0
-2095 17 0
-2095 -2090 0
2095 -17 2090 0
-2096 -17 0
-2096 2090 0
2096 17 -2090 0
-2097 -2095 0
-2097 -2096 0
2097 2095 2096 0
-2098 2094 0
-2098 2097 0
2098 -2094 -2097 0
-2099 -1126 0
-2099 2098 0
2099 1126 -2098 0
-2100 -1128 0
-2100 2099 0
2100 1128 -2099 0
-2101 7 0
-2101 -1125 0
2101 -7 1125 0
-2102 -7 0
-2102 1125 0
2102 7 -1125 0
-2103 -2101 0
-2103 -2102 0
2103 2101 2102 0
2104 -2448 0
-2104 2448 0
-2105 2103 0
-2105 2104 0
2105 -2103 -2104 0
-2106 2100 0
-2106 -2105 0
2106 -2100 2105 0
-2107 -2103 0
-2107 -2104 0
2107 2103 2104 0
-2108 2106 0
-2108 -2107 0
2108 -2106 2107 0
-2109 16 0
-2109 -2104 0
2109 -16 2104 0
-2110 -16 0
-2110 2104 0
2110 16 -2104 0
-2111 -2109 0
-2111 -2110 0
2111 2109 2110 0
-2112 2108 0
-2112 2111 0
2112 -2108 -2111 0
-2113 -1044 0
-2113 2112 0
2113 1044 -2112 0
-2114 -1046 0
-2114 2113 0
2114 1046 -2113 0
-2115 6 0
-2115 -1043 0
2115 -6 1043 0
-2116 -6 0
-2116 1043 0
2116 6 -1043 0
-2117 -2115 0
-2117 -2116 0
2117 2115 2116 0
2118 -2449 0
-2118 2449 0
-2119 2117 0
-2119 2118 0
2119 -2117 -2118 0
-2120 2114 0
-2120 -2119 0
2120 -2114 2119 0
-2121 -2117 0
-2121 -2118 0
2121 2117 2118 0
-2122 2120 0
-2122 -2121 0
2122 -2120 2121 0
-2123 15 0
-2123 -2118 0
2123 -15 2118 0
-2124 -15 0
-2124 2118 0
2124 15 -2118 0
-2125 -2123 0
-2125 -2124 0
2125 2123 2124 0
-2126 2122 0
-2126 2125 0
2126 -2122 -2125 0
-2127 -1288 0
-2127 2126 0
2127 1288 -2126 0
-2128 -1290 0
-2128 2127 0
2128 1290 -2127 0
-2129 5 0
-2129 -1287 0
2129 -5 1287 0
-2130 -5 0
-2130 1287 0
2130 5 -1287 0
-2131 -2129 0
-2131 -2130 0
2131 2129 2130 0
2132 -2450 0
-2132 2450 0
-2133 2131 0
-2133 2132 0
2133 -2131 -2132 0
-2134 2128 0
-2134 -2133 0
2134 -2128 2133 0
-2135 -2131 0
-2135 -2132 0
2135 2131 2132 0
-2136 2134 0
-2136 -2135 0
2136 -2134 2135 0
-2137 14 0
-2137 -2132 0
2137 -14 2132 0
-2138 -14 0
-2138 2132 0
2138 14 -2132 0
-2139 -2137 0
-2139 -2138 0
2139 2137 2138 0
-2140 2136 0
-2140 2139 0
2140 -2136 -2139 0
2140 0
