p cnf 23562 32568
145 -23474 0
-145 23474 0
233 -23562 0
-233 23562 0
232 -23561 0
-232 23561 0
231 -23560 0
-231 23560 0
230 -23559 0
-230 23559 0
229 -23558 0
-229 23558 0
228 -23557 0
-228 23557 0
226 -23555 0
-226 23555 0
227 -23556 0
-227 23556 0
-237 226 0
-237 227 0
237 -226 -227 0
-245 228 0
-245 237 0
245 -228 -237 0
-261 229 0
-261 245 0
261 -229 -245 0
-277 -230 0
-277 261 0
277 230 -261 0
-309 -231 0
-309 277 0
309 231 -277 0
-373 -232 0
-373 309 0
373 232 -309 0
-629 233 0
-629 373 0
629 -233 -373 0
225 -23554 0
-225 23554 0
224 -23553 0
-224 23553 0
223 -23552 0
-223 23552 0
222 -23551 0
-222 23551 0
221 -23550 0
-221 23550 0
220 -23549 0
-220 23549 0
218 -23547 0
-218 23547 0
219 -23548 0
-219 23548 0
-633 218 0
-633 219 0
633 -218 -219 0
-641 220 0
-641 633 0
641 -220 -633 0
-657 221 0
-657 641 0
657 -221 -641 0
-673 -222 0
-673 657 0
673 222 -657 0
-705 -223 0
-705 673 0
705 223 -673 0
-769 -224 0
-769 705 0
769 224 -705 0
-1025 225 0
-1025 769 0
1025 -225 -769 0
217 -23546 0
-217 23546 0
216 -23545 0
-216 23545 0
215 -23544 0
-215 23544 0
214 -23543 0
-214 23543 0
213 -23542 0
-213 23542 0
212 -23541 0
-212 23541 0
210 -23539 0
-210 23539 0
211 -23540 0
-211 23540 0
-1029 210 0
-1029 211 0
1029 -210 -211 0
-1037 212 0
-1037 1029 0
1037 -212 -1029 0
-1053 213 0
-1053 1037 0
1053 -213 -1037 0
-1069 -214 0
-1069 1053 0
1069 214 -1053 0
-1101 -215 0
-1101 1069 0
1101 215 -1069 0
-1165 -216 0
-1165 1101 0
1165 216 -1101 0
-1421 217 0
-1421 1165 0
1421 -217 -1165 0
209 -23538 0
-209 23538 0
208 -23537 0
-208 23537 0
207 -23536 0
-207 23536 0
206 -23535 0
-206 23535 0
205 -23534 0
-205 23534 0
204 -23533 0
-204 23533 0
202 -23531 0
-202 23531 0
203 -23532 0
-203 23532 0
-1425 202 0
-1425 203 0
1425 -202 -203 0
-1433 204 0
-1433 1425 0
1433 -204 -1425 0
-1449 205 0
-1449 1433 0
1449 -205 -1433 0
-1465 -206 0
-1465 1449 0
1465 206 -1449 0
-1497 -207 0
-1497 1465 0
1497 207 -1465 0
-1561 -208 0
-1561 1497 0
1561 208 -1497 0
-1817 209 0
-1817 1561 0
1817 -209 -1561 0
201 -23530 0
-201 23530 0
200 -23529 0
-200 23529 0
199 -23528 0
-199 23528 0
198 -23527 0
-198 23527 0
197 -23526 0
-197 23526 0
196 -23525 0
-196 23525 0
194 -23523 0
-194 23523 0
195 -23524 0
-195 23524 0
-1821 194 0
-1821 195 0
1821 -194 -195 0
-1829 196 0
-1829 1821 0
1829 -196 -1821 0
-1845 197 0
-1845 1829 0
1845 -197 -1829 0
-1861 -198 0
-1861 1845 0
1861 198 -1845 0
-1893 -199 0
-1893 1861 0
1893 199 -1861 0
-1957 -200 0
-1957 1893 0
1957 200 -1893 0
-2213 201 0
-2213 1957 0
2213 -201 -1957 0
193 -23522 0
-193 23522 0
192 -23521 0
-192 23521 0
191 -23520 0
-191 23520 0
190 -23519 0
-190 23519 0
189 -23518 0
-189 23518 0
188 -23517 0
-188 23517 0
186 -23515 0
-186 23515 0
187 -23516 0
-187 23516 0
-2217 186 0
-2217 187 0
2217 -186 -187 0
-2225 188 0
-2225 2217 0
2225 -188 -2217 0
-2241 189 0
-2241 2225 0
2241 -189 -2225 0
-2257 -190 0
-2257 2241 0
2257 190 -2241 0
-2289 -191 0
-2289 2257 0
2289 191 -2257 0
-2353 -192 0
-2353 2289 0
2353 192 -2289 0
-2609 193 0
-2609 2353 0
2609 -193 -2353 0
185 -23514 0
-185 23514 0
184 -23513 0
-184 23513 0
183 -23512 0
-183 23512 0
182 -23511 0
-182 23511 0
181 -23510 0
-181 23510 0
180 -23509 0
-180 23509 0
178 -23507 0
-178 23507 0
179 -23508 0
-179 23508 0
-2613 178 0
-2613 179 0
2613 -178 -179 0
-2621 180 0
-2621 2613 0
2621 -180 -2613 0
-2637 181 0
-2637 2621 0
2637 -181 -2621 0
-2653 -182 0
-2653 2637 0
2653 182 -2637 0
-2685 -183 0
-2685 2653 0
2685 183 -2653 0
-2749 -184 0
-2749 2685 0
2749 184 -2685 0
-3005 185 0
-3005 2749 0
3005 -185 -2749 0
177 -23506 0
-177 23506 0
176 -23505 0
-176 23505 0
175 -23504 0
-175 23504 0
174 -23503 0
-174 23503 0
173 -23502 0
-173 23502 0
172 -23501 0
-172 23501 0
170 -23499 0
-170 23499 0
171 -23500 0
-171 23500 0
-3009 170 0
-3009 171 0
3009 -170 -171 0
-3017 172 0
-3017 3009 0
3017 -172 -3009 0
-3033 173 0
-3033 3017 0
3033 -173 -3017 0
-3049 -174 0
-3049 3033 0
3049 174 -3033 0
-3081 -175 0
-3081 3049 0
3081 175 -3049 0
-3145 -176 0
-3145 3081 0
3145 176 -3081 0
-3401 177 0
-3401 3145 0
3401 -177 -3145 0
169 -23498 0
-169 23498 0
168 -23497 0
-168 23497 0
167 -23496 0
-167 23496 0
166 -23495 0
-166 23495 0
165 -23494 0
-165 23494 0
164 -23493 0
-164 23493 0
162 -23491 0
-162 23491 0
163 -23492 0
-163 23492 0
-3405 162 0
-3405 163 0
3405 -162 -163 0
-3413 164 0
-3413 3405 0
3413 -164 -3405 0
-3429 165 0
-3429 3413 0
3429 -165 -3413 0
-3445 -166 0
-3445 3429 0
3445 166 -3429 0
-3477 -167 0
-3477 3445 0
3477 167 -3445 0
-3541 -168 0
-3541 3477 0
3541 168 -3477 0
-3797 169 0
-3797 3541 0
3797 -169 -3541 0
161 -23490 0
-161 23490 0
160 -23489 0
-160 23489 0
159 -23488 0
-159 23488 0
158 -23487 0
-158 23487 0
157 -23486 0
-157 23486 0
156 -23485 0
-156 23485 0
154 -23483 0
-154 23483 0
155 -23484 0
-155 23484 0
-3801 154 0
-3801 155 0
3801 -154 -155 0
-3809 156 0
-3809 3801 0
3809 -156 -3801 0
-3825 157 0
-3825 3809 0
3825 -157 -3809 0
-3841 -158 0
-3841 3825 0
3841 158 -3825 0
-3873 -159 0
-3873 3841 0
3873 159 -3841 0
-3937 -160 0
-3937 3873 0
3937 160 -3873 0
-4193 161 0
-4193 3937 0
4193 -161 -3937 0
153 -23482 0
-153 23482 0
152 -23481 0
-152 23481 0
151 -23480 0
-151 23480 0
150 -23479 0
-150 23479 0
149 -23478 0
-149 23478 0
148 -23477 0
-148 23477 0
146 -23475 0
-146 23475 0
147 -23476 0
-147 23476 0
-4197 146 0
-4197 147 0
4197 -146 -147 0
-4205 148 0
-4205 4197 0
4205 -148 -4197 0
-4221 149 0
-4221 4205 0
4221 -149 -4205 0
-4237 -150 0
-4237 4221 0
4237 150 -4221 0
-4269 -151 0
-4269 4237 0
4269 151 -4237 0
-4333 -152 0
-4333 4269 0
4333 152 -4269 0
-4589 153 0
-4589 4333 0
4589 -153 -4333 0
-4733 -4193 0
-4733 -4589 0
4733 4193 4589 0
-4877 -3797 0
-4877 4733 0
4877 3797 -4733 0
-5021 -3401 0
-5021 4877 0
5021 3401 -4877 0
-5165 -3005 0
-5165 5021 0
5165 3005 -5021 0
-5309 -2609 0
-5309 5165 0
5309 2609 -5165 0
-5453 -2213 0
-5453 5309 0
5453 2213 -5309 0
-5597 -1817 0
-5597 5453 0
5597 1817 -5453 0
-5741 -1421 0
-5741 5597 0
5741 1421 -5597 0
-5885 -1025 0
-5885 5741 0
5885 1025 -5741 0
-6029 -629 0
-6029 5885 0
6029 629 -5885 0
-6459 145 0
-6459 6029 0
6459 -145 -6029 0
-6460 -145 0
-6460 -6029 0
6460 145 6029 0
-6461 -6459 0
-6461 -6460 0
6461 6459 6460 0
144 -23473 0
-144 23473 0
-236 -226 0
-236 227 0
236 226 -227 0
-244 228 0
-244 236 0
244 -228 -236 0
-260 229 0
-260 244 0
260 -229 -244 0
-276 -230 0
-276 260 0
276 230 -260 0
-308 -231 0
-308 276 0
308 231 -276 0
-372 -232 0
-372 308 0
372 232 -308 0
-628 233 0
-628 372 0
628 -233 -372 0
-632 -218 0
-632 219 0
632 218 -219 0
-640 220 0
-640 632 0
640 -220 -632 0
-656 221 0
-656 640 0
656 -221 -640 0
-672 -222 0
-672 656 0
672 222 -656 0
-704 -223 0
-704 672 0
704 223 -672 0
-768 -224 0
-768 704 0
768 224 -704 0
-1024 225 0
-1024 768 0
1024 -225 -768 0
-1028 -210 0
-1028 211 0
1028 210 -211 0
-1036 212 0
-1036 1028 0
1036 -212 -1028 0
-1052 213 0
-1052 1036 0
1052 -213 -1036 0
-1068 -214 0
-1068 1052 0
1068 214 -1052 0
-1100 -215 0
-1100 1068 0
1100 215 -1068 0
-1164 -216 0
-1164 1100 0
1164 216 -1100 0
-1420 217 0
-1420 1164 0
1420 -217 -1164 0
-1424 -202 0
-1424 203 0
1424 202 -203 0
-1432 204 0
-1432 1424 0
1432 -204 -1424 0
-1448 205 0
-1448 1432 0
1448 -205 -1432 0
-1464 -206 0
-1464 1448 0
1464 206 -1448 0
-1496 -207 0
-1496 1464 0
1496 207 -1464 0
-1560 -208 0
-1560 1496 0
1560 208 -1496 0
-1816 209 0
-1816 1560 0
1816 -209 -1560 0
-1820 -194 0
-1820 195 0
1820 194 -195 0
-1828 196 0
-1828 1820 0
1828 -196 -1820 0
-1844 197 0
-1844 1828 0
1844 -197 -1828 0
-1860 -198 0
-1860 1844 0
1860 198 -1844 0
-1892 -199 0
-1892 1860 0
1892 199 -1860 0
-1956 -200 0
-1956 1892 0
1956 200 -1892 0
-2212 201 0
-2212 1956 0
2212 -201 -1956 0
-2216 -186 0
-2216 187 0
2216 186 -187 0
-2224 188 0
-2224 2216 0
2224 -188 -2216 0
-2240 189 0
-2240 2224 0
2240 -189 -2224 0
-2256 -190 0
-2256 2240 0
2256 190 -2240 0
-2288 -191 0
-2288 2256 0
2288 191 -2256 0
-2352 -192 0
-2352 2288 0
2352 192 -2288 0
-2608 193 0
-2608 2352 0
2608 -193 -2352 0
-2612 -178 0
-2612 179 0
2612 178 -179 0
-2620 180 0
-2620 2612 0
2620 -180 -2612 0
-2636 181 0
-2636 2620 0
2636 -181 -2620 0
-2652 -182 0
-2652 2636 0
2652 182 -2636 0
-2684 -183 0
-2684 2652 0
2684 183 -2652 0
-2748 -184 0
-2748 2684 0
2748 184 -2684 0
-3004 185 0
-3004 2748 0
3004 -185 -2748 0
-3008 -170 0
-3008 171 0
3008 170 -171 0
-3016 172 0
-3016 3008 0
3016 -172 -3008 0
-3032 173 0
-3032 3016 0
3032 -173 -3016 0
-3048 -174 0
-3048 3032 0
3048 174 -3032 0
-3080 -175 0
-3080 3048 0
3080 175 -3048 0
-3144 -176 0
-3144 3080 0
3144 176 -3080 0
-3400 177 0
-3400 3144 0
3400 -177 -3144 0
-3404 -162 0
-3404 163 0
3404 162 -163 0
-3412 164 0
-3412 3404 0
3412 -164 -3404 0
-3428 165 0
-3428 3412 0
3428 -165 -3412 0
-3444 -166 0
-3444 3428 0
3444 166 -3428 0
-3476 -167 0
-3476 3444 0
3476 167 -3444 0
-3540 -168 0
-3540 3476 0
3540 168 -3476 0
-3796 169 0
-3796 3540 0
3796 -169 -3540 0
-3800 -154 0
-3800 155 0
3800 154 -155 0
-3808 156 0
-3808 3800 0
3808 -156 -3800 0
-3824 157 0
-3824 3808 0
3824 -157 -3808 0
-3840 -158 0
-3840 3824 0
3840 158 -3824 0
-3872 -159 0
-3872 3840 0
3872 159 -3840 0
-3936 -160 0
-3936 3872 0
3936 160 -3872 0
-4192 161 0
-4192 3936 0
4192 -161 -3936 0
-4196 -146 0
-4196 147 0
4196 146 -147 0
-4204 148 0
-4204 4196 0
4204 -148 -4196 0
-4220 149 0
-4220 4204 0
4220 -149 -4204 0
-4236 -150 0
-4236 4220 0
4236 150 -4220 0
-4268 -151 0
-4268 4236 0
4268 151 -4236 0
-4332 -152 0
-4332 4268 0
4332 152 -4268 0
-4588 153 0
-4588 4332 0
4588 -153 -4332 0
-4732 -4192 0
-4732 -4588 0
4732 4192 4588 0
-4876 -3796 0
-4876 4732 0
4876 3796 -4732 0
-5020 -3400 0
-5020 4876 0
5020 3400 -4876 0
-5164 -3004 0
-5164 5020 0
5164 3004 -5020 0
-5308 -2608 0
-5308 5164 0
5308 2608 -5164 0
-5452 -2212 0
-5452 5308 0
5452 2212 -5308 0
-5596 -1816 0
-5596 5452 0
5596 1816 -5452 0
-5740 -1420 0
-5740 5596 0
5740 1420 -5596 0
-5884 -1024 0
-5884 5740 0
5884 1024 -5740 0
-6028 -628 0
-6028 5884 0
6028 628 -5884 0
-6456 144 0
-6456 6028 0
6456 -144 -6028 0
-6457 -144 0
-6457 -6028 0
6457 144 6028 0
-6458 -6456 0
-6458 -6457 0
6458 6456 6457 0
143 -23472 0
-143 23472 0
-235 226 0
-235 -227 0
235 -226 227 0
-243 228 0
-243 235 0
243 -228 -235 0
-259 229 0
-259 243 0
259 -229 -243 0
-275 -230 0
-275 259 0
275 230 -259 0
-307 -231 0
-307 275 0
307 231 -275 0
-371 -232 0
-371 307 0
371 232 -307 0
-627 233 0
-627 371 0
627 -233 -371 0
-631 218 0
-631 -219 0
631 -218 219 0
-639 220 0
-639 631 0
639 -220 -631 0
-655 221 0
-655 639 0
655 -221 -639 0
-671 -222 0
-671 655 0
671 222 -655 0
-703 -223 0
-703 671 0
703 223 -671 0
-767 -224 0
-767 703 0
767 224 -703 0
-1023 225 0
-1023 767 0
1023 -225 -767 0
-1027 210 0
-1027 -211 0
1027 -210 211 0
-1035 212 0
-1035 1027 0
1035 -212 -1027 0
-1051 213 0
-1051 1035 0
1051 -213 -1035 0
-1067 -214 0
-1067 1051 0
1067 214 -1051 0
-1099 -215 0
-1099 1067 0
1099 215 -1067 0
-1163 -216 0
-1163 1099 0
1163 216 -1099 0
-1419 217 0
-1419 1163 0
1419 -217 -1163 0
-1423 202 0
-1423 -203 0
1423 -202 203 0
-1431 204 0
-1431 1423 0
1431 -204 -1423 0
-1447 205 0
-1447 1431 0
1447 -205 -1431 0
-1463 -206 0
-1463 1447 0
1463 206 -1447 0
-1495 -207 0
-1495 1463 0
1495 207 -1463 0
-1559 -208 0
-1559 1495 0
1559 208 -1495 0
-1815 209 0
-1815 1559 0
1815 -209 -1559 0
-1819 194 0
-1819 -195 0
1819 -194 195 0
-1827 196 0
-1827 1819 0
1827 -196 -1819 0
-1843 197 0
-1843 1827 0
1843 -197 -1827 0
-1859 -198 0
-1859 1843 0
1859 198 -1843 0
-1891 -199 0
-1891 1859 0
1891 199 -1859 0
-1955 -200 0
-1955 1891 0
1955 200 -1891 0
-2211 201 0
-2211 1955 0
2211 -201 -1955 0
-2215 186 0
-2215 -187 0
2215 -186 187 0
-2223 188 0
-2223 2215 0
2223 -188 -2215 0
-2239 189 0
-2239 2223 0
2239 -189 -2223 0
-2255 -190 0
-2255 2239 0
2255 190 -2239 0
-2287 -191 0
-2287 2255 0
2287 191 -2255 0
-2351 -192 0
-2351 2287 0
2351 192 -2287 0
-2607 193 0
-2607 2351 0
2607 -193 -2351 0
-2611 178 0
-2611 -179 0
2611 -178 179 0
-2619 180 0
-2619 2611 0
2619 -180 -2611 0
-2635 181 0
-2635 2619 0
2635 -181 -2619 0
-2651 -182 0
-2651 2635 0
2651 182 -2635 0
-2683 -183 0
-2683 2651 0
2683 183 -2651 0
-2747 -184 0
-2747 2683 0
2747 184 -2683 0
-3003 185 0
-3003 2747 0
3003 -185 -2747 0
-3007 170 0
-3007 -171 0
3007 -170 171 0
-3015 172 0
-3015 3007 0
3015 -172 -3007 0
-3031 173 0
-3031 3015 0
3031 -173 -3015 0
-3047 -174 0
-3047 3031 0
3047 174 -3031 0
-3079 -175 0
-3079 3047 0
3079 175 -3047 0
-3143 -176 0
-3143 3079 0
3143 176 -3079 0
-3399 177 0
-3399 3143 0
3399 -177 -3143 0
-3403 162 0
-3403 -163 0
3403 -162 163 0
-3411 164 0
-3411 3403 0
3411 -164 -3403 0
-3427 165 0
-3427 3411 0
3427 -165 -3411 0
-3443 -166 0
-3443 3427 0
3443 166 -3427 0
-3475 -167 0
-3475 3443 0
3475 167 -3443 0
-3539 -168 0
-3539 3475 0
3539 168 -3475 0
-3795 169 0
-3795 3539 0
3795 -169 -3539 0
-3799 154 0
-3799 -155 0
3799 -154 155 0
-3807 156 0
-3807 3799 0
3807 -156 -3799 0
-3823 157 0
-3823 3807 0
3823 -157 -3807 0
-3839 -158 0
-3839 3823 0
3839 158 -3823 0
-3871 -159 0
-3871 3839 0
3871 159 -3839 0
-3935 -160 0
-3935 3871 0
3935 160 -3871 0
-4191 161 0
-4191 3935 0
4191 -161 -3935 0
-4195 146 0
-4195 -147 0
4195 -146 147 0
-4203 148 0
-4203 4195 0
4203 -148 -4195 0
-4219 149 0
-4219 4203 0
4219 -149 -4203 0
-4235 -150 0
-4235 4219 0
4235 150 -4219 0
-4267 -151 0
-4267 4235 0
4267 151 -4235 0
-4331 -152 0
-4331 4267 0
4331 152 -4267 0
-4587 153 0
-4587 4331 0
4587 -153 -4331 0
-4731 -4191 0
-4731 -4587 0
4731 4191 4587 0
-4875 -3795 0
-4875 4731 0
4875 3795 -4731 0
-5019 -3399 0
-5019 4875 0
5019 3399 -4875 0
-5163 -3003 0
-5163 5019 0
5163 3003 -5019 0
-5307 -2607 0
-5307 5163 0
5307 2607 -5163 0
-5451 -2211 0
-5451 5307 0
5451 2211 -5307 0
-5595 -1815 0
-5595 5451 0
5595 1815 -5451 0
-5739 -1419 0
-5739 5595 0
5739 1419 -5595 0
-5883 -1023 0
-5883 5739 0
5883 1023 -5739 0
-6027 -627 0
-6027 5883 0
6027 627 -5883 0
-6453 143 0
-6453 6027 0
6453 -143 -6027 0
-6454 -143 0
-6454 -6027 0
6454 143 6027 0
-6455 -6453 0
-6455 -6454 0
6455 6453 6454 0
142 -23471 0
-142 23471 0
-234 -226 0
-234 -227 0
234 226 227 0
-242 228 0
-242 234 0
242 -228 -234 0
-258 229 0
-258 242 0
258 -229 -242 0
-274 -230 0
-274 258 0
274 230 -258 0
-306 -231 0
-306 274 0
306 231 -274 0
-370 -232 0
-370 306 0
370 232 -306 0
-626 233 0
-626 370 0
626 -233 -370 0
-630 -218 0
-630 -219 0
630 218 219 0
-638 220 0
-638 630 0
638 -220 -630 0
-654 221 0
-654 638 0
654 -221 -638 0
-670 -222 0
-670 654 0
670 222 -654 0
-702 -223 0
-702 670 0
702 223 -670 0
-766 -224 0
-766 702 0
766 224 -702 0
-1022 225 0
-1022 766 0
1022 -225 -766 0
-1026 -210 0
-1026 -211 0
1026 210 211 0
-1034 212 0
-1034 1026 0
1034 -212 -1026 0
-1050 213 0
-1050 1034 0
1050 -213 -1034 0
-1066 -214 0
-1066 1050 0
1066 214 -1050 0
-1098 -215 0
-1098 1066 0
1098 215 -1066 0
-1162 -216 0
-1162 1098 0
1162 216 -1098 0
-1418 217 0
-1418 1162 0
1418 -217 -1162 0
-1422 -202 0
-1422 -203 0
1422 202 203 0
-1430 204 0
-1430 1422 0
1430 -204 -1422 0
-1446 205 0
-1446 1430 0
1446 -205 -1430 0
-1462 -206 0
-1462 1446 0
1462 206 -1446 0
-1494 -207 0
-1494 1462 0
1494 207 -1462 0
-1558 -208 0
-1558 1494 0
1558 208 -1494 0
-1814 209 0
-1814 1558 0
1814 -209 -1558 0
-1818 -194 0
-1818 -195 0
1818 194 195 0
-1826 196 0
-1826 1818 0
1826 -196 -1818 0
-1842 197 0
-1842 1826 0
1842 -197 -1826 0
-1858 -198 0
-1858 1842 0
1858 198 -1842 0
-1890 -199 0
-1890 1858 0
1890 199 -1858 0
-1954 -200 0
-1954 1890 0
1954 200 -1890 0
-2210 201 0
-2210 1954 0
2210 -201 -1954 0
-2214 -186 0
-2214 -187 0
2214 186 187 0
-2222 188 0
-2222 2214 0
2222 -188 -2214 0
-2238 189 0
-2238 2222 0
2238 -189 -2222 0
-2254 -190 0
-2254 2238 0
2254 190 -2238 0
-2286 -191 0
-2286 2254 0
2286 191 -2254 0
-2350 -192 0
-2350 2286 0
2350 192 -2286 0
-2606 193 0
-2606 2350 0
2606 -193 -2350 0
-2610 -178 0
-2610 -179 0
2610 178 179 0
-2618 180 0
-2618 2610 0
2618 -180 -2610 0
-2634 181 0
-2634 2618 0
2634 -181 -2618 0
-2650 -182 0
-2650 2634 0
2650 182 -2634 0
-2682 -183 0
-2682 2650 0
2682 183 -2650 0
-2746 -184 0
-2746 2682 0
2746 184 -2682 0
-3002 185 0
-3002 2746 0
3002 -185 -2746 0
-3006 -170 0
-3006 -171 0
3006 170 171 0
-3014 172 0
-3014 3006 0
3014 -172 -3006 0
-3030 173 0
-3030 3014 0
3030 -173 -3014 0
-3046 -174 0
-3046 3030 0
3046 174 -3030 0
-3078 -175 0
-3078 3046 0
3078 175 -3046 0
-3142 -176 0
-3142 3078 0
3142 176 -3078 0
-3398 177 0
-3398 3142 0
3398 -177 -3142 0
-3402 -162 0
-3402 -163 0
3402 162 163 0
-3410 164 0
-3410 3402 0
3410 -164 -3402 0
-3426 165 0
-3426 3410 0
3426 -165 -3410 0
-3442 -166 0
-3442 3426 0
3442 166 -3426 0
-3474 -167 0
-3474 3442 0
3474 167 -3442 0
-3538 -168 0
-3538 3474 0
3538 168 -3474 0
-3794 169 0
-3794 3538 0
3794 -169 -3538 0
-3798 -154 0
-3798 -155 0
3798 154 155 0
-3806 156 0
-3806 3798 0
3806 -156 -3798 0
-3822 157 0
-3822 3806 0
3822 -157 -3806 0
-3838 -158 0
-3838 3822 0
3838 158 -3822 0
-3870 -159 0
-3870 3838 0
3870 159 -3838 0
-3934 -160 0
-3934 3870 0
3934 160 -3870 0
-4190 161 0
-4190 3934 0
4190 -161 -3934 0
-4194 -146 0
-4194 -147 0
4194 146 147 0
-4202 148 0
-4202 4194 0
4202 -148 -4194 0
-4218 149 0
-4218 4202 0
4218 -149 -4202 0
-4234 -150 0
-4234 4218 0
4234 150 -4218 0
-4266 -151 0
-4266 4234 0
4266 151 -4234 0
-4330 -152 0
-4330 4266 0
4330 152 -4266 0
-4586 153 0
-4586 4330 0
4586 -153 -4330 0
-4730 -4190 0
-4730 -4586 0
4730 4190 4586 0
-4874 -3794 0
-4874 4730 0
4874 3794 -4730 0
-5018 -3398 0
-5018 4874 0
5018 3398 -4874 0
-5162 -3002 0
-5162 5018 0
5162 3002 -5018 0
-5306 -2606 0
-5306 5162 0
5306 2606 -5162 0
-5450 -2210 0
-5450 5306 0
5450 2210 -5306 0
-5594 -1814 0
-5594 5450 0
5594 1814 -5450 0
-5738 -1418 0
-5738 5594 0
5738 1418 -5594 0
-5882 -1022 0
-5882 5738 0
5882 1022 -5738 0
-6026 -626 0
-6026 5882 0
6026 626 -5882 0
-6450 142 0
-6450 6026 0
6450 -142 -6026 0
-6451 -142 0
-6451 -6026 0
6451 142 6026 0
-6452 -6450 0
-6452 -6451 0
6452 6450 6451 0
141 -23470 0
-141 23470 0
-241 -228 0
-241 237 0
241 228 -237 0
-257 229 0
-257 241 0
257 -229 -241 0
-273 -230 0
-273 257 0
273 230 -257 0
-305 -231 0
-305 273 0
305 231 -273 0
-369 -232 0
-369 305 0
369 232 -305 0
-625 233 0
-625 369 0
625 -233 -369 0
-637 -220 0
-637 633 0
637 220 -633 0
-653 221 0
-653 637 0
653 -221 -637 0
-669 -222 0
-669 653 0
669 222 -653 0
-701 -223 0
-701 669 0
701 223 -669 0
-765 -224 0
-765 701 0
765 224 -701 0
-1021 225 0
-1021 765 0
1021 -225 -765 0
-1033 -212 0
-1033 1029 0
1033 212 -1029 0
-1049 213 0
-1049 1033 0
1049 -213 -1033 0
-1065 -214 0
-1065 1049 0
1065 214 -1049 0
-1097 -215 0
-1097 1065 0
1097 215 -1065 0
-1161 -216 0
-1161 1097 0
1161 216 -1097 0
-1417 217 0
-1417 1161 0
1417 -217 -1161 0
-1429 -204 0
-1429 1425 0
1429 204 -1425 0
-1445 205 0
-1445 1429 0
1445 -205 -1429 0
-1461 -206 0
-1461 1445 0
1461 206 -1445 0
-1493 -207 0
-1493 1461 0
1493 207 -1461 0
-1557 -208 0
-1557 1493 0
1557 208 -1493 0
-1813 209 0
-1813 1557 0
1813 -209 -1557 0
-1825 -196 0
-1825 1821 0
1825 196 -1821 0
-1841 197 0
-1841 1825 0
1841 -197 -1825 0
-1857 -198 0
-1857 1841 0
1857 198 -1841 0
-1889 -199 0
-1889 1857 0
1889 199 -1857 0
-1953 -200 0
-1953 1889 0
1953 200 -1889 0
-2209 201 0
-2209 1953 0
2209 -201 -1953 0
-2221 -188 0
-2221 2217 0
2221 188 -2217 0
-2237 189 0
-2237 2221 0
2237 -189 -2221 0
-2253 -190 0
-2253 2237 0
2253 190 -2237 0
-2285 -191 0
-2285 2253 0
2285 191 -2253 0
-2349 -192 0
-2349 2285 0
2349 192 -2285 0
-2605 193 0
-2605 2349 0
2605 -193 -2349 0
-2617 -180 0
-2617 2613 0
2617 180 -2613 0
-2633 181 0
-2633 2617 0
2633 -181 -2617 0
-2649 -182 0
-2649 2633 0
2649 182 -2633 0
-2681 -183 0
-2681 2649 0
2681 183 -2649 0
-2745 -184 0
-2745 2681 0
2745 184 -2681 0
-3001 185 0
-3001 2745 0
3001 -185 -2745 0
-3013 -172 0
-3013 3009 0
3013 172 -3009 0
-3029 173 0
-3029 3013 0
3029 -173 -3013 0
-3045 -174 0
-3045 3029 0
3045 174 -3029 0
-3077 -175 0
-3077 3045 0
3077 175 -3045 0
-3141 -176 0
-3141 3077 0
3141 176 -3077 0
-3397 177 0
-3397 3141 0
3397 -177 -3141 0
-3409 -164 0
-3409 3405 0
3409 164 -3405 0
-3425 165 0
-3425 3409 0
3425 -165 -3409 0
-3441 -166 0
-3441 3425 0
3441 166 -3425 0
-3473 -167 0
-3473 3441 0
3473 167 -3441 0
-3537 -168 0
-3537 3473 0
3537 168 -3473 0
-3793 169 0
-3793 3537 0
3793 -169 -3537 0
-3805 -156 0
-3805 3801 0
3805 156 -3801 0
-3821 157 0
-3821 3805 0
3821 -157 -3805 0
-3837 -158 0
-3837 3821 0
3837 158 -3821 0
-3869 -159 0
-3869 3837 0
3869 159 -3837 0
-3933 -160 0
-3933 3869 0
3933 160 -3869 0
-4189 161 0
-4189 3933 0
4189 -161 -3933 0
-4201 -148 0
-4201 4197 0
4201 148 -4197 0
-4217 149 0
-4217 4201 0
4217 -149 -4201 0
-4233 -150 0
-4233 4217 0
4233 150 -4217 0
-4265 -151 0
-4265 4233 0
4265 151 -4233 0
-4329 -152 0
-4329 4265 0
4329 152 -4265 0
-4585 153 0
-4585 4329 0
4585 -153 -4329 0
-4729 -4189 0
-4729 -4585 0
4729 4189 4585 0
-4873 -3793 0
-4873 4729 0
4873 3793 -4729 0
-5017 -3397 0
-5017 4873 0
5017 3397 -4873 0
-5161 -3001 0
-5161 5017 0
5161 3001 -5017 0
-5305 -2605 0
-5305 5161 0
5305 2605 -5161 0
-5449 -2209 0
-5449 5305 0
5449 2209 -5305 0
-5593 -1813 0
-5593 5449 0
5593 1813 -5449 0
-5737 -1417 0
-5737 5593 0
5737 1417 -5593 0
-5881 -1021 0
-5881 5737 0
5881 1021 -5737 0
-6025 -625 0
-6025 5881 0
6025 625 -5881 0
-6447 141 0
-6447 6025 0
6447 -141 -6025 0
-6448 -141 0
-6448 -6025 0
6448 141 6025 0
-6449 -6447 0
-6449 -6448 0
6449 6447 6448 0
140 -23469 0
-140 23469 0
-240 -228 0
-240 236 0
240 228 -236 0
-256 229 0
-256 240 0
256 -229 -240 0
-272 -230 0
-272 256 0
272 230 -256 0
-304 -231 0
-304 272 0
304 231 -272 0
-368 -232 0
-368 304 0
368 232 -304 0
-624 233 0
-624 368 0
624 -233 -368 0
-636 -220 0
-636 632 0
636 220 -632 0
-652 221 0
-652 636 0
652 -221 -636 0
-668 -222 0
-668 652 0
668 222 -652 0
-700 -223 0
-700 668 0
700 223 -668 0
-764 -224 0
-764 700 0
764 224 -700 0
-1020 225 0
-1020 764 0
1020 -225 -764 0
-1032 -212 0
-1032 1028 0
1032 212 -1028 0
-1048 213 0
-1048 1032 0
1048 -213 -1032 0
-1064 -214 0
-1064 1048 0
1064 214 -1048 0
-1096 -215 0
-1096 1064 0
1096 215 -1064 0
-1160 -216 0
-1160 1096 0
1160 216 -1096 0
-1416 217 0
-1416 1160 0
1416 -217 -1160 0
-1428 -204 0
-1428 1424 0
1428 204 -1424 0
-1444 205 0
-1444 1428 0
1444 -205 -1428 0
-1460 -206 0
-1460 1444 0
1460 206 -1444 0
-1492 -207 0
-1492 1460 0
1492 207 -1460 0
-1556 -208 0
-1556 1492 0
1556 208 -1492 0
-1812 209 0
-1812 1556 0
1812 -209 -1556 0
-1824 -196 0
-1824 1820 0
1824 196 -1820 0
-1840 197 0
-1840 1824 0
1840 -197 -1824 0
-1856 -198 0
-1856 1840 0
1856 198 -1840 0
-1888 -199 0
-1888 1856 0
1888 199 -1856 0
-1952 -200 0
-1952 1888 0
1952 200 -1888 0
-2208 201 0
-2208 1952 0
2208 -201 -1952 0
-2220 -188 0
-2220 2216 0
2220 188 -2216 0
-2236 189 0
-2236 2220 0
2236 -189 -2220 0
-2252 -190 0
-2252 2236 0
2252 190 -2236 0
-2284 -191 0
-2284 2252 0
2284 191 -2252 0
-2348 -192 0
-2348 2284 0
2348 192 -2284 0
-2604 193 0
-2604 2348 0
2604 -193 -2348 0
-2616 -180 0
-2616 2612 0
2616 180 -2612 0
-2632 181 0
-2632 2616 0
2632 -181 -2616 0
-2648 -182 0
-2648 2632 0
2648 182 -2632 0
-2680 -183 0
-2680 2648 0
2680 183 -2648 0
-2744 -184 0
-2744 2680 0
2744 184 -2680 0
-3000 185 0
-3000 2744 0
3000 -185 -2744 0
-3012 -172 0
-3012 3008 0
3012 172 -3008 0
-3028 173 0
-3028 3012 0
3028 -173 -3012 0
-3044 -174 0
-3044 3028 0
3044 174 -3028 0
-3076 -175 0
-3076 3044 0
3076 175 -3044 0
-3140 -176 0
-3140 3076 0
3140 176 -3076 0
-3396 177 0
-3396 3140 0
3396 -177 -3140 0
-3408 -164 0
-3408 3404 0
3408 164 -3404 0
-3424 165 0
-3424 3408 0
3424 -165 -3408 0
-3440 -166 0
-3440 3424 0
3440 166 -3424 0
-3472 -167 0
-3472 3440 0
3472 167 -3440 0
-3536 -168 0
-3536 3472 0
3536 168 -3472 0
-3792 169 0
-3792 3536 0
3792 -169 -3536 0
-3804 -156 0
-3804 3800 0
3804 156 -3800 0
-3820 157 0
-3820 3804 0
3820 -157 -3804 0
-3836 -158 0
-3836 3820 0
3836 158 -3820 0
-3868 -159 0
-3868 3836 0
3868 159 -3836 0
-3932 -160 0
-3932 3868 0
3932 160 -3868 0
-4188 161 0
-4188 3932 0
4188 -161 -3932 0
-4200 -148 0
-4200 4196 0
4200 148 -4196 0
-4216 149 0
-4216 4200 0
4216 -149 -4200 0
-4232 -150 0
-4232 4216 0
4232 150 -4216 0
-4264 -151 0
-4264 4232 0
4264 151 -4232 0
-4328 -152 0
-4328 4264 0
4328 152 -4264 0
-4584 153 0
-4584 4328 0
4584 -153 -4328 0
-4728 -4188 0
-4728 -4584 0
4728 4188 4584 0
-4872 -3792 0
-4872 4728 0
4872 3792 -4728 0
-5016 -3396 0
-5016 4872 0
5016 3396 -4872 0
-5160 -3000 0
-5160 5016 0
5160 3000 -5016 0
-5304 -2604 0
-5304 5160 0
5304 2604 -5160 0
-5448 -2208 0
-5448 5304 0
5448 2208 -5304 0
-5592 -1812 0
-5592 5448 0
5592 1812 -5448 0
-5736 -1416 0
-5736 5592 0
5736 1416 -5592 0
-5880 -1020 0
-5880 5736 0
5880 1020 -5736 0
-6024 -624 0
-6024 5880 0
6024 624 -5880 0
-6444 140 0
-6444 6024 0
6444 -140 -6024 0
-6445 -140 0
-6445 -6024 0
6445 140 6024 0
-6446 -6444 0
-6446 -6445 0
6446 6444 6445 0
139 -23468 0
-139 23468 0
-239 -228 0
-239 235 0
239 228 -235 0
-255 229 0
-255 239 0
255 -229 -239 0
-271 -230 0
-271 255 0
271 230 -255 0
-303 -231 0
-303 271 0
303 231 -271 0
-367 -232 0
-367 303 0
367 232 -303 0
-623 233 0
-623 367 0
623 -233 -367 0
-635 -220 0
-635 631 0
635 220 -631 0
-651 221 0
-651 635 0
651 -221 -635 0
-667 -222 0
-667 651 0
667 222 -651 0
-699 -223 0
-699 667 0
699 223 -667 0
-763 -224 0
-763 699 0
763 224 -699 0
-1019 225 0
-1019 763 0
1019 -225 -763 0
-1031 -212 0
-1031 1027 0
1031 212 -1027 0
-1047 213 0
-1047 1031 0
1047 -213 -1031 0
-1063 -214 0
-1063 1047 0
1063 214 -1047 0
-1095 -215 0
-1095 1063 0
1095 215 -1063 0
-1159 -216 0
-1159 1095 0
1159 216 -1095 0
-1415 217 0
-1415 1159 0
1415 -217 -1159 0
-1427 -204 0
-1427 1423 0
1427 204 -1423 0
-1443 205 0
-1443 1427 0
1443 -205 -1427 0
-1459 -206 0
-1459 1443 0
1459 206 -1443 0
-1491 -207 0
-1491 1459 0
1491 207 -1459 0
-1555 -208 0
-1555 1491 0
1555 208 -1491 0
-1811 209 0
-1811 1555 0
1811 -209 -1555 0
-1823 -196 0
-1823 1819 0
1823 196 -1819 0
-1839 197 0
-1839 1823 0
1839 -197 -1823 0
-1855 -198 0
-1855 1839 0
1855 198 -1839 0
-1887 -199 0
-1887 1855 0
1887 199 -1855 0
-1951 -200 0
-1951 1887 0
1951 200 -1887 0
-2207 201 0
-2207 1951 0
2207 -201 -1951 0
-2219 -188 0
-2219 2215 0
2219 188 -2215 0
-2235 189 0
-2235 2219 0
2235 -189 -2219 0
-2251 -190 0
-2251 2235 0
2251 190 -2235 0
-2283 -191 0
-2283 2251 0
2283 191 -2251 0
-2347 -192 0
-2347 2283 0
2347 192 -2283 0
-2603 193 0
-2603 2347 0
2603 -193 -2347 0
-2615 -180 0
-2615 2611 0
2615 180 -2611 0
-2631 181 0
-2631 2615 0
2631 -181 -2615 0
-2647 -182 0
-2647 2631 0
2647 182 -2631 0
-2679 -183 0
-2679 2647 0
2679 183 -2647 0
-2743 -184 0
-2743 2679 0
2743 184 -2679 0
-2999 185 0
-2999 2743 0
2999 -185 -2743 0
-3011 -172 0
-3011 3007 0
3011 172 -3007 0
-3027 173 0
-3027 3011 0
3027 -173 -3011 0
-3043 -174 0
-3043 3027 0
3043 174 -3027 0
-3075 -175 0
-3075 3043 0
3075 175 -3043 0
-3139 -176 0
-3139 3075 0
3139 176 -3075 0
-3395 177 0
-3395 3139 0
3395 -177 -3139 0
-3407 -164 0
-3407 3403 0
3407 164 -3403 0
-3423 165 0
-3423 3407 0
3423 -165 -3407 0
-3439 -166 0
-3439 3423 0
3439 166 -3423 0
-3471 -167 0
-3471 3439 0
3471 167 -3439 0
-3535 -168 0
-3535 3471 0
3535 168 -3471 0
-3791 169 0
-3791 3535 0
3791 -169 -3535 0
-3803 -156 0
-3803 3799 0
3803 156 -3799 0
-3819 157 0
-3819 3803 0
3819 -157 -3803 0
-3835 -158 0
-3835 3819 0
3835 158 -3819 0
-3867 -159 0
-3867 3835 0
3867 159 -3835 0
-3931 -160 0
-3931 3867 0
3931 160 -3867 0
-4187 161 0
-4187 3931 0
4187 -161 -3931 0
-4199 -148 0
-4199 4195 0
4199 148 -4195 0
-4215 149 0
-4215 4199 0
4215 -149 -4199 0
-4231 -150 0
-4231 4215 0
4231 150 -4215 0
-4263 -151 0
-4263 4231 0
4263 151 -4231 0
-4327 -152 0
-4327 4263 0
4327 152 -4263 0
-4583 153 0
-4583 4327 0
4583 -153 -4327 0
-4727 -4187 0
-4727 -4583 0
4727 4187 4583 0
-4871 -3791 0
-4871 4727 0
4871 3791 -4727 0
-5015 -3395 0
-5015 4871 0
5015 3395 -4871 0
-5159 -2999 0
-5159 5015 0
5159 2999 -5015 0
-5303 -2603 0
-5303 5159 0
5303 2603 -5159 0
-5447 -2207 0
-5447 5303 0
5447 2207 -5303 0
-5591 -1811 0
-5591 5447 0
5591 1811 -5447 0
-5735 -1415 0
-5735 5591 0
5735 1415 -5591 0
-5879 -1019 0
-5879 5735 0
5879 1019 -5735 0
-6023 -623 0
-6023 5879 0
6023 623 -5879 0
-6441 139 0
-6441 6023 0
6441 -139 -6023 0
-6442 -139 0
-6442 -6023 0
6442 139 6023 0
-6443 -6441 0
-6443 -6442 0
6443 6441 6442 0
138 -23467 0
-138 23467 0
-238 -228 0
-238 234 0
238 228 -234 0
-254 229 0
-254 238 0
254 -229 -238 0
-270 -230 0
-270 254 0
270 230 -254 0
-302 -231 0
-302 270 0
302 231 -270 0
-366 -232 0
-366 302 0
366 232 -302 0
-622 233 0
-622 366 0
622 -233 -366 0
-634 -220 0
-634 630 0
634 220 -630 0
-650 221 0
-650 634 0
650 -221 -634 0
-666 -222 0
-666 650 0
666 222 -650 0
-698 -223 0
-698 666 0
698 223 -666 0
-762 -224 0
-762 698 0
762 224 -698 0
-1018 225 0
-1018 762 0
1018 -225 -762 0
-1030 -212 0
-1030 1026 0
1030 212 -1026 0
-1046 213 0
-1046 1030 0
1046 -213 -1030 0
-1062 -214 0
-1062 1046 0
1062 214 -1046 0
-1094 -215 0
-1094 1062 0
1094 215 -1062 0
-1158 -216 0
-1158 1094 0
1158 216 -1094 0
-1414 217 0
-1414 1158 0
1414 -217 -1158 0
-1426 -204 0
-1426 1422 0
1426 204 -1422 0
-1442 205 0
-1442 1426 0
1442 -205 -1426 0
-1458 -206 0
-1458 1442 0
1458 206 -1442 0
-1490 -207 0
-1490 1458 0
1490 207 -1458 0
-1554 -208 0
-1554 1490 0
1554 208 -1490 0
-1810 209 0
-1810 1554 0
1810 -209 -1554 0
-1822 -196 0
-1822 1818 0
1822 196 -1818 0
-1838 197 0
-1838 1822 0
1838 -197 -1822 0
-1854 -198 0
-1854 1838 0
1854 198 -1838 0
-1886 -199 0
-1886 1854 0
1886 199 -1854 0
-1950 -200 0
-1950 1886 0
1950 200 -1886 0
-2206 201 0
-2206 1950 0
2206 -201 -1950 0
-2218 -188 0
-2218 2214 0
2218 188 -2214 0
-2234 189 0
-2234 2218 0
2234 -189 -2218 0
-2250 -190 0
-2250 2234 0
2250 190 -2234 0
-2282 -191 0
-2282 2250 0
2282 191 -2250 0
-2346 -192 0
-2346 2282 0
2346 192 -2282 0
-2602 193 0
-2602 2346 0
2602 -193 -2346 0
-2614 -180 0
-2614 2610 0
2614 180 -2610 0
-2630 181 0
-2630 2614 0
2630 -181 -2614 0
-2646 -182 0
-2646 2630 0
2646 182 -2630 0
-2678 -183 0
-2678 2646 0
2678 183 -2646 0
-2742 -184 0
-2742 2678 0
2742 184 -2678 0
-2998 185 0
-2998 2742 0
2998 -185 -2742 0
-3010 -172 0
-3010 3006 0
3010 172 -3006 0
-3026 173 0
-3026 3010 0
3026 -173 -3010 0
-3042 -174 0
-3042 3026 0
3042 174 -3026 0
-3074 -175 0
-3074 3042 0
3074 175 -3042 0
-3138 -176 0
-3138 3074 0
3138 176 -3074 0
-3394 177 0
-3394 3138 0
3394 -177 -3138 0
-3406 -164 0
-3406 3402 0
3406 164 -3402 0
-3422 165 0
-3422 3406 0
3422 -165 -3406 0
-3438 -166 0
-3438 3422 0
3438 166 -3422 0
-3470 -167 0
-3470 3438 0
3470 167 -3438 0
-3534 -168 0
-3534 3470 0
3534 168 -3470 0
-3790 169 0
-3790 3534 0
3790 -169 -3534 0
-3802 -156 0
-3802 3798 0
3802 156 -3798 0
-3818 157 0
-3818 3802 0
3818 -157 -3802 0
-3834 -158 0
-3834 3818 0
3834 158 -3818 0
-3866 -159 0
-3866 3834 0
3866 159 -3834 0
-3930 -160 0
-3930 3866 0
3930 160 -3866 0
-4186 161 0
-4186 3930 0
4186 -161 -3930 0
-4198 -148 0
-4198 4194 0
4198 148 -4194 0
-4214 149 0
-4214 4198 0
4214 -149 -4198 0
-4230 -150 0
-4230 4214 0
4230 150 -4214 0
-4262 -151 0
-4262 4230 0
4262 151 -4230 0
-4326 -152 0
-4326 4262 0
4326 152 -4262 0
-4582 153 0
-4582 4326 0
4582 -153 -4326 0
-4726 -4186 0
-4726 -4582 0
4726 4186 4582 0
-4870 -3790 0
-4870 4726 0
4870 3790 -4726 0
-5014 -3394 0
-5014 4870 0
5014 3394 -4870 0
-5158 -2998 0
-5158 5014 0
5158 2998 -5014 0
-5302 -2602 0
-5302 5158 0
5302 2602 -5158 0
-5446 -2206 0
-5446 5302 0
5446 2206 -5302 0
-5590 -1810 0
-5590 5446 0
5590 1810 -5446 0
-5734 -1414 0
-5734 5590 0
5734 1414 -5590 0
-5878 -1018 0
-5878 5734 0
5878 1018 -5734 0
-6022 -622 0
-6022 5878 0
6022 622 -5878 0
-6438 138 0
-6438 6022 0
6438 -138 -6022 0
-6439 -138 0
-6439 -6022 0
6439 138 6022 0
-6440 -6438 0
-6440 -6439 0
6440 6438 6439 0
137 -23466 0
-137 23466 0
-253 -229 0
-253 245 0
253 229 -245 0
-269 -230 0
-269 253 0
269 230 -253 0
-301 -231 0
-301 269 0
301 231 -269 0
-365 -232 0
-365 301 0
365 232 -301 0
-621 233 0
-621 365 0
621 -233 -365 0
-649 -221 0
-649 641 0
649 221 -641 0
-665 -222 0
-665 649 0
665 222 -649 0
-697 -223 0
-697 665 0
697 223 -665 0
-761 -224 0
-761 697 0
761 224 -697 0
-1017 225 0
-1017 761 0
1017 -225 -761 0
-1045 -213 0
-1045 1037 0
1045 213 -1037 0
-1061 -214 0
-1061 1045 0
1061 214 -1045 0
-1093 -215 0
-1093 1061 0
1093 215 -1061 0
-1157 -216 0
-1157 1093 0
1157 216 -1093 0
-1413 217 0
-1413 1157 0
1413 -217 -1157 0
-1441 -205 0
-1441 1433 0
1441 205 -1433 0
-1457 -206 0
-1457 1441 0
1457 206 -1441 0
-1489 -207 0
-1489 1457 0
1489 207 -1457 0
-1553 -208 0
-1553 1489 0
1553 208 -1489 0
-1809 209 0
-1809 1553 0
1809 -209 -1553 0
-1837 -197 0
-1837 1829 0
1837 197 -1829 0
-1853 -198 0
-1853 1837 0
1853 198 -1837 0
-1885 -199 0
-1885 1853 0
1885 199 -1853 0
-1949 -200 0
-1949 1885 0
1949 200 -1885 0
-2205 201 0
-2205 1949 0
2205 -201 -1949 0
-2233 -189 0
-2233 2225 0
2233 189 -2225 0
-2249 -190 0
-2249 2233 0
2249 190 -2233 0
-2281 -191 0
-2281 2249 0
2281 191 -2249 0
-2345 -192 0
-2345 2281 0
2345 192 -2281 0
-2601 193 0
-2601 2345 0
2601 -193 -2345 0
-2629 -181 0
-2629 2621 0
2629 181 -2621 0
-2645 -182 0
-2645 2629 0
2645 182 -2629 0
-2677 -183 0
-2677 2645 0
2677 183 -2645 0
-2741 -184 0
-2741 2677 0
2741 184 -2677 0
-2997 185 0
-2997 2741 0
2997 -185 -2741 0
-3025 -173 0
-3025 3017 0
3025 173 -3017 0
-3041 -174 0
-3041 3025 0
3041 174 -3025 0
-3073 -175 0
-3073 3041 0
3073 175 -3041 0
-3137 -176 0
-3137 3073 0
3137 176 -3073 0
-3393 177 0
-3393 3137 0
3393 -177 -3137 0
-3421 -165 0
-3421 3413 0
3421 165 -3413 0
-3437 -166 0
-3437 3421 0
3437 166 -3421 0
-3469 -167 0
-3469 3437 0
3469 167 -3437 0
-3533 -168 0
-3533 3469 0
3533 168 -3469 0
-3789 169 0
-3789 3533 0
3789 -169 -3533 0
-3817 -157 0
-3817 3809 0
3817 157 -3809 0
-3833 -158 0
-3833 3817 0
3833 158 -3817 0
-3865 -159 0
-3865 3833 0
3865 159 -3833 0
-3929 -160 0
-3929 3865 0
3929 160 -3865 0
-4185 161 0
-4185 3929 0
4185 -161 -3929 0
-4213 -149 0
-4213 4205 0
4213 149 -4205 0
-4229 -150 0
-4229 4213 0
4229 150 -4213 0
-4261 -151 0
-4261 4229 0
4261 151 -4229 0
-4325 -152 0
-4325 4261 0
4325 152 -4261 0
-4581 153 0
-4581 4325 0
4581 -153 -4325 0
-4725 -4185 0
-4725 -4581 0
4725 4185 4581 0
-4869 -3789 0
-4869 4725 0
4869 3789 -4725 0
-5013 -3393 0
-5013 4869 0
5013 3393 -4869 0
-5157 -2997 0
-5157 5013 0
5157 2997 -5013 0
-5301 -2601 0
-5301 5157 0
5301 2601 -5157 0
-5445 -2205 0
-5445 5301 0
5445 2205 -5301 0
-5589 -1809 0
-5589 5445 0
5589 1809 -5445 0
-5733 -1413 0
-5733 5589 0
5733 1413 -5589 0
-5877 -1017 0
-5877 5733 0
5877 1017 -5733 0
-6021 -621 0
-6021 5877 0
6021 621 -5877 0
-6435 137 0
-6435 6021 0
6435 -137 -6021 0
-6436 -137 0
-6436 -6021 0
6436 137 6021 0
-6437 -6435 0
-6437 -6436 0
6437 6435 6436 0
136 -23465 0
-136 23465 0
-252 -229 0
-252 244 0
252 229 -244 0
-268 -230 0
-268 252 0
268 230 -252 0
-300 -231 0
-300 268 0
300 231 -268 0
-364 -232 0
-364 300 0
364 232 -300 0
-620 233 0
-620 364 0
620 -233 -364 0
-648 -221 0
-648 640 0
648 221 -640 0
-664 -222 0
-664 648 0
664 222 -648 0
-696 -223 0
-696 664 0
696 223 -664 0
-760 -224 0
-760 696 0
760 224 -696 0
-1016 225 0
-1016 760 0
1016 -225 -760 0
-1044 -213 0
-1044 1036 0
1044 213 -1036 0
-1060 -214 0
-1060 1044 0
1060 214 -1044 0
-1092 -215 0
-1092 1060 0
1092 215 -1060 0
-1156 -216 0
-1156 1092 0
1156 216 -1092 0
-1412 217 0
-1412 1156 0
1412 -217 -1156 0
-1440 -205 0
-1440 1432 0
1440 205 -1432 0
-1456 -206 0
-1456 1440 0
1456 206 -1440 0
-1488 -207 0
-1488 1456 0
1488 207 -1456 0
-1552 -208 0
-1552 1488 0
1552 208 -1488 0
-1808 209 0
-1808 1552 0
1808 -209 -1552 0
-1836 -197 0
-1836 1828 0
1836 197 -1828 0
-1852 -198 0
-1852 1836 0
1852 198 -1836 0
-1884 -199 0
-1884 1852 0
1884 199 -1852 0
-1948 -200 0
-1948 1884 0
1948 200 -1884 0
-2204 201 0
-2204 1948 0
2204 -201 -1948 0
-2232 -189 0
-2232 2224 0
2232 189 -2224 0
-2248 -190 0
-2248 2232 0
2248 190 -2232 0
-2280 -191 0
-2280 2248 0
2280 191 -2248 0
-2344 -192 0
-2344 2280 0
2344 192 -2280 0
-2600 193 0
-2600 2344 0
2600 -193 -2344 0
-2628 -181 0
-2628 2620 0
2628 181 -2620 0
-2644 -182 0
-2644 2628 0
2644 182 -2628 0
-2676 -183 0
-2676 2644 0
2676 183 -2644 0
-2740 -184 0
-2740 2676 0
2740 184 -2676 0
-2996 185 0
-2996 2740 0
2996 -185 -2740 0
-3024 -173 0
-3024 3016 0
3024 173 -3016 0
-3040 -174 0
-3040 3024 0
3040 174 -3024 0
-3072 -175 0
-3072 3040 0
3072 175 -3040 0
-3136 -176 0
-3136 3072 0
3136 176 -3072 0
-3392 177 0
-3392 3136 0
3392 -177 -3136 0
-3420 -165 0
-3420 3412 0
3420 165 -3412 0
-3436 -166 0
-3436 3420 0
3436 166 -3420 0
-3468 -167 0
-3468 3436 0
3468 167 -3436 0
-3532 -168 0
-3532 3468 0
3532 168 -3468 0
-3788 169 0
-3788 3532 0
3788 -169 -3532 0
-3816 -157 0
-3816 3808 0
3816 157 -3808 0
-3832 -158 0
-3832 3816 0
3832 158 -3816 0
-3864 -159 0
-3864 3832 0
3864 159 -3832 0
-3928 -160 0
-3928 3864 0
3928 160 -3864 0
-4184 161 0
-4184 3928 0
4184 -161 -3928 0
-4212 -149 0
-4212 4204 0
4212 149 -4204 0
-4228 -150 0
-4228 4212 0
4228 150 -4212 0
-4260 -151 0
-4260 4228 0
4260 151 -4228 0
-4324 -152 0
-4324 4260 0
4324 152 -4260 0
-4580 153 0
-4580 4324 0
4580 -153 -4324 0
-4724 -4184 0
-4724 -4580 0
4724 4184 4580 0
-4868 -3788 0
-4868 4724 0
4868 3788 -4724 0
-5012 -3392 0
-5012 4868 0
5012 3392 -4868 0
-5156 -2996 0
-5156 5012 0
5156 2996 -5012 0
-5300 -2600 0
-5300 5156 0
5300 2600 -5156 0
-5444 -2204 0
-5444 5300 0
5444 2204 -5300 0
-5588 -1808 0
-5588 5444 0
5588 1808 -5444 0
-5732 -1412 0
-5732 5588 0
5732 1412 -5588 0
-5876 -1016 0
-5876 5732 0
5876 1016 -5732 0
-6020 -620 0
-6020 5876 0
6020 620 -5876 0
-6432 136 0
-6432 6020 0
6432 -136 -6020 0
-6433 -136 0
-6433 -6020 0
6433 136 6020 0
-6434 -6432 0
-6434 -6433 0
6434 6432 6433 0
135 -23464 0
-135 23464 0
-251 -229 0
-251 243 0
251 229 -243 0
-267 -230 0
-267 251 0
267 230 -251 0
-299 -231 0
-299 267 0
299 231 -267 0
-363 -232 0
-363 299 0
363 232 -299 0
-619 233 0
-619 363 0
619 -233 -363 0
-647 -221 0
-647 639 0
647 221 -639 0
-663 -222 0
-663 647 0
663 222 -647 0
-695 -223 0
-695 663 0
695 223 -663 0
-759 -224 0
-759 695 0
759 224 -695 0
-1015 225 0
-1015 759 0
1015 -225 -759 0
-1043 -213 0
-1043 1035 0
1043 213 -1035 0
-1059 -214 0
-1059 1043 0
1059 214 -1043 0
-1091 -215 0
-1091 1059 0
1091 215 -1059 0
-1155 -216 0
-1155 1091 0
1155 216 -1091 0
-1411 217 0
-1411 1155 0
1411 -217 -1155 0
-1439 -205 0
-1439 1431 0
1439 205 -1431 0
-1455 -206 0
-1455 1439 0
1455 206 -1439 0
-1487 -207 0
-1487 1455 0
1487 207 -1455 0
-1551 -208 0
-1551 1487 0
1551 208 -1487 0
-1807 209 0
-1807 1551 0
1807 -209 -1551 0
-1835 -197 0
-1835 1827 0
1835 197 -1827 0
-1851 -198 0
-1851 1835 0
1851 198 -1835 0
-1883 -199 0
-1883 1851 0
1883 199 -1851 0
-1947 -200 0
-1947 1883 0
1947 200 -1883 0
-2203 201 0
-2203 1947 0
2203 -201 -1947 0
-2231 -189 0
-2231 2223 0
2231 189 -2223 0
-2247 -190 0
-2247 2231 0
2247 190 -2231 0
-2279 -191 0
-2279 2247 0
2279 191 -2247 0
-2343 -192 0
-2343 2279 0
2343 192 -2279 0
-2599 193 0
-2599 2343 0
2599 -193 -2343 0
-2627 -181 0
-2627 2619 0
2627 181 -2619 0
-2643 -182 0
-2643 2627 0
2643 182 -2627 0
-2675 -183 0
-2675 2643 0
2675 183 -2643 0
-2739 -184 0
-2739 2675 0
2739 184 -2675 0
-2995 185 0
-2995 2739 0
2995 -185 -2739 0
-3023 -173 0
-3023 3015 0
3023 173 -3015 0
-3039 -174 0
-3039 3023 0
3039 174 -3023 0
-3071 -175 0
-3071 3039 0
3071 175 -3039 0
-3135 -176 0
-3135 3071 0
3135 176 -3071 0
-3391 177 0
-3391 3135 0
3391 -177 -3135 0
-3419 -165 0
-3419 3411 0
3419 165 -3411 0
-3435 -166 0
-3435 3419 0
3435 166 -3419 0
-3467 -167 0
-3467 3435 0
3467 167 -3435 0
-3531 -168 0
-3531 3467 0
3531 168 -3467 0
-3787 169 0
-3787 3531 0
3787 -169 -3531 0
-3815 -157 0
-3815 3807 0
3815 157 -3807 0
-3831 -158 0
-3831 3815 0
3831 158 -3815 0
-3863 -159 0
-3863 3831 0
3863 159 -3831 0
-3927 -160 0
-3927 3863 0
3927 160 -3863 0
-4183 161 0
-4183 3927 0
4183 -161 -3927 0
-4211 -149 0
-4211 4203 0
4211 149 -4203 0
-4227 -150 0
-4227 4211 0
4227 150 -4211 0
-4259 -151 0
-4259 4227 0
4259 151 -4227 0
-4323 -152 0
-4323 4259 0
4323 152 -4259 0
-4579 153 0
-4579 4323 0
4579 -153 -4323 0
-4723 -4183 0
-4723 -4579 0
4723 4183 4579 0
-4867 -3787 0
-4867 4723 0
4867 3787 -4723 0
-5011 -3391 0
-5011 4867 0
5011 3391 -4867 0
-5155 -2995 0
-5155 5011 0
5155 2995 -5011 0
-5299 -2599 0
-5299 5155 0
5299 2599 -5155 0
-5443 -2203 0
-5443 5299 0
5443 2203 -5299 0
-5587 -1807 0
-5587 5443 0
5587 1807 -5443 0
-5731 -1411 0
-5731 5587 0
5731 1411 -5587 0
-5875 -1015 0
-5875 5731 0
5875 1015 -5731 0
-6019 -619 0
-6019 5875 0
6019 619 -5875 0
-6429 135 0
-6429 6019 0
6429 -135 -6019 0
-6430 -135 0
-6430 -6019 0
6430 135 6019 0
-6431 -6429 0
-6431 -6430 0
6431 6429 6430 0
134 -23463 0
-134 23463 0
-250 -229 0
-250 242 0
250 229 -242 0
-266 -230 0
-266 250 0
266 230 -250 0
-298 -231 0
-298 266 0
298 231 -266 0
-362 -232 0
-362 298 0
362 232 -298 0
-618 233 0
-618 362 0
618 -233 -362 0
-646 -221 0
-646 638 0
646 221 -638 0
-662 -222 0
-662 646 0
662 222 -646 0
-694 -223 0
-694 662 0
694 223 -662 0
-758 -224 0
-758 694 0
758 224 -694 0
-1014 225 0
-1014 758 0
1014 -225 -758 0
-1042 -213 0
-1042 1034 0
1042 213 -1034 0
-1058 -214 0
-1058 1042 0
1058 214 -1042 0
-1090 -215 0
-1090 1058 0
1090 215 -1058 0
-1154 -216 0
-1154 1090 0
1154 216 -1090 0
-1410 217 0
-1410 1154 0
1410 -217 -1154 0
-1438 -205 0
-1438 1430 0
1438 205 -1430 0
-1454 -206 0
-1454 1438 0
1454 206 -1438 0
-1486 -207 0
-1486 1454 0
1486 207 -1454 0
-1550 -208 0
-1550 1486 0
1550 208 -1486 0
-1806 209 0
-1806 1550 0
1806 -209 -1550 0
-1834 -197 0
-1834 1826 0
1834 197 -1826 0
-1850 -198 0
-1850 1834 0
1850 198 -1834 0
-1882 -199 0
-1882 1850 0
1882 199 -1850 0
-1946 -200 0
-1946 1882 0
1946 200 -1882 0
-2202 201 0
-2202 1946 0
2202 -201 -1946 0
-2230 -189 0
-2230 2222 0
2230 189 -2222 0
-2246 -190 0
-2246 2230 0
2246 190 -2230 0
-2278 -191 0
-2278 2246 0
2278 191 -2246 0
-2342 -192 0
-2342 2278 0
2342 192 -2278 0
-2598 193 0
-2598 2342 0
2598 -193 -2342 0
-2626 -181 0
-2626 2618 0
2626 181 -2618 0
-2642 -182 0
-2642 2626 0
2642 182 -2626 0
-2674 -183 0
-2674 2642 0
2674 183 -2642 0
-2738 -184 0
-2738 2674 0
2738 184 -2674 0
-2994 185 0
-2994 2738 0
2994 -185 -2738 0
-3022 -173 0
-3022 3014 0
3022 173 -3014 0
-3038 -174 0
-3038 3022 0
3038 174 -3022 0
-3070 -175 0
-3070 3038 0
3070 175 -3038 0
-3134 -176 0
-3134 3070 0
3134 176 -3070 0
-3390 177 0
-3390 3134 0
3390 -177 -3134 0
-3418 -165 0
-3418 3410 0
3418 165 -3410 0
-3434 -166 0
-3434 3418 0
3434 166 -3418 0
-3466 -167 0
-3466 3434 0
3466 167 -3434 0
-3530 -168 0
-3530 3466 0
3530 168 -3466 0
-3786 169 0
-3786 3530 0
3786 -169 -3530 0
-3814 -157 0
-3814 3806 0
3814 157 -3806 0
-3830 -158 0
-3830 3814 0
3830 158 -3814 0
-3862 -159 0
-3862 3830 0
3862 159 -3830 0
-3926 -160 0
-3926 3862 0
3926 160 -3862 0
-4182 161 0
-4182 3926 0
4182 -161 -3926 0
-4210 -149 0
-4210 4202 0
4210 149 -4202 0
-4226 -150 0
-4226 4210 0
4226 150 -4210 0
-4258 -151 0
-4258 4226 0
4258 151 -4226 0
-4322 -152 0
-4322 4258 0
4322 152 -4258 0
-4578 153 0
-4578 4322 0
4578 -153 -4322 0
-4722 -4182 0
-4722 -4578 0
4722 4182 4578 0
-4866 -3786 0
-4866 4722 0
4866 3786 -4722 0
-5010 -3390 0
-5010 4866 0
5010 3390 -4866 0
-5154 -2994 0
-5154 5010 0
5154 2994 -5010 0
-5298 -2598 0
-5298 5154 0
5298 2598 -5154 0
-5442 -2202 0
-5442 5298 0
5442 2202 -5298 0
-5586 -1806 0
-5586 5442 0
5586 1806 -5442 0
-5730 -1410 0
-5730 5586 0
5730 1410 -5586 0
-5874 -1014 0
-5874 5730 0
5874 1014 -5730 0
-6018 -618 0
-6018 5874 0
6018 618 -5874 0
-6426 134 0
-6426 6018 0
6426 -134 -6018 0
-6427 -134 0
-6427 -6018 0
6427 134 6018 0
-6428 -6426 0
-6428 -6427 0
6428 6426 6427 0
133 -23462 0
-133 23462 0
-249 -229 0
-249 241 0
249 229 -241 0
-265 -230 0
-265 249 0
265 230 -249 0
-297 -231 0
-297 265 0
297 231 -265 0
-361 -232 0
-361 297 0
361 232 -297 0
-617 233 0
-617 361 0
617 -233 -361 0
-645 -221 0
-645 637 0
645 221 -637 0
-661 -222 0
-661 645 0
661 222 -645 0
-693 -223 0
-693 661 0
693 223 -661 0
-757 -224 0
-757 693 0
757 224 -693 0
-1013 225 0
-1013 757 0
1013 -225 -757 0
-1041 -213 0
-1041 1033 0
1041 213 -1033 0
-1057 -214 0
-1057 1041 0
1057 214 -1041 0
-1089 -215 0
-1089 1057 0
1089 215 -1057 0
-1153 -216 0
-1153 1089 0
1153 216 -1089 0
-1409 217 0
-1409 1153 0
1409 -217 -1153 0
-1437 -205 0
-1437 1429 0
1437 205 -1429 0
-1453 -206 0
-1453 1437 0
1453 206 -1437 0
-1485 -207 0
-1485 1453 0
1485 207 -1453 0
-1549 -208 0
-1549 1485 0
1549 208 -1485 0
-1805 209 0
-1805 1549 0
1805 -209 -1549 0
-1833 -197 0
-1833 1825 0
1833 197 -1825 0
-1849 -198 0
-1849 1833 0
1849 198 -1833 0
-1881 -199 0
-1881 1849 0
1881 199 -1849 0
-1945 -200 0
-1945 1881 0
1945 200 -1881 0
-2201 201 0
-2201 1945 0
2201 -201 -1945 0
-2229 -189 0
-2229 2221 0
2229 189 -2221 0
-2245 -190 0
-2245 2229 0
2245 190 -2229 0
-2277 -191 0
-2277 2245 0
2277 191 -2245 0
-2341 -192 0
-2341 2277 0
2341 192 -2277 0
-2597 193 0
-2597 2341 0
2597 -193 -2341 0
-2625 -181 0
-2625 2617 0
2625 181 -2617 0
-2641 -182 0
-2641 2625 0
2641 182 -2625 0
-2673 -183 0
-2673 2641 0
2673 183 -2641 0
-2737 -184 0
-2737 2673 0
2737 184 -2673 0
-2993 185 0
-2993 2737 0
2993 -185 -2737 0
-3021 -173 0
-3021 3013 0
3021 173 -3013 0
-3037 -174 0
-3037 3021 0
3037 174 -3021 0
-3069 -175 0
-3069 3037 0
3069 175 -3037 0
-3133 -176 0
-3133 3069 0
3133 176 -3069 0
-3389 177 0
-3389 3133 0
3389 -177 -3133 0
-3417 -165 0
-3417 3409 0
3417 165 -3409 0
-3433 -166 0
-3433 3417 0
3433 166 -3417 0
-3465 -167 0
-3465 3433 0
3465 167 -3433 0
-3529 -168 0
-3529 3465 0
3529 168 -3465 0
-3785 169 0
-3785 3529 0
3785 -169 -3529 0
-3813 -157 0
-3813 3805 0
3813 157 -3805 0
-3829 -158 0
-3829 3813 0
3829 158 -3813 0
-3861 -159 0
-3861 3829 0
3861 159 -3829 0
-3925 -160 0
-3925 3861 0
3925 160 -3861 0
-4181 161 0
-4181 3925 0
4181 -161 -3925 0
-4209 -149 0
-4209 4201 0
4209 149 -4201 0
-4225 -150 0
-4225 4209 0
4225 150 -4209 0
-4257 -151 0
-4257 4225 0
4257 151 -4225 0
-4321 -152 0
-4321 4257 0
4321 152 -4257 0
-4577 153 0
-4577 4321 0
4577 -153 -4321 0
-4721 -4181 0
-4721 -4577 0
4721 4181 4577 0
-4865 -3785 0
-4865 4721 0
4865 3785 -4721 0
-5009 -3389 0
-5009 4865 0
5009 3389 -4865 0
-5153 -2993 0
-5153 5009 0
5153 2993 -5009 0
-5297 -2597 0
-5297 5153 0
5297 2597 -5153 0
-5441 -2201 0
-5441 5297 0
5441 2201 -5297 0
-5585 -1805 0
-5585 5441 0
5585 1805 -5441 0
-5729 -1409 0
-5729 5585 0
5729 1409 -5585 0
-5873 -1013 0
-5873 5729 0
5873 1013 -5729 0
-6017 -617 0
-6017 5873 0
6017 617 -5873 0
-6423 133 0
-6423 6017 0
6423 -133 -6017 0
-6424 -133 0
-6424 -6017 0
6424 133 6017 0
-6425 -6423 0
-6425 -6424 0
6425 6423 6424 0
132 -23461 0
-132 23461 0
-248 -229 0
-248 240 0
248 229 -240 0
-264 -230 0
-264 248 0
264 230 -248 0
-296 -231 0
-296 264 0
296 231 -264 0
-360 -232 0
-360 296 0
360 232 -296 0
-616 233 0
-616 360 0
616 -233 -360 0
-644 -221 0
-644 636 0
644 221 -636 0
-660 -222 0
-660 644 0
660 222 -644 0
-692 -223 0
-692 660 0
692 223 -660 0
-756 -224 0
-756 692 0
756 224 -692 0
-1012 225 0
-1012 756 0
1012 -225 -756 0
-1040 -213 0
-1040 1032 0
1040 213 -1032 0
-1056 -214 0
-1056 1040 0
1056 214 -1040 0
-1088 -215 0
-1088 1056 0
1088 215 -1056 0
-1152 -216 0
-1152 1088 0
1152 216 -1088 0
-1408 217 0
-1408 1152 0
1408 -217 -1152 0
-1436 -205 0
-1436 1428 0
1436 205 -1428 0
-1452 -206 0
-1452 1436 0
1452 206 -1436 0
-1484 -207 0
-1484 1452 0
1484 207 -1452 0
-1548 -208 0
-1548 1484 0
1548 208 -1484 0
-1804 209 0
-1804 1548 0
1804 -209 -1548 0
-1832 -197 0
-1832 1824 0
1832 197 -1824 0
-1848 -198 0
-1848 1832 0
1848 198 -1832 0
-1880 -199 0
-1880 1848 0
1880 199 -1848 0
-1944 -200 0
-1944 1880 0
1944 200 -1880 0
-2200 201 0
-2200 1944 0
2200 -201 -1944 0
-2228 -189 0
-2228 2220 0
2228 189 -2220 0
-2244 -190 0
-2244 2228 0
2244 190 -2228 0
-2276 -191 0
-2276 2244 0
2276 191 -2244 0
-2340 -192 0
-2340 2276 0
2340 192 -2276 0
-2596 193 0
-2596 2340 0
2596 -193 -2340 0
-2624 -181 0
-2624 2616 0
2624 181 -2616 0
-2640 -182 0
-2640 2624 0
2640 182 -2624 0
-2672 -183 0
-2672 2640 0
2672 183 -2640 0
-2736 -184 0
-2736 2672 0
2736 184 -2672 0
-2992 185 0
-2992 2736 0
2992 -185 -2736 0
-3020 -173 0
-3020 3012 0
3020 173 -3012 0
-3036 -174 0
-3036 3020 0
3036 174 -3020 0
-3068 -175 0
-3068 3036 0
3068 175 -3036 0
-3132 -176 0
-3132 3068 0
3132 176 -3068 0
-3388 177 0
-3388 3132 0
3388 -177 -3132 0
-3416 -165 0
-3416 3408 0
3416 165 -3408 0
-3432 -166 0
-3432 3416 0
3432 166 -3416 0
-3464 -167 0
-3464 3432 0
3464 167 -3432 0
-3528 -168 0
-3528 3464 0
3528 168 -3464 0
-3784 169 0
-3784 3528 0
3784 -169 -3528 0
-3812 -157 0
-3812 3804 0
3812 157 -3804 0
-3828 -158 0
-3828 3812 0
3828 158 -3812 0
-3860 -159 0
-3860 3828 0
3860 159 -3828 0
-3924 -160 0
-3924 3860 0
3924 160 -3860 0
-4180 161 0
-4180 3924 0
4180 -161 -3924 0
-4208 -149 0
-4208 4200 0
4208 149 -4200 0
-4224 -150 0
-4224 4208 0
4224 150 -4208 0
-4256 -151 0
-4256 4224 0
4256 151 -4224 0
-4320 -152 0
-4320 4256 0
4320 152 -4256 0
-4576 153 0
-4576 4320 0
4576 -153 -4320 0
-4720 -4180 0
-4720 -4576 0
4720 4180 4576 0
-4864 -3784 0
-4864 4720 0
4864 3784 -4720 0
-5008 -3388 0
-5008 4864 0
5008 3388 -4864 0
-5152 -2992 0
-5152 5008 0
5152 2992 -5008 0
-5296 -2596 0
-5296 5152 0
5296 2596 -5152 0
-5440 -2200 0
-5440 5296 0
5440 2200 -5296 0
-5584 -1804 0
-5584 5440 0
5584 1804 -5440 0
-5728 -1408 0
-5728 5584 0
5728 1408 -5584 0
-5872 -1012 0
-5872 5728 0
5872 1012 -5728 0
-6016 -616 0
-6016 5872 0
6016 616 -5872 0
-6420 132 0
-6420 6016 0
6420 -132 -6016 0
-6421 -132 0
-6421 -6016 0
6421 132 6016 0
-6422 -6420 0
-6422 -6421 0
6422 6420 6421 0
131 -23460 0
-131 23460 0
-247 -229 0
-247 239 0
247 229 -239 0
-263 -230 0
-263 247 0
263 230 -247 0
-295 -231 0
-295 263 0
295 231 -263 0
-359 -232 0
-359 295 0
359 232 -295 0
-615 233 0
-615 359 0
615 -233 -359 0
-643 -221 0
-643 635 0
643 221 -635 0
-659 -222 0
-659 643 0
659 222 -643 0
-691 -223 0
-691 659 0
691 223 -659 0
-755 -224 0
-755 691 0
755 224 -691 0
-1011 225 0
-1011 755 0
1011 -225 -755 0
-1039 -213 0
-1039 1031 0
1039 213 -1031 0
-1055 -214 0
-1055 1039 0
1055 214 -1039 0
-1087 -215 0
-1087 1055 0
1087 215 -1055 0
-1151 -216 0
-1151 1087 0
1151 216 -1087 0
-1407 217 0
-1407 1151 0
1407 -217 -1151 0
-1435 -205 0
-1435 1427 0
1435 205 -1427 0
-1451 -206 0
-1451 1435 0
1451 206 -1435 0
-1483 -207 0
-1483 1451 0
1483 207 -1451 0
-1547 -208 0
-1547 1483 0
1547 208 -1483 0
-1803 209 0
-1803 1547 0
1803 -209 -1547 0
-1831 -197 0
-1831 1823 0
1831 197 -1823 0
-1847 -198 0
-1847 1831 0
1847 198 -1831 0
-1879 -199 0
-1879 1847 0
1879 199 -1847 0
-1943 -200 0
-1943 1879 0
1943 200 -1879 0
-2199 201 0
-2199 1943 0
2199 -201 -1943 0
-2227 -189 0
-2227 2219 0
2227 189 -2219 0
-2243 -190 0
-2243 2227 0
2243 190 -2227 0
-2275 -191 0
-2275 2243 0
2275 191 -2243 0
-2339 -192 0
-2339 2275 0
2339 192 -2275 0
-2595 193 0
-2595 2339 0
2595 -193 -2339 0
-2623 -181 0
-2623 2615 0
2623 181 -2615 0
-2639 -182 0
-2639 2623 0
2639 182 -2623 0
-2671 -183 0
-2671 2639 0
2671 183 -2639 0
-2735 -184 0
-2735 2671 0
2735 184 -2671 0
-2991 185 0
-2991 2735 0
2991 -185 -2735 0
-3019 -173 0
-3019 3011 0
3019 173 -3011 0
-3035 -174 0
-3035 3019 0
3035 174 -3019 0
-3067 -175 0
-3067 3035 0
3067 175 -3035 0
-3131 -176 0
-3131 3067 0
3131 176 -3067 0
-3387 177 0
-3387 3131 0
3387 -177 -3131 0
-3415 -165 0
-3415 3407 0
3415 165 -3407 0
-3431 -166 0
-3431 3415 0
3431 166 -3415 0
-3463 -167 0
-3463 3431 0
3463 167 -3431 0
-3527 -168 0
-3527 3463 0
3527 168 -3463 0
-3783 169 0
-3783 3527 0
3783 -169 -3527 0
-3811 -157 0
-3811 3803 0
3811 157 -3803 0
-3827 -158 0
-3827 3811 0
3827 158 -3811 0
-3859 -159 0
-3859 3827 0
3859 159 -3827 0
-3923 -160 0
-3923 3859 0
3923 160 -3859 0
-4179 161 0
-4179 3923 0
4179 -161 -3923 0
-4207 -149 0
-4207 4199 0
4207 149 -4199 0
-4223 -150 0
-4223 4207 0
4223 150 -4207 0
-4255 -151 0
-4255 4223 0
4255 151 -4223 0
-4319 -152 0
-4319 4255 0
4319 152 -4255 0
-4575 153 0
-4575 4319 0
4575 -153 -4319 0
-4719 -4179 0
-4719 -4575 0
4719 4179 4575 0
-4863 -3783 0
-4863 4719 0
4863 3783 -4719 0
-5007 -3387 0
-5007 4863 0
5007 3387 -4863 0
-5151 -2991 0
-5151 5007 0
5151 2991 -5007 0
-5295 -2595 0
-5295 5151 0
5295 2595 -5151 0
-5439 -2199 0
-5439 5295 0
5439 2199 -5295 0
-5583 -1803 0
-5583 5439 0
5583 1803 -5439 0
-5727 -1407 0
-5727 5583 0
5727 1407 -5583 0
-5871 -1011 0
-5871 5727 0
5871 1011 -5727 0
-6015 -615 0
-6015 5871 0
6015 615 -5871 0
-6417 131 0
-6417 6015 0
6417 -131 -6015 0
-6418 -131 0
-6418 -6015 0
6418 131 6015 0
-6419 -6417 0
-6419 -6418 0
6419 6417 6418 0
130 -23459 0
-130 23459 0
-246 -229 0
-246 238 0
246 229 -238 0
-262 -230 0
-262 246 0
262 230 -246 0
-294 -231 0
-294 262 0
294 231 -262 0
-358 -232 0
-358 294 0
358 232 -294 0
-614 233 0
-614 358 0
614 -233 -358 0
-642 -221 0
-642 634 0
642 221 -634 0
-658 -222 0
-658 642 0
658 222 -642 0
-690 -223 0
-690 658 0
690 223 -658 0
-754 -224 0
-754 690 0
754 224 -690 0
-1010 225 0
-1010 754 0
1010 -225 -754 0
-1038 -213 0
-1038 1030 0
1038 213 -1030 0
-1054 -214 0
-1054 1038 0
1054 214 -1038 0
-1086 -215 0
-1086 1054 0
1086 215 -1054 0
-1150 -216 0
-1150 1086 0
1150 216 -1086 0
-1406 217 0
-1406 1150 0
1406 -217 -1150 0
-1434 -205 0
-1434 1426 0
1434 205 -1426 0
-1450 -206 0
-1450 1434 0
1450 206 -1434 0
-1482 -207 0
-1482 1450 0
1482 207 -1450 0
-1546 -208 0
-1546 1482 0
1546 208 -1482 0
-1802 209 0
-1802 1546 0
1802 -209 -1546 0
-1830 -197 0
-1830 1822 0
1830 197 -1822 0
-1846 -198 0
-1846 1830 0
1846 198 -1830 0
-1878 -199 0
-1878 1846 0
1878 199 -1846 0
-1942 -200 0
-1942 1878 0
1942 200 -1878 0
-2198 201 0
-2198 1942 0
2198 -201 -1942 0
-2226 -189 0
-2226 2218 0
2226 189 -2218 0
-2242 -190 0
-2242 2226 0
2242 190 -2226 0
-2274 -191 0
-2274 2242 0
2274 191 -2242 0
-2338 -192 0
-2338 2274 0
2338 192 -2274 0
-2594 193 0
-2594 2338 0
2594 -193 -2338 0
-2622 -181 0
-2622 2614 0
2622 181 -2614 0
-2638 -182 0
-2638 2622 0
2638 182 -2622 0
-2670 -183 0
-2670 2638 0
2670 183 -2638 0
-2734 -184 0
-2734 2670 0
2734 184 -2670 0
-2990 185 0
-2990 2734 0
2990 -185 -2734 0
-3018 -173 0
-3018 3010 0
3018 173 -3010 0
-3034 -174 0
-3034 3018 0
3034 174 -3018 0
-3066 -175 0
-3066 3034 0
3066 175 -3034 0
-3130 -176 0
-3130 3066 0
3130 176 -3066 0
-3386 177 0
-3386 3130 0
3386 -177 -3130 0
-3414 -165 0
-3414 3406 0
3414 165 -3406 0
-3430 -166 0
-3430 3414 0
3430 166 -3414 0
-3462 -167 0
-3462 3430 0
3462 167 -3430 0
-3526 -168 0
-3526 3462 0
3526 168 -3462 0
-3782 169 0
-3782 3526 0
3782 -169 -3526 0
-3810 -157 0
-3810 3802 0
3810 157 -3802 0
-3826 -158 0
-3826 3810 0
3826 158 -3810 0
-3858 -159 0
-3858 3826 0
3858 159 -3826 0
-3922 -160 0
-3922 3858 0
3922 160 -3858 0
-4178 161 0
-4178 3922 0
4178 -161 -3922 0
-4206 -149 0
-4206 4198 0
4206 149 -4198 0
-4222 -150 0
-4222 4206 0
4222 150 -4206 0
-4254 -151 0
-4254 4222 0
4254 151 -4222 0
-4318 -152 0
-4318 4254 0
4318 152 -4254 0
-4574 153 0
-4574 4318 0
4574 -153 -4318 0
-4718 -4178 0
-4718 -4574 0
4718 4178 4574 0
-4862 -3782 0
-4862 4718 0
4862 3782 -4718 0
-5006 -3386 0
-5006 4862 0
5006 3386 -4862 0
-5150 -2990 0
-5150 5006 0
5150 2990 -5006 0
-5294 -2594 0
-5294 5150 0
5294 2594 -5150 0
-5438 -2198 0
-5438 5294 0
5438 2198 -5294 0
-5582 -1802 0
-5582 5438 0
5582 1802 -5438 0
-5726 -1406 0
-5726 5582 0
5726 1406 -5582 0
-5870 -1010 0
-5870 5726 0
5870 1010 -5726 0
-6014 -614 0
-6014 5870 0
6014 614 -5870 0
-6414 130 0
-6414 6014 0
6414 -130 -6014 0
-6415 -130 0
-6415 -6014 0
6415 130 6014 0
-6416 -6414 0
-6416 -6415 0
6416 6414 6415 0
129 -23458 0
-129 23458 0
-293 230 0
-293 261 0
293 -230 -261 0
-357 231 0
-357 293 0
357 -231 -293 0
-485 232 0
-485 357 0
485 -232 -357 0
-613 -233 0
-613 485 0
613 233 -485 0
-689 222 0
-689 657 0
689 -222 -657 0
-753 223 0
-753 689 0
753 -223 -689 0
-881 224 0
-881 753 0
881 -224 -753 0
-1009 -225 0
-1009 881 0
1009 225 -881 0
-1085 214 0
-1085 1053 0
1085 -214 -1053 0
-1149 215 0
-1149 1085 0
1149 -215 -1085 0
-1277 216 0
-1277 1149 0
1277 -216 -1149 0
-1405 -217 0
-1405 1277 0
1405 217 -1277 0
-1481 206 0
-1481 1449 0
1481 -206 -1449 0
-1545 207 0
-1545 1481 0
1545 -207 -1481 0
-1673 208 0
-1673 1545 0
1673 -208 -1545 0
-1801 -209 0
-1801 1673 0
1801 209 -1673 0
-1877 198 0
-1877 1845 0
1877 -198 -1845 0
-1941 199 0
-1941 1877 0
1941 -199 -1877 0
-2069 200 0
-2069 1941 0
2069 -200 -1941 0
-2197 -201 0
-2197 2069 0
2197 201 -2069 0
-2273 190 0
-2273 2241 0
2273 -190 -2241 0
-2337 191 0
-2337 2273 0
2337 -191 -2273 0
-2465 192 0
-2465 2337 0
2465 -192 -2337 0
-2593 -193 0
-2593 2465 0
2593 193 -2465 0
-2669 182 0
-2669 2637 0
2669 -182 -2637 0
-2733 183 0
-2733 2669 0
2733 -183 -2669 0
-2861 184 0
-2861 2733 0
2861 -184 -2733 0
-2989 -185 0
-2989 2861 0
2989 185 -2861 0
-3065 174 0
-3065 3033 0
3065 -174 -3033 0
-3129 175 0
-3129 3065 0
3129 -175 -3065 0
-3257 176 0
-3257 3129 0
3257 -176 -3129 0
-3385 -177 0
-3385 3257 0
3385 177 -3257 0
-3461 166 0
-3461 3429 0
3461 -166 -3429 0
-3525 167 0
-3525 3461 0
3525 -167 -3461 0
-3653 168 0
-3653 3525 0
3653 -168 -3525 0
-3781 -169 0
-3781 3653 0
3781 169 -3653 0
-3857 158 0
-3857 3825 0
3857 -158 -3825 0
-3921 159 0
-3921 3857 0
3921 -159 -3857 0
-4049 160 0
-4049 3921 0
4049 -160 -3921 0
-4177 -161 0
-4177 4049 0
4177 161 -4049 0
-4253 150 0
-4253 4221 0
4253 -150 -4221 0
-4317 151 0
-4317 4253 0
4317 -151 -4253 0
-4445 152 0
-4445 4317 0
4445 -152 -4317 0
-4573 -153 0
-4573 4445 0
4573 153 -4445 0
-4717 -4177 0
-4717 -4573 0
4717 4177 4573 0
-4861 -3781 0
-4861 4717 0
4861 3781 -4717 0
-5005 -3385 0
-5005 4861 0
5005 3385 -4861 0
-5149 -2989 0
-5149 5005 0
5149 2989 -5005 0
-5293 -2593 0
-5293 5149 0
5293 2593 -5149 0
-5437 -2197 0
-5437 5293 0
5437 2197 -5293 0
-5581 -1801 0
-5581 5437 0
5581 1801 -5437 0
-5725 -1405 0
-5725 5581 0
5725 1405 -5581 0
-5869 -1009 0
-5869 5725 0
5869 1009 -5725 0
-6013 -613 0
-6013 5869 0
6013 613 -5869 0
-6411 129 0
-6411 6013 0
6411 -129 -6013 0
-6412 -129 0
-6412 -6013 0
6412 129 6013 0
-6413 -6411 0
-6413 -6412 0
6413 6411 6412 0
128 -23457 0
-128 23457 0
-292 230 0
-292 260 0
292 -230 -260 0
-356 231 0
-356 292 0
356 -231 -292 0
-484 232 0
-484 356 0
484 -232 -356 0
-612 -233 0
-612 484 0
612 233 -484 0
-688 222 0
-688 656 0
688 -222 -656 0
-752 223 0
-752 688 0
752 -223 -688 0
-880 224 0
-880 752 0
880 -224 -752 0
-1008 -225 0
-1008 880 0
1008 225 -880 0
-1084 214 0
-1084 1052 0
1084 -214 -1052 0
-1148 215 0
-1148 1084 0
1148 -215 -1084 0
-1276 216 0
-1276 1148 0
1276 -216 -1148 0
-1404 -217 0
-1404 1276 0
1404 217 -1276 0
-1480 206 0
-1480 1448 0
1480 -206 -1448 0
-1544 207 0
-1544 1480 0
1544 -207 -1480 0
-1672 208 0
-1672 1544 0
1672 -208 -1544 0
-1800 -209 0
-1800 1672 0
1800 209 -1672 0
-1876 198 0
-1876 1844 0
1876 -198 -1844 0
-1940 199 0
-1940 1876 0
1940 -199 -1876 0
-2068 200 0
-2068 1940 0
2068 -200 -1940 0
-2196 -201 0
-2196 2068 0
2196 201 -2068 0
-2272 190 0
-2272 2240 0
2272 -190 -2240 0
-2336 191 0
-2336 2272 0
2336 -191 -2272 0
-2464 192 0
-2464 2336 0
2464 -192 -2336 0
-2592 -193 0
-2592 2464 0
2592 193 -2464 0
-2668 182 0
-2668 2636 0
2668 -182 -2636 0
-2732 183 0
-2732 2668 0
2732 -183 -2668 0
-2860 184 0
-2860 2732 0
2860 -184 -2732 0
-2988 -185 0
-2988 2860 0
2988 185 -2860 0
-3064 174 0
-3064 3032 0
3064 -174 -3032 0
-3128 175 0
-3128 3064 0
3128 -175 -3064 0
-3256 176 0
-3256 3128 0
3256 -176 -3128 0
-3384 -177 0
-3384 3256 0
3384 177 -3256 0
-3460 166 0
-3460 3428 0
3460 -166 -3428 0
-3524 167 0
-3524 3460 0
3524 -167 -3460 0
-3652 168 0
-3652 3524 0
3652 -168 -3524 0
-3780 -169 0
-3780 3652 0
3780 169 -3652 0
-3856 158 0
-3856 3824 0
3856 -158 -3824 0
-3920 159 0
-3920 3856 0
3920 -159 -3856 0
-4048 160 0
-4048 3920 0
4048 -160 -3920 0
-4176 -161 0
-4176 4048 0
4176 161 -4048 0
-4252 150 0
-4252 4220 0
4252 -150 -4220 0
-4316 151 0
-4316 4252 0
4316 -151 -4252 0
-4444 152 0
-4444 4316 0
4444 -152 -4316 0
-4572 -153 0
-4572 4444 0
4572 153 -4444 0
-4716 -4176 0
-4716 -4572 0
4716 4176 4572 0
-4860 -3780 0
-4860 4716 0
4860 3780 -4716 0
-5004 -3384 0
-5004 4860 0
5004 3384 -4860 0
-5148 -2988 0
-5148 5004 0
5148 2988 -5004 0
-5292 -2592 0
-5292 5148 0
5292 2592 -5148 0
-5436 -2196 0
-5436 5292 0
5436 2196 -5292 0
-5580 -1800 0
-5580 5436 0
5580 1800 -5436 0
-5724 -1404 0
-5724 5580 0
5724 1404 -5580 0
-5868 -1008 0
-5868 5724 0
5868 1008 -5724 0
-6012 -612 0
-6012 5868 0
6012 612 -5868 0
-6408 128 0
-6408 6012 0
6408 -128 -6012 0
-6409 -128 0
-6409 -6012 0
6409 128 6012 0
-6410 -6408 0
-6410 -6409 0
6410 6408 6409 0
127 -23456 0
-127 23456 0
-291 230 0
-291 259 0
291 -230 -259 0
-355 231 0
-355 291 0
355 -231 -291 0
-483 232 0
-483 355 0
483 -232 -355 0
-611 -233 0
-611 483 0
611 233 -483 0
-687 222 0
-687 655 0
687 -222 -655 0
-751 223 0
-751 687 0
751 -223 -687 0
-879 224 0
-879 751 0
879 -224 -751 0
-1007 -225 0
-1007 879 0
1007 225 -879 0
-1083 214 0
-1083 1051 0
1083 -214 -1051 0
-1147 215 0
-1147 1083 0
1147 -215 -1083 0
-1275 216 0
-1275 1147 0
1275 -216 -1147 0
-1403 -217 0
-1403 1275 0
1403 217 -1275 0
-1479 206 0
-1479 1447 0
1479 -206 -1447 0
-1543 207 0
-1543 1479 0
1543 -207 -1479 0
-1671 208 0
-1671 1543 0
1671 -208 -1543 0
-1799 -209 0
-1799 1671 0
1799 209 -1671 0
-1875 198 0
-1875 1843 0
1875 -198 -1843 0
-1939 199 0
-1939 1875 0
1939 -199 -1875 0
-2067 200 0
-2067 1939 0
2067 -200 -1939 0
-2195 -201 0
-2195 2067 0
2195 201 -2067 0
-2271 190 0
-2271 2239 0
2271 -190 -2239 0
-2335 191 0
-2335 2271 0
2335 -191 -2271 0
-2463 192 0
-2463 2335 0
2463 -192 -2335 0
-2591 -193 0
-2591 2463 0
2591 193 -2463 0
-2667 182 0
-2667 2635 0
2667 -182 -2635 0
-2731 183 0
-2731 2667 0
2731 -183 -2667 0
-2859 184 0
-2859 2731 0
2859 -184 -2731 0
-2987 -185 0
-2987 2859 0
2987 185 -2859 0
-3063 174 0
-3063 3031 0
3063 -174 -3031 0
-3127 175 0
-3127 3063 0
3127 -175 -3063 0
-3255 176 0
-3255 3127 0
3255 -176 -3127 0
-3383 -177 0
-3383 3255 0
3383 177 -3255 0
-3459 166 0
-3459 3427 0
3459 -166 -3427 0
-3523 167 0
-3523 3459 0
3523 -167 -3459 0
-3651 168 0
-3651 3523 0
3651 -168 -3523 0
-3779 -169 0
-3779 3651 0
3779 169 -3651 0
-3855 158 0
-3855 3823 0
3855 -158 -3823 0
-3919 159 0
-3919 3855 0
3919 -159 -3855 0
-4047 160 0
-4047 3919 0
4047 -160 -3919 0
-4175 -161 0
-4175 4047 0
4175 161 -4047 0
-4251 150 0
-4251 4219 0
4251 -150 -4219 0
-4315 151 0
-4315 4251 0
4315 -151 -4251 0
-4443 152 0
-4443 4315 0
4443 -152 -4315 0
-4571 -153 0
-4571 4443 0
4571 153 -4443 0
-4715 -4175 0
-4715 -4571 0
4715 4175 4571 0
-4859 -3779 0
-4859 4715 0
4859 3779 -4715 0
-5003 -3383 0
-5003 4859 0
5003 3383 -4859 0
-5147 -2987 0
-5147 5003 0
5147 2987 -5003 0
-5291 -2591 0
-5291 5147 0
5291 2591 -5147 0
-5435 -2195 0
-5435 5291 0
5435 2195 -5291 0
-5579 -1799 0
-5579 5435 0
5579 1799 -5435 0
-5723 -1403 0
-5723 5579 0
5723 1403 -5579 0
-5867 -1007 0
-5867 5723 0
5867 1007 -5723 0
-6011 -611 0
-6011 5867 0
6011 611 -5867 0
-6405 127 0
-6405 6011 0
6405 -127 -6011 0
-6406 -127 0
-6406 -6011 0
6406 127 6011 0
-6407 -6405 0
-6407 -6406 0
6407 6405 6406 0
126 -23455 0
-126 23455 0
-290 230 0
-290 258 0
290 -230 -258 0
-354 231 0
-354 290 0
354 -231 -290 0
-482 232 0
-482 354 0
482 -232 -354 0
-610 -233 0
-610 482 0
610 233 -482 0
-686 222 0
-686 654 0
686 -222 -654 0
-750 223 0
-750 686 0
750 -223 -686 0
-878 224 0
-878 750 0
878 -224 -750 0
-1006 -225 0
-1006 878 0
1006 225 -878 0
-1082 214 0
-1082 1050 0
1082 -214 -1050 0
-1146 215 0
-1146 1082 0
1146 -215 -1082 0
-1274 216 0
-1274 1146 0
1274 -216 -1146 0
-1402 -217 0
-1402 1274 0
1402 217 -1274 0
-1478 206 0
-1478 1446 0
1478 -206 -1446 0
-1542 207 0
-1542 1478 0
1542 -207 -1478 0
-1670 208 0
-1670 1542 0
1670 -208 -1542 0
-1798 -209 0
-1798 1670 0
1798 209 -1670 0
-1874 198 0
-1874 1842 0
1874 -198 -1842 0
-1938 199 0
-1938 1874 0
1938 -199 -1874 0
-2066 200 0
-2066 1938 0
2066 -200 -1938 0
-2194 -201 0
-2194 2066 0
2194 201 -2066 0
-2270 190 0
-2270 2238 0
2270 -190 -2238 0
-2334 191 0
-2334 2270 0
2334 -191 -2270 0
-2462 192 0
-2462 2334 0
2462 -192 -2334 0
-2590 -193 0
-2590 2462 0
2590 193 -2462 0
-2666 182 0
-2666 2634 0
2666 -182 -2634 0
-2730 183 0
-2730 2666 0
2730 -183 -2666 0
-2858 184 0
-2858 2730 0
2858 -184 -2730 0
-2986 -185 0
-2986 2858 0
2986 185 -2858 0
-3062 174 0
-3062 3030 0
3062 -174 -3030 0
-3126 175 0
-3126 3062 0
3126 -175 -3062 0
-3254 176 0
-3254 3126 0
3254 -176 -3126 0
-3382 -177 0
-3382 3254 0
3382 177 -3254 0
-3458 166 0
-3458 3426 0
3458 -166 -3426 0
-3522 167 0
-3522 3458 0
3522 -167 -3458 0
-3650 168 0
-3650 3522 0
3650 -168 -3522 0
-3778 -169 0
-3778 3650 0
3778 169 -3650 0
-3854 158 0
-3854 3822 0
3854 -158 -3822 0
-3918 159 0
-3918 3854 0
3918 -159 -3854 0
-4046 160 0
-4046 3918 0
4046 -160 -3918 0
-4174 -161 0
-4174 4046 0
4174 161 -4046 0
-4250 150 0
-4250 4218 0
4250 -150 -4218 0
-4314 151 0
-4314 4250 0
4314 -151 -4250 0
-4442 152 0
-4442 4314 0
4442 -152 -4314 0
-4570 -153 0
-4570 4442 0
4570 153 -4442 0
-4714 -4174 0
-4714 -4570 0
4714 4174 4570 0
-4858 -3778 0
-4858 4714 0
4858 3778 -4714 0
-5002 -3382 0
-5002 4858 0
5002 3382 -4858 0
-5146 -2986 0
-5146 5002 0
5146 2986 -5002 0
-5290 -2590 0
-5290 5146 0
5290 2590 -5146 0
-5434 -2194 0
-5434 5290 0
5434 2194 -5290 0
-5578 -1798 0
-5578 5434 0
5578 1798 -5434 0
-5722 -1402 0
-5722 5578 0
5722 1402 -5578 0
-5866 -1006 0
-5866 5722 0
5866 1006 -5722 0
-6010 -610 0
-6010 5866 0
6010 610 -5866 0
-6402 126 0
-6402 6010 0
6402 -126 -6010 0
-6403 -126 0
-6403 -6010 0
6403 126 6010 0
-6404 -6402 0
-6404 -6403 0
6404 6402 6403 0
125 -23454 0
-125 23454 0
-289 230 0
-289 257 0
289 -230 -257 0
-353 231 0
-353 289 0
353 -231 -289 0
-481 232 0
-481 353 0
481 -232 -353 0
-609 -233 0
-609 481 0
609 233 -481 0
-685 222 0
-685 653 0
685 -222 -653 0
-749 223 0
-749 685 0
749 -223 -685 0
-877 224 0
-877 749 0
877 -224 -749 0
-1005 -225 0
-1005 877 0
1005 225 -877 0
-1081 214 0
-1081 1049 0
1081 -214 -1049 0
-1145 215 0
-1145 1081 0
1145 -215 -1081 0
-1273 216 0
-1273 1145 0
1273 -216 -1145 0
-1401 -217 0
-1401 1273 0
1401 217 -1273 0
-1477 206 0
-1477 1445 0
1477 -206 -1445 0
-1541 207 0
-1541 1477 0
1541 -207 -1477 0
-1669 208 0
-1669 1541 0
1669 -208 -1541 0
-1797 -209 0
-1797 1669 0
1797 209 -1669 0
-1873 198 0
-1873 1841 0
1873 -198 -1841 0
-1937 199 0
-1937 1873 0
1937 -199 -1873 0
-2065 200 0
-2065 1937 0
2065 -200 -1937 0
-2193 -201 0
-2193 2065 0
2193 201 -2065 0
-2269 190 0
-2269 2237 0
2269 -190 -2237 0
-2333 191 0
-2333 2269 0
2333 -191 -2269 0
-2461 192 0
-2461 2333 0
2461 -192 -2333 0
-2589 -193 0
-2589 2461 0
2589 193 -2461 0
-2665 182 0
-2665 2633 0
2665 -182 -2633 0
-2729 183 0
-2729 2665 0
2729 -183 -2665 0
-2857 184 0
-2857 2729 0
2857 -184 -2729 0
-2985 -185 0
-2985 2857 0
2985 185 -2857 0
-3061 174 0
-3061 3029 0
3061 -174 -3029 0
-3125 175 0
-3125 3061 0
3125 -175 -3061 0
-3253 176 0
-3253 3125 0
3253 -176 -3125 0
-3381 -177 0
-3381 3253 0
3381 177 -3253 0
-3457 166 0
-3457 3425 0
3457 -166 -3425 0
-3521 167 0
-3521 3457 0
3521 -167 -3457 0
-3649 168 0
-3649 3521 0
3649 -168 -3521 0
-3777 -169 0
-3777 3649 0
3777 169 -3649 0
-3853 158 0
-3853 3821 0
3853 -158 -3821 0
-3917 159 0
-3917 3853 0
3917 -159 -3853 0
-4045 160 0
-4045 3917 0
4045 -160 -3917 0
-4173 -161 0
-4173 4045 0
4173 161 -4045 0
-4249 150 0
-4249 4217 0
4249 -150 -4217 0
-4313 151 0
-4313 4249 0
4313 -151 -4249 0
-4441 152 0
-4441 4313 0
4441 -152 -4313 0
-4569 -153 0
-4569 4441 0
4569 153 -4441 0
-4713 -4173 0
-4713 -4569 0
4713 4173 4569 0
-4857 -3777 0
-4857 4713 0
4857 3777 -4713 0
-5001 -3381 0
-5001 4857 0
5001 3381 -4857 0
-5145 -2985 0
-5145 5001 0
5145 2985 -5001 0
-5289 -2589 0
-5289 5145 0
5289 2589 -5145 0
-5433 -2193 0
-5433 5289 0
5433 2193 -5289 0
-5577 -1797 0
-5577 5433 0
5577 1797 -5433 0
-5721 -1401 0
-5721 5577 0
5721 1401 -5577 0
-5865 -1005 0
-5865 5721 0
5865 1005 -5721 0
-6009 -609 0
-6009 5865 0
6009 609 -5865 0
-6399 125 0
-6399 6009 0
6399 -125 -6009 0
-6400 -125 0
-6400 -6009 0
6400 125 6009 0
-6401 -6399 0
-6401 -6400 0
6401 6399 6400 0
124 -23453 0
-124 23453 0
-288 230 0
-288 256 0
288 -230 -256 0
-352 231 0
-352 288 0
352 -231 -288 0
-480 232 0
-480 352 0
480 -232 -352 0
-608 -233 0
-608 480 0
608 233 -480 0
-684 222 0
-684 652 0
684 -222 -652 0
-748 223 0
-748 684 0
748 -223 -684 0
-876 224 0
-876 748 0
876 -224 -748 0
-1004 -225 0
-1004 876 0
1004 225 -876 0
-1080 214 0
-1080 1048 0
1080 -214 -1048 0
-1144 215 0
-1144 1080 0
1144 -215 -1080 0
-1272 216 0
-1272 1144 0
1272 -216 -1144 0
-1400 -217 0
-1400 1272 0
1400 217 -1272 0
-1476 206 0
-1476 1444 0
1476 -206 -1444 0
-1540 207 0
-1540 1476 0
1540 -207 -1476 0
-1668 208 0
-1668 1540 0
1668 -208 -1540 0
-1796 -209 0
-1796 1668 0
1796 209 -1668 0
-1872 198 0
-1872 1840 0
1872 -198 -1840 0
-1936 199 0
-1936 1872 0
1936 -199 -1872 0
-2064 200 0
-2064 1936 0
2064 -200 -1936 0
-2192 -201 0
-2192 2064 0
2192 201 -2064 0
-2268 190 0
-2268 2236 0
2268 -190 -2236 0
-2332 191 0
-2332 2268 0
2332 -191 -2268 0
-2460 192 0
-2460 2332 0
2460 -192 -2332 0
-2588 -193 0
-2588 2460 0
2588 193 -2460 0
-2664 182 0
-2664 2632 0
2664 -182 -2632 0
-2728 183 0
-2728 2664 0
2728 -183 -2664 0
-2856 184 0
-2856 2728 0
2856 -184 -2728 0
-2984 -185 0
-2984 2856 0
2984 185 -2856 0
-3060 174 0
-3060 3028 0
3060 -174 -3028 0
-3124 175 0
-3124 3060 0
3124 -175 -3060 0
-3252 176 0
-3252 3124 0
3252 -176 -3124 0
-3380 -177 0
-3380 3252 0
3380 177 -3252 0
-3456 166 0
-3456 3424 0
3456 -166 -3424 0
-3520 167 0
-3520 3456 0
3520 -167 -3456 0
-3648 168 0
-3648 3520 0
3648 -168 -3520 0
-3776 -169 0
-3776 3648 0
3776 169 -3648 0
-3852 158 0
-3852 3820 0
3852 -158 -3820 0
-3916 159 0
-3916 3852 0
3916 -159 -3852 0
-4044 160 0
-4044 3916 0
4044 -160 -3916 0
-4172 -161 0
-4172 4044 0
4172 161 -4044 0
-4248 150 0
-4248 4216 0
4248 -150 -4216 0
-4312 151 0
-4312 4248 0
4312 -151 -4248 0
-4440 152 0
-4440 4312 0
4440 -152 -4312 0
-4568 -153 0
-4568 4440 0
4568 153 -4440 0
-4712 -4172 0
-4712 -4568 0
4712 4172 4568 0
-4856 -3776 0
-4856 4712 0
4856 3776 -4712 0
-5000 -3380 0
-5000 4856 0
5000 3380 -4856 0
-5144 -2984 0
-5144 5000 0
5144 2984 -5000 0
-5288 -2588 0
-5288 5144 0
5288 2588 -5144 0
-5432 -2192 0
-5432 5288 0
5432 2192 -5288 0
-5576 -1796 0
-5576 5432 0
5576 1796 -5432 0
-5720 -1400 0
-5720 5576 0
5720 1400 -5576 0
-5864 -1004 0
-5864 5720 0
5864 1004 -5720 0
-6008 -608 0
-6008 5864 0
6008 608 -5864 0
-6396 124 0
-6396 6008 0
6396 -124 -6008 0
-6397 -124 0
-6397 -6008 0
6397 124 6008 0
-6398 -6396 0
-6398 -6397 0
6398 6396 6397 0
123 -23452 0
-123 23452 0
-287 230 0
-287 255 0
287 -230 -255 0
-351 231 0
-351 287 0
351 -231 -287 0
-479 232 0
-479 351 0
479 -232 -351 0
-607 -233 0
-607 479 0
607 233 -479 0
-683 222 0
-683 651 0
683 -222 -651 0
-747 223 0
-747 683 0
747 -223 -683 0
-875 224 0
-875 747 0
875 -224 -747 0
-1003 -225 0
-1003 875 0
1003 225 -875 0
-1079 214 0
-1079 1047 0
1079 -214 -1047 0
-1143 215 0
-1143 1079 0
1143 -215 -1079 0
-1271 216 0
-1271 1143 0
1271 -216 -1143 0
-1399 -217 0
-1399 1271 0
1399 217 -1271 0
-1475 206 0
-1475 1443 0
1475 -206 -1443 0
-1539 207 0
-1539 1475 0
1539 -207 -1475 0
-1667 208 0
-1667 1539 0
1667 -208 -1539 0
-1795 -209 0
-1795 1667 0
1795 209 -1667 0
-1871 198 0
-1871 1839 0
1871 -198 -1839 0
-1935 199 0
-1935 1871 0
1935 -199 -1871 0
-2063 200 0
-2063 1935 0
2063 -200 -1935 0
-2191 -201 0
-2191 2063 0
2191 201 -2063 0
-2267 190 0
-2267 2235 0
2267 -190 -2235 0
-2331 191 0
-2331 2267 0
2331 -191 -2267 0
-2459 192 0
-2459 2331 0
2459 -192 -2331 0
-2587 -193 0
-2587 2459 0
2587 193 -2459 0
-2663 182 0
-2663 2631 0
2663 -182 -2631 0
-2727 183 0
-2727 2663 0
2727 -183 -2663 0
-2855 184 0
-2855 2727 0
2855 -184 -2727 0
-2983 -185 0
-2983 2855 0
2983 185 -2855 0
-3059 174 0
-3059 3027 0
3059 -174 -3027 0
-3123 175 0
-3123 3059 0
3123 -175 -3059 0
-3251 176 0
-3251 3123 0
3251 -176 -3123 0
-3379 -177 0
-3379 3251 0
3379 177 -3251 0
-3455 166 0
-3455 3423 0
3455 -166 -3423 0
-3519 167 0
-3519 3455 0
3519 -167 -3455 0
-3647 168 0
-3647 3519 0
3647 -168 -3519 0
-3775 -169 0
-3775 3647 0
3775 169 -3647 0
-3851 158 0
-3851 3819 0
3851 -158 -3819 0
-3915 159 0
-3915 3851 0
3915 -159 -3851 0
-4043 160 0
-4043 3915 0
4043 -160 -3915 0
-4171 -161 0
-4171 4043 0
4171 161 -4043 0
-4247 150 0
-4247 4215 0
4247 -150 -4215 0
-4311 151 0
-4311 4247 0
4311 -151 -4247 0
-4439 152 0
-4439 4311 0
4439 -152 -4311 0
-4567 -153 0
-4567 4439 0
4567 153 -4439 0
-4711 -4171 0
-4711 -4567 0
4711 4171 4567 0
-4855 -3775 0
-4855 4711 0
4855 3775 -4711 0
-4999 -3379 0
-4999 4855 0
4999 3379 -4855 0
-5143 -2983 0
-5143 4999 0
5143 2983 -4999 0
-5287 -2587 0
-5287 5143 0
5287 2587 -5143 0
-5431 -2191 0
-5431 5287 0
5431 2191 -5287 0
-5575 -1795 0
-5575 5431 0
5575 1795 -5431 0
-5719 -1399 0
-5719 5575 0
5719 1399 -5575 0
-5863 -1003 0
-5863 5719 0
5863 1003 -5719 0
-6007 -607 0
-6007 5863 0
6007 607 -5863 0
-6393 123 0
-6393 6007 0
6393 -123 -6007 0
-6394 -123 0
-6394 -6007 0
6394 123 6007 0
-6395 -6393 0
-6395 -6394 0
6395 6393 6394 0
122 -23451 0
-122 23451 0
-286 230 0
-286 254 0
286 -230 -254 0
-350 231 0
-350 286 0
350 -231 -286 0
-478 232 0
-478 350 0
478 -232 -350 0
-606 -233 0
-606 478 0
606 233 -478 0
-682 222 0
-682 650 0
682 -222 -650 0
-746 223 0
-746 682 0
746 -223 -682 0
-874 224 0
-874 746 0
874 -224 -746 0
-1002 -225 0
-1002 874 0
1002 225 -874 0
-1078 214 0
-1078 1046 0
1078 -214 -1046 0
-1142 215 0
-1142 1078 0
1142 -215 -1078 0
-1270 216 0
-1270 1142 0
1270 -216 -1142 0
-1398 -217 0
-1398 1270 0
1398 217 -1270 0
-1474 206 0
-1474 1442 0
1474 -206 -1442 0
-1538 207 0
-1538 1474 0
1538 -207 -1474 0
-1666 208 0
-1666 1538 0
1666 -208 -1538 0
-1794 -209 0
-1794 1666 0
1794 209 -1666 0
-1870 198 0
-1870 1838 0
1870 -198 -1838 0
-1934 199 0
-1934 1870 0
1934 -199 -1870 0
-2062 200 0
-2062 1934 0
2062 -200 -1934 0
-2190 -201 0
-2190 2062 0
2190 201 -2062 0
-2266 190 0
-2266 2234 0
2266 -190 -2234 0
-2330 191 0
-2330 2266 0
2330 -191 -2266 0
-2458 192 0
-2458 2330 0
2458 -192 -2330 0
-2586 -193 0
-2586 2458 0
2586 193 -2458 0
-2662 182 0
-2662 2630 0
2662 -182 -2630 0
-2726 183 0
-2726 2662 0
2726 -183 -2662 0
-2854 184 0
-2854 2726 0
2854 -184 -2726 0
-2982 -185 0
-2982 2854 0
2982 185 -2854 0
-3058 174 0
-3058 3026 0
3058 -174 -3026 0
-3122 175 0
-3122 3058 0
3122 -175 -3058 0
-3250 176 0
-3250 3122 0
3250 -176 -3122 0
-3378 -177 0
-3378 3250 0
3378 177 -3250 0
-3454 166 0
-3454 3422 0
3454 -166 -3422 0
-3518 167 0
-3518 3454 0
3518 -167 -3454 0
-3646 168 0
-3646 3518 0
3646 -168 -3518 0
-3774 -169 0
-3774 3646 0
3774 169 -3646 0
-3850 158 0
-3850 3818 0
3850 -158 -3818 0
-3914 159 0
-3914 3850 0
3914 -159 -3850 0
-4042 160 0
-4042 3914 0
4042 -160 -3914 0
-4170 -161 0
-4170 4042 0
4170 161 -4042 0
-4246 150 0
-4246 4214 0
4246 -150 -4214 0
-4310 151 0
-4310 4246 0
4310 -151 -4246 0
-4438 152 0
-4438 4310 0
4438 -152 -4310 0
-4566 -153 0
-4566 4438 0
4566 153 -4438 0
-4710 -4170 0
-4710 -4566 0
4710 4170 4566 0
-4854 -3774 0
-4854 4710 0
4854 3774 -4710 0
-4998 -3378 0
-4998 4854 0
4998 3378 -4854 0
-5142 -2982 0
-5142 4998 0
5142 2982 -4998 0
-5286 -2586 0
-5286 5142 0
5286 2586 -5142 0
-5430 -2190 0
-5430 5286 0
5430 2190 -5286 0
-5574 -1794 0
-5574 5430 0
5574 1794 -5430 0
-5718 -1398 0
-5718 5574 0
5718 1398 -5574 0
-5862 -1002 0
-5862 5718 0
5862 1002 -5718 0
-6006 -606 0
-6006 5862 0
6006 606 -5862 0
-6390 122 0
-6390 6006 0
6390 -122 -6006 0
-6391 -122 0
-6391 -6006 0
6391 122 6006 0
-6392 -6390 0
-6392 -6391 0
6392 6390 6391 0
121 -23450 0
-121 23450 0
-285 230 0
-285 253 0
285 -230 -253 0
-349 231 0
-349 285 0
349 -231 -285 0
-477 232 0
-477 349 0
477 -232 -349 0
-605 -233 0
-605 477 0
605 233 -477 0
-681 222 0
-681 649 0
681 -222 -649 0
-745 223 0
-745 681 0
745 -223 -681 0
-873 224 0
-873 745 0
873 -224 -745 0
-1001 -225 0
-1001 873 0
1001 225 -873 0
-1077 214 0
-1077 1045 0
1077 -214 -1045 0
-1141 215 0
-1141 1077 0
1141 -215 -1077 0
-1269 216 0
-1269 1141 0
1269 -216 -1141 0
-1397 -217 0
-1397 1269 0
1397 217 -1269 0
-1473 206 0
-1473 1441 0
1473 -206 -1441 0
-1537 207 0
-1537 1473 0
1537 -207 -1473 0
-1665 208 0
-1665 1537 0
1665 -208 -1537 0
-1793 -209 0
-1793 1665 0
1793 209 -1665 0
-1869 198 0
-1869 1837 0
1869 -198 -1837 0
-1933 199 0
-1933 1869 0
1933 -199 -1869 0
-2061 200 0
-2061 1933 0
2061 -200 -1933 0
-2189 -201 0
-2189 2061 0
2189 201 -2061 0
-2265 190 0
-2265 2233 0
2265 -190 -2233 0
-2329 191 0
-2329 2265 0
2329 -191 -2265 0
-2457 192 0
-2457 2329 0
2457 -192 -2329 0
-2585 -193 0
-2585 2457 0
2585 193 -2457 0
-2661 182 0
-2661 2629 0
2661 -182 -2629 0
-2725 183 0
-2725 2661 0
2725 -183 -2661 0
-2853 184 0
-2853 2725 0
2853 -184 -2725 0
-2981 -185 0
-2981 2853 0
2981 185 -2853 0
-3057 174 0
-3057 3025 0
3057 -174 -3025 0
-3121 175 0
-3121 3057 0
3121 -175 -3057 0
-3249 176 0
-3249 3121 0
3249 -176 -3121 0
-3377 -177 0
-3377 3249 0
3377 177 -3249 0
-3453 166 0
-3453 3421 0
3453 -166 -3421 0
-3517 167 0
-3517 3453 0
3517 -167 -3453 0
-3645 168 0
-3645 3517 0
3645 -168 -3517 0
-3773 -169 0
-3773 3645 0
3773 169 -3645 0
-3849 158 0
-3849 3817 0
3849 -158 -3817 0
-3913 159 0
-3913 3849 0
3913 -159 -3849 0
-4041 160 0
-4041 3913 0
4041 -160 -3913 0
-4169 -161 0
-4169 4041 0
4169 161 -4041 0
-4245 150 0
-4245 4213 0
4245 -150 -4213 0
-4309 151 0
-4309 4245 0
4309 -151 -4245 0
-4437 152 0
-4437 4309 0
4437 -152 -4309 0
-4565 -153 0
-4565 4437 0
4565 153 -4437 0
-4709 -4169 0
-4709 -4565 0
4709 4169 4565 0
-4853 -3773 0
-4853 4709 0
4853 3773 -4709 0
-4997 -3377 0
-4997 4853 0
4997 3377 -4853 0
-5141 -2981 0
-5141 4997 0
5141 2981 -4997 0
-5285 -2585 0
-5285 5141 0
5285 2585 -5141 0
-5429 -2189 0
-5429 5285 0
5429 2189 -5285 0
-5573 -1793 0
-5573 5429 0
5573 1793 -5429 0
-5717 -1397 0
-5717 5573 0
5717 1397 -5573 0
-5861 -1001 0
-5861 5717 0
5861 1001 -5717 0
-6005 -605 0
-6005 5861 0
6005 605 -5861 0
-6387 121 0
-6387 6005 0
6387 -121 -6005 0
-6388 -121 0
-6388 -6005 0
6388 121 6005 0
-6389 -6387 0
-6389 -6388 0
6389 6387 6388 0
120 -23449 0
-120 23449 0
-284 230 0
-284 252 0
284 -230 -252 0
-348 231 0
-348 284 0
348 -231 -284 0
-476 232 0
-476 348 0
476 -232 -348 0
-604 -233 0
-604 476 0
604 233 -476 0
-680 222 0
-680 648 0
680 -222 -648 0
-744 223 0
-744 680 0
744 -223 -680 0
-872 224 0
-872 744 0
872 -224 -744 0
-1000 -225 0
-1000 872 0
1000 225 -872 0
-1076 214 0
-1076 1044 0
1076 -214 -1044 0
-1140 215 0
-1140 1076 0
1140 -215 -1076 0
-1268 216 0
-1268 1140 0
1268 -216 -1140 0
-1396 -217 0
-1396 1268 0
1396 217 -1268 0
-1472 206 0
-1472 1440 0
1472 -206 -1440 0
-1536 207 0
-1536 1472 0
1536 -207 -1472 0
-1664 208 0
-1664 1536 0
1664 -208 -1536 0
-1792 -209 0
-1792 1664 0
1792 209 -1664 0
-1868 198 0
-1868 1836 0
1868 -198 -1836 0
-1932 199 0
-1932 1868 0
1932 -199 -1868 0
-2060 200 0
-2060 1932 0
2060 -200 -1932 0
-2188 -201 0
-2188 2060 0
2188 201 -2060 0
-2264 190 0
-2264 2232 0
2264 -190 -2232 0
-2328 191 0
-2328 2264 0
2328 -191 -2264 0
-2456 192 0
-2456 2328 0
2456 -192 -2328 0
-2584 -193 0
-2584 2456 0
2584 193 -2456 0
-2660 182 0
-2660 2628 0
2660 -182 -2628 0
-2724 183 0
-2724 2660 0
2724 -183 -2660 0
-2852 184 0
-2852 2724 0
2852 -184 -2724 0
-2980 -185 0
-2980 2852 0
2980 185 -2852 0
-3056 174 0
-3056 3024 0
3056 -174 -3024 0
-3120 175 0
-3120 3056 0
3120 -175 -3056 0
-3248 176 0
-3248 3120 0
3248 -176 -3120 0
-3376 -177 0
-3376 3248 0
3376 177 -3248 0
-3452 166 0
-3452 3420 0
3452 -166 -3420 0
-3516 167 0
-3516 3452 0
3516 -167 -3452 0
-3644 168 0
-3644 3516 0
3644 -168 -3516 0
-3772 -169 0
-3772 3644 0
3772 169 -3644 0
-3848 158 0
-3848 3816 0
3848 -158 -3816 0
-3912 159 0
-3912 3848 0
3912 -159 -3848 0
-4040 160 0
-4040 3912 0
4040 -160 -3912 0
-4168 -161 0
-4168 4040 0
4168 161 -4040 0
-4244 150 0
-4244 4212 0
4244 -150 -4212 0
-4308 151 0
-4308 4244 0
4308 -151 -4244 0
-4436 152 0
-4436 4308 0
4436 -152 -4308 0
-4564 -153 0
-4564 4436 0
4564 153 -4436 0
-4708 -4168 0
-4708 -4564 0
4708 4168 4564 0
-4852 -3772 0
-4852 4708 0
4852 3772 -4708 0
-4996 -3376 0
-4996 4852 0
4996 3376 -4852 0
-5140 -2980 0
-5140 4996 0
5140 2980 -4996 0
-5284 -2584 0
-5284 5140 0
5284 2584 -5140 0
-5428 -2188 0
-5428 5284 0
5428 2188 -5284 0
-5572 -1792 0
-5572 5428 0
5572 1792 -5428 0
-5716 -1396 0
-5716 5572 0
5716 1396 -5572 0
-5860 -1000 0
-5860 5716 0
5860 1000 -5716 0
-6004 -604 0
-6004 5860 0
6004 604 -5860 0
-6384 120 0
-6384 6004 0
6384 -120 -6004 0
-6385 -120 0
-6385 -6004 0
6385 120 6004 0
-6386 -6384 0
-6386 -6385 0
6386 6384 6385 0
119 -23448 0
-119 23448 0
-283 230 0
-283 251 0
283 -230 -251 0
-347 231 0
-347 283 0
347 -231 -283 0
-475 232 0
-475 347 0
475 -232 -347 0
-603 -233 0
-603 475 0
603 233 -475 0
-679 222 0
-679 647 0
679 -222 -647 0
-743 223 0
-743 679 0
743 -223 -679 0
-871 224 0
-871 743 0
871 -224 -743 0
-999 -225 0
-999 871 0
999 225 -871 0
-1075 214 0
-1075 1043 0
1075 -214 -1043 0
-1139 215 0
-1139 1075 0
1139 -215 -1075 0
-1267 216 0
-1267 1139 0
1267 -216 -1139 0
-1395 -217 0
-1395 1267 0
1395 217 -1267 0
-1471 206 0
-1471 1439 0
1471 -206 -1439 0
-1535 207 0
-1535 1471 0
1535 -207 -1471 0
-1663 208 0
-1663 1535 0
1663 -208 -1535 0
-1791 -209 0
-1791 1663 0
1791 209 -1663 0
-1867 198 0
-1867 1835 0
1867 -198 -1835 0
-1931 199 0
-1931 1867 0
1931 -199 -1867 0
-2059 200 0
-2059 1931 0
2059 -200 -1931 0
-2187 -201 0
-2187 2059 0
2187 201 -2059 0
-2263 190 0
-2263 2231 0
2263 -190 -2231 0
-2327 191 0
-2327 2263 0
2327 -191 -2263 0
-2455 192 0
-2455 2327 0
2455 -192 -2327 0
-2583 -193 0
-2583 2455 0
2583 193 -2455 0
-2659 182 0
-2659 2627 0
2659 -182 -2627 0
-2723 183 0
-2723 2659 0
2723 -183 -2659 0
-2851 184 0
-2851 2723 0
2851 -184 -2723 0
-2979 -185 0
-2979 2851 0
2979 185 -2851 0
-3055 174 0
-3055 3023 0
3055 -174 -3023 0
-3119 175 0
-3119 3055 0
3119 -175 -3055 0
-3247 176 0
-3247 3119 0
3247 -176 -3119 0
-3375 -177 0
-3375 3247 0
3375 177 -3247 0
-3451 166 0
-3451 3419 0
3451 -166 -3419 0
-3515 167 0
-3515 3451 0
3515 -167 -3451 0
-3643 168 0
-3643 3515 0
3643 -168 -3515 0
-3771 -169 0
-3771 3643 0
3771 169 -3643 0
-3847 158 0
-3847 3815 0
3847 -158 -3815 0
-3911 159 0
-3911 3847 0
3911 -159 -3847 0
-4039 160 0
-4039 3911 0
4039 -160 -3911 0
-4167 -161 0
-4167 4039 0
4167 161 -4039 0
-4243 150 0
-4243 4211 0
4243 -150 -4211 0
-4307 151 0
-4307 4243 0
4307 -151 -4243 0
-4435 152 0
-4435 4307 0
4435 -152 -4307 0
-4563 -153 0
-4563 4435 0
4563 153 -4435 0
-4707 -4167 0
-4707 -4563 0
4707 4167 4563 0
-4851 -3771 0
-4851 4707 0
4851 3771 -4707 0
-4995 -3375 0
-4995 4851 0
4995 3375 -4851 0
-5139 -2979 0
-5139 4995 0
5139 2979 -4995 0
-5283 -2583 0
-5283 5139 0
5283 2583 -5139 0
-5427 -2187 0
-5427 5283 0
5427 2187 -5283 0
-5571 -1791 0
-5571 5427 0
5571 1791 -5427 0
-5715 -1395 0
-5715 5571 0
5715 1395 -5571 0
-5859 -999 0
-5859 5715 0
5859 999 -5715 0
-6003 -603 0
-6003 5859 0
6003 603 -5859 0
-6381 119 0
-6381 6003 0
6381 -119 -6003 0
-6382 -119 0
-6382 -6003 0
6382 119 6003 0
-6383 -6381 0
-6383 -6382 0
6383 6381 6382 0
118 -23447 0
-118 23447 0
-282 230 0
-282 250 0
282 -230 -250 0
-346 231 0
-346 282 0
346 -231 -282 0
-474 232 0
-474 346 0
474 -232 -346 0
-602 -233 0
-602 474 0
602 233 -474 0
-678 222 0
-678 646 0
678 -222 -646 0
-742 223 0
-742 678 0
742 -223 -678 0
-870 224 0
-870 742 0
870 -224 -742 0
-998 -225 0
-998 870 0
998 225 -870 0
-1074 214 0
-1074 1042 0
1074 -214 -1042 0
-1138 215 0
-1138 1074 0
1138 -215 -1074 0
-1266 216 0
-1266 1138 0
1266 -216 -1138 0
-1394 -217 0
-1394 1266 0
1394 217 -1266 0
-1470 206 0
-1470 1438 0
1470 -206 -1438 0
-1534 207 0
-1534 1470 0
1534 -207 -1470 0
-1662 208 0
-1662 1534 0
1662 -208 -1534 0
-1790 -209 0
-1790 1662 0
1790 209 -1662 0
-1866 198 0
-1866 1834 0
1866 -198 -1834 0
-1930 199 0
-1930 1866 0
1930 -199 -1866 0
-2058 200 0
-2058 1930 0
2058 -200 -1930 0
-2186 -201 0
-2186 2058 0
2186 201 -2058 0
-2262 190 0
-2262 2230 0
2262 -190 -2230 0
-2326 191 0
-2326 2262 0
2326 -191 -2262 0
-2454 192 0
-2454 2326 0
2454 -192 -2326 0
-2582 -193 0
-2582 2454 0
2582 193 -2454 0
-2658 182 0
-2658 2626 0
2658 -182 -2626 0
-2722 183 0
-2722 2658 0
2722 -183 -2658 0
-2850 184 0
-2850 2722 0
2850 -184 -2722 0
-2978 -185 0
-2978 2850 0
2978 185 -2850 0
-3054 174 0
-3054 3022 0
3054 -174 -3022 0
-3118 175 0
-3118 3054 0
3118 -175 -3054 0
-3246 176 0
-3246 3118 0
3246 -176 -3118 0
-3374 -177 0
-3374 3246 0
3374 177 -3246 0
-3450 166 0
-3450 3418 0
3450 -166 -3418 0
-3514 167 0
-3514 3450 0
3514 -167 -3450 0
-3642 168 0
-3642 3514 0
3642 -168 -3514 0
-3770 -169 0
-3770 3642 0
3770 169 -3642 0
-3846 158 0
-3846 3814 0
3846 -158 -3814 0
-3910 159 0
-3910 3846 0
3910 -159 -3846 0
-4038 160 0
-4038 3910 0
4038 -160 -3910 0
-4166 -161 0
-4166 4038 0
4166 161 -4038 0
-4242 150 0
-4242 4210 0
4242 -150 -4210 0
-4306 151 0
-4306 4242 0
4306 -151 -4242 0
-4434 152 0
-4434 4306 0
4434 -152 -4306 0
-4562 -153 0
-4562 4434 0
4562 153 -4434 0
-4706 -4166 0
-4706 -4562 0
4706 4166 4562 0
-4850 -3770 0
-4850 4706 0
4850 3770 -4706 0
-4994 -3374 0
-4994 4850 0
4994 3374 -4850 0
-5138 -2978 0
-5138 4994 0
5138 2978 -4994 0
-5282 -2582 0
-5282 5138 0
5282 2582 -5138 0
-5426 -2186 0
-5426 5282 0
5426 2186 -5282 0
-5570 -1790 0
-5570 5426 0
5570 1790 -5426 0
-5714 -1394 0
-5714 5570 0
5714 1394 -5570 0
-5858 -998 0
-5858 5714 0
5858 998 -5714 0
-6002 -602 0
-6002 5858 0
6002 602 -5858 0
-6378 118 0
-6378 6002 0
6378 -118 -6002 0
-6379 -118 0
-6379 -6002 0
6379 118 6002 0
-6380 -6378 0
-6380 -6379 0
6380 6378 6379 0
117 -23446 0
-117 23446 0
-281 230 0
-281 249 0
281 -230 -249 0
-345 231 0
-345 281 0
345 -231 -281 0
-473 232 0
-473 345 0
473 -232 -345 0
-601 -233 0
-601 473 0
601 233 -473 0
-677 222 0
-677 645 0
677 -222 -645 0
-741 223 0
-741 677 0
741 -223 -677 0
-869 224 0
-869 741 0
869 -224 -741 0
-997 -225 0
-997 869 0
997 225 -869 0
-1073 214 0
-1073 1041 0
1073 -214 -1041 0
-1137 215 0
-1137 1073 0
1137 -215 -1073 0
-1265 216 0
-1265 1137 0
1265 -216 -1137 0
-1393 -217 0
-1393 1265 0
1393 217 -1265 0
-1469 206 0
-1469 1437 0
1469 -206 -1437 0
-1533 207 0
-1533 1469 0
1533 -207 -1469 0
-1661 208 0
-1661 1533 0
1661 -208 -1533 0
-1789 -209 0
-1789 1661 0
1789 209 -1661 0
-1865 198 0
-1865 1833 0
1865 -198 -1833 0
-1929 199 0
-1929 1865 0
1929 -199 -1865 0
-2057 200 0
-2057 1929 0
2057 -200 -1929 0
-2185 -201 0
-2185 2057 0
2185 201 -2057 0
-2261 190 0
-2261 2229 0
2261 -190 -2229 0
-2325 191 0
-2325 2261 0
2325 -191 -2261 0
-2453 192 0
-2453 2325 0
2453 -192 -2325 0
-2581 -193 0
-2581 2453 0
2581 193 -2453 0
-2657 182 0
-2657 2625 0
2657 -182 -2625 0
-2721 183 0
-2721 2657 0
2721 -183 -2657 0
-2849 184 0
-2849 2721 0
2849 -184 -2721 0
-2977 -185 0
-2977 2849 0
2977 185 -2849 0
-3053 174 0
-3053 3021 0
3053 -174 -3021 0
-3117 175 0
-3117 3053 0
3117 -175 -3053 0
-3245 176 0
-3245 3117 0
3245 -176 -3117 0
-3373 -177 0
-3373 3245 0
3373 177 -3245 0
-3449 166 0
-3449 3417 0
3449 -166 -3417 0
-3513 167 0
-3513 3449 0
3513 -167 -3449 0
-3641 168 0
-3641 3513 0
3641 -168 -3513 0
-3769 -169 0
-3769 3641 0
3769 169 -3641 0
-3845 158 0
-3845 3813 0
3845 -158 -3813 0
-3909 159 0
-3909 3845 0
3909 -159 -3845 0
-4037 160 0
-4037 3909 0
4037 -160 -3909 0
-4165 -161 0
-4165 4037 0
4165 161 -4037 0
-4241 150 0
-4241 4209 0
4241 -150 -4209 0
-4305 151 0
-4305 4241 0
4305 -151 -4241 0
-4433 152 0
-4433 4305 0
4433 -152 -4305 0
-4561 -153 0
-4561 4433 0
4561 153 -4433 0
-4705 -4165 0
-4705 -4561 0
4705 4165 4561 0
-4849 -3769 0
-4849 4705 0
4849 3769 -4705 0
-4993 -3373 0
-4993 4849 0
4993 3373 -4849 0
-5137 -2977 0
-5137 4993 0
5137 2977 -4993 0
-5281 -2581 0
-5281 5137 0
5281 2581 -5137 0
-5425 -2185 0
-5425 5281 0
5425 2185 -5281 0
-5569 -1789 0
-5569 5425 0
5569 1789 -5425 0
-5713 -1393 0
-5713 5569 0
5713 1393 -5569 0
-5857 -997 0
-5857 5713 0
5857 997 -5713 0
-6001 -601 0
-6001 5857 0
6001 601 -5857 0
-6375 117 0
-6375 6001 0
6375 -117 -6001 0
-6376 -117 0
-6376 -6001 0
6376 117 6001 0
-6377 -6375 0
-6377 -6376 0
6377 6375 6376 0
116 -23445 0
-116 23445 0
-280 230 0
-280 248 0
280 -230 -248 0
-344 231 0
-344 280 0
344 -231 -280 0
-472 232 0
-472 344 0
472 -232 -344 0
-600 -233 0
-600 472 0
600 233 -472 0
-676 222 0
-676 644 0
676 -222 -644 0
-740 223 0
-740 676 0
740 -223 -676 0
-868 224 0
-868 740 0
868 -224 -740 0
-996 -225 0
-996 868 0
996 225 -868 0
-1072 214 0
-1072 1040 0
1072 -214 -1040 0
-1136 215 0
-1136 1072 0
1136 -215 -1072 0
-1264 216 0
-1264 1136 0
1264 -216 -1136 0
-1392 -217 0
-1392 1264 0
1392 217 -1264 0
-1468 206 0
-1468 1436 0
1468 -206 -1436 0
-1532 207 0
-1532 1468 0
1532 -207 -1468 0
-1660 208 0
-1660 1532 0
1660 -208 -1532 0
-1788 -209 0
-1788 1660 0
1788 209 -1660 0
-1864 198 0
-1864 1832 0
1864 -198 -1832 0
-1928 199 0
-1928 1864 0
1928 -199 -1864 0
-2056 200 0
-2056 1928 0
2056 -200 -1928 0
-2184 -201 0
-2184 2056 0
2184 201 -2056 0
-2260 190 0
-2260 2228 0
2260 -190 -2228 0
-2324 191 0
-2324 2260 0
2324 -191 -2260 0
-2452 192 0
-2452 2324 0
2452 -192 -2324 0
-2580 -193 0
-2580 2452 0
2580 193 -2452 0
-2656 182 0
-2656 2624 0
2656 -182 -2624 0
-2720 183 0
-2720 2656 0
2720 -183 -2656 0
-2848 184 0
-2848 2720 0
2848 -184 -2720 0
-2976 -185 0
-2976 2848 0
2976 185 -2848 0
-3052 174 0
-3052 3020 0
3052 -174 -3020 0
-3116 175 0
-3116 3052 0
3116 -175 -3052 0
-3244 176 0
-3244 3116 0
3244 -176 -3116 0
-3372 -177 0
-3372 3244 0
3372 177 -3244 0
-3448 166 0
-3448 3416 0
3448 -166 -3416 0
-3512 167 0
-3512 3448 0
3512 -167 -3448 0
-3640 168 0
-3640 3512 0
3640 -168 -3512 0
-3768 -169 0
-3768 3640 0
3768 169 -3640 0
-3844 158 0
-3844 3812 0
3844 -158 -3812 0
-3908 159 0
-3908 3844 0
3908 -159 -3844 0
-4036 160 0
-4036 3908 0
4036 -160 -3908 0
-4164 -161 0
-4164 4036 0
4164 161 -4036 0
-4240 150 0
-4240 4208 0
4240 -150 -4208 0
-4304 151 0
-4304 4240 0
4304 -151 -4240 0
-4432 152 0
-4432 4304 0
4432 -152 -4304 0
-4560 -153 0
-4560 4432 0
4560 153 -4432 0
-4704 -4164 0
-4704 -4560 0
4704 4164 4560 0
-4848 -3768 0
-4848 4704 0
4848 3768 -4704 0
-4992 -3372 0
-4992 4848 0
4992 3372 -4848 0
-5136 -2976 0
-5136 4992 0
5136 2976 -4992 0
-5280 -2580 0
-5280 5136 0
5280 2580 -5136 0
-5424 -2184 0
-5424 5280 0
5424 2184 -5280 0
-5568 -1788 0
-5568 5424 0
5568 1788 -5424 0
-5712 -1392 0
-5712 5568 0
5712 1392 -5568 0
-5856 -996 0
-5856 5712 0
5856 996 -5712 0
-6000 -600 0
-6000 5856 0
6000 600 -5856 0
-6372 116 0
-6372 6000 0
6372 -116 -6000 0
-6373 -116 0
-6373 -6000 0
6373 116 6000 0
-6374 -6372 0
-6374 -6373 0
6374 6372 6373 0
115 -23444 0
-115 23444 0
-279 230 0
-279 247 0
279 -230 -247 0
-343 231 0
-343 279 0
343 -231 -279 0
-471 232 0
-471 343 0
471 -232 -343 0
-599 -233 0
-599 471 0
599 233 -471 0
-675 222 0
-675 643 0
675 -222 -643 0
-739 223 0
-739 675 0
739 -223 -675 0
-867 224 0
-867 739 0
867 -224 -739 0
-995 -225 0
-995 867 0
995 225 -867 0
-1071 214 0
-1071 1039 0
1071 -214 -1039 0
-1135 215 0
-1135 1071 0
1135 -215 -1071 0
-1263 216 0
-1263 1135 0
1263 -216 -1135 0
-1391 -217 0
-1391 1263 0
1391 217 -1263 0
-1467 206 0
-1467 1435 0
1467 -206 -1435 0
-1531 207 0
-1531 1467 0
1531 -207 -1467 0
-1659 208 0
-1659 1531 0
1659 -208 -1531 0
-1787 -209 0
-1787 1659 0
1787 209 -1659 0
-1863 198 0
-1863 1831 0
1863 -198 -1831 0
-1927 199 0
-1927 1863 0
1927 -199 -1863 0
-2055 200 0
-2055 1927 0
2055 -200 -1927 0
-2183 -201 0
-2183 2055 0
2183 201 -2055 0
-2259 190 0
-2259 2227 0
2259 -190 -2227 0
-2323 191 0
-2323 2259 0
2323 -191 -2259 0
-2451 192 0
-2451 2323 0
2451 -192 -2323 0
-2579 -193 0
-2579 2451 0
2579 193 -2451 0
-2655 182 0
-2655 2623 0
2655 -182 -2623 0
-2719 183 0
-2719 2655 0
2719 -183 -2655 0
-2847 184 0
-2847 2719 0
2847 -184 -2719 0
-2975 -185 0
-2975 2847 0
2975 185 -2847 0
-3051 174 0
-3051 3019 0
3051 -174 -3019 0
-3115 175 0
-3115 3051 0
3115 -175 -3051 0
-3243 176 0
-3243 3115 0
3243 -176 -3115 0
-3371 -177 0
-3371 3243 0
3371 177 -3243 0
-3447 166 0
-3447 3415 0
3447 -166 -3415 0
-3511 167 0
-3511 3447 0
3511 -167 -3447 0
-3639 168 0
-3639 3511 0
3639 -168 -3511 0
-3767 -169 0
-3767 3639 0
3767 169 -3639 0
-3843 158 0
-3843 3811 0
3843 -158 -3811 0
-3907 159 0
-3907 3843 0
3907 -159 -3843 0
-4035 160 0
-4035 3907 0
4035 -160 -3907 0
-4163 -161 0
-4163 4035 0
4163 161 -4035 0
-4239 150 0
-4239 4207 0
4239 -150 -4207 0
-4303 151 0
-4303 4239 0
4303 -151 -4239 0
-4431 152 0
-4431 4303 0
4431 -152 -4303 0
-4559 -153 0
-4559 4431 0
4559 153 -4431 0
-4703 -4163 0
-4703 -4559 0
4703 4163 4559 0
-4847 -3767 0
-4847 4703 0
4847 3767 -4703 0
-4991 -3371 0
-4991 4847 0
4991 3371 -4847 0
-5135 -2975 0
-5135 4991 0
5135 2975 -4991 0
-5279 -2579 0
-5279 5135 0
5279 2579 -5135 0
-5423 -2183 0
-5423 5279 0
5423 2183 -5279 0
-5567 -1787 0
-5567 5423 0
5567 1787 -5423 0
-5711 -1391 0
-5711 5567 0
5711 1391 -5567 0
-5855 -995 0
-5855 5711 0
5855 995 -5711 0
-5999 -599 0
-5999 5855 0
5999 599 -5855 0
-6369 115 0
-6369 5999 0
6369 -115 -5999 0
-6370 -115 0
-6370 -5999 0
6370 115 5999 0
-6371 -6369 0
-6371 -6370 0
6371 6369 6370 0
114 -23443 0
-114 23443 0
-278 230 0
-278 246 0
278 -230 -246 0
-342 231 0
-342 278 0
342 -231 -278 0
-470 232 0
-470 342 0
470 -232 -342 0
-598 -233 0
-598 470 0
598 233 -470 0
-674 222 0
-674 642 0
674 -222 -642 0
-738 223 0
-738 674 0
738 -223 -674 0
-866 224 0
-866 738 0
866 -224 -738 0
-994 -225 0
-994 866 0
994 225 -866 0
-1070 214 0
-1070 1038 0
1070 -214 -1038 0
-1134 215 0
-1134 1070 0
1134 -215 -1070 0
-1262 216 0
-1262 1134 0
1262 -216 -1134 0
-1390 -217 0
-1390 1262 0
1390 217 -1262 0
-1466 206 0
-1466 1434 0
1466 -206 -1434 0
-1530 207 0
-1530 1466 0
1530 -207 -1466 0
-1658 208 0
-1658 1530 0
1658 -208 -1530 0
-1786 -209 0
-1786 1658 0
1786 209 -1658 0
-1862 198 0
-1862 1830 0
1862 -198 -1830 0
-1926 199 0
-1926 1862 0
1926 -199 -1862 0
-2054 200 0
-2054 1926 0
2054 -200 -1926 0
-2182 -201 0
-2182 2054 0
2182 201 -2054 0
-2258 190 0
-2258 2226 0
2258 -190 -2226 0
-2322 191 0
-2322 2258 0
2322 -191 -2258 0
-2450 192 0
-2450 2322 0
2450 -192 -2322 0
-2578 -193 0
-2578 2450 0
2578 193 -2450 0
-2654 182 0
-2654 2622 0
2654 -182 -2622 0
-2718 183 0
-2718 2654 0
2718 -183 -2654 0
-2846 184 0
-2846 2718 0
2846 -184 -2718 0
-2974 -185 0
-2974 2846 0
2974 185 -2846 0
-3050 174 0
-3050 3018 0
3050 -174 -3018 0
-3114 175 0
-3114 3050 0
3114 -175 -3050 0
-3242 176 0
-3242 3114 0
3242 -176 -3114 0
-3370 -177 0
-3370 3242 0
3370 177 -3242 0
-3446 166 0
-3446 3414 0
3446 -166 -3414 0
-3510 167 0
-3510 3446 0
3510 -167 -3446 0
-3638 168 0
-3638 3510 0
3638 -168 -3510 0
-3766 -169 0
-3766 3638 0
3766 169 -3638 0
-3842 158 0
-3842 3810 0
3842 -158 -3810 0
-3906 159 0
-3906 3842 0
3906 -159 -3842 0
-4034 160 0
-4034 3906 0
4034 -160 -3906 0
-4162 -161 0
-4162 4034 0
4162 161 -4034 0
-4238 150 0
-4238 4206 0
4238 -150 -4206 0
-4302 151 0
-4302 4238 0
4302 -151 -4238 0
-4430 152 0
-4430 4302 0
4430 -152 -4302 0
-4558 -153 0
-4558 4430 0
4558 153 -4430 0
-4702 -4162 0
-4702 -4558 0
4702 4162 4558 0
-4846 -3766 0
-4846 4702 0
4846 3766 -4702 0
-4990 -3370 0
-4990 4846 0
4990 3370 -4846 0
-5134 -2974 0
-5134 4990 0
5134 2974 -4990 0
-5278 -2578 0
-5278 5134 0
5278 2578 -5134 0
-5422 -2182 0
-5422 5278 0
5422 2182 -5278 0
-5566 -1786 0
-5566 5422 0
5566 1786 -5422 0
-5710 -1390 0
-5710 5566 0
5710 1390 -5566 0
-5854 -994 0
-5854 5710 0
5854 994 -5710 0
-5998 -598 0
-5998 5854 0
5998 598 -5854 0
-6366 114 0
-6366 5998 0
6366 -114 -5998 0
-6367 -114 0
-6367 -5998 0
6367 114 5998 0
-6368 -6366 0
-6368 -6367 0
6368 6366 6367 0
113 -23442 0
-113 23442 0
-341 231 0
-341 277 0
341 -231 -277 0
-469 232 0
-469 341 0
469 -232 -341 0
-597 -233 0
-597 469 0
597 233 -469 0
-737 223 0
-737 673 0
737 -223 -673 0
-865 224 0
-865 737 0
865 -224 -737 0
-993 -225 0
-993 865 0
993 225 -865 0
-1133 215 0
-1133 1069 0
1133 -215 -1069 0
-1261 216 0
-1261 1133 0
1261 -216 -1133 0
-1389 -217 0
-1389 1261 0
1389 217 -1261 0
-1529 207 0
-1529 1465 0
1529 -207 -1465 0
-1657 208 0
-1657 1529 0
1657 -208 -1529 0
-1785 -209 0
-1785 1657 0
1785 209 -1657 0
-1925 199 0
-1925 1861 0
1925 -199 -1861 0
-2053 200 0
-2053 1925 0
2053 -200 -1925 0
-2181 -201 0
-2181 2053 0
2181 201 -2053 0
-2321 191 0
-2321 2257 0
2321 -191 -2257 0
-2449 192 0
-2449 2321 0
2449 -192 -2321 0
-2577 -193 0
-2577 2449 0
2577 193 -2449 0
-2717 183 0
-2717 2653 0
2717 -183 -2653 0
-2845 184 0
-2845 2717 0
2845 -184 -2717 0
-2973 -185 0
-2973 2845 0
2973 185 -2845 0
-3113 175 0
-3113 3049 0
3113 -175 -3049 0
-3241 176 0
-3241 3113 0
3241 -176 -3113 0
-3369 -177 0
-3369 3241 0
3369 177 -3241 0
-3509 167 0
-3509 3445 0
3509 -167 -3445 0
-3637 168 0
-3637 3509 0
3637 -168 -3509 0
-3765 -169 0
-3765 3637 0
3765 169 -3637 0
-3905 159 0
-3905 3841 0
3905 -159 -3841 0
-4033 160 0
-4033 3905 0
4033 -160 -3905 0
-4161 -161 0
-4161 4033 0
4161 161 -4033 0
-4301 151 0
-4301 4237 0
4301 -151 -4237 0
-4429 152 0
-4429 4301 0
4429 -152 -4301 0
-4557 -153 0
-4557 4429 0
4557 153 -4429 0
-4701 -4161 0
-4701 -4557 0
4701 4161 4557 0
-4845 -3765 0
-4845 4701 0
4845 3765 -4701 0
-4989 -3369 0
-4989 4845 0
4989 3369 -4845 0
-5133 -2973 0
-5133 4989 0
5133 2973 -4989 0
-5277 -2577 0
-5277 5133 0
5277 2577 -5133 0
-5421 -2181 0
-5421 5277 0
5421 2181 -5277 0
-5565 -1785 0
-5565 5421 0
5565 1785 -5421 0
-5709 -1389 0
-5709 5565 0
5709 1389 -5565 0
-5853 -993 0
-5853 5709 0
5853 993 -5709 0
-5997 -597 0
-5997 5853 0
5997 597 -5853 0
-6363 113 0
-6363 5997 0
6363 -113 -5997 0
-6364 -113 0
-6364 -5997 0
6364 113 5997 0
-6365 -6363 0
-6365 -6364 0
6365 6363 6364 0
112 -23441 0
-112 23441 0
-340 231 0
-340 276 0
340 -231 -276 0
-468 232 0
-468 340 0
468 -232 -340 0
-596 -233 0
-596 468 0
596 233 -468 0
-736 223 0
-736 672 0
736 -223 -672 0
-864 224 0
-864 736 0
864 -224 -736 0
-992 -225 0
-992 864 0
992 225 -864 0
-1132 215 0
-1132 1068 0
1132 -215 -1068 0
-1260 216 0
-1260 1132 0
1260 -216 -1132 0
-1388 -217 0
-1388 1260 0
1388 217 -1260 0
-1528 207 0
-1528 1464 0
1528 -207 -1464 0
-1656 208 0
-1656 1528 0
1656 -208 -1528 0
-1784 -209 0
-1784 1656 0
1784 209 -1656 0
-1924 199 0
-1924 1860 0
1924 -199 -1860 0
-2052 200 0
-2052 1924 0
2052 -200 -1924 0
-2180 -201 0
-2180 2052 0
2180 201 -2052 0
-2320 191 0
-2320 2256 0
2320 -191 -2256 0
-2448 192 0
-2448 2320 0
2448 -192 -2320 0
-2576 -193 0
-2576 2448 0
2576 193 -2448 0
-2716 183 0
-2716 2652 0
2716 -183 -2652 0
-2844 184 0
-2844 2716 0
2844 -184 -2716 0
-2972 -185 0
-2972 2844 0
2972 185 -2844 0
-3112 175 0
-3112 3048 0
3112 -175 -3048 0
-3240 176 0
-3240 3112 0
3240 -176 -3112 0
-3368 -177 0
-3368 3240 0
3368 177 -3240 0
-3508 167 0
-3508 3444 0
3508 -167 -3444 0
-3636 168 0
-3636 3508 0
3636 -168 -3508 0
-3764 -169 0
-3764 3636 0
3764 169 -3636 0
-3904 159 0
-3904 3840 0
3904 -159 -3840 0
-4032 160 0
-4032 3904 0
4032 -160 -3904 0
-4160 -161 0
-4160 4032 0
4160 161 -4032 0
-4300 151 0
-4300 4236 0
4300 -151 -4236 0
-4428 152 0
-4428 4300 0
4428 -152 -4300 0
-4556 -153 0
-4556 4428 0
4556 153 -4428 0
-4700 -4160 0
-4700 -4556 0
4700 4160 4556 0
-4844 -3764 0
-4844 4700 0
4844 3764 -4700 0
-4988 -3368 0
-4988 4844 0
4988 3368 -4844 0
-5132 -2972 0
-5132 4988 0
5132 2972 -4988 0
-5276 -2576 0
-5276 5132 0
5276 2576 -5132 0
-5420 -2180 0
-5420 5276 0
5420 2180 -5276 0
-5564 -1784 0
-5564 5420 0
5564 1784 -5420 0
-5708 -1388 0
-5708 5564 0
5708 1388 -5564 0
-5852 -992 0
-5852 5708 0
5852 992 -5708 0
-5996 -596 0
-5996 5852 0
5996 596 -5852 0
-6360 112 0
-6360 5996 0
6360 -112 -5996 0
-6361 -112 0
-6361 -5996 0
6361 112 5996 0
-6362 -6360 0
-6362 -6361 0
6362 6360 6361 0
111 -23440 0
-111 23440 0
-339 231 0
-339 275 0
339 -231 -275 0
-467 232 0
-467 339 0
467 -232 -339 0
-595 -233 0
-595 467 0
595 233 -467 0
-735 223 0
-735 671 0
735 -223 -671 0
-863 224 0
-863 735 0
863 -224 -735 0
-991 -225 0
-991 863 0
991 225 -863 0
-1131 215 0
-1131 1067 0
1131 -215 -1067 0
-1259 216 0
-1259 1131 0
1259 -216 -1131 0
-1387 -217 0
-1387 1259 0
1387 217 -1259 0
-1527 207 0
-1527 1463 0
1527 -207 -1463 0
-1655 208 0
-1655 1527 0
1655 -208 -1527 0
-1783 -209 0
-1783 1655 0
1783 209 -1655 0
-1923 199 0
-1923 1859 0
1923 -199 -1859 0
-2051 200 0
-2051 1923 0
2051 -200 -1923 0
-2179 -201 0
-2179 2051 0
2179 201 -2051 0
-2319 191 0
-2319 2255 0
2319 -191 -2255 0
-2447 192 0
-2447 2319 0
2447 -192 -2319 0
-2575 -193 0
-2575 2447 0
2575 193 -2447 0
-2715 183 0
-2715 2651 0
2715 -183 -2651 0
-2843 184 0
-2843 2715 0
2843 -184 -2715 0
-2971 -185 0
-2971 2843 0
2971 185 -2843 0
-3111 175 0
-3111 3047 0
3111 -175 -3047 0
-3239 176 0
-3239 3111 0
3239 -176 -3111 0
-3367 -177 0
-3367 3239 0
3367 177 -3239 0
-3507 167 0
-3507 3443 0
3507 -167 -3443 0
-3635 168 0
-3635 3507 0
3635 -168 -3507 0
-3763 -169 0
-3763 3635 0
3763 169 -3635 0
-3903 159 0
-3903 3839 0
3903 -159 -3839 0
-4031 160 0
-4031 3903 0
4031 -160 -3903 0
-4159 -161 0
-4159 4031 0
4159 161 -4031 0
-4299 151 0
-4299 4235 0
4299 -151 -4235 0
-4427 152 0
-4427 4299 0
4427 -152 -4299 0
-4555 -153 0
-4555 4427 0
4555 153 -4427 0
-4699 -4159 0
-4699 -4555 0
4699 4159 4555 0
-4843 -3763 0
-4843 4699 0
4843 3763 -4699 0
-4987 -3367 0
-4987 4843 0
4987 3367 -4843 0
-5131 -2971 0
-5131 4987 0
5131 2971 -4987 0
-5275 -2575 0
-5275 5131 0
5275 2575 -5131 0
-5419 -2179 0
-5419 5275 0
5419 2179 -5275 0
-5563 -1783 0
-5563 5419 0
5563 1783 -5419 0
-5707 -1387 0
-5707 5563 0
5707 1387 -5563 0
-5851 -991 0
-5851 5707 0
5851 991 -5707 0
-5995 -595 0
-5995 5851 0
5995 595 -5851 0
-6357 111 0
-6357 5995 0
6357 -111 -5995 0
-6358 -111 0
-6358 -5995 0
6358 111 5995 0
-6359 -6357 0
-6359 -6358 0
6359 6357 6358 0
110 -23439 0
-110 23439 0
-338 231 0
-338 274 0
338 -231 -274 0
-466 232 0
-466 338 0
466 -232 -338 0
-594 -233 0
-594 466 0
594 233 -466 0
-734 223 0
-734 670 0
734 -223 -670 0
-862 224 0
-862 734 0
862 -224 -734 0
-990 -225 0
-990 862 0
990 225 -862 0
-1130 215 0
-1130 1066 0
1130 -215 -1066 0
-1258 216 0
-1258 1130 0
1258 -216 -1130 0
-1386 -217 0
-1386 1258 0
1386 217 -1258 0
-1526 207 0
-1526 1462 0
1526 -207 -1462 0
-1654 208 0
-1654 1526 0
1654 -208 -1526 0
-1782 -209 0
-1782 1654 0
1782 209 -1654 0
-1922 199 0
-1922 1858 0
1922 -199 -1858 0
-2050 200 0
-2050 1922 0
2050 -200 -1922 0
-2178 -201 0
-2178 2050 0
2178 201 -2050 0
-2318 191 0
-2318 2254 0
2318 -191 -2254 0
-2446 192 0
-2446 2318 0
2446 -192 -2318 0
-2574 -193 0
-2574 2446 0
2574 193 -2446 0
-2714 183 0
-2714 2650 0
2714 -183 -2650 0
-2842 184 0
-2842 2714 0
2842 -184 -2714 0
-2970 -185 0
-2970 2842 0
2970 185 -2842 0
-3110 175 0
-3110 3046 0
3110 -175 -3046 0
-3238 176 0
-3238 3110 0
3238 -176 -3110 0
-3366 -177 0
-3366 3238 0
3366 177 -3238 0
-3506 167 0
-3506 3442 0
3506 -167 -3442 0
-3634 168 0
-3634 3506 0
3634 -168 -3506 0
-3762 -169 0
-3762 3634 0
3762 169 -3634 0
-3902 159 0
-3902 3838 0
3902 -159 -3838 0
-4030 160 0
-4030 3902 0
4030 -160 -3902 0
-4158 -161 0
-4158 4030 0
4158 161 -4030 0
-4298 151 0
-4298 4234 0
4298 -151 -4234 0
-4426 152 0
-4426 4298 0
4426 -152 -4298 0
-4554 -153 0
-4554 4426 0
4554 153 -4426 0
-4698 -4158 0
-4698 -4554 0
4698 4158 4554 0
-4842 -3762 0
-4842 4698 0
4842 3762 -4698 0
-4986 -3366 0
-4986 4842 0
4986 3366 -4842 0
-5130 -2970 0
-5130 4986 0
5130 2970 -4986 0
-5274 -2574 0
-5274 5130 0
5274 2574 -5130 0
-5418 -2178 0
-5418 5274 0
5418 2178 -5274 0
-5562 -1782 0
-5562 5418 0
5562 1782 -5418 0
-5706 -1386 0
-5706 5562 0
5706 1386 -5562 0
-5850 -990 0
-5850 5706 0
5850 990 -5706 0
-5994 -594 0
-5994 5850 0
5994 594 -5850 0
-6354 110 0
-6354 5994 0
6354 -110 -5994 0
-6355 -110 0
-6355 -5994 0
6355 110 5994 0
-6356 -6354 0
-6356 -6355 0
6356 6354 6355 0
109 -23438 0
-109 23438 0
-337 231 0
-337 273 0
337 -231 -273 0
-465 232 0
-465 337 0
465 -232 -337 0
-593 -233 0
-593 465 0
593 233 -465 0
-733 223 0
-733 669 0
733 -223 -669 0
-861 224 0
-861 733 0
861 -224 -733 0
-989 -225 0
-989 861 0
989 225 -861 0
-1129 215 0
-1129 1065 0
1129 -215 -1065 0
-1257 216 0
-1257 1129 0
1257 -216 -1129 0
-1385 -217 0
-1385 1257 0
1385 217 -1257 0
-1525 207 0
-1525 1461 0
1525 -207 -1461 0
-1653 208 0
-1653 1525 0
1653 -208 -1525 0
-1781 -209 0
-1781 1653 0
1781 209 -1653 0
-1921 199 0
-1921 1857 0
1921 -199 -1857 0
-2049 200 0
-2049 1921 0
2049 -200 -1921 0
-2177 -201 0
-2177 2049 0
2177 201 -2049 0
-2317 191 0
-2317 2253 0
2317 -191 -2253 0
-2445 192 0
-2445 2317 0
2445 -192 -2317 0
-2573 -193 0
-2573 2445 0
2573 193 -2445 0
-2713 183 0
-2713 2649 0
2713 -183 -2649 0
-2841 184 0
-2841 2713 0
2841 -184 -2713 0
-2969 -185 0
-2969 2841 0
2969 185 -2841 0
-3109 175 0
-3109 3045 0
3109 -175 -3045 0
-3237 176 0
-3237 3109 0
3237 -176 -3109 0
-3365 -177 0
-3365 3237 0
3365 177 -3237 0
-3505 167 0
-3505 3441 0
3505 -167 -3441 0
-3633 168 0
-3633 3505 0
3633 -168 -3505 0
-3761 -169 0
-3761 3633 0
3761 169 -3633 0
-3901 159 0
-3901 3837 0
3901 -159 -3837 0
-4029 160 0
-4029 3901 0
4029 -160 -3901 0
-4157 -161 0
-4157 4029 0
4157 161 -4029 0
-4297 151 0
-4297 4233 0
4297 -151 -4233 0
-4425 152 0
-4425 4297 0
4425 -152 -4297 0
-4553 -153 0
-4553 4425 0
4553 153 -4425 0
-4697 -4157 0
-4697 -4553 0
4697 4157 4553 0
-4841 -3761 0
-4841 4697 0
4841 3761 -4697 0
-4985 -3365 0
-4985 4841 0
4985 3365 -4841 0
-5129 -2969 0
-5129 4985 0
5129 2969 -4985 0
-5273 -2573 0
-5273 5129 0
5273 2573 -5129 0
-5417 -2177 0
-5417 5273 0
5417 2177 -5273 0
-5561 -1781 0
-5561 5417 0
5561 1781 -5417 0
-5705 -1385 0
-5705 5561 0
5705 1385 -5561 0
-5849 -989 0
-5849 5705 0
5849 989 -5705 0
-5993 -593 0
-5993 5849 0
5993 593 -5849 0
-6351 109 0
-6351 5993 0
6351 -109 -5993 0
-6352 -109 0
-6352 -5993 0
6352 109 5993 0
-6353 -6351 0
-6353 -6352 0
6353 6351 6352 0
108 -23437 0
-108 23437 0
-336 231 0
-336 272 0
336 -231 -272 0
-464 232 0
-464 336 0
464 -232 -336 0
-592 -233 0
-592 464 0
592 233 -464 0
-732 223 0
-732 668 0
732 -223 -668 0
-860 224 0
-860 732 0
860 -224 -732 0
-988 -225 0
-988 860 0
988 225 -860 0
-1128 215 0
-1128 1064 0
1128 -215 -1064 0
-1256 216 0
-1256 1128 0
1256 -216 -1128 0
-1384 -217 0
-1384 1256 0
1384 217 -1256 0
-1524 207 0
-1524 1460 0
1524 -207 -1460 0
-1652 208 0
-1652 1524 0
1652 -208 -1524 0
-1780 -209 0
-1780 1652 0
1780 209 -1652 0
-1920 199 0
-1920 1856 0
1920 -199 -1856 0
-2048 200 0
-2048 1920 0
2048 -200 -1920 0
-2176 -201 0
-2176 2048 0
2176 201 -2048 0
-2316 191 0
-2316 2252 0
2316 -191 -2252 0
-2444 192 0
-2444 2316 0
2444 -192 -2316 0
-2572 -193 0
-2572 2444 0
2572 193 -2444 0
-2712 183 0
-2712 2648 0
2712 -183 -2648 0
-2840 184 0
-2840 2712 0
2840 -184 -2712 0
-2968 -185 0
-2968 2840 0
2968 185 -2840 0
-3108 175 0
-3108 3044 0
3108 -175 -3044 0
-3236 176 0
-3236 3108 0
3236 -176 -3108 0
-3364 -177 0
-3364 3236 0
3364 177 -3236 0
-3504 167 0
-3504 3440 0
3504 -167 -3440 0
-3632 168 0
-3632 3504 0
3632 -168 -3504 0
-3760 -169 0
-3760 3632 0
3760 169 -3632 0
-3900 159 0
-3900 3836 0
3900 -159 -3836 0
-4028 160 0
-4028 3900 0
4028 -160 -3900 0
-4156 -161 0
-4156 4028 0
4156 161 -4028 0
-4296 151 0
-4296 4232 0
4296 -151 -4232 0
-4424 152 0
-4424 4296 0
4424 -152 -4296 0
-4552 -153 0
-4552 4424 0
4552 153 -4424 0
-4696 -4156 0
-4696 -4552 0
4696 4156 4552 0
-4840 -3760 0
-4840 4696 0
4840 3760 -4696 0
-4984 -3364 0
-4984 4840 0
4984 3364 -4840 0
-5128 -2968 0
-5128 4984 0
5128 2968 -4984 0
-5272 -2572 0
-5272 5128 0
5272 2572 -5128 0
-5416 -2176 0
-5416 5272 0
5416 2176 -5272 0
-5560 -1780 0
-5560 5416 0
5560 1780 -5416 0
-5704 -1384 0
-5704 5560 0
5704 1384 -5560 0
-5848 -988 0
-5848 5704 0
5848 988 -5704 0
-5992 -592 0
-5992 5848 0
5992 592 -5848 0
-6348 108 0
-6348 5992 0
6348 -108 -5992 0
-6349 -108 0
-6349 -5992 0
6349 108 5992 0
-6350 -6348 0
-6350 -6349 0
6350 6348 6349 0
107 -23436 0
-107 23436 0
-335 231 0
-335 271 0
335 -231 -271 0
-463 232 0
-463 335 0
463 -232 -335 0
-591 -233 0
-591 463 0
591 233 -463 0
-731 223 0
-731 667 0
731 -223 -667 0
-859 224 0
-859 731 0
859 -224 -731 0
-987 -225 0
-987 859 0
987 225 -859 0
-1127 215 0
-1127 1063 0
1127 -215 -1063 0
-1255 216 0
-1255 1127 0
1255 -216 -1127 0
-1383 -217 0
-1383 1255 0
1383 217 -1255 0
-1523 207 0
-1523 1459 0
1523 -207 -1459 0
-1651 208 0
-1651 1523 0
1651 -208 -1523 0
-1779 -209 0
-1779 1651 0
1779 209 -1651 0
-1919 199 0
-1919 1855 0
1919 -199 -1855 0
-2047 200 0
-2047 1919 0
2047 -200 -1919 0
-2175 -201 0
-2175 2047 0
2175 201 -2047 0
-2315 191 0
-2315 2251 0
2315 -191 -2251 0
-2443 192 0
-2443 2315 0
2443 -192 -2315 0
-2571 -193 0
-2571 2443 0
2571 193 -2443 0
-2711 183 0
-2711 2647 0
2711 -183 -2647 0
-2839 184 0
-2839 2711 0
2839 -184 -2711 0
-2967 -185 0
-2967 2839 0
2967 185 -2839 0
-3107 175 0
-3107 3043 0
3107 -175 -3043 0
-3235 176 0
-3235 3107 0
3235 -176 -3107 0
-3363 -177 0
-3363 3235 0
3363 177 -3235 0
-3503 167 0
-3503 3439 0
3503 -167 -3439 0
-3631 168 0
-3631 3503 0
3631 -168 -3503 0
-3759 -169 0
-3759 3631 0
3759 169 -3631 0
-3899 159 0
-3899 3835 0
3899 -159 -3835 0
-4027 160 0
-4027 3899 0
4027 -160 -3899 0
-4155 -161 0
-4155 4027 0
4155 161 -4027 0
-4295 151 0
-4295 4231 0
4295 -151 -4231 0
-4423 152 0
-4423 4295 0
4423 -152 -4295 0
-4551 -153 0
-4551 4423 0
4551 153 -4423 0
-4695 -4155 0
-4695 -4551 0
4695 4155 4551 0
-4839 -3759 0
-4839 4695 0
4839 3759 -4695 0
-4983 -3363 0
-4983 4839 0
4983 3363 -4839 0
-5127 -2967 0
-5127 4983 0
5127 2967 -4983 0
-5271 -2571 0
-5271 5127 0
5271 2571 -5127 0
-5415 -2175 0
-5415 5271 0
5415 2175 -5271 0
-5559 -1779 0
-5559 5415 0
5559 1779 -5415 0
-5703 -1383 0
-5703 5559 0
5703 1383 -5559 0
-5847 -987 0
-5847 5703 0
5847 987 -5703 0
-5991 -591 0
-5991 5847 0
5991 591 -5847 0
-6345 107 0
-6345 5991 0
6345 -107 -5991 0
-6346 -107 0
-6346 -5991 0
6346 107 5991 0
-6347 -6345 0
-6347 -6346 0
6347 6345 6346 0
106 -23435 0
-106 23435 0
-334 231 0
-334 270 0
334 -231 -270 0
-462 232 0
-462 334 0
462 -232 -334 0
-590 -233 0
-590 462 0
590 233 -462 0
-730 223 0
-730 666 0
730 -223 -666 0
-858 224 0
-858 730 0
858 -224 -730 0
-986 -225 0
-986 858 0
986 225 -858 0
-1126 215 0
-1126 1062 0
1126 -215 -1062 0
-1254 216 0
-1254 1126 0
1254 -216 -1126 0
-1382 -217 0
-1382 1254 0
1382 217 -1254 0
-1522 207 0
-1522 1458 0
1522 -207 -1458 0
-1650 208 0
-1650 1522 0
1650 -208 -1522 0
-1778 -209 0
-1778 1650 0
1778 209 -1650 0
-1918 199 0
-1918 1854 0
1918 -199 -1854 0
-2046 200 0
-2046 1918 0
2046 -200 -1918 0
-2174 -201 0
-2174 2046 0
2174 201 -2046 0
-2314 191 0
-2314 2250 0
2314 -191 -2250 0
-2442 192 0
-2442 2314 0
2442 -192 -2314 0
-2570 -193 0
-2570 2442 0
2570 193 -2442 0
-2710 183 0
-2710 2646 0
2710 -183 -2646 0
-2838 184 0
-2838 2710 0
2838 -184 -2710 0
-2966 -185 0
-2966 2838 0
2966 185 -2838 0
-3106 175 0
-3106 3042 0
3106 -175 -3042 0
-3234 176 0
-3234 3106 0
3234 -176 -3106 0
-3362 -177 0
-3362 3234 0
3362 177 -3234 0
-3502 167 0
-3502 3438 0
3502 -167 -3438 0
-3630 168 0
-3630 3502 0
3630 -168 -3502 0
-3758 -169 0
-3758 3630 0
3758 169 -3630 0
-3898 159 0
-3898 3834 0
3898 -159 -3834 0
-4026 160 0
-4026 3898 0
4026 -160 -3898 0
-4154 -161 0
-4154 4026 0
4154 161 -4026 0
-4294 151 0
-4294 4230 0
4294 -151 -4230 0
-4422 152 0
-4422 4294 0
4422 -152 -4294 0
-4550 -153 0
-4550 4422 0
4550 153 -4422 0
-4694 -4154 0
-4694 -4550 0
4694 4154 4550 0
-4838 -3758 0
-4838 4694 0
4838 3758 -4694 0
-4982 -3362 0
-4982 4838 0
4982 3362 -4838 0
-5126 -2966 0
-5126 4982 0
5126 2966 -4982 0
-5270 -2570 0
-5270 5126 0
5270 2570 -5126 0
-5414 -2174 0
-5414 5270 0
5414 2174 -5270 0
-5558 -1778 0
-5558 5414 0
5558 1778 -5414 0
-5702 -1382 0
-5702 5558 0
5702 1382 -5558 0
-5846 -986 0
-5846 5702 0
5846 986 -5702 0
-5990 -590 0
-5990 5846 0
5990 590 -5846 0
-6342 106 0
-6342 5990 0
6342 -106 -5990 0
-6343 -106 0
-6343 -5990 0
6343 106 5990 0
-6344 -6342 0
-6344 -6343 0
6344 6342 6343 0
105 -23434 0
-105 23434 0
-333 231 0
-333 269 0
333 -231 -269 0
-461 232 0
-461 333 0
461 -232 -333 0
-589 -233 0
-589 461 0
589 233 -461 0
-729 223 0
-729 665 0
729 -223 -665 0
-857 224 0
-857 729 0
857 -224 -729 0
-985 -225 0
-985 857 0
985 225 -857 0
-1125 215 0
-1125 1061 0
1125 -215 -1061 0
-1253 216 0
-1253 1125 0
1253 -216 -1125 0
-1381 -217 0
-1381 1253 0
1381 217 -1253 0
-1521 207 0
-1521 1457 0
1521 -207 -1457 0
-1649 208 0
-1649 1521 0
1649 -208 -1521 0
-1777 -209 0
-1777 1649 0
1777 209 -1649 0
-1917 199 0
-1917 1853 0
1917 -199 -1853 0
-2045 200 0
-2045 1917 0
2045 -200 -1917 0
-2173 -201 0
-2173 2045 0
2173 201 -2045 0
-2313 191 0
-2313 2249 0
2313 -191 -2249 0
-2441 192 0
-2441 2313 0
2441 -192 -2313 0
-2569 -193 0
-2569 2441 0
2569 193 -2441 0
-2709 183 0
-2709 2645 0
2709 -183 -2645 0
-2837 184 0
-2837 2709 0
2837 -184 -2709 0
-2965 -185 0
-2965 2837 0
2965 185 -2837 0
-3105 175 0
-3105 3041 0
3105 -175 -3041 0
-3233 176 0
-3233 3105 0
3233 -176 -3105 0
-3361 -177 0
-3361 3233 0
3361 177 -3233 0
-3501 167 0
-3501 3437 0
3501 -167 -3437 0
-3629 168 0
-3629 3501 0
3629 -168 -3501 0
-3757 -169 0
-3757 3629 0
3757 169 -3629 0
-3897 159 0
-3897 3833 0
3897 -159 -3833 0
-4025 160 0
-4025 3897 0
4025 -160 -3897 0
-4153 -161 0
-4153 4025 0
4153 161 -4025 0
-4293 151 0
-4293 4229 0
4293 -151 -4229 0
-4421 152 0
-4421 4293 0
4421 -152 -4293 0
-4549 -153 0
-4549 4421 0
4549 153 -4421 0
-4693 -4153 0
-4693 -4549 0
4693 4153 4549 0
-4837 -3757 0
-4837 4693 0
4837 3757 -4693 0
-4981 -3361 0
-4981 4837 0
4981 3361 -4837 0
-5125 -2965 0
-5125 4981 0
5125 2965 -4981 0
-5269 -2569 0
-5269 5125 0
5269 2569 -5125 0
-5413 -2173 0
-5413 5269 0
5413 2173 -5269 0
-5557 -1777 0
-5557 5413 0
5557 1777 -5413 0
-5701 -1381 0
-5701 5557 0
5701 1381 -5557 0
-5845 -985 0
-5845 5701 0
5845 985 -5701 0
-5989 -589 0
-5989 5845 0
5989 589 -5845 0
-6339 105 0
-6339 5989 0
6339 -105 -5989 0
-6340 -105 0
-6340 -5989 0
6340 105 5989 0
-6341 -6339 0
-6341 -6340 0
6341 6339 6340 0
104 -23433 0
-104 23433 0
-332 231 0
-332 268 0
332 -231 -268 0
-460 232 0
-460 332 0
460 -232 -332 0
-588 -233 0
-588 460 0
588 233 -460 0
-728 223 0
-728 664 0
728 -223 -664 0
-856 224 0
-856 728 0
856 -224 -728 0
-984 -225 0
-984 856 0
984 225 -856 0
-1124 215 0
-1124 1060 0
1124 -215 -1060 0
-1252 216 0
-1252 1124 0
1252 -216 -1124 0
-1380 -217 0
-1380 1252 0
1380 217 -1252 0
-1520 207 0
-1520 1456 0
1520 -207 -1456 0
-1648 208 0
-1648 1520 0
1648 -208 -1520 0
-1776 -209 0
-1776 1648 0
1776 209 -1648 0
-1916 199 0
-1916 1852 0
1916 -199 -1852 0
-2044 200 0
-2044 1916 0
2044 -200 -1916 0
-2172 -201 0
-2172 2044 0
2172 201 -2044 0
-2312 191 0
-2312 2248 0
2312 -191 -2248 0
-2440 192 0
-2440 2312 0
2440 -192 -2312 0
-2568 -193 0
-2568 2440 0
2568 193 -2440 0
-2708 183 0
-2708 2644 0
2708 -183 -2644 0
-2836 184 0
-2836 2708 0
2836 -184 -2708 0
-2964 -185 0
-2964 2836 0
2964 185 -2836 0
-3104 175 0
-3104 3040 0
3104 -175 -3040 0
-3232 176 0
-3232 3104 0
3232 -176 -3104 0
-3360 -177 0
-3360 3232 0
3360 177 -3232 0
-3500 167 0
-3500 3436 0
3500 -167 -3436 0
-3628 168 0
-3628 3500 0
3628 -168 -3500 0
-3756 -169 0
-3756 3628 0
3756 169 -3628 0
-3896 159 0
-3896 3832 0
3896 -159 -3832 0
-4024 160 0
-4024 3896 0
4024 -160 -3896 0
-4152 -161 0
-4152 4024 0
4152 161 -4024 0
-4292 151 0
-4292 4228 0
4292 -151 -4228 0
-4420 152 0
-4420 4292 0
4420 -152 -4292 0
-4548 -153 0
-4548 4420 0
4548 153 -4420 0
-4692 -4152 0
-4692 -4548 0
4692 4152 4548 0
-4836 -3756 0
-4836 4692 0
4836 3756 -4692 0
-4980 -3360 0
-4980 4836 0
4980 3360 -4836 0
-5124 -2964 0
-5124 4980 0
5124 2964 -4980 0
-5268 -2568 0
-5268 5124 0
5268 2568 -5124 0
-5412 -2172 0
-5412 5268 0
5412 2172 -5268 0
-5556 -1776 0
-5556 5412 0
5556 1776 -5412 0
-5700 -1380 0
-5700 5556 0
5700 1380 -5556 0
-5844 -984 0
-5844 5700 0
5844 984 -5700 0
-5988 -588 0
-5988 5844 0
5988 588 -5844 0
-6336 104 0
-6336 5988 0
6336 -104 -5988 0
-6337 -104 0
-6337 -5988 0
6337 104 5988 0
-6338 -6336 0
-6338 -6337 0
6338 6336 6337 0
103 -23432 0
-103 23432 0
-331 231 0
-331 267 0
331 -231 -267 0
-459 232 0
-459 331 0
459 -232 -331 0
-587 -233 0
-587 459 0
587 233 -459 0
-727 223 0
-727 663 0
727 -223 -663 0
-855 224 0
-855 727 0
855 -224 -727 0
-983 -225 0
-983 855 0
983 225 -855 0
-1123 215 0
-1123 1059 0
1123 -215 -1059 0
-1251 216 0
-1251 1123 0
1251 -216 -1123 0
-1379 -217 0
-1379 1251 0
1379 217 -1251 0
-1519 207 0
-1519 1455 0
1519 -207 -1455 0
-1647 208 0
-1647 1519 0
1647 -208 -1519 0
-1775 -209 0
-1775 1647 0
1775 209 -1647 0
-1915 199 0
-1915 1851 0
1915 -199 -1851 0
-2043 200 0
-2043 1915 0
2043 -200 -1915 0
-2171 -201 0
-2171 2043 0
2171 201 -2043 0
-2311 191 0
-2311 2247 0
2311 -191 -2247 0
-2439 192 0
-2439 2311 0
2439 -192 -2311 0
-2567 -193 0
-2567 2439 0
2567 193 -2439 0
-2707 183 0
-2707 2643 0
2707 -183 -2643 0
-2835 184 0
-2835 2707 0
2835 -184 -2707 0
-2963 -185 0
-2963 2835 0
2963 185 -2835 0
-3103 175 0
-3103 3039 0
3103 -175 -3039 0
-3231 176 0
-3231 3103 0
3231 -176 -3103 0
-3359 -177 0
-3359 3231 0
3359 177 -3231 0
-3499 167 0
-3499 3435 0
3499 -167 -3435 0
-3627 168 0
-3627 3499 0
3627 -168 -3499 0
-3755 -169 0
-3755 3627 0
3755 169 -3627 0
-3895 159 0
-3895 3831 0
3895 -159 -3831 0
-4023 160 0
-4023 3895 0
4023 -160 -3895 0
-4151 -161 0
-4151 4023 0
4151 161 -4023 0
-4291 151 0
-4291 4227 0
4291 -151 -4227 0
-4419 152 0
-4419 4291 0
4419 -152 -4291 0
-4547 -153 0
-4547 4419 0
4547 153 -4419 0
-4691 -4151 0
-4691 -4547 0
4691 4151 4547 0
-4835 -3755 0
-4835 4691 0
4835 3755 -4691 0
-4979 -3359 0
-4979 4835 0
4979 3359 -4835 0
-5123 -2963 0
-5123 4979 0
5123 2963 -4979 0
-5267 -2567 0
-5267 5123 0
5267 2567 -5123 0
-5411 -2171 0
-5411 5267 0
5411 2171 -5267 0
-5555 -1775 0
-5555 5411 0
5555 1775 -5411 0
-5699 -1379 0
-5699 5555 0
5699 1379 -5555 0
-5843 -983 0
-5843 5699 0
5843 983 -5699 0
-5987 -587 0
-5987 5843 0
5987 587 -5843 0
-6333 103 0
-6333 5987 0
6333 -103 -5987 0
-6334 -103 0
-6334 -5987 0
6334 103 5987 0
-6335 -6333 0
-6335 -6334 0
6335 6333 6334 0
102 -23431 0
-102 23431 0
-330 231 0
-330 266 0
330 -231 -266 0
-458 232 0
-458 330 0
458 -232 -330 0
-586 -233 0
-586 458 0
586 233 -458 0
-726 223 0
-726 662 0
726 -223 -662 0
-854 224 0
-854 726 0
854 -224 -726 0
-982 -225 0
-982 854 0
982 225 -854 0
-1122 215 0
-1122 1058 0
1122 -215 -1058 0
-1250 216 0
-1250 1122 0
1250 -216 -1122 0
-1378 -217 0
-1378 1250 0
1378 217 -1250 0
-1518 207 0
-1518 1454 0
1518 -207 -1454 0
-1646 208 0
-1646 1518 0
1646 -208 -1518 0
-1774 -209 0
-1774 1646 0
1774 209 -1646 0
-1914 199 0
-1914 1850 0
1914 -199 -1850 0
-2042 200 0
-2042 1914 0
2042 -200 -1914 0
-2170 -201 0
-2170 2042 0
2170 201 -2042 0
-2310 191 0
-2310 2246 0
2310 -191 -2246 0
-2438 192 0
-2438 2310 0
2438 -192 -2310 0
-2566 -193 0
-2566 2438 0
2566 193 -2438 0
-2706 183 0
-2706 2642 0
2706 -183 -2642 0
-2834 184 0
-2834 2706 0
2834 -184 -2706 0
-2962 -185 0
-2962 2834 0
2962 185 -2834 0
-3102 175 0
-3102 3038 0
3102 -175 -3038 0
-3230 176 0
-3230 3102 0
3230 -176 -3102 0
-3358 -177 0
-3358 3230 0
3358 177 -3230 0
-3498 167 0
-3498 3434 0
3498 -167 -3434 0
-3626 168 0
-3626 3498 0
3626 -168 -3498 0
-3754 -169 0
-3754 3626 0
3754 169 -3626 0
-3894 159 0
-3894 3830 0
3894 -159 -3830 0
-4022 160 0
-4022 3894 0
4022 -160 -3894 0
-4150 -161 0
-4150 4022 0
4150 161 -4022 0
-4290 151 0
-4290 4226 0
4290 -151 -4226 0
-4418 152 0
-4418 4290 0
4418 -152 -4290 0
-4546 -153 0
-4546 4418 0
4546 153 -4418 0
-4690 -4150 0
-4690 -4546 0
4690 4150 4546 0
-4834 -3754 0
-4834 4690 0
4834 3754 -4690 0
-4978 -3358 0
-4978 4834 0
4978 3358 -4834 0
-5122 -2962 0
-5122 4978 0
5122 2962 -4978 0
-5266 -2566 0
-5266 5122 0
5266 2566 -5122 0
-5410 -2170 0
-5410 5266 0
5410 2170 -5266 0
-5554 -1774 0
-5554 5410 0
5554 1774 -5410 0
-5698 -1378 0
-5698 5554 0
5698 1378 -5554 0
-5842 -982 0
-5842 5698 0
5842 982 -5698 0
-5986 -586 0
-5986 5842 0
5986 586 -5842 0
-6330 102 0
-6330 5986 0
6330 -102 -5986 0
-6331 -102 0
-6331 -5986 0
6331 102 5986 0
-6332 -6330 0
-6332 -6331 0
6332 6330 6331 0
101 -23430 0
-101 23430 0
-329 231 0
-329 265 0
329 -231 -265 0
-457 232 0
-457 329 0
457 -232 -329 0
-585 -233 0
-585 457 0
585 233 -457 0
-725 223 0
-725 661 0
725 -223 -661 0
-853 224 0
-853 725 0
853 -224 -725 0
-981 -225 0
-981 853 0
981 225 -853 0
-1121 215 0
-1121 1057 0
1121 -215 -1057 0
-1249 216 0
-1249 1121 0
1249 -216 -1121 0
-1377 -217 0
-1377 1249 0
1377 217 -1249 0
-1517 207 0
-1517 1453 0
1517 -207 -1453 0
-1645 208 0
-1645 1517 0
1645 -208 -1517 0
-1773 -209 0
-1773 1645 0
1773 209 -1645 0
-1913 199 0
-1913 1849 0
1913 -199 -1849 0
-2041 200 0
-2041 1913 0
2041 -200 -1913 0
-2169 -201 0
-2169 2041 0
2169 201 -2041 0
-2309 191 0
-2309 2245 0
2309 -191 -2245 0
-2437 192 0
-2437 2309 0
2437 -192 -2309 0
-2565 -193 0
-2565 2437 0
2565 193 -2437 0
-2705 183 0
-2705 2641 0
2705 -183 -2641 0
-2833 184 0
-2833 2705 0
2833 -184 -2705 0
-2961 -185 0
-2961 2833 0
2961 185 -2833 0
-3101 175 0
-3101 3037 0
3101 -175 -3037 0
-3229 176 0
-3229 3101 0
3229 -176 -3101 0
-3357 -177 0
-3357 3229 0
3357 177 -3229 0
-3497 167 0
-3497 3433 0
3497 -167 -3433 0
-3625 168 0
-3625 3497 0
3625 -168 -3497 0
-3753 -169 0
-3753 3625 0
3753 169 -3625 0
-3893 159 0
-3893 3829 0
3893 -159 -3829 0
-4021 160 0
-4021 3893 0
4021 -160 -3893 0
-4149 -161 0
-4149 4021 0
4149 161 -4021 0
-4289 151 0
-4289 4225 0
4289 -151 -4225 0
-4417 152 0
-4417 4289 0
4417 -152 -4289 0
-4545 -153 0
-4545 4417 0
4545 153 -4417 0
-4689 -4149 0
-4689 -4545 0
4689 4149 4545 0
-4833 -3753 0
-4833 4689 0
4833 3753 -4689 0
-4977 -3357 0
-4977 4833 0
4977 3357 -4833 0
-5121 -2961 0
-5121 4977 0
5121 2961 -4977 0
-5265 -2565 0
-5265 5121 0
5265 2565 -5121 0
-5409 -2169 0
-5409 5265 0
5409 2169 -5265 0
-5553 -1773 0
-5553 5409 0
5553 1773 -5409 0
-5697 -1377 0
-5697 5553 0
5697 1377 -5553 0
-5841 -981 0
-5841 5697 0
5841 981 -5697 0
-5985 -585 0
-5985 5841 0
5985 585 -5841 0
-6327 101 0
-6327 5985 0
6327 -101 -5985 0
-6328 -101 0
-6328 -5985 0
6328 101 5985 0
-6329 -6327 0
-6329 -6328 0
6329 6327 6328 0
100 -23429 0
-100 23429 0
-328 231 0
-328 264 0
328 -231 -264 0
-456 232 0
-456 328 0
456 -232 -328 0
-584 -233 0
-584 456 0
584 233 -456 0
-724 223 0
-724 660 0
724 -223 -660 0
-852 224 0
-852 724 0
852 -224 -724 0
-980 -225 0
-980 852 0
980 225 -852 0
-1120 215 0
-1120 1056 0
1120 -215 -1056 0
-1248 216 0
-1248 1120 0
1248 -216 -1120 0
-1376 -217 0
-1376 1248 0
1376 217 -1248 0
-1516 207 0
-1516 1452 0
1516 -207 -1452 0
-1644 208 0
-1644 1516 0
1644 -208 -1516 0
-1772 -209 0
-1772 1644 0
1772 209 -1644 0
-1912 199 0
-1912 1848 0
1912 -199 -1848 0
-2040 200 0
-2040 1912 0
2040 -200 -1912 0
-2168 -201 0
-2168 2040 0
2168 201 -2040 0
-2308 191 0
-2308 2244 0
2308 -191 -2244 0
-2436 192 0
-2436 2308 0
2436 -192 -2308 0
-2564 -193 0
-2564 2436 0
2564 193 -2436 0
-2704 183 0
-2704 2640 0
2704 -183 -2640 0
-2832 184 0
-2832 2704 0
2832 -184 -2704 0
-2960 -185 0
-2960 2832 0
2960 185 -2832 0
-3100 175 0
-3100 3036 0
3100 -175 -3036 0
-3228 176 0
-3228 3100 0
3228 -176 -3100 0
-3356 -177 0
-3356 3228 0
3356 177 -3228 0
-3496 167 0
-3496 3432 0
3496 -167 -3432 0
-3624 168 0
-3624 3496 0
3624 -168 -3496 0
-3752 -169 0
-3752 3624 0
3752 169 -3624 0
-3892 159 0
-3892 3828 0
3892 -159 -3828 0
-4020 160 0
-4020 3892 0
4020 -160 -3892 0
-4148 -161 0
-4148 4020 0
4148 161 -4020 0
-4288 151 0
-4288 4224 0
4288 -151 -4224 0
-4416 152 0
-4416 4288 0
4416 -152 -4288 0
-4544 -153 0
-4544 4416 0
4544 153 -4416 0
-4688 -4148 0
-4688 -4544 0
4688 4148 4544 0
-4832 -3752 0
-4832 4688 0
4832 3752 -4688 0
-4976 -3356 0
-4976 4832 0
4976 3356 -4832 0
-5120 -2960 0
-5120 4976 0
5120 2960 -4976 0
-5264 -2564 0
-5264 5120 0
5264 2564 -5120 0
-5408 -2168 0
-5408 5264 0
5408 2168 -5264 0
-5552 -1772 0
-5552 5408 0
5552 1772 -5408 0
-5696 -1376 0
-5696 5552 0
5696 1376 -5552 0
-5840 -980 0
-5840 5696 0
5840 980 -5696 0
-5984 -584 0
-5984 5840 0
5984 584 -5840 0
-6324 100 0
-6324 5984 0
6324 -100 -5984 0
-6325 -100 0
-6325 -5984 0
6325 100 5984 0
-6326 -6324 0
-6326 -6325 0
6326 6324 6325 0
99 -23428 0
-99 23428 0
-327 231 0
-327 263 0
327 -231 -263 0
-455 232 0
-455 327 0
455 -232 -327 0
-583 -233 0
-583 455 0
583 233 -455 0
-723 223 0
-723 659 0
723 -223 -659 0
-851 224 0
-851 723 0
851 -224 -723 0
-979 -225 0
-979 851 0
979 225 -851 0
-1119 215 0
-1119 1055 0
1119 -215 -1055 0
-1247 216 0
-1247 1119 0
1247 -216 -1119 0
-1375 -217 0
-1375 1247 0
1375 217 -1247 0
-1515 207 0
-1515 1451 0
1515 -207 -1451 0
-1643 208 0
-1643 1515 0
1643 -208 -1515 0
-1771 -209 0
-1771 1643 0
1771 209 -1643 0
-1911 199 0
-1911 1847 0
1911 -199 -1847 0
-2039 200 0
-2039 1911 0
2039 -200 -1911 0
-2167 -201 0
-2167 2039 0
2167 201 -2039 0
-2307 191 0
-2307 2243 0
2307 -191 -2243 0
-2435 192 0
-2435 2307 0
2435 -192 -2307 0
-2563 -193 0
-2563 2435 0
2563 193 -2435 0
-2703 183 0
-2703 2639 0
2703 -183 -2639 0
-2831 184 0
-2831 2703 0
2831 -184 -2703 0
-2959 -185 0
-2959 2831 0
2959 185 -2831 0
-3099 175 0
-3099 3035 0
3099 -175 -3035 0
-3227 176 0
-3227 3099 0
3227 -176 -3099 0
-3355 -177 0
-3355 3227 0
3355 177 -3227 0
-3495 167 0
-3495 3431 0
3495 -167 -3431 0
-3623 168 0
-3623 3495 0
3623 -168 -3495 0
-3751 -169 0
-3751 3623 0
3751 169 -3623 0
-3891 159 0
-3891 3827 0
3891 -159 -3827 0
-4019 160 0
-4019 3891 0
4019 -160 -3891 0
-4147 -161 0
-4147 4019 0
4147 161 -4019 0
-4287 151 0
-4287 4223 0
4287 -151 -4223 0
-4415 152 0
-4415 4287 0
4415 -152 -4287 0
-4543 -153 0
-4543 4415 0
4543 153 -4415 0
-4687 -4147 0
-4687 -4543 0
4687 4147 4543 0
-4831 -3751 0
-4831 4687 0
4831 3751 -4687 0
-4975 -3355 0
-4975 4831 0
4975 3355 -4831 0
-5119 -2959 0
-5119 4975 0
5119 2959 -4975 0
-5263 -2563 0
-5263 5119 0
5263 2563 -5119 0
-5407 -2167 0
-5407 5263 0
5407 2167 -5263 0
-5551 -1771 0
-5551 5407 0
5551 1771 -5407 0
-5695 -1375 0
-5695 5551 0
5695 1375 -5551 0
-5839 -979 0
-5839 5695 0
5839 979 -5695 0
-5983 -583 0
-5983 5839 0
5983 583 -5839 0
-6321 99 0
-6321 5983 0
6321 -99 -5983 0
-6322 -99 0
-6322 -5983 0
6322 99 5983 0
-6323 -6321 0
-6323 -6322 0
6323 6321 6322 0
98 -23427 0
-98 23427 0
-326 231 0
-326 262 0
326 -231 -262 0
-454 232 0
-454 326 0
454 -232 -326 0
-582 -233 0
-582 454 0
582 233 -454 0
-722 223 0
-722 658 0
722 -223 -658 0
-850 224 0
-850 722 0
850 -224 -722 0
-978 -225 0
-978 850 0
978 225 -850 0
-1118 215 0
-1118 1054 0
1118 -215 -1054 0
-1246 216 0
-1246 1118 0
1246 -216 -1118 0
-1374 -217 0
-1374 1246 0
1374 217 -1246 0
-1514 207 0
-1514 1450 0
1514 -207 -1450 0
-1642 208 0
-1642 1514 0
1642 -208 -1514 0
-1770 -209 0
-1770 1642 0
1770 209 -1642 0
-1910 199 0
-1910 1846 0
1910 -199 -1846 0
-2038 200 0
-2038 1910 0
2038 -200 -1910 0
-2166 -201 0
-2166 2038 0
2166 201 -2038 0
-2306 191 0
-2306 2242 0
2306 -191 -2242 0
-2434 192 0
-2434 2306 0
2434 -192 -2306 0
-2562 -193 0
-2562 2434 0
2562 193 -2434 0
-2702 183 0
-2702 2638 0
2702 -183 -2638 0
-2830 184 0
-2830 2702 0
2830 -184 -2702 0
-2958 -185 0
-2958 2830 0
2958 185 -2830 0
-3098 175 0
-3098 3034 0
3098 -175 -3034 0
-3226 176 0
-3226 3098 0
3226 -176 -3098 0
-3354 -177 0
-3354 3226 0
3354 177 -3226 0
-3494 167 0
-3494 3430 0
3494 -167 -3430 0
-3622 168 0
-3622 3494 0
3622 -168 -3494 0
-3750 -169 0
-3750 3622 0
3750 169 -3622 0
-3890 159 0
-3890 3826 0
3890 -159 -3826 0
-4018 160 0
-4018 3890 0
4018 -160 -3890 0
-4146 -161 0
-4146 4018 0
4146 161 -4018 0
-4286 151 0
-4286 4222 0
4286 -151 -4222 0
-4414 152 0
-4414 4286 0
4414 -152 -4286 0
-4542 -153 0
-4542 4414 0
4542 153 -4414 0
-4686 -4146 0
-4686 -4542 0
4686 4146 4542 0
-4830 -3750 0
-4830 4686 0
4830 3750 -4686 0
-4974 -3354 0
-4974 4830 0
4974 3354 -4830 0
-5118 -2958 0
-5118 4974 0
5118 2958 -4974 0
-5262 -2562 0
-5262 5118 0
5262 2562 -5118 0
-5406 -2166 0
-5406 5262 0
5406 2166 -5262 0
-5550 -1770 0
-5550 5406 0
5550 1770 -5406 0
-5694 -1374 0
-5694 5550 0
5694 1374 -5550 0
-5838 -978 0
-5838 5694 0
5838 978 -5694 0
-5982 -582 0
-5982 5838 0
5982 582 -5838 0
-6318 98 0
-6318 5982 0
6318 -98 -5982 0
-6319 -98 0
-6319 -5982 0
6319 98 5982 0
-6320 -6318 0
-6320 -6319 0
6320 6318 6319 0
97 -23426 0
-97 23426 0
-325 -231 0
-325 293 0
325 231 -293 0
-453 232 0
-453 325 0
453 -232 -325 0
-581 -233 0
-581 453 0
581 233 -453 0
-721 -223 0
-721 689 0
721 223 -689 0
-849 224 0
-849 721 0
849 -224 -721 0
-977 -225 0
-977 849 0
977 225 -849 0
-1117 -215 0
-1117 1085 0
1117 215 -1085 0
-1245 216 0
-1245 1117 0
1245 -216 -1117 0
-1373 -217 0
-1373 1245 0
1373 217 -1245 0
-1513 -207 0
-1513 1481 0
1513 207 -1481 0
-1641 208 0
-1641 1513 0
1641 -208 -1513 0
-1769 -209 0
-1769 1641 0
1769 209 -1641 0
-1909 -199 0
-1909 1877 0
1909 199 -1877 0
-2037 200 0
-2037 1909 0
2037 -200 -1909 0
-2165 -201 0
-2165 2037 0
2165 201 -2037 0
-2305 -191 0
-2305 2273 0
2305 191 -2273 0
-2433 192 0
-2433 2305 0
2433 -192 -2305 0
-2561 -193 0
-2561 2433 0
2561 193 -2433 0
-2701 -183 0
-2701 2669 0
2701 183 -2669 0
-2829 184 0
-2829 2701 0
2829 -184 -2701 0
-2957 -185 0
-2957 2829 0
2957 185 -2829 0
-3097 -175 0
-3097 3065 0
3097 175 -3065 0
-3225 176 0
-3225 3097 0
3225 -176 -3097 0
-3353 -177 0
-3353 3225 0
3353 177 -3225 0
-3493 -167 0
-3493 3461 0
3493 167 -3461 0
-3621 168 0
-3621 3493 0
3621 -168 -3493 0
-3749 -169 0
-3749 3621 0
3749 169 -3621 0
-3889 -159 0
-3889 3857 0
3889 159 -3857 0
-4017 160 0
-4017 3889 0
4017 -160 -3889 0
-4145 -161 0
-4145 4017 0
4145 161 -4017 0
-4285 -151 0
-4285 4253 0
4285 151 -4253 0
-4413 152 0
-4413 4285 0
4413 -152 -4285 0
-4541 -153 0
-4541 4413 0
4541 153 -4413 0
-4685 -4145 0
-4685 -4541 0
4685 4145 4541 0
-4829 -3749 0
-4829 4685 0
4829 3749 -4685 0
-4973 -3353 0
-4973 4829 0
4973 3353 -4829 0
-5117 -2957 0
-5117 4973 0
5117 2957 -4973 0
-5261 -2561 0
-5261 5117 0
5261 2561 -5117 0
-5405 -2165 0
-5405 5261 0
5405 2165 -5261 0
-5549 -1769 0
-5549 5405 0
5549 1769 -5405 0
-5693 -1373 0
-5693 5549 0
5693 1373 -5549 0
-5837 -977 0
-5837 5693 0
5837 977 -5693 0
-5981 -581 0
-5981 5837 0
5981 581 -5837 0
-6315 97 0
-6315 5981 0
6315 -97 -5981 0
-6316 -97 0
-6316 -5981 0
6316 97 5981 0
-6317 -6315 0
-6317 -6316 0
6317 6315 6316 0
96 -23425 0
-96 23425 0
-324 -231 0
-324 292 0
324 231 -292 0
-452 232 0
-452 324 0
452 -232 -324 0
-580 -233 0
-580 452 0
580 233 -452 0
-720 -223 0
-720 688 0
720 223 -688 0
-848 224 0
-848 720 0
848 -224 -720 0
-976 -225 0
-976 848 0
976 225 -848 0
-1116 -215 0
-1116 1084 0
1116 215 -1084 0
-1244 216 0
-1244 1116 0
1244 -216 -1116 0
-1372 -217 0
-1372 1244 0
1372 217 -1244 0
-1512 -207 0
-1512 1480 0
1512 207 -1480 0
-1640 208 0
-1640 1512 0
1640 -208 -1512 0
-1768 -209 0
-1768 1640 0
1768 209 -1640 0
-1908 -199 0
-1908 1876 0
1908 199 -1876 0
-2036 200 0
-2036 1908 0
2036 -200 -1908 0
-2164 -201 0
-2164 2036 0
2164 201 -2036 0
-2304 -191 0
-2304 2272 0
2304 191 -2272 0
-2432 192 0
-2432 2304 0
2432 -192 -2304 0
-2560 -193 0
-2560 2432 0
2560 193 -2432 0
-2700 -183 0
-2700 2668 0
2700 183 -2668 0
-2828 184 0
-2828 2700 0
2828 -184 -2700 0
-2956 -185 0
-2956 2828 0
2956 185 -2828 0
-3096 -175 0
-3096 3064 0
3096 175 -3064 0
-3224 176 0
-3224 3096 0
3224 -176 -3096 0
-3352 -177 0
-3352 3224 0
3352 177 -3224 0
-3492 -167 0
-3492 3460 0
3492 167 -3460 0
-3620 168 0
-3620 3492 0
3620 -168 -3492 0
-3748 -169 0
-3748 3620 0
3748 169 -3620 0
-3888 -159 0
-3888 3856 0
3888 159 -3856 0
-4016 160 0
-4016 3888 0
4016 -160 -3888 0
-4144 -161 0
-4144 4016 0
4144 161 -4016 0
-4284 -151 0
-4284 4252 0
4284 151 -4252 0
-4412 152 0
-4412 4284 0
4412 -152 -4284 0
-4540 -153 0
-4540 4412 0
4540 153 -4412 0
-4684 -4144 0
-4684 -4540 0
4684 4144 4540 0
-4828 -3748 0
-4828 4684 0
4828 3748 -4684 0
-4972 -3352 0
-4972 4828 0
4972 3352 -4828 0
-5116 -2956 0
-5116 4972 0
5116 2956 -4972 0
-5260 -2560 0
-5260 5116 0
5260 2560 -5116 0
-5404 -2164 0
-5404 5260 0
5404 2164 -5260 0
-5548 -1768 0
-5548 5404 0
5548 1768 -5404 0
-5692 -1372 0
-5692 5548 0
5692 1372 -5548 0
-5836 -976 0
-5836 5692 0
5836 976 -5692 0
-5980 -580 0
-5980 5836 0
5980 580 -5836 0
-6312 96 0
-6312 5980 0
6312 -96 -5980 0
-6313 -96 0
-6313 -5980 0
6313 96 5980 0
-6314 -6312 0
-6314 -6313 0
6314 6312 6313 0
95 -23424 0
-95 23424 0
-323 -231 0
-323 291 0
323 231 -291 0
-451 232 0
-451 323 0
451 -232 -323 0
-579 -233 0
-579 451 0
579 233 -451 0
-719 -223 0
-719 687 0
719 223 -687 0
-847 224 0
-847 719 0
847 -224 -719 0
-975 -225 0
-975 847 0
975 225 -847 0
-1115 -215 0
-1115 1083 0
1115 215 -1083 0
-1243 216 0
-1243 1115 0
1243 -216 -1115 0
-1371 -217 0
-1371 1243 0
1371 217 -1243 0
-1511 -207 0
-1511 1479 0
1511 207 -1479 0
-1639 208 0
-1639 1511 0
1639 -208 -1511 0
-1767 -209 0
-1767 1639 0
1767 209 -1639 0
-1907 -199 0
-1907 1875 0
1907 199 -1875 0
-2035 200 0
-2035 1907 0
2035 -200 -1907 0
-2163 -201 0
-2163 2035 0
2163 201 -2035 0
-2303 -191 0
-2303 2271 0
2303 191 -2271 0
-2431 192 0
-2431 2303 0
2431 -192 -2303 0
-2559 -193 0
-2559 2431 0
2559 193 -2431 0
-2699 -183 0
-2699 2667 0
2699 183 -2667 0
-2827 184 0
-2827 2699 0
2827 -184 -2699 0
-2955 -185 0
-2955 2827 0
2955 185 -2827 0
-3095 -175 0
-3095 3063 0
3095 175 -3063 0
-3223 176 0
-3223 3095 0
3223 -176 -3095 0
-3351 -177 0
-3351 3223 0
3351 177 -3223 0
-3491 -167 0
-3491 3459 0
3491 167 -3459 0
-3619 168 0
-3619 3491 0
3619 -168 -3491 0
-3747 -169 0
-3747 3619 0
3747 169 -3619 0
-3887 -159 0
-3887 3855 0
3887 159 -3855 0
-4015 160 0
-4015 3887 0
4015 -160 -3887 0
-4143 -161 0
-4143 4015 0
4143 161 -4015 0
-4283 -151 0
-4283 4251 0
4283 151 -4251 0
-4411 152 0
-4411 4283 0
4411 -152 -4283 0
-4539 -153 0
-4539 4411 0
4539 153 -4411 0
-4683 -4143 0
-4683 -4539 0
4683 4143 4539 0
-4827 -3747 0
-4827 4683 0
4827 3747 -4683 0
-4971 -3351 0
-4971 4827 0
4971 3351 -4827 0
-5115 -2955 0
-5115 4971 0
5115 2955 -4971 0
-5259 -2559 0
-5259 5115 0
5259 2559 -5115 0
-5403 -2163 0
-5403 5259 0
5403 2163 -5259 0
-5547 -1767 0
-5547 5403 0
5547 1767 -5403 0
-5691 -1371 0
-5691 5547 0
5691 1371 -5547 0
-5835 -975 0
-5835 5691 0
5835 975 -5691 0
-5979 -579 0
-5979 5835 0
5979 579 -5835 0
-6309 95 0
-6309 5979 0
6309 -95 -5979 0
-6310 -95 0
-6310 -5979 0
6310 95 5979 0
-6311 -6309 0
-6311 -6310 0
6311 6309 6310 0
94 -23423 0
-94 23423 0
-322 -231 0
-322 290 0
322 231 -290 0
-450 232 0
-450 322 0
450 -232 -322 0
-578 -233 0
-578 450 0
578 233 -450 0
-718 -223 0
-718 686 0
718 223 -686 0
-846 224 0
-846 718 0
846 -224 -718 0
-974 -225 0
-974 846 0
974 225 -846 0
-1114 -215 0
-1114 1082 0
1114 215 -1082 0
-1242 216 0
-1242 1114 0
1242 -216 -1114 0
-1370 -217 0
-1370 1242 0
1370 217 -1242 0
-1510 -207 0
-1510 1478 0
1510 207 -1478 0
-1638 208 0
-1638 1510 0
1638 -208 -1510 0
-1766 -209 0
-1766 1638 0
1766 209 -1638 0
-1906 -199 0
-1906 1874 0
1906 199 -1874 0
-2034 200 0
-2034 1906 0
2034 -200 -1906 0
-2162 -201 0
-2162 2034 0
2162 201 -2034 0
-2302 -191 0
-2302 2270 0
2302 191 -2270 0
-2430 192 0
-2430 2302 0
2430 -192 -2302 0
-2558 -193 0
-2558 2430 0
2558 193 -2430 0
-2698 -183 0
-2698 2666 0
2698 183 -2666 0
-2826 184 0
-2826 2698 0
2826 -184 -2698 0
-2954 -185 0
-2954 2826 0
2954 185 -2826 0
-3094 -175 0
-3094 3062 0
3094 175 -3062 0
-3222 176 0
-3222 3094 0
3222 -176 -3094 0
-3350 -177 0
-3350 3222 0
3350 177 -3222 0
-3490 -167 0
-3490 3458 0
3490 167 -3458 0
-3618 168 0
-3618 3490 0
3618 -168 -3490 0
-3746 -169 0
-3746 3618 0
3746 169 -3618 0
-3886 -159 0
-3886 3854 0
3886 159 -3854 0
-4014 160 0
-4014 3886 0
4014 -160 -3886 0
-4142 -161 0
-4142 4014 0
4142 161 -4014 0
-4282 -151 0
-4282 4250 0
4282 151 -4250 0
-4410 152 0
-4410 4282 0
4410 -152 -4282 0
-4538 -153 0
-4538 4410 0
4538 153 -4410 0
-4682 -4142 0
-4682 -4538 0
4682 4142 4538 0
-4826 -3746 0
-4826 4682 0
4826 3746 -4682 0
-4970 -3350 0
-4970 4826 0
4970 3350 -4826 0
-5114 -2954 0
-5114 4970 0
5114 2954 -4970 0
-5258 -2558 0
-5258 5114 0
5258 2558 -5114 0
-5402 -2162 0
-5402 5258 0
5402 2162 -5258 0
-5546 -1766 0
-5546 5402 0
5546 1766 -5402 0
-5690 -1370 0
-5690 5546 0
5690 1370 -5546 0
-5834 -974 0
-5834 5690 0
5834 974 -5690 0
-5978 -578 0
-5978 5834 0
5978 578 -5834 0
-6306 94 0
-6306 5978 0
6306 -94 -5978 0
-6307 -94 0
-6307 -5978 0
6307 94 5978 0
-6308 -6306 0
-6308 -6307 0
6308 6306 6307 0
93 -23422 0
-93 23422 0
-321 -231 0
-321 289 0
321 231 -289 0
-449 232 0
-449 321 0
449 -232 -321 0
-577 -233 0
-577 449 0
577 233 -449 0
-717 -223 0
-717 685 0
717 223 -685 0
-845 224 0
-845 717 0
845 -224 -717 0
-973 -225 0
-973 845 0
973 225 -845 0
-1113 -215 0
-1113 1081 0
1113 215 -1081 0
-1241 216 0
-1241 1113 0
1241 -216 -1113 0
-1369 -217 0
-1369 1241 0
1369 217 -1241 0
-1509 -207 0
-1509 1477 0
1509 207 -1477 0
-1637 208 0
-1637 1509 0
1637 -208 -1509 0
-1765 -209 0
-1765 1637 0
1765 209 -1637 0
-1905 -199 0
-1905 1873 0
1905 199 -1873 0
-2033 200 0
-2033 1905 0
2033 -200 -1905 0
-2161 -201 0
-2161 2033 0
2161 201 -2033 0
-2301 -191 0
-2301 2269 0
2301 191 -2269 0
-2429 192 0
-2429 2301 0
2429 -192 -2301 0
-2557 -193 0
-2557 2429 0
2557 193 -2429 0
-2697 -183 0
-2697 2665 0
2697 183 -2665 0
-2825 184 0
-2825 2697 0
2825 -184 -2697 0
-2953 -185 0
-2953 2825 0
2953 185 -2825 0
-3093 -175 0
-3093 3061 0
3093 175 -3061 0
-3221 176 0
-3221 3093 0
3221 -176 -3093 0
-3349 -177 0
-3349 3221 0
3349 177 -3221 0
-3489 -167 0
-3489 3457 0
3489 167 -3457 0
-3617 168 0
-3617 3489 0
3617 -168 -3489 0
-3745 -169 0
-3745 3617 0
3745 169 -3617 0
-3885 -159 0
-3885 3853 0
3885 159 -3853 0
-4013 160 0
-4013 3885 0
4013 -160 -3885 0
-4141 -161 0
-4141 4013 0
4141 161 -4013 0
-4281 -151 0
-4281 4249 0
4281 151 -4249 0
-4409 152 0
-4409 4281 0
4409 -152 -4281 0
-4537 -153 0
-4537 4409 0
4537 153 -4409 0
-4681 -4141 0
-4681 -4537 0
4681 4141 4537 0
-4825 -3745 0
-4825 4681 0
4825 3745 -4681 0
-4969 -3349 0
-4969 4825 0
4969 3349 -4825 0
-5113 -2953 0
-5113 4969 0
5113 2953 -4969 0
-5257 -2557 0
-5257 5113 0
5257 2557 -5113 0
-5401 -2161 0
-5401 5257 0
5401 2161 -5257 0
-5545 -1765 0
-5545 5401 0
5545 1765 -5401 0
-5689 -1369 0
-5689 5545 0
5689 1369 -5545 0
-5833 -973 0
-5833 5689 0
5833 973 -5689 0
-5977 -577 0
-5977 5833 0
5977 577 -5833 0
-6303 93 0
-6303 5977 0
6303 -93 -5977 0
-6304 -93 0
-6304 -5977 0
6304 93 5977 0
-6305 -6303 0
-6305 -6304 0
6305 6303 6304 0
92 -23421 0
-92 23421 0
-320 -231 0
-320 288 0
320 231 -288 0
-448 232 0
-448 320 0
448 -232 -320 0
-576 -233 0
-576 448 0
576 233 -448 0
-716 -223 0
-716 684 0
716 223 -684 0
-844 224 0
-844 716 0
844 -224 -716 0
-972 -225 0
-972 844 0
972 225 -844 0
-1112 -215 0
-1112 1080 0
1112 215 -1080 0
-1240 216 0
-1240 1112 0
1240 -216 -1112 0
-1368 -217 0
-1368 1240 0
1368 217 -1240 0
-1508 -207 0
-1508 1476 0
1508 207 -1476 0
-1636 208 0
-1636 1508 0
1636 -208 -1508 0
-1764 -209 0
-1764 1636 0
1764 209 -1636 0
-1904 -199 0
-1904 1872 0
1904 199 -1872 0
-2032 200 0
-2032 1904 0
2032 -200 -1904 0
-2160 -201 0
-2160 2032 0
2160 201 -2032 0
-2300 -191 0
-2300 2268 0
2300 191 -2268 0
-2428 192 0
-2428 2300 0
2428 -192 -2300 0
-2556 -193 0
-2556 2428 0
2556 193 -2428 0
-2696 -183 0
-2696 2664 0
2696 183 -2664 0
-2824 184 0
-2824 2696 0
2824 -184 -2696 0
-2952 -185 0
-2952 2824 0
2952 185 -2824 0
-3092 -175 0
-3092 3060 0
3092 175 -3060 0
-3220 176 0
-3220 3092 0
3220 -176 -3092 0
-3348 -177 0
-3348 3220 0
3348 177 -3220 0
-3488 -167 0
-3488 3456 0
3488 167 -3456 0
-3616 168 0
-3616 3488 0
3616 -168 -3488 0
-3744 -169 0
-3744 3616 0
3744 169 -3616 0
-3884 -159 0
-3884 3852 0
3884 159 -3852 0
-4012 160 0
-4012 3884 0
4012 -160 -3884 0
-4140 -161 0
-4140 4012 0
4140 161 -4012 0
-4280 -151 0
-4280 4248 0
4280 151 -4248 0
-4408 152 0
-4408 4280 0
4408 -152 -4280 0
-4536 -153 0
-4536 4408 0
4536 153 -4408 0
-4680 -4140 0
-4680 -4536 0
4680 4140 4536 0
-4824 -3744 0
-4824 4680 0
4824 3744 -4680 0
-4968 -3348 0
-4968 4824 0
4968 3348 -4824 0
-5112 -2952 0
-5112 4968 0
5112 2952 -4968 0
-5256 -2556 0
-5256 5112 0
5256 2556 -5112 0
-5400 -2160 0
-5400 5256 0
5400 2160 -5256 0
-5544 -1764 0
-5544 5400 0
5544 1764 -5400 0
-5688 -1368 0
-5688 5544 0
5688 1368 -5544 0
-5832 -972 0
-5832 5688 0
5832 972 -5688 0
-5976 -576 0
-5976 5832 0
5976 576 -5832 0
-6300 92 0
-6300 5976 0
6300 -92 -5976 0
-6301 -92 0
-6301 -5976 0
6301 92 5976 0
-6302 -6300 0
-6302 -6301 0
6302 6300 6301 0
91 -23420 0
-91 23420 0
-319 -231 0
-319 287 0
319 231 -287 0
-447 232 0
-447 319 0
447 -232 -319 0
-575 -233 0
-575 447 0
575 233 -447 0
-715 -223 0
-715 683 0
715 223 -683 0
-843 224 0
-843 715 0
843 -224 -715 0
-971 -225 0
-971 843 0
971 225 -843 0
-1111 -215 0
-1111 1079 0
1111 215 -1079 0
-1239 216 0
-1239 1111 0
1239 -216 -1111 0
-1367 -217 0
-1367 1239 0
1367 217 -1239 0
-1507 -207 0
-1507 1475 0
1507 207 -1475 0
-1635 208 0
-1635 1507 0
1635 -208 -1507 0
-1763 -209 0
-1763 1635 0
1763 209 -1635 0
-1903 -199 0
-1903 1871 0
1903 199 -1871 0
-2031 200 0
-2031 1903 0
2031 -200 -1903 0
-2159 -201 0
-2159 2031 0
2159 201 -2031 0
-2299 -191 0
-2299 2267 0
2299 191 -2267 0
-2427 192 0
-2427 2299 0
2427 -192 -2299 0
-2555 -193 0
-2555 2427 0
2555 193 -2427 0
-2695 -183 0
-2695 2663 0
2695 183 -2663 0
-2823 184 0
-2823 2695 0
2823 -184 -2695 0
-2951 -185 0
-2951 2823 0
2951 185 -2823 0
-3091 -175 0
-3091 3059 0
3091 175 -3059 0
-3219 176 0
-3219 3091 0
3219 -176 -3091 0
-3347 -177 0
-3347 3219 0
3347 177 -3219 0
-3487 -167 0
-3487 3455 0
3487 167 -3455 0
-3615 168 0
-3615 3487 0
3615 -168 -3487 0
-3743 -169 0
-3743 3615 0
3743 169 -3615 0
-3883 -159 0
-3883 3851 0
3883 159 -3851 0
-4011 160 0
-4011 3883 0
4011 -160 -3883 0
-4139 -161 0
-4139 4011 0
4139 161 -4011 0
-4279 -151 0
-4279 4247 0
4279 151 -4247 0
-4407 152 0
-4407 4279 0
4407 -152 -4279 0
-4535 -153 0
-4535 4407 0
4535 153 -4407 0
-4679 -4139 0
-4679 -4535 0
4679 4139 4535 0
-4823 -3743 0
-4823 4679 0
4823 3743 -4679 0
-4967 -3347 0
-4967 4823 0
4967 3347 -4823 0
-5111 -2951 0
-5111 4967 0
5111 2951 -4967 0
-5255 -2555 0
-5255 5111 0
5255 2555 -5111 0
-5399 -2159 0
-5399 5255 0
5399 2159 -5255 0
-5543 -1763 0
-5543 5399 0
5543 1763 -5399 0
-5687 -1367 0
-5687 5543 0
5687 1367 -5543 0
-5831 -971 0
-5831 5687 0
5831 971 -5687 0
-5975 -575 0
-5975 5831 0
5975 575 -5831 0
-6297 91 0
-6297 5975 0
6297 -91 -5975 0
-6298 -91 0
-6298 -5975 0
6298 91 5975 0
-6299 -6297 0
-6299 -6298 0
6299 6297 6298 0
90 -23419 0
-90 23419 0
-318 -231 0
-318 286 0
318 231 -286 0
-446 232 0
-446 318 0
446 -232 -318 0
-574 -233 0
-574 446 0
574 233 -446 0
-714 -223 0
-714 682 0
714 223 -682 0
-842 224 0
-842 714 0
842 -224 -714 0
-970 -225 0
-970 842 0
970 225 -842 0
-1110 -215 0
-1110 1078 0
1110 215 -1078 0
-1238 216 0
-1238 1110 0
1238 -216 -1110 0
-1366 -217 0
-1366 1238 0
1366 217 -1238 0
-1506 -207 0
-1506 1474 0
1506 207 -1474 0
-1634 208 0
-1634 1506 0
1634 -208 -1506 0
-1762 -209 0
-1762 1634 0
1762 209 -1634 0
-1902 -199 0
-1902 1870 0
1902 199 -1870 0
-2030 200 0
-2030 1902 0
2030 -200 -1902 0
-2158 -201 0
-2158 2030 0
2158 201 -2030 0
-2298 -191 0
-2298 2266 0
2298 191 -2266 0
-2426 192 0
-2426 2298 0
2426 -192 -2298 0
-2554 -193 0
-2554 2426 0
2554 193 -2426 0
-2694 -183 0
-2694 2662 0
2694 183 -2662 0
-2822 184 0
-2822 2694 0
2822 -184 -2694 0
-2950 -185 0
-2950 2822 0
2950 185 -2822 0
-3090 -175 0
-3090 3058 0
3090 175 -3058 0
-3218 176 0
-3218 3090 0
3218 -176 -3090 0
-3346 -177 0
-3346 3218 0
3346 177 -3218 0
-3486 -167 0
-3486 3454 0
3486 167 -3454 0
-3614 168 0
-3614 3486 0
3614 -168 -3486 0
-3742 -169 0
-3742 3614 0
3742 169 -3614 0
-3882 -159 0
-3882 3850 0
3882 159 -3850 0
-4010 160 0
-4010 3882 0
4010 -160 -3882 0
-4138 -161 0
-4138 4010 0
4138 161 -4010 0
-4278 -151 0
-4278 4246 0
4278 151 -4246 0
-4406 152 0
-4406 4278 0
4406 -152 -4278 0
-4534 -153 0
-4534 4406 0
4534 153 -4406 0
-4678 -4138 0
-4678 -4534 0
4678 4138 4534 0
-4822 -3742 0
-4822 4678 0
4822 3742 -4678 0
-4966 -3346 0
-4966 4822 0
4966 3346 -4822 0
-5110 -2950 0
-5110 4966 0
5110 2950 -4966 0
-5254 -2554 0
-5254 5110 0
5254 2554 -5110 0
-5398 -2158 0
-5398 5254 0
5398 2158 -5254 0
-5542 -1762 0
-5542 5398 0
5542 1762 -5398 0
-5686 -1366 0
-5686 5542 0
5686 1366 -5542 0
-5830 -970 0
-5830 5686 0
5830 970 -5686 0
-5974 -574 0
-5974 5830 0
5974 574 -5830 0
-6294 90 0
-6294 5974 0
6294 -90 -5974 0
-6295 -90 0
-6295 -5974 0
6295 90 5974 0
-6296 -6294 0
-6296 -6295 0
6296 6294 6295 0
89 -23418 0
-89 23418 0
-317 -231 0
-317 285 0
317 231 -285 0
-445 232 0
-445 317 0
445 -232 -317 0
-573 -233 0
-573 445 0
573 233 -445 0
-713 -223 0
-713 681 0
713 223 -681 0
-841 224 0
-841 713 0
841 -224 -713 0
-969 -225 0
-969 841 0
969 225 -841 0
-1109 -215 0
-1109 1077 0
1109 215 -1077 0
-1237 216 0
-1237 1109 0
1237 -216 -1109 0
-1365 -217 0
-1365 1237 0
1365 217 -1237 0
-1505 -207 0
-1505 1473 0
1505 207 -1473 0
-1633 208 0
-1633 1505 0
1633 -208 -1505 0
-1761 -209 0
-1761 1633 0
1761 209 -1633 0
-1901 -199 0
-1901 1869 0
1901 199 -1869 0
-2029 200 0
-2029 1901 0
2029 -200 -1901 0
-2157 -201 0
-2157 2029 0
2157 201 -2029 0
-2297 -191 0
-2297 2265 0
2297 191 -2265 0
-2425 192 0
-2425 2297 0
2425 -192 -2297 0
-2553 -193 0
-2553 2425 0
2553 193 -2425 0
-2693 -183 0
-2693 2661 0
2693 183 -2661 0
-2821 184 0
-2821 2693 0
2821 -184 -2693 0
-2949 -185 0
-2949 2821 0
2949 185 -2821 0
-3089 -175 0
-3089 3057 0
3089 175 -3057 0
-3217 176 0
-3217 3089 0
3217 -176 -3089 0
-3345 -177 0
-3345 3217 0
3345 177 -3217 0
-3485 -167 0
-3485 3453 0
3485 167 -3453 0
-3613 168 0
-3613 3485 0
3613 -168 -3485 0
-3741 -169 0
-3741 3613 0
3741 169 -3613 0
-3881 -159 0
-3881 3849 0
3881 159 -3849 0
-4009 160 0
-4009 3881 0
4009 -160 -3881 0
-4137 -161 0
-4137 4009 0
4137 161 -4009 0
-4277 -151 0
-4277 4245 0
4277 151 -4245 0
-4405 152 0
-4405 4277 0
4405 -152 -4277 0
-4533 -153 0
-4533 4405 0
4533 153 -4405 0
-4677 -4137 0
-4677 -4533 0
4677 4137 4533 0
-4821 -3741 0
-4821 4677 0
4821 3741 -4677 0
-4965 -3345 0
-4965 4821 0
4965 3345 -4821 0
-5109 -2949 0
-5109 4965 0
5109 2949 -4965 0
-5253 -2553 0
-5253 5109 0
5253 2553 -5109 0
-5397 -2157 0
-5397 5253 0
5397 2157 -5253 0
-5541 -1761 0
-5541 5397 0
5541 1761 -5397 0
-5685 -1365 0
-5685 5541 0
5685 1365 -5541 0
-5829 -969 0
-5829 5685 0
5829 969 -5685 0
-5973 -573 0
-5973 5829 0
5973 573 -5829 0
-6291 89 0
-6291 5973 0
6291 -89 -5973 0
-6292 -89 0
-6292 -5973 0
6292 89 5973 0
-6293 -6291 0
-6293 -6292 0
6293 6291 6292 0
88 -23417 0
-88 23417 0
-316 -231 0
-316 284 0
316 231 -284 0
-444 232 0
-444 316 0
444 -232 -316 0
-572 -233 0
-572 444 0
572 233 -444 0
-712 -223 0
-712 680 0
712 223 -680 0
-840 224 0
-840 712 0
840 -224 -712 0
-968 -225 0
-968 840 0
968 225 -840 0
-1108 -215 0
-1108 1076 0
1108 215 -1076 0
-1236 216 0
-1236 1108 0
1236 -216 -1108 0
-1364 -217 0
-1364 1236 0
1364 217 -1236 0
-1504 -207 0
-1504 1472 0
1504 207 -1472 0
-1632 208 0
-1632 1504 0
1632 -208 -1504 0
-1760 -209 0
-1760 1632 0
1760 209 -1632 0
-1900 -199 0
-1900 1868 0
1900 199 -1868 0
-2028 200 0
-2028 1900 0
2028 -200 -1900 0
-2156 -201 0
-2156 2028 0
2156 201 -2028 0
-2296 -191 0
-2296 2264 0
2296 191 -2264 0
-2424 192 0
-2424 2296 0
2424 -192 -2296 0
-2552 -193 0
-2552 2424 0
2552 193 -2424 0
-2692 -183 0
-2692 2660 0
2692 183 -2660 0
-2820 184 0
-2820 2692 0
2820 -184 -2692 0
-2948 -185 0
-2948 2820 0
2948 185 -2820 0
-3088 -175 0
-3088 3056 0
3088 175 -3056 0
-3216 176 0
-3216 3088 0
3216 -176 -3088 0
-3344 -177 0
-3344 3216 0
3344 177 -3216 0
-3484 -167 0
-3484 3452 0
3484 167 -3452 0
-3612 168 0
-3612 3484 0
3612 -168 -3484 0
-3740 -169 0
-3740 3612 0
3740 169 -3612 0
-3880 -159 0
-3880 3848 0
3880 159 -3848 0
-4008 160 0
-4008 3880 0
4008 -160 -3880 0
-4136 -161 0
-4136 4008 0
4136 161 -4008 0
-4276 -151 0
-4276 4244 0
4276 151 -4244 0
-4404 152 0
-4404 4276 0
4404 -152 -4276 0
-4532 -153 0
-4532 4404 0
4532 153 -4404 0
-4676 -4136 0
-4676 -4532 0
4676 4136 4532 0
-4820 -3740 0
-4820 4676 0
4820 3740 -4676 0
-4964 -3344 0
-4964 4820 0
4964 3344 -4820 0
-5108 -2948 0
-5108 4964 0
5108 2948 -4964 0
-5252 -2552 0
-5252 5108 0
5252 2552 -5108 0
-5396 -2156 0
-5396 5252 0
5396 2156 -5252 0
-5540 -1760 0
-5540 5396 0
5540 1760 -5396 0
-5684 -1364 0
-5684 5540 0
5684 1364 -5540 0
-5828 -968 0
-5828 5684 0
5828 968 -5684 0
-5972 -572 0
-5972 5828 0
5972 572 -5828 0
-6288 88 0
-6288 5972 0
6288 -88 -5972 0
-6289 -88 0
-6289 -5972 0
6289 88 5972 0
-6290 -6288 0
-6290 -6289 0
6290 6288 6289 0
87 -23416 0
-87 23416 0
-315 -231 0
-315 283 0
315 231 -283 0
-443 232 0
-443 315 0
443 -232 -315 0
-571 -233 0
-571 443 0
571 233 -443 0
-711 -223 0
-711 679 0
711 223 -679 0
-839 224 0
-839 711 0
839 -224 -711 0
-967 -225 0
-967 839 0
967 225 -839 0
-1107 -215 0
-1107 1075 0
1107 215 -1075 0
-1235 216 0
-1235 1107 0
1235 -216 -1107 0
-1363 -217 0
-1363 1235 0
1363 217 -1235 0
-1503 -207 0
-1503 1471 0
1503 207 -1471 0
-1631 208 0
-1631 1503 0
1631 -208 -1503 0
-1759 -209 0
-1759 1631 0
1759 209 -1631 0
-1899 -199 0
-1899 1867 0
1899 199 -1867 0
-2027 200 0
-2027 1899 0
2027 -200 -1899 0
-2155 -201 0
-2155 2027 0
2155 201 -2027 0
-2295 -191 0
-2295 2263 0
2295 191 -2263 0
-2423 192 0
-2423 2295 0
2423 -192 -2295 0
-2551 -193 0
-2551 2423 0
2551 193 -2423 0
-2691 -183 0
-2691 2659 0
2691 183 -2659 0
-2819 184 0
-2819 2691 0
2819 -184 -2691 0
-2947 -185 0
-2947 2819 0
2947 185 -2819 0
-3087 -175 0
-3087 3055 0
3087 175 -3055 0
-3215 176 0
-3215 3087 0
3215 -176 -3087 0
-3343 -177 0
-3343 3215 0
3343 177 -3215 0
-3483 -167 0
-3483 3451 0
3483 167 -3451 0
-3611 168 0
-3611 3483 0
3611 -168 -3483 0
-3739 -169 0
-3739 3611 0
3739 169 -3611 0
-3879 -159 0
-3879 3847 0
3879 159 -3847 0
-4007 160 0
-4007 3879 0
4007 -160 -3879 0
-4135 -161 0
-4135 4007 0
4135 161 -4007 0
-4275 -151 0
-4275 4243 0
4275 151 -4243 0
-4403 152 0
-4403 4275 0
4403 -152 -4275 0
-4531 -153 0
-4531 4403 0
4531 153 -4403 0
-4675 -4135 0
-4675 -4531 0
4675 4135 4531 0
-4819 -3739 0
-4819 4675 0
4819 3739 -4675 0
-4963 -3343 0
-4963 4819 0
4963 3343 -4819 0
-5107 -2947 0
-5107 4963 0
5107 2947 -4963 0
-5251 -2551 0
-5251 5107 0
5251 2551 -5107 0
-5395 -2155 0
-5395 5251 0
5395 2155 -5251 0
-5539 -1759 0
-5539 5395 0
5539 1759 -5395 0
-5683 -1363 0
-5683 5539 0
5683 1363 -5539 0
-5827 -967 0
-5827 5683 0
5827 967 -5683 0
-5971 -571 0
-5971 5827 0
5971 571 -5827 0
-6285 87 0
-6285 5971 0
6285 -87 -5971 0
-6286 -87 0
-6286 -5971 0
6286 87 5971 0
-6287 -6285 0
-6287 -6286 0
6287 6285 6286 0
86 -23415 0
-86 23415 0
-314 -231 0
-314 282 0
314 231 -282 0
-442 232 0
-442 314 0
442 -232 -314 0
-570 -233 0
-570 442 0
570 233 -442 0
-710 -223 0
-710 678 0
710 223 -678 0
-838 224 0
-838 710 0
838 -224 -710 0
-966 -225 0
-966 838 0
966 225 -838 0
-1106 -215 0
-1106 1074 0
1106 215 -1074 0
-1234 216 0
-1234 1106 0
1234 -216 -1106 0
-1362 -217 0
-1362 1234 0
1362 217 -1234 0
-1502 -207 0
-1502 1470 0
1502 207 -1470 0
-1630 208 0
-1630 1502 0
1630 -208 -1502 0
-1758 -209 0
-1758 1630 0
1758 209 -1630 0
-1898 -199 0
-1898 1866 0
1898 199 -1866 0
-2026 200 0
-2026 1898 0
2026 -200 -1898 0
-2154 -201 0
-2154 2026 0
2154 201 -2026 0
-2294 -191 0
-2294 2262 0
2294 191 -2262 0
-2422 192 0
-2422 2294 0
2422 -192 -2294 0
-2550 -193 0
-2550 2422 0
2550 193 -2422 0
-2690 -183 0
-2690 2658 0
2690 183 -2658 0
-2818 184 0
-2818 2690 0
2818 -184 -2690 0
-2946 -185 0
-2946 2818 0
2946 185 -2818 0
-3086 -175 0
-3086 3054 0
3086 175 -3054 0
-3214 176 0
-3214 3086 0
3214 -176 -3086 0
-3342 -177 0
-3342 3214 0
3342 177 -3214 0
-3482 -167 0
-3482 3450 0
3482 167 -3450 0
-3610 168 0
-3610 3482 0
3610 -168 -3482 0
-3738 -169 0
-3738 3610 0
3738 169 -3610 0
-3878 -159 0
-3878 3846 0
3878 159 -3846 0
-4006 160 0
-4006 3878 0
4006 -160 -3878 0
-4134 -161 0
-4134 4006 0
4134 161 -4006 0
-4274 -151 0
-4274 4242 0
4274 151 -4242 0
-4402 152 0
-4402 4274 0
4402 -152 -4274 0
-4530 -153 0
-4530 4402 0
4530 153 -4402 0
-4674 -4134 0
-4674 -4530 0
4674 4134 4530 0
-4818 -3738 0
-4818 4674 0
4818 3738 -4674 0
-4962 -3342 0
-4962 4818 0
4962 3342 -4818 0
-5106 -2946 0
-5106 4962 0
5106 2946 -4962 0
-5250 -2550 0
-5250 5106 0
5250 2550 -5106 0
-5394 -2154 0
-5394 5250 0
5394 2154 -5250 0
-5538 -1758 0
-5538 5394 0
5538 1758 -5394 0
-5682 -1362 0
-5682 5538 0
5682 1362 -5538 0
-5826 -966 0
-5826 5682 0
5826 966 -5682 0
-5970 -570 0
-5970 5826 0
5970 570 -5826 0
-6282 86 0
-6282 5970 0
6282 -86 -5970 0
-6283 -86 0
-6283 -5970 0
6283 86 5970 0
-6284 -6282 0
-6284 -6283 0
6284 6282 6283 0
85 -23414 0
-85 23414 0
-313 -231 0
-313 281 0
313 231 -281 0
-441 232 0
-441 313 0
441 -232 -313 0
-569 -233 0
-569 441 0
569 233 -441 0
-709 -223 0
-709 677 0
709 223 -677 0
-837 224 0
-837 709 0
837 -224 -709 0
-965 -225 0
-965 837 0
965 225 -837 0
-1105 -215 0
-1105 1073 0
1105 215 -1073 0
-1233 216 0
-1233 1105 0
1233 -216 -1105 0
-1361 -217 0
-1361 1233 0
1361 217 -1233 0
-1501 -207 0
-1501 1469 0
1501 207 -1469 0
-1629 208 0
-1629 1501 0
1629 -208 -1501 0
-1757 -209 0
-1757 1629 0
1757 209 -1629 0
-1897 -199 0
-1897 1865 0
1897 199 -1865 0
-2025 200 0
-2025 1897 0
2025 -200 -1897 0
-2153 -201 0
-2153 2025 0
2153 201 -2025 0
-2293 -191 0
-2293 2261 0
2293 191 -2261 0
-2421 192 0
-2421 2293 0
2421 -192 -2293 0
-2549 -193 0
-2549 2421 0
2549 193 -2421 0
-2689 -183 0
-2689 2657 0
2689 183 -2657 0
-2817 184 0
-2817 2689 0
2817 -184 -2689 0
-2945 -185 0
-2945 2817 0
2945 185 -2817 0
-3085 -175 0
-3085 3053 0
3085 175 -3053 0
-3213 176 0
-3213 3085 0
3213 -176 -3085 0
-3341 -177 0
-3341 3213 0
3341 177 -3213 0
-3481 -167 0
-3481 3449 0
3481 167 -3449 0
-3609 168 0
-3609 3481 0
3609 -168 -3481 0
-3737 -169 0
-3737 3609 0
3737 169 -3609 0
-3877 -159 0
-3877 3845 0
3877 159 -3845 0
-4005 160 0
-4005 3877 0
4005 -160 -3877 0
-4133 -161 0
-4133 4005 0
4133 161 -4005 0
-4273 -151 0
-4273 4241 0
4273 151 -4241 0
-4401 152 0
-4401 4273 0
4401 -152 -4273 0
-4529 -153 0
-4529 4401 0
4529 153 -4401 0
-4673 -4133 0
-4673 -4529 0
4673 4133 4529 0
-4817 -3737 0
-4817 4673 0
4817 3737 -4673 0
-4961 -3341 0
-4961 4817 0
4961 3341 -4817 0
-5105 -2945 0
-5105 4961 0
5105 2945 -4961 0
-5249 -2549 0
-5249 5105 0
5249 2549 -5105 0
-5393 -2153 0
-5393 5249 0
5393 2153 -5249 0
-5537 -1757 0
-5537 5393 0
5537 1757 -5393 0
-5681 -1361 0
-5681 5537 0
5681 1361 -5537 0
-5825 -965 0
-5825 5681 0
5825 965 -5681 0
-5969 -569 0
-5969 5825 0
5969 569 -5825 0
-6279 85 0
-6279 5969 0
6279 -85 -5969 0
-6280 -85 0
-6280 -5969 0
6280 85 5969 0
-6281 -6279 0
-6281 -6280 0
6281 6279 6280 0
84 -23413 0
-84 23413 0
-312 -231 0
-312 280 0
312 231 -280 0
-440 232 0
-440 312 0
440 -232 -312 0
-568 -233 0
-568 440 0
568 233 -440 0
-708 -223 0
-708 676 0
708 223 -676 0
-836 224 0
-836 708 0
836 -224 -708 0
-964 -225 0
-964 836 0
964 225 -836 0
-1104 -215 0
-1104 1072 0
1104 215 -1072 0
-1232 216 0
-1232 1104 0
1232 -216 -1104 0
-1360 -217 0
-1360 1232 0
1360 217 -1232 0
-1500 -207 0
-1500 1468 0
1500 207 -1468 0
-1628 208 0
-1628 1500 0
1628 -208 -1500 0
-1756 -209 0
-1756 1628 0
1756 209 -1628 0
-1896 -199 0
-1896 1864 0
1896 199 -1864 0
-2024 200 0
-2024 1896 0
2024 -200 -1896 0
-2152 -201 0
-2152 2024 0
2152 201 -2024 0
-2292 -191 0
-2292 2260 0
2292 191 -2260 0
-2420 192 0
-2420 2292 0
2420 -192 -2292 0
-2548 -193 0
-2548 2420 0
2548 193 -2420 0
-2688 -183 0
-2688 2656 0
2688 183 -2656 0
-2816 184 0
-2816 2688 0
2816 -184 -2688 0
-2944 -185 0
-2944 2816 0
2944 185 -2816 0
-3084 -175 0
-3084 3052 0
3084 175 -3052 0
-3212 176 0
-3212 3084 0
3212 -176 -3084 0
-3340 -177 0
-3340 3212 0
3340 177 -3212 0
-3480 -167 0
-3480 3448 0
3480 167 -3448 0
-3608 168 0
-3608 3480 0
3608 -168 -3480 0
-3736 -169 0
-3736 3608 0
3736 169 -3608 0
-3876 -159 0
-3876 3844 0
3876 159 -3844 0
-4004 160 0
-4004 3876 0
4004 -160 -3876 0
-4132 -161 0
-4132 4004 0
4132 161 -4004 0
-4272 -151 0
-4272 4240 0
4272 151 -4240 0
-4400 152 0
-4400 4272 0
4400 -152 -4272 0
-4528 -153 0
-4528 4400 0
4528 153 -4400 0
-4672 -4132 0
-4672 -4528 0
4672 4132 4528 0
-4816 -3736 0
-4816 4672 0
4816 3736 -4672 0
-4960 -3340 0
-4960 4816 0
4960 3340 -4816 0
-5104 -2944 0
-5104 4960 0
5104 2944 -4960 0
-5248 -2548 0
-5248 5104 0
5248 2548 -5104 0
-5392 -2152 0
-5392 5248 0
5392 2152 -5248 0
-5536 -1756 0
-5536 5392 0
5536 1756 -5392 0
-5680 -1360 0
-5680 5536 0
5680 1360 -5536 0
-5824 -964 0
-5824 5680 0
5824 964 -5680 0
-5968 -568 0
-5968 5824 0
5968 568 -5824 0
-6276 84 0
-6276 5968 0
6276 -84 -5968 0
-6277 -84 0
-6277 -5968 0
6277 84 5968 0
-6278 -6276 0
-6278 -6277 0
6278 6276 6277 0
83 -23412 0
-83 23412 0
-311 -231 0
-311 279 0
311 231 -279 0
-439 232 0
-439 311 0
439 -232 -311 0
-567 -233 0
-567 439 0
567 233 -439 0
-707 -223 0
-707 675 0
707 223 -675 0
-835 224 0
-835 707 0
835 -224 -707 0
-963 -225 0
-963 835 0
963 225 -835 0
-1103 -215 0
-1103 1071 0
1103 215 -1071 0
-1231 216 0
-1231 1103 0
1231 -216 -1103 0
-1359 -217 0
-1359 1231 0
1359 217 -1231 0
-1499 -207 0
-1499 1467 0
1499 207 -1467 0
-1627 208 0
-1627 1499 0
1627 -208 -1499 0
-1755 -209 0
-1755 1627 0
1755 209 -1627 0
-1895 -199 0
-1895 1863 0
1895 199 -1863 0
-2023 200 0
-2023 1895 0
2023 -200 -1895 0
-2151 -201 0
-2151 2023 0
2151 201 -2023 0
-2291 -191 0
-2291 2259 0
2291 191 -2259 0
-2419 192 0
-2419 2291 0
2419 -192 -2291 0
-2547 -193 0
-2547 2419 0
2547 193 -2419 0
-2687 -183 0
-2687 2655 0
2687 183 -2655 0
-2815 184 0
-2815 2687 0
2815 -184 -2687 0
-2943 -185 0
-2943 2815 0
2943 185 -2815 0
-3083 -175 0
-3083 3051 0
3083 175 -3051 0
-3211 176 0
-3211 3083 0
3211 -176 -3083 0
-3339 -177 0
-3339 3211 0
3339 177 -3211 0
-3479 -167 0
-3479 3447 0
3479 167 -3447 0
-3607 168 0
-3607 3479 0
3607 -168 -3479 0
-3735 -169 0
-3735 3607 0
3735 169 -3607 0
-3875 -159 0
-3875 3843 0
3875 159 -3843 0
-4003 160 0
-4003 3875 0
4003 -160 -3875 0
-4131 -161 0
-4131 4003 0
4131 161 -4003 0
-4271 -151 0
-4271 4239 0
4271 151 -4239 0
-4399 152 0
-4399 4271 0
4399 -152 -4271 0
-4527 -153 0
-4527 4399 0
4527 153 -4399 0
-4671 -4131 0
-4671 -4527 0
4671 4131 4527 0
-4815 -3735 0
-4815 4671 0
4815 3735 -4671 0
-4959 -3339 0
-4959 4815 0
4959 3339 -4815 0
-5103 -2943 0
-5103 4959 0
5103 2943 -4959 0
-5247 -2547 0
-5247 5103 0
5247 2547 -5103 0
-5391 -2151 0
-5391 5247 0
5391 2151 -5247 0
-5535 -1755 0
-5535 5391 0
5535 1755 -5391 0
-5679 -1359 0
-5679 5535 0
5679 1359 -5535 0
-5823 -963 0
-5823 5679 0
5823 963 -5679 0
-5967 -567 0
-5967 5823 0
5967 567 -5823 0
-6273 83 0
-6273 5967 0
6273 -83 -5967 0
-6274 -83 0
-6274 -5967 0
6274 83 5967 0
-6275 -6273 0
-6275 -6274 0
6275 6273 6274 0
82 -23411 0
-82 23411 0
-310 -231 0
-310 278 0
310 231 -278 0
-438 232 0
-438 310 0
438 -232 -310 0
-566 -233 0
-566 438 0
566 233 -438 0
-706 -223 0
-706 674 0
706 223 -674 0
-834 224 0
-834 706 0
834 -224 -706 0
-962 -225 0
-962 834 0
962 225 -834 0
-1102 -215 0
-1102 1070 0
1102 215 -1070 0
-1230 216 0
-1230 1102 0
1230 -216 -1102 0
-1358 -217 0
-1358 1230 0
1358 217 -1230 0
-1498 -207 0
-1498 1466 0
1498 207 -1466 0
-1626 208 0
-1626 1498 0
1626 -208 -1498 0
-1754 -209 0
-1754 1626 0
1754 209 -1626 0
-1894 -199 0
-1894 1862 0
1894 199 -1862 0
-2022 200 0
-2022 1894 0
2022 -200 -1894 0
-2150 -201 0
-2150 2022 0
2150 201 -2022 0
-2290 -191 0
-2290 2258 0
2290 191 -2258 0
-2418 192 0
-2418 2290 0
2418 -192 -2290 0
-2546 -193 0
-2546 2418 0
2546 193 -2418 0
-2686 -183 0
-2686 2654 0
2686 183 -2654 0
-2814 184 0
-2814 2686 0
2814 -184 -2686 0
-2942 -185 0
-2942 2814 0
2942 185 -2814 0
-3082 -175 0
-3082 3050 0
3082 175 -3050 0
-3210 176 0
-3210 3082 0
3210 -176 -3082 0
-3338 -177 0
-3338 3210 0
3338 177 -3210 0
-3478 -167 0
-3478 3446 0
3478 167 -3446 0
-3606 168 0
-3606 3478 0
3606 -168 -3478 0
-3734 -169 0
-3734 3606 0
3734 169 -3606 0
-3874 -159 0
-3874 3842 0
3874 159 -3842 0
-4002 160 0
-4002 3874 0
4002 -160 -3874 0
-4130 -161 0
-4130 4002 0
4130 161 -4002 0
-4270 -151 0
-4270 4238 0
4270 151 -4238 0
-4398 152 0
-4398 4270 0
4398 -152 -4270 0
-4526 -153 0
-4526 4398 0
4526 153 -4398 0
-4670 -4130 0
-4670 -4526 0
4670 4130 4526 0
-4814 -3734 0
-4814 4670 0
4814 3734 -4670 0
-4958 -3338 0
-4958 4814 0
4958 3338 -4814 0
-5102 -2942 0
-5102 4958 0
5102 2942 -4958 0
-5246 -2546 0
-5246 5102 0
5246 2546 -5102 0
-5390 -2150 0
-5390 5246 0
5390 2150 -5246 0
-5534 -1754 0
-5534 5390 0
5534 1754 -5390 0
-5678 -1358 0
-5678 5534 0
5678 1358 -5534 0
-5822 -962 0
-5822 5678 0
5822 962 -5678 0
-5966 -566 0
-5966 5822 0
5966 566 -5822 0
-6270 82 0
-6270 5966 0
6270 -82 -5966 0
-6271 -82 0
-6271 -5966 0
6271 82 5966 0
-6272 -6270 0
-6272 -6271 0
6272 6270 6271 0
81 -23410 0
-81 23410 0
-437 232 0
-437 309 0
437 -232 -309 0
-565 -233 0
-565 437 0
565 233 -437 0
-833 224 0
-833 705 0
833 -224 -705 0
-961 -225 0
-961 833 0
961 225 -833 0
-1229 216 0
-1229 1101 0
1229 -216 -1101 0
-1357 -217 0
-1357 1229 0
1357 217 -1229 0
-1625 208 0
-1625 1497 0
1625 -208 -1497 0
-1753 -209 0
-1753 1625 0
1753 209 -1625 0
-2021 200 0
-2021 1893 0
2021 -200 -1893 0
-2149 -201 0
-2149 2021 0
2149 201 -2021 0
-2417 192 0
-2417 2289 0
2417 -192 -2289 0
-2545 -193 0
-2545 2417 0
2545 193 -2417 0
-2813 184 0
-2813 2685 0
2813 -184 -2685 0
-2941 -185 0
-2941 2813 0
2941 185 -2813 0
-3209 176 0
-3209 3081 0
3209 -176 -3081 0
-3337 -177 0
-3337 3209 0
3337 177 -3209 0
-3605 168 0
-3605 3477 0
3605 -168 -3477 0
-3733 -169 0
-3733 3605 0
3733 169 -3605 0
-4001 160 0
-4001 3873 0
4001 -160 -3873 0
-4129 -161 0
-4129 4001 0
4129 161 -4001 0
-4397 152 0
-4397 4269 0
4397 -152 -4269 0
-4525 -153 0
-4525 4397 0
4525 153 -4397 0
-4669 -4129 0
-4669 -4525 0
4669 4129 4525 0
-4813 -3733 0
-4813 4669 0
4813 3733 -4669 0
-4957 -3337 0
-4957 4813 0
4957 3337 -4813 0
-5101 -2941 0
-5101 4957 0
5101 2941 -4957 0
-5245 -2545 0
-5245 5101 0
5245 2545 -5101 0
-5389 -2149 0
-5389 5245 0
5389 2149 -5245 0
-5533 -1753 0
-5533 5389 0
5533 1753 -5389 0
-5677 -1357 0
-5677 5533 0
5677 1357 -5533 0
-5821 -961 0
-5821 5677 0
5821 961 -5677 0
-5965 -565 0
-5965 5821 0
5965 565 -5821 0
-6267 81 0
-6267 5965 0
6267 -81 -5965 0
-6268 -81 0
-6268 -5965 0
6268 81 5965 0
-6269 -6267 0
-6269 -6268 0
6269 6267 6268 0
80 -23409 0
-80 23409 0
-436 232 0
-436 308 0
436 -232 -308 0
-564 -233 0
-564 436 0
564 233 -436 0
-832 224 0
-832 704 0
832 -224 -704 0
-960 -225 0
-960 832 0
960 225 -832 0
-1228 216 0
-1228 1100 0
1228 -216 -1100 0
-1356 -217 0
-1356 1228 0
1356 217 -1228 0
-1624 208 0
-1624 1496 0
1624 -208 -1496 0
-1752 -209 0
-1752 1624 0
1752 209 -1624 0
-2020 200 0
-2020 1892 0
2020 -200 -1892 0
-2148 -201 0
-2148 2020 0
2148 201 -2020 0
-2416 192 0
-2416 2288 0
2416 -192 -2288 0
-2544 -193 0
-2544 2416 0
2544 193 -2416 0
-2812 184 0
-2812 2684 0
2812 -184 -2684 0
-2940 -185 0
-2940 2812 0
2940 185 -2812 0
-3208 176 0
-3208 3080 0
3208 -176 -3080 0
-3336 -177 0
-3336 3208 0
3336 177 -3208 0
-3604 168 0
-3604 3476 0
3604 -168 -3476 0
-3732 -169 0
-3732 3604 0
3732 169 -3604 0
-4000 160 0
-4000 3872 0
4000 -160 -3872 0
-4128 -161 0
-4128 4000 0
4128 161 -4000 0
-4396 152 0
-4396 4268 0
4396 -152 -4268 0
-4524 -153 0
-4524 4396 0
4524 153 -4396 0
-4668 -4128 0
-4668 -4524 0
4668 4128 4524 0
-4812 -3732 0
-4812 4668 0
4812 3732 -4668 0
-4956 -3336 0
-4956 4812 0
4956 3336 -4812 0
-5100 -2940 0
-5100 4956 0
5100 2940 -4956 0
-5244 -2544 0
-5244 5100 0
5244 2544 -5100 0
-5388 -2148 0
-5388 5244 0
5388 2148 -5244 0
-5532 -1752 0
-5532 5388 0
5532 1752 -5388 0
-5676 -1356 0
-5676 5532 0
5676 1356 -5532 0
-5820 -960 0
-5820 5676 0
5820 960 -5676 0
-5964 -564 0
-5964 5820 0
5964 564 -5820 0
-6264 80 0
-6264 5964 0
6264 -80 -5964 0
-6265 -80 0
-6265 -5964 0
6265 80 5964 0
-6266 -6264 0
-6266 -6265 0
6266 6264 6265 0
79 -23408 0
-79 23408 0
-435 232 0
-435 307 0
435 -232 -307 0
-563 -233 0
-563 435 0
563 233 -435 0
-831 224 0
-831 703 0
831 -224 -703 0
-959 -225 0
-959 831 0
959 225 -831 0
-1227 216 0
-1227 1099 0
1227 -216 -1099 0
-1355 -217 0
-1355 1227 0
1355 217 -1227 0
-1623 208 0
-1623 1495 0
1623 -208 -1495 0
-1751 -209 0
-1751 1623 0
1751 209 -1623 0
-2019 200 0
-2019 1891 0
2019 -200 -1891 0
-2147 -201 0
-2147 2019 0
2147 201 -2019 0
-2415 192 0
-2415 2287 0
2415 -192 -2287 0
-2543 -193 0
-2543 2415 0
2543 193 -2415 0
-2811 184 0
-2811 2683 0
2811 -184 -2683 0
-2939 -185 0
-2939 2811 0
2939 185 -2811 0
-3207 176 0
-3207 3079 0
3207 -176 -3079 0
-3335 -177 0
-3335 3207 0
3335 177 -3207 0
-3603 168 0
-3603 3475 0
3603 -168 -3475 0
-3731 -169 0
-3731 3603 0
3731 169 -3603 0
-3999 160 0
-3999 3871 0
3999 -160 -3871 0
-4127 -161 0
-4127 3999 0
4127 161 -3999 0
-4395 152 0
-4395 4267 0
4395 -152 -4267 0
-4523 -153 0
-4523 4395 0
4523 153 -4395 0
-4667 -4127 0
-4667 -4523 0
4667 4127 4523 0
-4811 -3731 0
-4811 4667 0
4811 3731 -4667 0
-4955 -3335 0
-4955 4811 0
4955 3335 -4811 0
-5099 -2939 0
-5099 4955 0
5099 2939 -4955 0
-5243 -2543 0
-5243 5099 0
5243 2543 -5099 0
-5387 -2147 0
-5387 5243 0
5387 2147 -5243 0
-5531 -1751 0
-5531 5387 0
5531 1751 -5387 0
-5675 -1355 0
-5675 5531 0
5675 1355 -5531 0
-5819 -959 0
-5819 5675 0
5819 959 -5675 0
-5963 -563 0
-5963 5819 0
5963 563 -5819 0
-6261 79 0
-6261 5963 0
6261 -79 -5963 0
-6262 -79 0
-6262 -5963 0
6262 79 5963 0
-6263 -6261 0
-6263 -6262 0
6263 6261 6262 0
78 -23407 0
-78 23407 0
-434 232 0
-434 306 0
434 -232 -306 0
-562 -233 0
-562 434 0
562 233 -434 0
-830 224 0
-830 702 0
830 -224 -702 0
-958 -225 0
-958 830 0
958 225 -830 0
-1226 216 0
-1226 1098 0
1226 -216 -1098 0
-1354 -217 0
-1354 1226 0
1354 217 -1226 0
-1622 208 0
-1622 1494 0
1622 -208 -1494 0
-1750 -209 0
-1750 1622 0
1750 209 -1622 0
-2018 200 0
-2018 1890 0
2018 -200 -1890 0
-2146 -201 0
-2146 2018 0
2146 201 -2018 0
-2414 192 0
-2414 2286 0
2414 -192 -2286 0
-2542 -193 0
-2542 2414 0
2542 193 -2414 0
-2810 184 0
-2810 2682 0
2810 -184 -2682 0
-2938 -185 0
-2938 2810 0
2938 185 -2810 0
-3206 176 0
-3206 3078 0
3206 -176 -3078 0
-3334 -177 0
-3334 3206 0
3334 177 -3206 0
-3602 168 0
-3602 3474 0
3602 -168 -3474 0
-3730 -169 0
-3730 3602 0
3730 169 -3602 0
-3998 160 0
-3998 3870 0
3998 -160 -3870 0
-4126 -161 0
-4126 3998 0
4126 161 -3998 0
-4394 152 0
-4394 4266 0
4394 -152 -4266 0
-4522 -153 0
-4522 4394 0
4522 153 -4394 0
-4666 -4126 0
-4666 -4522 0
4666 4126 4522 0
-4810 -3730 0
-4810 4666 0
4810 3730 -4666 0
-4954 -3334 0
-4954 4810 0
4954 3334 -4810 0
-5098 -2938 0
-5098 4954 0
5098 2938 -4954 0
-5242 -2542 0
-5242 5098 0
5242 2542 -5098 0
-5386 -2146 0
-5386 5242 0
5386 2146 -5242 0
-5530 -1750 0
-5530 5386 0
5530 1750 -5386 0
-5674 -1354 0
-5674 5530 0
5674 1354 -5530 0
-5818 -958 0
-5818 5674 0
5818 958 -5674 0
-5962 -562 0
-5962 5818 0
5962 562 -5818 0
-6258 78 0
-6258 5962 0
6258 -78 -5962 0
-6259 -78 0
-6259 -5962 0
6259 78 5962 0
-6260 -6258 0
-6260 -6259 0
6260 6258 6259 0
77 -23406 0
-77 23406 0
-433 232 0
-433 305 0
433 -232 -305 0
-561 -233 0
-561 433 0
561 233 -433 0
-829 224 0
-829 701 0
829 -224 -701 0
-957 -225 0
-957 829 0
957 225 -829 0
-1225 216 0
-1225 1097 0
1225 -216 -1097 0
-1353 -217 0
-1353 1225 0
1353 217 -1225 0
-1621 208 0
-1621 1493 0
1621 -208 -1493 0
-1749 -209 0
-1749 1621 0
1749 209 -1621 0
-2017 200 0
-2017 1889 0
2017 -200 -1889 0
-2145 -201 0
-2145 2017 0
2145 201 -2017 0
-2413 192 0
-2413 2285 0
2413 -192 -2285 0
-2541 -193 0
-2541 2413 0
2541 193 -2413 0
-2809 184 0
-2809 2681 0
2809 -184 -2681 0
-2937 -185 0
-2937 2809 0
2937 185 -2809 0
-3205 176 0
-3205 3077 0
3205 -176 -3077 0
-3333 -177 0
-3333 3205 0
3333 177 -3205 0
-3601 168 0
-3601 3473 0
3601 -168 -3473 0
-3729 -169 0
-3729 3601 0
3729 169 -3601 0
-3997 160 0
-3997 3869 0
3997 -160 -3869 0
-4125 -161 0
-4125 3997 0
4125 161 -3997 0
-4393 152 0
-4393 4265 0
4393 -152 -4265 0
-4521 -153 0
-4521 4393 0
4521 153 -4393 0
-4665 -4125 0
-4665 -4521 0
4665 4125 4521 0
-4809 -3729 0
-4809 4665 0
4809 3729 -4665 0
-4953 -3333 0
-4953 4809 0
4953 3333 -4809 0
-5097 -2937 0
-5097 4953 0
5097 2937 -4953 0
-5241 -2541 0
-5241 5097 0
5241 2541 -5097 0
-5385 -2145 0
-5385 5241 0
5385 2145 -5241 0
-5529 -1749 0
-5529 5385 0
5529 1749 -5385 0
-5673 -1353 0
-5673 5529 0
5673 1353 -5529 0
-5817 -957 0
-5817 5673 0
5817 957 -5673 0
-5961 -561 0
-5961 5817 0
5961 561 -5817 0
-6255 77 0
-6255 5961 0
6255 -77 -5961 0
-6256 -77 0
-6256 -5961 0
6256 77 5961 0
-6257 -6255 0
-6257 -6256 0
6257 6255 6256 0
76 -23405 0
-76 23405 0
-432 232 0
-432 304 0
432 -232 -304 0
-560 -233 0
-560 432 0
560 233 -432 0
-828 224 0
-828 700 0
828 -224 -700 0
-956 -225 0
-956 828 0
956 225 -828 0
-1224 216 0
-1224 1096 0
1224 -216 -1096 0
-1352 -217 0
-1352 1224 0
1352 217 -1224 0
-1620 208 0
-1620 1492 0
1620 -208 -1492 0
-1748 -209 0
-1748 1620 0
1748 209 -1620 0
-2016 200 0
-2016 1888 0
2016 -200 -1888 0
-2144 -201 0
-2144 2016 0
2144 201 -2016 0
-2412 192 0
-2412 2284 0
2412 -192 -2284 0
-2540 -193 0
-2540 2412 0
2540 193 -2412 0
-2808 184 0
-2808 2680 0
2808 -184 -2680 0
-2936 -185 0
-2936 2808 0
2936 185 -2808 0
-3204 176 0
-3204 3076 0
3204 -176 -3076 0
-3332 -177 0
-3332 3204 0
3332 177 -3204 0
-3600 168 0
-3600 3472 0
3600 -168 -3472 0
-3728 -169 0
-3728 3600 0
3728 169 -3600 0
-3996 160 0
-3996 3868 0
3996 -160 -3868 0
-4124 -161 0
-4124 3996 0
4124 161 -3996 0
-4392 152 0
-4392 4264 0
4392 -152 -4264 0
-4520 -153 0
-4520 4392 0
4520 153 -4392 0
-4664 -4124 0
-4664 -4520 0
4664 4124 4520 0
-4808 -3728 0
-4808 4664 0
4808 3728 -4664 0
-4952 -3332 0
-4952 4808 0
4952 3332 -4808 0
-5096 -2936 0
-5096 4952 0
5096 2936 -4952 0
-5240 -2540 0
-5240 5096 0
5240 2540 -5096 0
-5384 -2144 0
-5384 5240 0
5384 2144 -5240 0
-5528 -1748 0
-5528 5384 0
5528 1748 -5384 0
-5672 -1352 0
-5672 5528 0
5672 1352 -5528 0
-5816 -956 0
-5816 5672 0
5816 956 -5672 0
-5960 -560 0
-5960 5816 0
5960 560 -5816 0
-6252 76 0
-6252 5960 0
6252 -76 -5960 0
-6253 -76 0
-6253 -5960 0
6253 76 5960 0
-6254 -6252 0
-6254 -6253 0
6254 6252 6253 0
75 -23404 0
-75 23404 0
-431 232 0
-431 303 0
431 -232 -303 0
-559 -233 0
-559 431 0
559 233 -431 0
-827 224 0
-827 699 0
827 -224 -699 0
-955 -225 0
-955 827 0
955 225 -827 0
-1223 216 0
-1223 1095 0
1223 -216 -1095 0
-1351 -217 0
-1351 1223 0
1351 217 -1223 0
-1619 208 0
-1619 1491 0
1619 -208 -1491 0
-1747 -209 0
-1747 1619 0
1747 209 -1619 0
-2015 200 0
-2015 1887 0
2015 -200 -1887 0
-2143 -201 0
-2143 2015 0
2143 201 -2015 0
-2411 192 0
-2411 2283 0
2411 -192 -2283 0
-2539 -193 0
-2539 2411 0
2539 193 -2411 0
-2807 184 0
-2807 2679 0
2807 -184 -2679 0
-2935 -185 0
-2935 2807 0
2935 185 -2807 0
-3203 176 0
-3203 3075 0
3203 -176 -3075 0
-3331 -177 0
-3331 3203 0
3331 177 -3203 0
-3599 168 0
-3599 3471 0
3599 -168 -3471 0
-3727 -169 0
-3727 3599 0
3727 169 -3599 0
-3995 160 0
-3995 3867 0
3995 -160 -3867 0
-4123 -161 0
-4123 3995 0
4123 161 -3995 0
-4391 152 0
-4391 4263 0
4391 -152 -4263 0
-4519 -153 0
-4519 4391 0
4519 153 -4391 0
-4663 -4123 0
-4663 -4519 0
4663 4123 4519 0
-4807 -3727 0
-4807 4663 0
4807 3727 -4663 0
-4951 -3331 0
-4951 4807 0
4951 3331 -4807 0
-5095 -2935 0
-5095 4951 0
5095 2935 -4951 0
-5239 -2539 0
-5239 5095 0
5239 2539 -5095 0
-5383 -2143 0
-5383 5239 0
5383 2143 -5239 0
-5527 -1747 0
-5527 5383 0
5527 1747 -5383 0
-5671 -1351 0
-5671 5527 0
5671 1351 -5527 0
-5815 -955 0
-5815 5671 0
5815 955 -5671 0
-5959 -559 0
-5959 5815 0
5959 559 -5815 0
-6249 75 0
-6249 5959 0
6249 -75 -5959 0
-6250 -75 0
-6250 -5959 0
6250 75 5959 0
-6251 -6249 0
-6251 -6250 0
6251 6249 6250 0
74 -23403 0
-74 23403 0
-430 232 0
-430 302 0
430 -232 -302 0
-558 -233 0
-558 430 0
558 233 -430 0
-826 224 0
-826 698 0
826 -224 -698 0
-954 -225 0
-954 826 0
954 225 -826 0
-1222 216 0
-1222 1094 0
1222 -216 -1094 0
-1350 -217 0
-1350 1222 0
1350 217 -1222 0
-1618 208 0
-1618 1490 0
1618 -208 -1490 0
-1746 -209 0
-1746 1618 0
1746 209 -1618 0
-2014 200 0
-2014 1886 0
2014 -200 -1886 0
-2142 -201 0
-2142 2014 0
2142 201 -2014 0
-2410 192 0
-2410 2282 0
2410 -192 -2282 0
-2538 -193 0
-2538 2410 0
2538 193 -2410 0
-2806 184 0
-2806 2678 0
2806 -184 -2678 0
-2934 -185 0
-2934 2806 0
2934 185 -2806 0
-3202 176 0
-3202 3074 0
3202 -176 -3074 0
-3330 -177 0
-3330 3202 0
3330 177 -3202 0
-3598 168 0
-3598 3470 0
3598 -168 -3470 0
-3726 -169 0
-3726 3598 0
3726 169 -3598 0
-3994 160 0
-3994 3866 0
3994 -160 -3866 0
-4122 -161 0
-4122 3994 0
4122 161 -3994 0
-4390 152 0
-4390 4262 0
4390 -152 -4262 0
-4518 -153 0
-4518 4390 0
4518 153 -4390 0
-4662 -4122 0
-4662 -4518 0
4662 4122 4518 0
-4806 -3726 0
-4806 4662 0
4806 3726 -4662 0
-4950 -3330 0
-4950 4806 0
4950 3330 -4806 0
-5094 -2934 0
-5094 4950 0
5094 2934 -4950 0
-5238 -2538 0
-5238 5094 0
5238 2538 -5094 0
-5382 -2142 0
-5382 5238 0
5382 2142 -5238 0
-5526 -1746 0
-5526 5382 0
5526 1746 -5382 0
-5670 -1350 0
-5670 5526 0
5670 1350 -5526 0
-5814 -954 0
-5814 5670 0
5814 954 -5670 0
-5958 -558 0
-5958 5814 0
5958 558 -5814 0
-6246 74 0
-6246 5958 0
6246 -74 -5958 0
-6247 -74 0
-6247 -5958 0
6247 74 5958 0
-6248 -6246 0
-6248 -6247 0
6248 6246 6247 0
73 -23402 0
-73 23402 0
-429 232 0
-429 301 0
429 -232 -301 0
-557 -233 0
-557 429 0
557 233 -429 0
-825 224 0
-825 697 0
825 -224 -697 0
-953 -225 0
-953 825 0
953 225 -825 0
-1221 216 0
-1221 1093 0
1221 -216 -1093 0
-1349 -217 0
-1349 1221 0
1349 217 -1221 0
-1617 208 0
-1617 1489 0
1617 -208 -1489 0
-1745 -209 0
-1745 1617 0
1745 209 -1617 0
-2013 200 0
-2013 1885 0
2013 -200 -1885 0
-2141 -201 0
-2141 2013 0
2141 201 -2013 0
-2409 192 0
-2409 2281 0
2409 -192 -2281 0
-2537 -193 0
-2537 2409 0
2537 193 -2409 0
-2805 184 0
-2805 2677 0
2805 -184 -2677 0
-2933 -185 0
-2933 2805 0
2933 185 -2805 0
-3201 176 0
-3201 3073 0
3201 -176 -3073 0
-3329 -177 0
-3329 3201 0
3329 177 -3201 0
-3597 168 0
-3597 3469 0
3597 -168 -3469 0
-3725 -169 0
-3725 3597 0
3725 169 -3597 0
-3993 160 0
-3993 3865 0
3993 -160 -3865 0
-4121 -161 0
-4121 3993 0
4121 161 -3993 0
-4389 152 0
-4389 4261 0
4389 -152 -4261 0
-4517 -153 0
-4517 4389 0
4517 153 -4389 0
-4661 -4121 0
-4661 -4517 0
4661 4121 4517 0
-4805 -3725 0
-4805 4661 0
4805 3725 -4661 0
-4949 -3329 0
-4949 4805 0
4949 3329 -4805 0
-5093 -2933 0
-5093 4949 0
5093 2933 -4949 0
-5237 -2537 0
-5237 5093 0
5237 2537 -5093 0
-5381 -2141 0
-5381 5237 0
5381 2141 -5237 0
-5525 -1745 0
-5525 5381 0
5525 1745 -5381 0
-5669 -1349 0
-5669 5525 0
5669 1349 -5525 0
-5813 -953 0
-5813 5669 0
5813 953 -5669 0
-5957 -557 0
-5957 5813 0
5957 557 -5813 0
-6243 73 0
-6243 5957 0
6243 -73 -5957 0
-6244 -73 0
-6244 -5957 0
6244 73 5957 0
-6245 -6243 0
-6245 -6244 0
6245 6243 6244 0
72 -23401 0
-72 23401 0
-428 232 0
-428 300 0
428 -232 -300 0
-556 -233 0
-556 428 0
556 233 -428 0
-824 224 0
-824 696 0
824 -224 -696 0
-952 -225 0
-952 824 0
952 225 -824 0
-1220 216 0
-1220 1092 0
1220 -216 -1092 0
-1348 -217 0
-1348 1220 0
1348 217 -1220 0
-1616 208 0
-1616 1488 0
1616 -208 -1488 0
-1744 -209 0
-1744 1616 0
1744 209 -1616 0
-2012 200 0
-2012 1884 0
2012 -200 -1884 0
-2140 -201 0
-2140 2012 0
2140 201 -2012 0
-2408 192 0
-2408 2280 0
2408 -192 -2280 0
-2536 -193 0
-2536 2408 0
2536 193 -2408 0
-2804 184 0
-2804 2676 0
2804 -184 -2676 0
-2932 -185 0
-2932 2804 0
2932 185 -2804 0
-3200 176 0
-3200 3072 0
3200 -176 -3072 0
-3328 -177 0
-3328 3200 0
3328 177 -3200 0
-3596 168 0
-3596 3468 0
3596 -168 -3468 0
-3724 -169 0
-3724 3596 0
3724 169 -3596 0
-3992 160 0
-3992 3864 0
3992 -160 -3864 0
-4120 -161 0
-4120 3992 0
4120 161 -3992 0
-4388 152 0
-4388 4260 0
4388 -152 -4260 0
-4516 -153 0
-4516 4388 0
4516 153 -4388 0
-4660 -4120 0
-4660 -4516 0
4660 4120 4516 0
-4804 -3724 0
-4804 4660 0
4804 3724 -4660 0
-4948 -3328 0
-4948 4804 0
4948 3328 -4804 0
-5092 -2932 0
-5092 4948 0
5092 2932 -4948 0
-5236 -2536 0
-5236 5092 0
5236 2536 -5092 0
-5380 -2140 0
-5380 5236 0
5380 2140 -5236 0
-5524 -1744 0
-5524 5380 0
5524 1744 -5380 0
-5668 -1348 0
-5668 5524 0
5668 1348 -5524 0
-5812 -952 0
-5812 5668 0
5812 952 -5668 0
-5956 -556 0
-5956 5812 0
5956 556 -5812 0
-6240 72 0
-6240 5956 0
6240 -72 -5956 0
-6241 -72 0
-6241 -5956 0
6241 72 5956 0
-6242 -6240 0
-6242 -6241 0
6242 6240 6241 0
71 -23400 0
-71 23400 0
-427 232 0
-427 299 0
427 -232 -299 0
-555 -233 0
-555 427 0
555 233 -427 0
-823 224 0
-823 695 0
823 -224 -695 0
-951 -225 0
-951 823 0
951 225 -823 0
-1219 216 0
-1219 1091 0
1219 -216 -1091 0
-1347 -217 0
-1347 1219 0
1347 217 -1219 0
-1615 208 0
-1615 1487 0
1615 -208 -1487 0
-1743 -209 0
-1743 1615 0
1743 209 -1615 0
-2011 200 0
-2011 1883 0
2011 -200 -1883 0
-2139 -201 0
-2139 2011 0
2139 201 -2011 0
-2407 192 0
-2407 2279 0
2407 -192 -2279 0
-2535 -193 0
-2535 2407 0
2535 193 -2407 0
-2803 184 0
-2803 2675 0
2803 -184 -2675 0
-2931 -185 0
-2931 2803 0
2931 185 -2803 0
-3199 176 0
-3199 3071 0
3199 -176 -3071 0
-3327 -177 0
-3327 3199 0
3327 177 -3199 0
-3595 168 0
-3595 3467 0
3595 -168 -3467 0
-3723 -169 0
-3723 3595 0
3723 169 -3595 0
-3991 160 0
-3991 3863 0
3991 -160 -3863 0
-4119 -161 0
-4119 3991 0
4119 161 -3991 0
-4387 152 0
-4387 4259 0
4387 -152 -4259 0
-4515 -153 0
-4515 4387 0
4515 153 -4387 0
-4659 -4119 0
-4659 -4515 0
4659 4119 4515 0
-4803 -3723 0
-4803 4659 0
4803 3723 -4659 0
-4947 -3327 0
-4947 4803 0
4947 3327 -4803 0
-5091 -2931 0
-5091 4947 0
5091 2931 -4947 0
-5235 -2535 0
-5235 5091 0
5235 2535 -5091 0
-5379 -2139 0
-5379 5235 0
5379 2139 -5235 0
-5523 -1743 0
-5523 5379 0
5523 1743 -5379 0
-5667 -1347 0
-5667 5523 0
5667 1347 -5523 0
-5811 -951 0
-5811 5667 0
5811 951 -5667 0
-5955 -555 0
-5955 5811 0
5955 555 -5811 0
-6237 71 0
-6237 5955 0
6237 -71 -5955 0
-6238 -71 0
-6238 -5955 0
6238 71 5955 0
-6239 -6237 0
-6239 -6238 0
6239 6237 6238 0
70 -23399 0
-70 23399 0
-426 232 0
-426 298 0
426 -232 -298 0
-554 -233 0
-554 426 0
554 233 -426 0
-822 224 0
-822 694 0
822 -224 -694 0
-950 -225 0
-950 822 0
950 225 -822 0
-1218 216 0
-1218 1090 0
1218 -216 -1090 0
-1346 -217 0
-1346 1218 0
1346 217 -1218 0
-1614 208 0
-1614 1486 0
1614 -208 -1486 0
-1742 -209 0
-1742 1614 0
1742 209 -1614 0
-2010 200 0
-2010 1882 0
2010 -200 -1882 0
-2138 -201 0
-2138 2010 0
2138 201 -2010 0
-2406 192 0
-2406 2278 0
2406 -192 -2278 0
-2534 -193 0
-2534 2406 0
2534 193 -2406 0
-2802 184 0
-2802 2674 0
2802 -184 -2674 0
-2930 -185 0
-2930 2802 0
2930 185 -2802 0
-3198 176 0
-3198 3070 0
3198 -176 -3070 0
-3326 -177 0
-3326 3198 0
3326 177 -3198 0
-3594 168 0
-3594 3466 0
3594 -168 -3466 0
-3722 -169 0
-3722 3594 0
3722 169 -3594 0
-3990 160 0
-3990 3862 0
3990 -160 -3862 0
-4118 -161 0
-4118 3990 0
4118 161 -3990 0
-4386 152 0
-4386 4258 0
4386 -152 -4258 0
-4514 -153 0
-4514 4386 0
4514 153 -4386 0
-4658 -4118 0
-4658 -4514 0
4658 4118 4514 0
-4802 -3722 0
-4802 4658 0
4802 3722 -4658 0
-4946 -3326 0
-4946 4802 0
4946 3326 -4802 0
-5090 -2930 0
-5090 4946 0
5090 2930 -4946 0
-5234 -2534 0
-5234 5090 0
5234 2534 -5090 0
-5378 -2138 0
-5378 5234 0
5378 2138 -5234 0
-5522 -1742 0
-5522 5378 0
5522 1742 -5378 0
-5666 -1346 0
-5666 5522 0
5666 1346 -5522 0
-5810 -950 0
-5810 5666 0
5810 950 -5666 0
-5954 -554 0
-5954 5810 0
5954 554 -5810 0
-6234 70 0
-6234 5954 0
6234 -70 -5954 0
-6235 -70 0
-6235 -5954 0
6235 70 5954 0
-6236 -6234 0
-6236 -6235 0
6236 6234 6235 0
69 -23398 0
-69 23398 0
-425 232 0
-425 297 0
425 -232 -297 0
-553 -233 0
-553 425 0
553 233 -425 0
-821 224 0
-821 693 0
821 -224 -693 0
-949 -225 0
-949 821 0
949 225 -821 0
-1217 216 0
-1217 1089 0
1217 -216 -1089 0
-1345 -217 0
-1345 1217 0
1345 217 -1217 0
-1613 208 0
-1613 1485 0
1613 -208 -1485 0
-1741 -209 0
-1741 1613 0
1741 209 -1613 0
-2009 200 0
-2009 1881 0
2009 -200 -1881 0
-2137 -201 0
-2137 2009 0
2137 201 -2009 0
-2405 192 0
-2405 2277 0
2405 -192 -2277 0
-2533 -193 0
-2533 2405 0
2533 193 -2405 0
-2801 184 0
-2801 2673 0
2801 -184 -2673 0
-2929 -185 0
-2929 2801 0
2929 185 -2801 0
-3197 176 0
-3197 3069 0
3197 -176 -3069 0
-3325 -177 0
-3325 3197 0
3325 177 -3197 0
-3593 168 0
-3593 3465 0
3593 -168 -3465 0
-3721 -169 0
-3721 3593 0
3721 169 -3593 0
-3989 160 0
-3989 3861 0
3989 -160 -3861 0
-4117 -161 0
-4117 3989 0
4117 161 -3989 0
-4385 152 0
-4385 4257 0
4385 -152 -4257 0
-4513 -153 0
-4513 4385 0
4513 153 -4385 0
-4657 -4117 0
-4657 -4513 0
4657 4117 4513 0
-4801 -3721 0
-4801 4657 0
4801 3721 -4657 0
-4945 -3325 0
-4945 4801 0
4945 3325 -4801 0
-5089 -2929 0
-5089 4945 0
5089 2929 -4945 0
-5233 -2533 0
-5233 5089 0
5233 2533 -5089 0
-5377 -2137 0
-5377 5233 0
5377 2137 -5233 0
-5521 -1741 0
-5521 5377 0
5521 1741 -5377 0
-5665 -1345 0
-5665 5521 0
5665 1345 -5521 0
-5809 -949 0
-5809 5665 0
5809 949 -5665 0
-5953 -553 0
-5953 5809 0
5953 553 -5809 0
-6231 69 0
-6231 5953 0
6231 -69 -5953 0
-6232 -69 0
-6232 -5953 0
6232 69 5953 0
-6233 -6231 0
-6233 -6232 0
6233 6231 6232 0
68 -23397 0
-68 23397 0
-424 232 0
-424 296 0
424 -232 -296 0
-552 -233 0
-552 424 0
552 233 -424 0
-820 224 0
-820 692 0
820 -224 -692 0
-948 -225 0
-948 820 0
948 225 -820 0
-1216 216 0
-1216 1088 0
1216 -216 -1088 0
-1344 -217 0
-1344 1216 0
1344 217 -1216 0
-1612 208 0
-1612 1484 0
1612 -208 -1484 0
-1740 -209 0
-1740 1612 0
1740 209 -1612 0
-2008 200 0
-2008 1880 0
2008 -200 -1880 0
-2136 -201 0
-2136 2008 0
2136 201 -2008 0
-2404 192 0
-2404 2276 0
2404 -192 -2276 0
-2532 -193 0
-2532 2404 0
2532 193 -2404 0
-2800 184 0
-2800 2672 0
2800 -184 -2672 0
-2928 -185 0
-2928 2800 0
2928 185 -2800 0
-3196 176 0
-3196 3068 0
3196 -176 -3068 0
-3324 -177 0
-3324 3196 0
3324 177 -3196 0
-3592 168 0
-3592 3464 0
3592 -168 -3464 0
-3720 -169 0
-3720 3592 0
3720 169 -3592 0
-3988 160 0
-3988 3860 0
3988 -160 -3860 0
-4116 -161 0
-4116 3988 0
4116 161 -3988 0
-4384 152 0
-4384 4256 0
4384 -152 -4256 0
-4512 -153 0
-4512 4384 0
4512 153 -4384 0
-4656 -4116 0
-4656 -4512 0
4656 4116 4512 0
-4800 -3720 0
-4800 4656 0
4800 3720 -4656 0
-4944 -3324 0
-4944 4800 0
4944 3324 -4800 0
-5088 -2928 0
-5088 4944 0
5088 2928 -4944 0
-5232 -2532 0
-5232 5088 0
5232 2532 -5088 0
-5376 -2136 0
-5376 5232 0
5376 2136 -5232 0
-5520 -1740 0
-5520 5376 0
5520 1740 -5376 0
-5664 -1344 0
-5664 5520 0
5664 1344 -5520 0
-5808 -948 0
-5808 5664 0
5808 948 -5664 0
-5952 -552 0
-5952 5808 0
5952 552 -5808 0
-6228 68 0
-6228 5952 0
6228 -68 -5952 0
-6229 -68 0
-6229 -5952 0
6229 68 5952 0
-6230 -6228 0
-6230 -6229 0
6230 6228 6229 0
67 -23396 0
-67 23396 0
-423 232 0
-423 295 0
423 -232 -295 0
-551 -233 0
-551 423 0
551 233 -423 0
-819 224 0
-819 691 0
819 -224 -691 0
-947 -225 0
-947 819 0
947 225 -819 0
-1215 216 0
-1215 1087 0
1215 -216 -1087 0
-1343 -217 0
-1343 1215 0
1343 217 -1215 0
-1611 208 0
-1611 1483 0
1611 -208 -1483 0
-1739 -209 0
-1739 1611 0
1739 209 -1611 0
-2007 200 0
-2007 1879 0
2007 -200 -1879 0
-2135 -201 0
-2135 2007 0
2135 201 -2007 0
-2403 192 0
-2403 2275 0
2403 -192 -2275 0
-2531 -193 0
-2531 2403 0
2531 193 -2403 0
-2799 184 0
-2799 2671 0
2799 -184 -2671 0
-2927 -185 0
-2927 2799 0
2927 185 -2799 0
-3195 176 0
-3195 3067 0
3195 -176 -3067 0
-3323 -177 0
-3323 3195 0
3323 177 -3195 0
-3591 168 0
-3591 3463 0
3591 -168 -3463 0
-3719 -169 0
-3719 3591 0
3719 169 -3591 0
-3987 160 0
-3987 3859 0
3987 -160 -3859 0
-4115 -161 0
-4115 3987 0
4115 161 -3987 0
-4383 152 0
-4383 4255 0
4383 -152 -4255 0
-4511 -153 0
-4511 4383 0
4511 153 -4383 0
-4655 -4115 0
-4655 -4511 0
4655 4115 4511 0
-4799 -3719 0
-4799 4655 0
4799 3719 -4655 0
-4943 -3323 0
-4943 4799 0
4943 3323 -4799 0
-5087 -2927 0
-5087 4943 0
5087 2927 -4943 0
-5231 -2531 0
-5231 5087 0
5231 2531 -5087 0
-5375 -2135 0
-5375 5231 0
5375 2135 -5231 0
-5519 -1739 0
-5519 5375 0
5519 1739 -5375 0
-5663 -1343 0
-5663 5519 0
5663 1343 -5519 0
-5807 -947 0
-5807 5663 0
5807 947 -5663 0
-5951 -551 0
-5951 5807 0
5951 551 -5807 0
-6225 67 0
-6225 5951 0
6225 -67 -5951 0
-6226 -67 0
-6226 -5951 0
6226 67 5951 0
-6227 -6225 0
-6227 -6226 0
6227 6225 6226 0
66 -23395 0
-66 23395 0
-422 232 0
-422 294 0
422 -232 -294 0
-550 -233 0
-550 422 0
550 233 -422 0
-818 224 0
-818 690 0
818 -224 -690 0
-946 -225 0
-946 818 0
946 225 -818 0
-1214 216 0
-1214 1086 0
1214 -216 -1086 0
-1342 -217 0
-1342 1214 0
1342 217 -1214 0
-1610 208 0
-1610 1482 0
1610 -208 -1482 0
-1738 -209 0
-1738 1610 0
1738 209 -1610 0
-2006 200 0
-2006 1878 0
2006 -200 -1878 0
-2134 -201 0
-2134 2006 0
2134 201 -2006 0
-2402 192 0
-2402 2274 0
2402 -192 -2274 0
-2530 -193 0
-2530 2402 0
2530 193 -2402 0
-2798 184 0
-2798 2670 0
2798 -184 -2670 0
-2926 -185 0
-2926 2798 0
2926 185 -2798 0
-3194 176 0
-3194 3066 0
3194 -176 -3066 0
-3322 -177 0
-3322 3194 0
3322 177 -3194 0
-3590 168 0
-3590 3462 0
3590 -168 -3462 0
-3718 -169 0
-3718 3590 0
3718 169 -3590 0
-3986 160 0
-3986 3858 0
3986 -160 -3858 0
-4114 -161 0
-4114 3986 0
4114 161 -3986 0
-4382 152 0
-4382 4254 0
4382 -152 -4254 0
-4510 -153 0
-4510 4382 0
4510 153 -4382 0
-4654 -4114 0
-4654 -4510 0
4654 4114 4510 0
-4798 -3718 0
-4798 4654 0
4798 3718 -4654 0
-4942 -3322 0
-4942 4798 0
4942 3322 -4798 0
-5086 -2926 0
-5086 4942 0
5086 2926 -4942 0
-5230 -2530 0
-5230 5086 0
5230 2530 -5086 0
-5374 -2134 0
-5374 5230 0
5374 2134 -5230 0
-5518 -1738 0
-5518 5374 0
5518 1738 -5374 0
-5662 -1342 0
-5662 5518 0
5662 1342 -5518 0
-5806 -946 0
-5806 5662 0
5806 946 -5662 0
-5950 -550 0
-5950 5806 0
5950 550 -5806 0
-6222 66 0
-6222 5950 0
6222 -66 -5950 0
-6223 -66 0
-6223 -5950 0
6223 66 5950 0
-6224 -6222 0
-6224 -6223 0
6224 6222 6223 0
65 -23394 0
-65 23394 0
-421 -232 0
-421 357 0
421 232 -357 0
-549 -233 0
-549 421 0
549 233 -421 0
-817 -224 0
-817 753 0
817 224 -753 0
-945 -225 0
-945 817 0
945 225 -817 0
-1213 -216 0
-1213 1149 0
1213 216 -1149 0
-1341 -217 0
-1341 1213 0
1341 217 -1213 0
-1609 -208 0
-1609 1545 0
1609 208 -1545 0
-1737 -209 0
-1737 1609 0
1737 209 -1609 0
-2005 -200 0
-2005 1941 0
2005 200 -1941 0
-2133 -201 0
-2133 2005 0
2133 201 -2005 0
-2401 -192 0
-2401 2337 0
2401 192 -2337 0
-2529 -193 0
-2529 2401 0
2529 193 -2401 0
-2797 -184 0
-2797 2733 0
2797 184 -2733 0
-2925 -185 0
-2925 2797 0
2925 185 -2797 0
-3193 -176 0
-3193 3129 0
3193 176 -3129 0
-3321 -177 0
-3321 3193 0
3321 177 -3193 0
-3589 -168 0
-3589 3525 0
3589 168 -3525 0
-3717 -169 0
-3717 3589 0
3717 169 -3589 0
-3985 -160 0
-3985 3921 0
3985 160 -3921 0
-4113 -161 0
-4113 3985 0
4113 161 -3985 0
-4381 -152 0
-4381 4317 0
4381 152 -4317 0
-4509 -153 0
-4509 4381 0
4509 153 -4381 0
-4653 -4113 0
-4653 -4509 0
4653 4113 4509 0
-4797 -3717 0
-4797 4653 0
4797 3717 -4653 0
-4941 -3321 0
-4941 4797 0
4941 3321 -4797 0
-5085 -2925 0
-5085 4941 0
5085 2925 -4941 0
-5229 -2529 0
-5229 5085 0
5229 2529 -5085 0
-5373 -2133 0
-5373 5229 0
5373 2133 -5229 0
-5517 -1737 0
-5517 5373 0
5517 1737 -5373 0
-5661 -1341 0
-5661 5517 0
5661 1341 -5517 0
-5805 -945 0
-5805 5661 0
5805 945 -5661 0
-5949 -549 0
-5949 5805 0
5949 549 -5805 0
-6219 65 0
-6219 5949 0
6219 -65 -5949 0
-6220 -65 0
-6220 -5949 0
6220 65 5949 0
-6221 -6219 0
-6221 -6220 0
6221 6219 6220 0
64 -23393 0
-64 23393 0
-420 -232 0
-420 356 0
420 232 -356 0
-548 -233 0
-548 420 0
548 233 -420 0
-816 -224 0
-816 752 0
816 224 -752 0
-944 -225 0
-944 816 0
944 225 -816 0
-1212 -216 0
-1212 1148 0
1212 216 -1148 0
-1340 -217 0
-1340 1212 0
1340 217 -1212 0
-1608 -208 0
-1608 1544 0
1608 208 -1544 0
-1736 -209 0
-1736 1608 0
1736 209 -1608 0
-2004 -200 0
-2004 1940 0
2004 200 -1940 0
-2132 -201 0
-2132 2004 0
2132 201 -2004 0
-2400 -192 0
-2400 2336 0
2400 192 -2336 0
-2528 -193 0
-2528 2400 0
2528 193 -2400 0
-2796 -184 0
-2796 2732 0
2796 184 -2732 0
-2924 -185 0
-2924 2796 0
2924 185 -2796 0
-3192 -176 0
-3192 3128 0
3192 176 -3128 0
-3320 -177 0
-3320 3192 0
3320 177 -3192 0
-3588 -168 0
-3588 3524 0
3588 168 -3524 0
-3716 -169 0
-3716 3588 0
3716 169 -3588 0
-3984 -160 0
-3984 3920 0
3984 160 -3920 0
-4112 -161 0
-4112 3984 0
4112 161 -3984 0
-4380 -152 0
-4380 4316 0
4380 152 -4316 0
-4508 -153 0
-4508 4380 0
4508 153 -4380 0
-4652 -4112 0
-4652 -4508 0
4652 4112 4508 0
-4796 -3716 0
-4796 4652 0
4796 3716 -4652 0
-4940 -3320 0
-4940 4796 0
4940 3320 -4796 0
-5084 -2924 0
-5084 4940 0
5084 2924 -4940 0
-5228 -2528 0
-5228 5084 0
5228 2528 -5084 0
-5372 -2132 0
-5372 5228 0
5372 2132 -5228 0
-5516 -1736 0
-5516 5372 0
5516 1736 -5372 0
-5660 -1340 0
-5660 5516 0
5660 1340 -5516 0
-5804 -944 0
-5804 5660 0
5804 944 -5660 0
-5948 -548 0
-5948 5804 0
5948 548 -5804 0
-6216 64 0
-6216 5948 0
6216 -64 -5948 0
-6217 -64 0
-6217 -5948 0
6217 64 5948 0
-6218 -6216 0
-6218 -6217 0
6218 6216 6217 0
63 -23392 0
-63 23392 0
-419 -232 0
-419 355 0
419 232 -355 0
-547 -233 0
-547 419 0
547 233 -419 0
-815 -224 0
-815 751 0
815 224 -751 0
-943 -225 0
-943 815 0
943 225 -815 0
-1211 -216 0
-1211 1147 0
1211 216 -1147 0
-1339 -217 0
-1339 1211 0
1339 217 -1211 0
-1607 -208 0
-1607 1543 0
1607 208 -1543 0
-1735 -209 0
-1735 1607 0
1735 209 -1607 0
-2003 -200 0
-2003 1939 0
2003 200 -1939 0
-2131 -201 0
-2131 2003 0
2131 201 -2003 0
-2399 -192 0
-2399 2335 0
2399 192 -2335 0
-2527 -193 0
-2527 2399 0
2527 193 -2399 0
-2795 -184 0
-2795 2731 0
2795 184 -2731 0
-2923 -185 0
-2923 2795 0
2923 185 -2795 0
-3191 -176 0
-3191 3127 0
3191 176 -3127 0
-3319 -177 0
-3319 3191 0
3319 177 -3191 0
-3587 -168 0
-3587 3523 0
3587 168 -3523 0
-3715 -169 0
-3715 3587 0
3715 169 -3587 0
-3983 -160 0
-3983 3919 0
3983 160 -3919 0
-4111 -161 0
-4111 3983 0
4111 161 -3983 0
-4379 -152 0
-4379 4315 0
4379 152 -4315 0
-4507 -153 0
-4507 4379 0
4507 153 -4379 0
-4651 -4111 0
-4651 -4507 0
4651 4111 4507 0
-4795 -3715 0
-4795 4651 0
4795 3715 -4651 0
-4939 -3319 0
-4939 4795 0
4939 3319 -4795 0
-5083 -2923 0
-5083 4939 0
5083 2923 -4939 0
-5227 -2527 0
-5227 5083 0
5227 2527 -5083 0
-5371 -2131 0
-5371 5227 0
5371 2131 -5227 0
-5515 -1735 0
-5515 5371 0
5515 1735 -5371 0
-5659 -1339 0
-5659 5515 0
5659 1339 -5515 0
-5803 -943 0
-5803 5659 0
5803 943 -5659 0
-5947 -547 0
-5947 5803 0
5947 547 -5803 0
-6213 63 0
-6213 5947 0
6213 -63 -5947 0
-6214 -63 0
-6214 -5947 0
6214 63 5947 0
-6215 -6213 0
-6215 -6214 0
6215 6213 6214 0
62 -23391 0
-62 23391 0
-418 -232 0
-418 354 0
418 232 -354 0
-546 -233 0
-546 418 0
546 233 -418 0
-814 -224 0
-814 750 0
814 224 -750 0
-942 -225 0
-942 814 0
942 225 -814 0
-1210 -216 0
-1210 1146 0
1210 216 -1146 0
-1338 -217 0
-1338 1210 0
1338 217 -1210 0
-1606 -208 0
-1606 1542 0
1606 208 -1542 0
-1734 -209 0
-1734 1606 0
1734 209 -1606 0
-2002 -200 0
-2002 1938 0
2002 200 -1938 0
-2130 -201 0
-2130 2002 0
2130 201 -2002 0
-2398 -192 0
-2398 2334 0
2398 192 -2334 0
-2526 -193 0
-2526 2398 0
2526 193 -2398 0
-2794 -184 0
-2794 2730 0
2794 184 -2730 0
-2922 -185 0
-2922 2794 0
2922 185 -2794 0
-3190 -176 0
-3190 3126 0
3190 176 -3126 0
-3318 -177 0
-3318 3190 0
3318 177 -3190 0
-3586 -168 0
-3586 3522 0
3586 168 -3522 0
-3714 -169 0
-3714 3586 0
3714 169 -3586 0
-3982 -160 0
-3982 3918 0
3982 160 -3918 0
-4110 -161 0
-4110 3982 0
4110 161 -3982 0
-4378 -152 0
-4378 4314 0
4378 152 -4314 0
-4506 -153 0
-4506 4378 0
4506 153 -4378 0
-4650 -4110 0
-4650 -4506 0
4650 4110 4506 0
-4794 -3714 0
-4794 4650 0
4794 3714 -4650 0
-4938 -3318 0
-4938 4794 0
4938 3318 -4794 0
-5082 -2922 0
-5082 4938 0
5082 2922 -4938 0
-5226 -2526 0
-5226 5082 0
5226 2526 -5082 0
-5370 -2130 0
-5370 5226 0
5370 2130 -5226 0
-5514 -1734 0
-5514 5370 0
5514 1734 -5370 0
-5658 -1338 0
-5658 5514 0
5658 1338 -5514 0
-5802 -942 0
-5802 5658 0
5802 942 -5658 0
-5946 -546 0
-5946 5802 0
5946 546 -5802 0
-6210 62 0
-6210 5946 0
6210 -62 -5946 0
-6211 -62 0
-6211 -5946 0
6211 62 5946 0
-6212 -6210 0
-6212 -6211 0
6212 6210 6211 0
61 -23390 0
-61 23390 0
-417 -232 0
-417 353 0
417 232 -353 0
-545 -233 0
-545 417 0
545 233 -417 0
-813 -224 0
-813 749 0
813 224 -749 0
-941 -225 0
-941 813 0
941 225 -813 0
-1209 -216 0
-1209 1145 0
1209 216 -1145 0
-1337 -217 0
-1337 1209 0
1337 217 -1209 0
-1605 -208 0
-1605 1541 0
1605 208 -1541 0
-1733 -209 0
-1733 1605 0
1733 209 -1605 0
-2001 -200 0
-2001 1937 0
2001 200 -1937 0
-2129 -201 0
-2129 2001 0
2129 201 -2001 0
-2397 -192 0
-2397 2333 0
2397 192 -2333 0
-2525 -193 0
-2525 2397 0
2525 193 -2397 0
-2793 -184 0
-2793 2729 0
2793 184 -2729 0
-2921 -185 0
-2921 2793 0
2921 185 -2793 0
-3189 -176 0
-3189 3125 0
3189 176 -3125 0
-3317 -177 0
-3317 3189 0
3317 177 -3189 0
-3585 -168 0
-3585 3521 0
3585 168 -3521 0
-3713 -169 0
-3713 3585 0
3713 169 -3585 0
-3981 -160 0
-3981 3917 0
3981 160 -3917 0
-4109 -161 0
-4109 3981 0
4109 161 -3981 0
-4377 -152 0
-4377 4313 0
4377 152 -4313 0
-4505 -153 0
-4505 4377 0
4505 153 -4377 0
-4649 -4109 0
-4649 -4505 0
4649 4109 4505 0
-4793 -3713 0
-4793 4649 0
4793 3713 -4649 0
-4937 -3317 0
-4937 4793 0
4937 3317 -4793 0
-5081 -2921 0
-5081 4937 0
5081 2921 -4937 0
-5225 -2525 0
-5225 5081 0
5225 2525 -5081 0
-5369 -2129 0
-5369 5225 0
5369 2129 -5225 0
-5513 -1733 0
-5513 5369 0
5513 1733 -5369 0
-5657 -1337 0
-5657 5513 0
5657 1337 -5513 0
-5801 -941 0
-5801 5657 0
5801 941 -5657 0
-5945 -545 0
-5945 5801 0
5945 545 -5801 0
-6207 61 0
-6207 5945 0
6207 -61 -5945 0
-6208 -61 0
-6208 -5945 0
6208 61 5945 0
-6209 -6207 0
-6209 -6208 0
6209 6207 6208 0
60 -23389 0
-60 23389 0
-416 -232 0
-416 352 0
416 232 -352 0
-544 -233 0
-544 416 0
544 233 -416 0
-812 -224 0
-812 748 0
812 224 -748 0
-940 -225 0
-940 812 0
940 225 -812 0
-1208 -216 0
-1208 1144 0
1208 216 -1144 0
-1336 -217 0
-1336 1208 0
1336 217 -1208 0
-1604 -208 0
-1604 1540 0
1604 208 -1540 0
-1732 -209 0
-1732 1604 0
1732 209 -1604 0
-2000 -200 0
-2000 1936 0
2000 200 -1936 0
-2128 -201 0
-2128 2000 0
2128 201 -2000 0
-2396 -192 0
-2396 2332 0
2396 192 -2332 0
-2524 -193 0
-2524 2396 0
2524 193 -2396 0
-2792 -184 0
-2792 2728 0
2792 184 -2728 0
-2920 -185 0
-2920 2792 0
2920 185 -2792 0
-3188 -176 0
-3188 3124 0
3188 176 -3124 0
-3316 -177 0
-3316 3188 0
3316 177 -3188 0
-3584 -168 0
-3584 3520 0
3584 168 -3520 0
-3712 -169 0
-3712 3584 0
3712 169 -3584 0
-3980 -160 0
-3980 3916 0
3980 160 -3916 0
-4108 -161 0
-4108 3980 0
4108 161 -3980 0
-4376 -152 0
-4376 4312 0
4376 152 -4312 0
-4504 -153 0
-4504 4376 0
4504 153 -4376 0
-4648 -4108 0
-4648 -4504 0
4648 4108 4504 0
-4792 -3712 0
-4792 4648 0
4792 3712 -4648 0
-4936 -3316 0
-4936 4792 0
4936 3316 -4792 0
-5080 -2920 0
-5080 4936 0
5080 2920 -4936 0
-5224 -2524 0
-5224 5080 0
5224 2524 -5080 0
-5368 -2128 0
-5368 5224 0
5368 2128 -5224 0
-5512 -1732 0
-5512 5368 0
5512 1732 -5368 0
-5656 -1336 0
-5656 5512 0
5656 1336 -5512 0
-5800 -940 0
-5800 5656 0
5800 940 -5656 0
-5944 -544 0
-5944 5800 0
5944 544 -5800 0
-6204 60 0
-6204 5944 0
6204 -60 -5944 0
-6205 -60 0
-6205 -5944 0
6205 60 5944 0
-6206 -6204 0
-6206 -6205 0
6206 6204 6205 0
59 -23388 0
-59 23388 0
-415 -232 0
-415 351 0
415 232 -351 0
-543 -233 0
-543 415 0
543 233 -415 0
-811 -224 0
-811 747 0
811 224 -747 0
-939 -225 0
-939 811 0
939 225 -811 0
-1207 -216 0
-1207 1143 0
1207 216 -1143 0
-1335 -217 0
-1335 1207 0
1335 217 -1207 0
-1603 -208 0
-1603 1539 0
1603 208 -1539 0
-1731 -209 0
-1731 1603 0
1731 209 -1603 0
-1999 -200 0
-1999 1935 0
1999 200 -1935 0
-2127 -201 0
-2127 1999 0
2127 201 -1999 0
-2395 -192 0
-2395 2331 0
2395 192 -2331 0
-2523 -193 0
-2523 2395 0
2523 193 -2395 0
-2791 -184 0
-2791 2727 0
2791 184 -2727 0
-2919 -185 0
-2919 2791 0
2919 185 -2791 0
-3187 -176 0
-3187 3123 0
3187 176 -3123 0
-3315 -177 0
-3315 3187 0
3315 177 -3187 0
-3583 -168 0
-3583 3519 0
3583 168 -3519 0
-3711 -169 0
-3711 3583 0
3711 169 -3583 0
-3979 -160 0
-3979 3915 0
3979 160 -3915 0
-4107 -161 0
-4107 3979 0
4107 161 -3979 0
-4375 -152 0
-4375 4311 0
4375 152 -4311 0
-4503 -153 0
-4503 4375 0
4503 153 -4375 0
-4647 -4107 0
-4647 -4503 0
4647 4107 4503 0
-4791 -3711 0
-4791 4647 0
4791 3711 -4647 0
-4935 -3315 0
-4935 4791 0
4935 3315 -4791 0
-5079 -2919 0
-5079 4935 0
5079 2919 -4935 0
-5223 -2523 0
-5223 5079 0
5223 2523 -5079 0
-5367 -2127 0
-5367 5223 0
5367 2127 -5223 0
-5511 -1731 0
-5511 5367 0
5511 1731 -5367 0
-5655 -1335 0
-5655 5511 0
5655 1335 -5511 0
-5799 -939 0
-5799 5655 0
5799 939 -5655 0
-5943 -543 0
-5943 5799 0
5943 543 -5799 0
-6201 59 0
-6201 5943 0
6201 -59 -5943 0
-6202 -59 0
-6202 -5943 0
6202 59 5943 0
-6203 -6201 0
-6203 -6202 0
6203 6201 6202 0
58 -23387 0
-58 23387 0
-414 -232 0
-414 350 0
414 232 -350 0
-542 -233 0
-542 414 0
542 233 -414 0
-810 -224 0
-810 746 0
810 224 -746 0
-938 -225 0
-938 810 0
938 225 -810 0
-1206 -216 0
-1206 1142 0
1206 216 -1142 0
-1334 -217 0
-1334 1206 0
1334 217 -1206 0
-1602 -208 0
-1602 1538 0
1602 208 -1538 0
-1730 -209 0
-1730 1602 0
1730 209 -1602 0
-1998 -200 0
-1998 1934 0
1998 200 -1934 0
-2126 -201 0
-2126 1998 0
2126 201 -1998 0
-2394 -192 0
-2394 2330 0
2394 192 -2330 0
-2522 -193 0
-2522 2394 0
2522 193 -2394 0
-2790 -184 0
-2790 2726 0
2790 184 -2726 0
-2918 -185 0
-2918 2790 0
2918 185 -2790 0
-3186 -176 0
-3186 3122 0
3186 176 -3122 0
-3314 -177 0
-3314 3186 0
3314 177 -3186 0
-3582 -168 0
-3582 3518 0
3582 168 -3518 0
-3710 -169 0
-3710 3582 0
3710 169 -3582 0
-3978 -160 0
-3978 3914 0
3978 160 -3914 0
-4106 -161 0
-4106 3978 0
4106 161 -3978 0
-4374 -152 0
-4374 4310 0
4374 152 -4310 0
-4502 -153 0
-4502 4374 0
4502 153 -4374 0
-4646 -4106 0
-4646 -4502 0
4646 4106 4502 0
-4790 -3710 0
-4790 4646 0
4790 3710 -4646 0
-4934 -3314 0
-4934 4790 0
4934 3314 -4790 0
-5078 -2918 0
-5078 4934 0
5078 2918 -4934 0
-5222 -2522 0
-5222 5078 0
5222 2522 -5078 0
-5366 -2126 0
-5366 5222 0
5366 2126 -5222 0
-5510 -1730 0
-5510 5366 0
5510 1730 -5366 0
-5654 -1334 0
-5654 5510 0
5654 1334 -5510 0
-5798 -938 0
-5798 5654 0
5798 938 -5654 0
-5942 -542 0
-5942 5798 0
5942 542 -5798 0
-6198 58 0
-6198 5942 0
6198 -58 -5942 0
-6199 -58 0
-6199 -5942 0
6199 58 5942 0
-6200 -6198 0
-6200 -6199 0
6200 6198 6199 0
57 -23386 0
-57 23386 0
-413 -232 0
-413 349 0
413 232 -349 0
-541 -233 0
-541 413 0
541 233 -413 0
-809 -224 0
-809 745 0
809 224 -745 0
-937 -225 0
-937 809 0
937 225 -809 0
-1205 -216 0
-1205 1141 0
1205 216 -1141 0
-1333 -217 0
-1333 1205 0
1333 217 -1205 0
-1601 -208 0
-1601 1537 0
1601 208 -1537 0
-1729 -209 0
-1729 1601 0
1729 209 -1601 0
-1997 -200 0
-1997 1933 0
1997 200 -1933 0
-2125 -201 0
-2125 1997 0
2125 201 -1997 0
-2393 -192 0
-2393 2329 0
2393 192 -2329 0
-2521 -193 0
-2521 2393 0
2521 193 -2393 0
-2789 -184 0
-2789 2725 0
2789 184 -2725 0
-2917 -185 0
-2917 2789 0
2917 185 -2789 0
-3185 -176 0
-3185 3121 0
3185 176 -3121 0
-3313 -177 0
-3313 3185 0
3313 177 -3185 0
-3581 -168 0
-3581 3517 0
3581 168 -3517 0
-3709 -169 0
-3709 3581 0
3709 169 -3581 0
-3977 -160 0
-3977 3913 0
3977 160 -3913 0
-4105 -161 0
-4105 3977 0
4105 161 -3977 0
-4373 -152 0
-4373 4309 0
4373 152 -4309 0
-4501 -153 0
-4501 4373 0
4501 153 -4373 0
-4645 -4105 0
-4645 -4501 0
4645 4105 4501 0
-4789 -3709 0
-4789 4645 0
4789 3709 -4645 0
-4933 -3313 0
-4933 4789 0
4933 3313 -4789 0
-5077 -2917 0
-5077 4933 0
5077 2917 -4933 0
-5221 -2521 0
-5221 5077 0
5221 2521 -5077 0
-5365 -2125 0
-5365 5221 0
5365 2125 -5221 0
-5509 -1729 0
-5509 5365 0
5509 1729 -5365 0
-5653 -1333 0
-5653 5509 0
5653 1333 -5509 0
-5797 -937 0
-5797 5653 0
5797 937 -5653 0
-5941 -541 0
-5941 5797 0
5941 541 -5797 0
-6195 57 0
-6195 5941 0
6195 -57 -5941 0
-6196 -57 0
-6196 -5941 0
6196 57 5941 0
-6197 -6195 0
-6197 -6196 0
6197 6195 6196 0
56 -23385 0
-56 23385 0
-412 -232 0
-412 348 0
412 232 -348 0
-540 -233 0
-540 412 0
540 233 -412 0
-808 -224 0
-808 744 0
808 224 -744 0
-936 -225 0
-936 808 0
936 225 -808 0
-1204 -216 0
-1204 1140 0
1204 216 -1140 0
-1332 -217 0
-1332 1204 0
1332 217 -1204 0
-1600 -208 0
-1600 1536 0
1600 208 -1536 0
-1728 -209 0
-1728 1600 0
1728 209 -1600 0
-1996 -200 0
-1996 1932 0
1996 200 -1932 0
-2124 -201 0
-2124 1996 0
2124 201 -1996 0
-2392 -192 0
-2392 2328 0
2392 192 -2328 0
-2520 -193 0
-2520 2392 0
2520 193 -2392 0
-2788 -184 0
-2788 2724 0
2788 184 -2724 0
-2916 -185 0
-2916 2788 0
2916 185 -2788 0
-3184 -176 0
-3184 3120 0
3184 176 -3120 0
-3312 -177 0
-3312 3184 0
3312 177 -3184 0
-3580 -168 0
-3580 3516 0
3580 168 -3516 0
-3708 -169 0
-3708 3580 0
3708 169 -3580 0
-3976 -160 0
-3976 3912 0
3976 160 -3912 0
-4104 -161 0
-4104 3976 0
4104 161 -3976 0
-4372 -152 0
-4372 4308 0
4372 152 -4308 0
-4500 -153 0
-4500 4372 0
4500 153 -4372 0
-4644 -4104 0
-4644 -4500 0
4644 4104 4500 0
-4788 -3708 0
-4788 4644 0
4788 3708 -4644 0
-4932 -3312 0
-4932 4788 0
4932 3312 -4788 0
-5076 -2916 0
-5076 4932 0
5076 2916 -4932 0
-5220 -2520 0
-5220 5076 0
5220 2520 -5076 0
-5364 -2124 0
-5364 5220 0
5364 2124 -5220 0
-5508 -1728 0
-5508 5364 0
5508 1728 -5364 0
-5652 -1332 0
-5652 5508 0
5652 1332 -5508 0
-5796 -936 0
-5796 5652 0
5796 936 -5652 0
-5940 -540 0
-5940 5796 0
5940 540 -5796 0
-6192 56 0
-6192 5940 0
6192 -56 -5940 0
-6193 -56 0
-6193 -5940 0
6193 56 5940 0
-6194 -6192 0
-6194 -6193 0
6194 6192 6193 0
55 -23384 0
-55 23384 0
-411 -232 0
-411 347 0
411 232 -347 0
-539 -233 0
-539 411 0
539 233 -411 0
-807 -224 0
-807 743 0
807 224 -743 0
-935 -225 0
-935 807 0
935 225 -807 0
-1203 -216 0
-1203 1139 0
1203 216 -1139 0
-1331 -217 0
-1331 1203 0
1331 217 -1203 0
-1599 -208 0
-1599 1535 0
1599 208 -1535 0
-1727 -209 0
-1727 1599 0
1727 209 -1599 0
-1995 -200 0
-1995 1931 0
1995 200 -1931 0
-2123 -201 0
-2123 1995 0
2123 201 -1995 0
-2391 -192 0
-2391 2327 0
2391 192 -2327 0
-2519 -193 0
-2519 2391 0
2519 193 -2391 0
-2787 -184 0
-2787 2723 0
2787 184 -2723 0
-2915 -185 0
-2915 2787 0
2915 185 -2787 0
-3183 -176 0
-3183 3119 0
3183 176 -3119 0
-3311 -177 0
-3311 3183 0
3311 177 -3183 0
-3579 -168 0
-3579 3515 0
3579 168 -3515 0
-3707 -169 0
-3707 3579 0
3707 169 -3579 0
-3975 -160 0
-3975 3911 0
3975 160 -3911 0
-4103 -161 0
-4103 3975 0
4103 161 -3975 0
-4371 -152 0
-4371 4307 0
4371 152 -4307 0
-4499 -153 0
-4499 4371 0
4499 153 -4371 0
-4643 -4103 0
-4643 -4499 0
4643 4103 4499 0
-4787 -3707 0
-4787 4643 0
4787 3707 -4643 0
-4931 -3311 0
-4931 4787 0
4931 3311 -4787 0
-5075 -2915 0
-5075 4931 0
5075 2915 -4931 0
-5219 -2519 0
-5219 5075 0
5219 2519 -5075 0
-5363 -2123 0
-5363 5219 0
5363 2123 -5219 0
-5507 -1727 0
-5507 5363 0
5507 1727 -5363 0
-5651 -1331 0
-5651 5507 0
5651 1331 -5507 0
-5795 -935 0
-5795 5651 0
5795 935 -5651 0
-5939 -539 0
-5939 5795 0
5939 539 -5795 0
-6189 55 0
-6189 5939 0
6189 -55 -5939 0
-6190 -55 0
-6190 -5939 0
6190 55 5939 0
-6191 -6189 0
-6191 -6190 0
6191 6189 6190 0
54 -23383 0
-54 23383 0
-410 -232 0
-410 346 0
410 232 -346 0
-538 -233 0
-538 410 0
538 233 -410 0
-806 -224 0
-806 742 0
806 224 -742 0
-934 -225 0
-934 806 0
934 225 -806 0
-1202 -216 0
-1202 1138 0
1202 216 -1138 0
-1330 -217 0
-1330 1202 0
1330 217 -1202 0
-1598 -208 0
-1598 1534 0
1598 208 -1534 0
-1726 -209 0
-1726 1598 0
1726 209 -1598 0
-1994 -200 0
-1994 1930 0
1994 200 -1930 0
-2122 -201 0
-2122 1994 0
2122 201 -1994 0
-2390 -192 0
-2390 2326 0
2390 192 -2326 0
-2518 -193 0
-2518 2390 0
2518 193 -2390 0
-2786 -184 0
-2786 2722 0
2786 184 -2722 0
-2914 -185 0
-2914 2786 0
2914 185 -2786 0
-3182 -176 0
-3182 3118 0
3182 176 -3118 0
-3310 -177 0
-3310 3182 0
3310 177 -3182 0
-3578 -168 0
-3578 3514 0
3578 168 -3514 0
-3706 -169 0
-3706 3578 0
3706 169 -3578 0
-3974 -160 0
-3974 3910 0
3974 160 -3910 0
-4102 -161 0
-4102 3974 0
4102 161 -3974 0
-4370 -152 0
-4370 4306 0
4370 152 -4306 0
-4498 -153 0
-4498 4370 0
4498 153 -4370 0
-4642 -4102 0
-4642 -4498 0
4642 4102 4498 0
-4786 -3706 0
-4786 4642 0
4786 3706 -4642 0
-4930 -3310 0
-4930 4786 0
4930 3310 -4786 0
-5074 -2914 0
-5074 4930 0
5074 2914 -4930 0
-5218 -2518 0
-5218 5074 0
5218 2518 -5074 0
-5362 -2122 0
-5362 5218 0
5362 2122 -5218 0
-5506 -1726 0
-5506 5362 0
5506 1726 -5362 0
-5650 -1330 0
-5650 5506 0
5650 1330 -5506 0
-5794 -934 0
-5794 5650 0
5794 934 -5650 0
-5938 -538 0
-5938 5794 0
5938 538 -5794 0
-6186 54 0
-6186 5938 0
6186 -54 -5938 0
-6187 -54 0
-6187 -5938 0
6187 54 5938 0
-6188 -6186 0
-6188 -6187 0
6188 6186 6187 0
53 -23382 0
-53 23382 0
-409 -232 0
-409 345 0
409 232 -345 0
-537 -233 0
-537 409 0
537 233 -409 0
-805 -224 0
-805 741 0
805 224 -741 0
-933 -225 0
-933 805 0
933 225 -805 0
-1201 -216 0
-1201 1137 0
1201 216 -1137 0
-1329 -217 0
-1329 1201 0
1329 217 -1201 0
-1597 -208 0
-1597 1533 0
1597 208 -1533 0
-1725 -209 0
-1725 1597 0
1725 209 -1597 0
-1993 -200 0
-1993 1929 0
1993 200 -1929 0
-2121 -201 0
-2121 1993 0
2121 201 -1993 0
-2389 -192 0
-2389 2325 0
2389 192 -2325 0
-2517 -193 0
-2517 2389 0
2517 193 -2389 0
-2785 -184 0
-2785 2721 0
2785 184 -2721 0
-2913 -185 0
-2913 2785 0
2913 185 -2785 0
-3181 -176 0
-3181 3117 0
3181 176 -3117 0
-3309 -177 0
-3309 3181 0
3309 177 -3181 0
-3577 -168 0
-3577 3513 0
3577 168 -3513 0
-3705 -169 0
-3705 3577 0
3705 169 -3577 0
-3973 -160 0
-3973 3909 0
3973 160 -3909 0
-4101 -161 0
-4101 3973 0
4101 161 -3973 0
-4369 -152 0
-4369 4305 0
4369 152 -4305 0
-4497 -153 0
-4497 4369 0
4497 153 -4369 0
-4641 -4101 0
-4641 -4497 0
4641 4101 4497 0
-4785 -3705 0
-4785 4641 0
4785 3705 -4641 0
-4929 -3309 0
-4929 4785 0
4929 3309 -4785 0
-5073 -2913 0
-5073 4929 0
5073 2913 -4929 0
-5217 -2517 0
-5217 5073 0
5217 2517 -5073 0
-5361 -2121 0
-5361 5217 0
5361 2121 -5217 0
-5505 -1725 0
-5505 5361 0
5505 1725 -5361 0
-5649 -1329 0
-5649 5505 0
5649 1329 -5505 0
-5793 -933 0
-5793 5649 0
5793 933 -5649 0
-5937 -537 0
-5937 5793 0
5937 537 -5793 0
-6183 53 0
-6183 5937 0
6183 -53 -5937 0
-6184 -53 0
-6184 -5937 0
6184 53 5937 0
-6185 -6183 0
-6185 -6184 0
6185 6183 6184 0
52 -23381 0
-52 23381 0
-408 -232 0
-408 344 0
408 232 -344 0
-536 -233 0
-536 408 0
536 233 -408 0
-804 -224 0
-804 740 0
804 224 -740 0
-932 -225 0
-932 804 0
932 225 -804 0
-1200 -216 0
-1200 1136 0
1200 216 -1136 0
-1328 -217 0
-1328 1200 0
1328 217 -1200 0
-1596 -208 0
-1596 1532 0
1596 208 -1532 0
-1724 -209 0
-1724 1596 0
1724 209 -1596 0
-1992 -200 0
-1992 1928 0
1992 200 -1928 0
-2120 -201 0
-2120 1992 0
2120 201 -1992 0
-2388 -192 0
-2388 2324 0
2388 192 -2324 0
-2516 -193 0
-2516 2388 0
2516 193 -2388 0
-2784 -184 0
-2784 2720 0
2784 184 -2720 0
-2912 -185 0
-2912 2784 0
2912 185 -2784 0
-3180 -176 0
-3180 3116 0
3180 176 -3116 0
-3308 -177 0
-3308 3180 0
3308 177 -3180 0
-3576 -168 0
-3576 3512 0
3576 168 -3512 0
-3704 -169 0
-3704 3576 0
3704 169 -3576 0
-3972 -160 0
-3972 3908 0
3972 160 -3908 0
-4100 -161 0
-4100 3972 0
4100 161 -3972 0
-4368 -152 0
-4368 4304 0
4368 152 -4304 0
-4496 -153 0
-4496 4368 0
4496 153 -4368 0
-4640 -4100 0
-4640 -4496 0
4640 4100 4496 0
-4784 -3704 0
-4784 4640 0
4784 3704 -4640 0
-4928 -3308 0
-4928 4784 0
4928 3308 -4784 0
-5072 -2912 0
-5072 4928 0
5072 2912 -4928 0
-5216 -2516 0
-5216 5072 0
5216 2516 -5072 0
-5360 -2120 0
-5360 5216 0
5360 2120 -5216 0
-5504 -1724 0
-5504 5360 0
5504 1724 -5360 0
-5648 -1328 0
-5648 5504 0
5648 1328 -5504 0
-5792 -932 0
-5792 5648 0
5792 932 -5648 0
-5936 -536 0
-5936 5792 0
5936 536 -5792 0
-6180 52 0
-6180 5936 0
6180 -52 -5936 0
-6181 -52 0
-6181 -5936 0
6181 52 5936 0
-6182 -6180 0
-6182 -6181 0
6182 6180 6181 0
51 -23380 0
-51 23380 0
-407 -232 0
-407 343 0
407 232 -343 0
-535 -233 0
-535 407 0
535 233 -407 0
-803 -224 0
-803 739 0
803 224 -739 0
-931 -225 0
-931 803 0
931 225 -803 0
-1199 -216 0
-1199 1135 0
1199 216 -1135 0
-1327 -217 0
-1327 1199 0
1327 217 -1199 0
-1595 -208 0
-1595 1531 0
1595 208 -1531 0
-1723 -209 0
-1723 1595 0
1723 209 -1595 0
-1991 -200 0
-1991 1927 0
1991 200 -1927 0
-2119 -201 0
-2119 1991 0
2119 201 -1991 0
-2387 -192 0
-2387 2323 0
2387 192 -2323 0
-2515 -193 0
-2515 2387 0
2515 193 -2387 0
-2783 -184 0
-2783 2719 0
2783 184 -2719 0
-2911 -185 0
-2911 2783 0
2911 185 -2783 0
-3179 -176 0
-3179 3115 0
3179 176 -3115 0
-3307 -177 0
-3307 3179 0
3307 177 -3179 0
-3575 -168 0
-3575 3511 0
3575 168 -3511 0
-3703 -169 0
-3703 3575 0
3703 169 -3575 0
-3971 -160 0
-3971 3907 0
3971 160 -3907 0
-4099 -161 0
-4099 3971 0
4099 161 -3971 0
-4367 -152 0
-4367 4303 0
4367 152 -4303 0
-4495 -153 0
-4495 4367 0
4495 153 -4367 0
-4639 -4099 0
-4639 -4495 0
4639 4099 4495 0
-4783 -3703 0
-4783 4639 0
4783 3703 -4639 0
-4927 -3307 0
-4927 4783 0
4927 3307 -4783 0
-5071 -2911 0
-5071 4927 0
5071 2911 -4927 0
-5215 -2515 0
-5215 5071 0
5215 2515 -5071 0
-5359 -2119 0
-5359 5215 0
5359 2119 -5215 0
-5503 -1723 0
-5503 5359 0
5503 1723 -5359 0
-5647 -1327 0
-5647 5503 0
5647 1327 -5503 0
-5791 -931 0
-5791 5647 0
5791 931 -5647 0
-5935 -535 0
-5935 5791 0
5935 535 -5791 0
-6177 51 0
-6177 5935 0
6177 -51 -5935 0
-6178 -51 0
-6178 -5935 0
6178 51 5935 0
-6179 -6177 0
-6179 -6178 0
6179 6177 6178 0
50 -23379 0
-50 23379 0
-406 -232 0
-406 342 0
406 232 -342 0
-534 -233 0
-534 406 0
534 233 -406 0
-802 -224 0
-802 738 0
802 224 -738 0
-930 -225 0
-930 802 0
930 225 -802 0
-1198 -216 0
-1198 1134 0
1198 216 -1134 0
-1326 -217 0
-1326 1198 0
1326 217 -1198 0
-1594 -208 0
-1594 1530 0
1594 208 -1530 0
-1722 -209 0
-1722 1594 0
1722 209 -1594 0
-1990 -200 0
-1990 1926 0
1990 200 -1926 0
-2118 -201 0
-2118 1990 0
2118 201 -1990 0
-2386 -192 0
-2386 2322 0
2386 192 -2322 0
-2514 -193 0
-2514 2386 0
2514 193 -2386 0
-2782 -184 0
-2782 2718 0
2782 184 -2718 0
-2910 -185 0
-2910 2782 0
2910 185 -2782 0
-3178 -176 0
-3178 3114 0
3178 176 -3114 0
-3306 -177 0
-3306 3178 0
3306 177 -3178 0
-3574 -168 0
-3574 3510 0
3574 168 -3510 0
-3702 -169 0
-3702 3574 0
3702 169 -3574 0
-3970 -160 0
-3970 3906 0
3970 160 -3906 0
-4098 -161 0
-4098 3970 0
4098 161 -3970 0
-4366 -152 0
-4366 4302 0
4366 152 -4302 0
-4494 -153 0
-4494 4366 0
4494 153 -4366 0
-4638 -4098 0
-4638 -4494 0
4638 4098 4494 0
-4782 -3702 0
-4782 4638 0
4782 3702 -4638 0
-4926 -3306 0
-4926 4782 0
4926 3306 -4782 0
-5070 -2910 0
-5070 4926 0
5070 2910 -4926 0
-5214 -2514 0
-5214 5070 0
5214 2514 -5070 0
-5358 -2118 0
-5358 5214 0
5358 2118 -5214 0
-5502 -1722 0
-5502 5358 0
5502 1722 -5358 0
-5646 -1326 0
-5646 5502 0
5646 1326 -5502 0
-5790 -930 0
-5790 5646 0
5790 930 -5646 0
-5934 -534 0
-5934 5790 0
5934 534 -5790 0
-6174 50 0
-6174 5934 0
6174 -50 -5934 0
-6175 -50 0
-6175 -5934 0
6175 50 5934 0
-6176 -6174 0
-6176 -6175 0
6176 6174 6175 0
49 -23378 0
-49 23378 0
-405 -232 0
-405 341 0
405 232 -341 0
-533 -233 0
-533 405 0
533 233 -405 0
-801 -224 0
-801 737 0
801 224 -737 0
-929 -225 0
-929 801 0
929 225 -801 0
-1197 -216 0
-1197 1133 0
1197 216 -1133 0
-1325 -217 0
-1325 1197 0
1325 217 -1197 0
-1593 -208 0
-1593 1529 0
1593 208 -1529 0
-1721 -209 0
-1721 1593 0
1721 209 -1593 0
-1989 -200 0
-1989 1925 0
1989 200 -1925 0
-2117 -201 0
-2117 1989 0
2117 201 -1989 0
-2385 -192 0
-2385 2321 0
2385 192 -2321 0
-2513 -193 0
-2513 2385 0
2513 193 -2385 0
-2781 -184 0
-2781 2717 0
2781 184 -2717 0
-2909 -185 0
-2909 2781 0
2909 185 -2781 0
-3177 -176 0
-3177 3113 0
3177 176 -3113 0
-3305 -177 0
-3305 3177 0
3305 177 -3177 0
-3573 -168 0
-3573 3509 0
3573 168 -3509 0
-3701 -169 0
-3701 3573 0
3701 169 -3573 0
-3969 -160 0
-3969 3905 0
3969 160 -3905 0
-4097 -161 0
-4097 3969 0
4097 161 -3969 0
-4365 -152 0
-4365 4301 0
4365 152 -4301 0
-4493 -153 0
-4493 4365 0
4493 153 -4365 0
-4637 -4097 0
-4637 -4493 0
4637 4097 4493 0
-4781 -3701 0
-4781 4637 0
4781 3701 -4637 0
-4925 -3305 0
-4925 4781 0
4925 3305 -4781 0
-5069 -2909 0
-5069 4925 0
5069 2909 -4925 0
-5213 -2513 0
-5213 5069 0
5213 2513 -5069 0
-5357 -2117 0
-5357 5213 0
5357 2117 -5213 0
-5501 -1721 0
-5501 5357 0
5501 1721 -5357 0
-5645 -1325 0
-5645 5501 0
5645 1325 -5501 0
-5789 -929 0
-5789 5645 0
5789 929 -5645 0
-5933 -533 0
-5933 5789 0
5933 533 -5789 0
-6171 49 0
-6171 5933 0
6171 -49 -5933 0
-6172 -49 0
-6172 -5933 0
6172 49 5933 0
-6173 -6171 0
-6173 -6172 0
6173 6171 6172 0
48 -23377 0
-48 23377 0
-404 -232 0
-404 340 0
404 232 -340 0
-532 -233 0
-532 404 0
532 233 -404 0
-800 -224 0
-800 736 0
800 224 -736 0
-928 -225 0
-928 800 0
928 225 -800 0
-1196 -216 0
-1196 1132 0
1196 216 -1132 0
-1324 -217 0
-1324 1196 0
1324 217 -1196 0
-1592 -208 0
-1592 1528 0
1592 208 -1528 0
-1720 -209 0
-1720 1592 0
1720 209 -1592 0
-1988 -200 0
-1988 1924 0
1988 200 -1924 0
-2116 -201 0
-2116 1988 0
2116 201 -1988 0
-2384 -192 0
-2384 2320 0
2384 192 -2320 0
-2512 -193 0
-2512 2384 0
2512 193 -2384 0
-2780 -184 0
-2780 2716 0
2780 184 -2716 0
-2908 -185 0
-2908 2780 0
2908 185 -2780 0
-3176 -176 0
-3176 3112 0
3176 176 -3112 0
-3304 -177 0
-3304 3176 0
3304 177 -3176 0
-3572 -168 0
-3572 3508 0
3572 168 -3508 0
-3700 -169 0
-3700 3572 0
3700 169 -3572 0
-3968 -160 0
-3968 3904 0
3968 160 -3904 0
-4096 -161 0
-4096 3968 0
4096 161 -3968 0
-4364 -152 0
-4364 4300 0
4364 152 -4300 0
-4492 -153 0
-4492 4364 0
4492 153 -4364 0
-4636 -4096 0
-4636 -4492 0
4636 4096 4492 0
-4780 -3700 0
-4780 4636 0
4780 3700 -4636 0
-4924 -3304 0
-4924 4780 0
4924 3304 -4780 0
-5068 -2908 0
-5068 4924 0
5068 2908 -4924 0
-5212 -2512 0
-5212 5068 0
5212 2512 -5068 0
-5356 -2116 0
-5356 5212 0
5356 2116 -5212 0
-5500 -1720 0
-5500 5356 0
5500 1720 -5356 0
-5644 -1324 0
-5644 5500 0
5644 1324 -5500 0
-5788 -928 0
-5788 5644 0
5788 928 -5644 0
-5932 -532 0
-5932 5788 0
5932 532 -5788 0
-6168 48 0
-6168 5932 0
6168 -48 -5932 0
-6169 -48 0
-6169 -5932 0
6169 48 5932 0
-6170 -6168 0
-6170 -6169 0
6170 6168 6169 0
47 -23376 0
-47 23376 0
-403 -232 0
-403 339 0
403 232 -339 0
-531 -233 0
-531 403 0
531 233 -403 0
-799 -224 0
-799 735 0
799 224 -735 0
-927 -225 0
-927 799 0
927 225 -799 0
-1195 -216 0
-1195 1131 0
1195 216 -1131 0
-1323 -217 0
-1323 1195 0
1323 217 -1195 0
-1591 -208 0
-1591 1527 0
1591 208 -1527 0
-1719 -209 0
-1719 1591 0
1719 209 -1591 0
-1987 -200 0
-1987 1923 0
1987 200 -1923 0
-2115 -201 0
-2115 1987 0
2115 201 -1987 0
-2383 -192 0
-2383 2319 0
2383 192 -2319 0
-2511 -193 0
-2511 2383 0
2511 193 -2383 0
-2779 -184 0
-2779 2715 0
2779 184 -2715 0
-2907 -185 0
-2907 2779 0
2907 185 -2779 0
-3175 -176 0
-3175 3111 0
3175 176 -3111 0
-3303 -177 0
-3303 3175 0
3303 177 -3175 0
-3571 -168 0
-3571 3507 0
3571 168 -3507 0
-3699 -169 0
-3699 3571 0
3699 169 -3571 0
-3967 -160 0
-3967 3903 0
3967 160 -3903 0
-4095 -161 0
-4095 3967 0
4095 161 -3967 0
-4363 -152 0
-4363 4299 0
4363 152 -4299 0
-4491 -153 0
-4491 4363 0
4491 153 -4363 0
-4635 -4095 0
-4635 -4491 0
4635 4095 4491 0
-4779 -3699 0
-4779 4635 0
4779 3699 -4635 0
-4923 -3303 0
-4923 4779 0
4923 3303 -4779 0
-5067 -2907 0
-5067 4923 0
5067 2907 -4923 0
-5211 -2511 0
-5211 5067 0
5211 2511 -5067 0
-5355 -2115 0
-5355 5211 0
5355 2115 -5211 0
-5499 -1719 0
-5499 5355 0
5499 1719 -5355 0
-5643 -1323 0
-5643 5499 0
5643 1323 -5499 0
-5787 -927 0
-5787 5643 0
5787 927 -5643 0
-5931 -531 0
-5931 5787 0
5931 531 -5787 0
-6165 47 0
-6165 5931 0
6165 -47 -5931 0
-6166 -47 0
-6166 -5931 0
6166 47 5931 0
-6167 -6165 0
-6167 -6166 0
6167 6165 6166 0
46 -23375 0
-46 23375 0
-402 -232 0
-402 338 0
402 232 -338 0
-530 -233 0
-530 402 0
530 233 -402 0
-798 -224 0
-798 734 0
798 224 -734 0
-926 -225 0
-926 798 0
926 225 -798 0
-1194 -216 0
-1194 1130 0
1194 216 -1130 0
-1322 -217 0
-1322 1194 0
1322 217 -1194 0
-1590 -208 0
-1590 1526 0
1590 208 -1526 0
-1718 -209 0
-1718 1590 0
1718 209 -1590 0
-1986 -200 0
-1986 1922 0
1986 200 -1922 0
-2114 -201 0
-2114 1986 0
2114 201 -1986 0
-2382 -192 0
-2382 2318 0
2382 192 -2318 0
-2510 -193 0
-2510 2382 0
2510 193 -2382 0
-2778 -184 0
-2778 2714 0
2778 184 -2714 0
-2906 -185 0
-2906 2778 0
2906 185 -2778 0
-3174 -176 0
-3174 3110 0
3174 176 -3110 0
-3302 -177 0
-3302 3174 0
3302 177 -3174 0
-3570 -168 0
-3570 3506 0
3570 168 -3506 0
-3698 -169 0
-3698 3570 0
3698 169 -3570 0
-3966 -160 0
-3966 3902 0
3966 160 -3902 0
-4094 -161 0
-4094 3966 0
4094 161 -3966 0
-4362 -152 0
-4362 4298 0
4362 152 -4298 0
-4490 -153 0
-4490 4362 0
4490 153 -4362 0
-4634 -4094 0
-4634 -4490 0
4634 4094 4490 0
-4778 -3698 0
-4778 4634 0
4778 3698 -4634 0
-4922 -3302 0
-4922 4778 0
4922 3302 -4778 0
-5066 -2906 0
-5066 4922 0
5066 2906 -4922 0
-5210 -2510 0
-5210 5066 0
5210 2510 -5066 0
-5354 -2114 0
-5354 5210 0
5354 2114 -5210 0
-5498 -1718 0
-5498 5354 0
5498 1718 -5354 0
-5642 -1322 0
-5642 5498 0
5642 1322 -5498 0
-5786 -926 0
-5786 5642 0
5786 926 -5642 0
-5930 -530 0
-5930 5786 0
5930 530 -5786 0
-6162 46 0
-6162 5930 0
6162 -46 -5930 0
-6163 -46 0
-6163 -5930 0
6163 46 5930 0
-6164 -6162 0
-6164 -6163 0
6164 6162 6163 0
45 -23374 0
-45 23374 0
-401 -232 0
-401 337 0
401 232 -337 0
-529 -233 0
-529 401 0
529 233 -401 0
-797 -224 0
-797 733 0
797 224 -733 0
-925 -225 0
-925 797 0
925 225 -797 0
-1193 -216 0
-1193 1129 0
1193 216 -1129 0
-1321 -217 0
-1321 1193 0
1321 217 -1193 0
-1589 -208 0
-1589 1525 0
1589 208 -1525 0
-1717 -209 0
-1717 1589 0
1717 209 -1589 0
-1985 -200 0
-1985 1921 0
1985 200 -1921 0
-2113 -201 0
-2113 1985 0
2113 201 -1985 0
-2381 -192 0
-2381 2317 0
2381 192 -2317 0
-2509 -193 0
-2509 2381 0
2509 193 -2381 0
-2777 -184 0
-2777 2713 0
2777 184 -2713 0
-2905 -185 0
-2905 2777 0
2905 185 -2777 0
-3173 -176 0
-3173 3109 0
3173 176 -3109 0
-3301 -177 0
-3301 3173 0
3301 177 -3173 0
-3569 -168 0
-3569 3505 0
3569 168 -3505 0
-3697 -169 0
-3697 3569 0
3697 169 -3569 0
-3965 -160 0
-3965 3901 0
3965 160 -3901 0
-4093 -161 0
-4093 3965 0
4093 161 -3965 0
-4361 -152 0
-4361 4297 0
4361 152 -4297 0
-4489 -153 0
-4489 4361 0
4489 153 -4361 0
-4633 -4093 0
-4633 -4489 0
4633 4093 4489 0
-4777 -3697 0
-4777 4633 0
4777 3697 -4633 0
-4921 -3301 0
-4921 4777 0
4921 3301 -4777 0
-5065 -2905 0
-5065 4921 0
5065 2905 -4921 0
-5209 -2509 0
-5209 5065 0
5209 2509 -5065 0
-5353 -2113 0
-5353 5209 0
5353 2113 -5209 0
-5497 -1717 0
-5497 5353 0
5497 1717 -5353 0
-5641 -1321 0
-5641 5497 0
5641 1321 -5497 0
-5785 -925 0
-5785 5641 0
5785 925 -5641 0
-5929 -529 0
-5929 5785 0
5929 529 -5785 0
-6159 45 0
-6159 5929 0
6159 -45 -5929 0
-6160 -45 0
-6160 -5929 0
6160 45 5929 0
-6161 -6159 0
-6161 -6160 0
6161 6159 6160 0
44 -23373 0
-44 23373 0
-400 -232 0
-400 336 0
400 232 -336 0
-528 -233 0
-528 400 0
528 233 -400 0
-796 -224 0
-796 732 0
796 224 -732 0
-924 -225 0
-924 796 0
924 225 -796 0
-1192 -216 0
-1192 1128 0
1192 216 -1128 0
-1320 -217 0
-1320 1192 0
1320 217 -1192 0
-1588 -208 0
-1588 1524 0
1588 208 -1524 0
-1716 -209 0
-1716 1588 0
1716 209 -1588 0
-1984 -200 0
-1984 1920 0
1984 200 -1920 0
-2112 -201 0
-2112 1984 0
2112 201 -1984 0
-2380 -192 0
-2380 2316 0
2380 192 -2316 0
-2508 -193 0
-2508 2380 0
2508 193 -2380 0
-2776 -184 0
-2776 2712 0
2776 184 -2712 0
-2904 -185 0
-2904 2776 0
2904 185 -2776 0
-3172 -176 0
-3172 3108 0
3172 176 -3108 0
-3300 -177 0
-3300 3172 0
3300 177 -3172 0
-3568 -168 0
-3568 3504 0
3568 168 -3504 0
-3696 -169 0
-3696 3568 0
3696 169 -3568 0
-3964 -160 0
-3964 3900 0
3964 160 -3900 0
-4092 -161 0
-4092 3964 0
4092 161 -3964 0
-4360 -152 0
-4360 4296 0
4360 152 -4296 0
-4488 -153 0
-4488 4360 0
4488 153 -4360 0
-4632 -4092 0
-4632 -4488 0
4632 4092 4488 0
-4776 -3696 0
-4776 4632 0
4776 3696 -4632 0
-4920 -3300 0
-4920 4776 0
4920 3300 -4776 0
-5064 -2904 0
-5064 4920 0
5064 2904 -4920 0
-5208 -2508 0
-5208 5064 0
5208 2508 -5064 0
-5352 -2112 0
-5352 5208 0
5352 2112 -5208 0
-5496 -1716 0
-5496 5352 0
5496 1716 -5352 0
-5640 -1320 0
-5640 5496 0
5640 1320 -5496 0
-5784 -924 0
-5784 5640 0
5784 924 -5640 0
-5928 -528 0
-5928 5784 0
5928 528 -5784 0
-6156 44 0
-6156 5928 0
6156 -44 -5928 0
-6157 -44 0
-6157 -5928 0
6157 44 5928 0
-6158 -6156 0
-6158 -6157 0
6158 6156 6157 0
43 -23372 0
-43 23372 0
-399 -232 0
-399 335 0
399 232 -335 0
-527 -233 0
-527 399 0
527 233 -399 0
-795 -224 0
-795 731 0
795 224 -731 0
-923 -225 0
-923 795 0
923 225 -795 0
-1191 -216 0
-1191 1127 0
1191 216 -1127 0
-1319 -217 0
-1319 1191 0
1319 217 -1191 0
-1587 -208 0
-1587 1523 0
1587 208 -1523 0
-1715 -209 0
-1715 1587 0
1715 209 -1587 0
-1983 -200 0
-1983 1919 0
1983 200 -1919 0
-2111 -201 0
-2111 1983 0
2111 201 -1983 0
-2379 -192 0
-2379 2315 0
2379 192 -2315 0
-2507 -193 0
-2507 2379 0
2507 193 -2379 0
-2775 -184 0
-2775 2711 0
2775 184 -2711 0
-2903 -185 0
-2903 2775 0
2903 185 -2775 0
-3171 -176 0
-3171 3107 0
3171 176 -3107 0
-3299 -177 0
-3299 3171 0
3299 177 -3171 0
-3567 -168 0
-3567 3503 0
3567 168 -3503 0
-3695 -169 0
-3695 3567 0
3695 169 -3567 0
-3963 -160 0
-3963 3899 0
3963 160 -3899 0
-4091 -161 0
-4091 3963 0
4091 161 -3963 0
-4359 -152 0
-4359 4295 0
4359 152 -4295 0
-4487 -153 0
-4487 4359 0
4487 153 -4359 0
-4631 -4091 0
-4631 -4487 0
4631 4091 4487 0
-4775 -3695 0
-4775 4631 0
4775 3695 -4631 0
-4919 -3299 0
-4919 4775 0
4919 3299 -4775 0
-5063 -2903 0
-5063 4919 0
5063 2903 -4919 0
-5207 -2507 0
-5207 5063 0
5207 2507 -5063 0
-5351 -2111 0
-5351 5207 0
5351 2111 -5207 0
-5495 -1715 0
-5495 5351 0
5495 1715 -5351 0
-5639 -1319 0
-5639 5495 0
5639 1319 -5495 0
-5783 -923 0
-5783 5639 0
5783 923 -5639 0
-5927 -527 0
-5927 5783 0
5927 527 -5783 0
-6153 43 0
-6153 5927 0
6153 -43 -5927 0
-6154 -43 0
-6154 -5927 0
6154 43 5927 0
-6155 -6153 0
-6155 -6154 0
6155 6153 6154 0
42 -23371 0
-42 23371 0
-398 -232 0
-398 334 0
398 232 -334 0
-526 -233 0
-526 398 0
526 233 -398 0
-794 -224 0
-794 730 0
794 224 -730 0
-922 -225 0
-922 794 0
922 225 -794 0
-1190 -216 0
-1190 1126 0
1190 216 -1126 0
-1318 -217 0
-1318 1190 0
1318 217 -1190 0
-1586 -208 0
-1586 1522 0
1586 208 -1522 0
-1714 -209 0
-1714 1586 0
1714 209 -1586 0
-1982 -200 0
-1982 1918 0
1982 200 -1918 0
-2110 -201 0
-2110 1982 0
2110 201 -1982 0
-2378 -192 0
-2378 2314 0
2378 192 -2314 0
-2506 -193 0
-2506 2378 0
2506 193 -2378 0
-2774 -184 0
-2774 2710 0
2774 184 -2710 0
-2902 -185 0
-2902 2774 0
2902 185 -2774 0
-3170 -176 0
-3170 3106 0
3170 176 -3106 0
-3298 -177 0
-3298 3170 0
3298 177 -3170 0
-3566 -168 0
-3566 3502 0
3566 168 -3502 0
-3694 -169 0
-3694 3566 0
3694 169 -3566 0
-3962 -160 0
-3962 3898 0
3962 160 -3898 0
-4090 -161 0
-4090 3962 0
4090 161 -3962 0
-4358 -152 0
-4358 4294 0
4358 152 -4294 0
-4486 -153 0
-4486 4358 0
4486 153 -4358 0
-4630 -4090 0
-4630 -4486 0
4630 4090 4486 0
-4774 -3694 0
-4774 4630 0
4774 3694 -4630 0
-4918 -3298 0
-4918 4774 0
4918 3298 -4774 0
-5062 -2902 0
-5062 4918 0
5062 2902 -4918 0
-5206 -2506 0
-5206 5062 0
5206 2506 -5062 0
-5350 -2110 0
-5350 5206 0
5350 2110 -5206 0
-5494 -1714 0
-5494 5350 0
5494 1714 -5350 0
-5638 -1318 0
-5638 5494 0
5638 1318 -5494 0
-5782 -922 0
-5782 5638 0
5782 922 -5638 0
-5926 -526 0
-5926 5782 0
5926 526 -5782 0
-6150 42 0
-6150 5926 0
6150 -42 -5926 0
-6151 -42 0
-6151 -5926 0
6151 42 5926 0
-6152 -6150 0
-6152 -6151 0
6152 6150 6151 0
41 -23370 0
-41 23370 0
-397 -232 0
-397 333 0
397 232 -333 0
-525 -233 0
-525 397 0
525 233 -397 0
-793 -224 0
-793 729 0
793 224 -729 0
-921 -225 0
-921 793 0
921 225 -793 0
-1189 -216 0
-1189 1125 0
1189 216 -1125 0
-1317 -217 0
-1317 1189 0
1317 217 -1189 0
-1585 -208 0
-1585 1521 0
1585 208 -1521 0
-1713 -209 0
-1713 1585 0
1713 209 -1585 0
-1981 -200 0
-1981 1917 0
1981 200 -1917 0
-2109 -201 0
-2109 1981 0
2109 201 -1981 0
-2377 -192 0
-2377 2313 0
2377 192 -2313 0
-2505 -193 0
-2505 2377 0
2505 193 -2377 0
-2773 -184 0
-2773 2709 0
2773 184 -2709 0
-2901 -185 0
-2901 2773 0
2901 185 -2773 0
-3169 -176 0
-3169 3105 0
3169 176 -3105 0
-3297 -177 0
-3297 3169 0
3297 177 -3169 0
-3565 -168 0
-3565 3501 0
3565 168 -3501 0
-3693 -169 0
-3693 3565 0
3693 169 -3565 0
-3961 -160 0
-3961 3897 0
3961 160 -3897 0
-4089 -161 0
-4089 3961 0
4089 161 -3961 0
-4357 -152 0
-4357 4293 0
4357 152 -4293 0
-4485 -153 0
-4485 4357 0
4485 153 -4357 0
-4629 -4089 0
-4629 -4485 0
4629 4089 4485 0
-4773 -3693 0
-4773 4629 0
4773 3693 -4629 0
-4917 -3297 0
-4917 4773 0
4917 3297 -4773 0
-5061 -2901 0
-5061 4917 0
5061 2901 -4917 0
-5205 -2505 0
-5205 5061 0
5205 2505 -5061 0
-5349 -2109 0
-5349 5205 0
5349 2109 -5205 0
-5493 -1713 0
-5493 5349 0
5493 1713 -5349 0
-5637 -1317 0
-5637 5493 0
5637 1317 -5493 0
-5781 -921 0
-5781 5637 0
5781 921 -5637 0
-5925 -525 0
-5925 5781 0
5925 525 -5781 0
-6147 41 0
-6147 5925 0
6147 -41 -5925 0
-6148 -41 0
-6148 -5925 0
6148 41 5925 0
-6149 -6147 0
-6149 -6148 0
6149 6147 6148 0
40 -23369 0
-40 23369 0
-396 -232 0
-396 332 0
396 232 -332 0
-524 -233 0
-524 396 0
524 233 -396 0
-792 -224 0
-792 728 0
792 224 -728 0
-920 -225 0
-920 792 0
920 225 -792 0
-1188 -216 0
-1188 1124 0
1188 216 -1124 0
-1316 -217 0
-1316 1188 0
1316 217 -1188 0
-1584 -208 0
-1584 1520 0
1584 208 -1520 0
-1712 -209 0
-1712 1584 0
1712 209 -1584 0
-1980 -200 0
-1980 1916 0
1980 200 -1916 0
-2108 -201 0
-2108 1980 0
2108 201 -1980 0
-2376 -192 0
-2376 2312 0
2376 192 -2312 0
-2504 -193 0
-2504 2376 0
2504 193 -2376 0
-2772 -184 0
-2772 2708 0
2772 184 -2708 0
-2900 -185 0
-2900 2772 0
2900 185 -2772 0
-3168 -176 0
-3168 3104 0
3168 176 -3104 0
-3296 -177 0
-3296 3168 0
3296 177 -3168 0
-3564 -168 0
-3564 3500 0
3564 168 -3500 0
-3692 -169 0
-3692 3564 0
3692 169 -3564 0
-3960 -160 0
-3960 3896 0
3960 160 -3896 0
-4088 -161 0
-4088 3960 0
4088 161 -3960 0
-4356 -152 0
-4356 4292 0
4356 152 -4292 0
-4484 -153 0
-4484 4356 0
4484 153 -4356 0
-4628 -4088 0
-4628 -4484 0
4628 4088 4484 0
-4772 -3692 0
-4772 4628 0
4772 3692 -4628 0
-4916 -3296 0
-4916 4772 0
4916 3296 -4772 0
-5060 -2900 0
-5060 4916 0
5060 2900 -4916 0
-5204 -2504 0
-5204 5060 0
5204 2504 -5060 0
-5348 -2108 0
-5348 5204 0
5348 2108 -5204 0
-5492 -1712 0
-5492 5348 0
5492 1712 -5348 0
-5636 -1316 0
-5636 5492 0
5636 1316 -5492 0
-5780 -920 0
-5780 5636 0
5780 920 -5636 0
-5924 -524 0
-5924 5780 0
5924 524 -5780 0
-6144 40 0
-6144 5924 0
6144 -40 -5924 0
-6145 -40 0
-6145 -5924 0
6145 40 5924 0
-6146 -6144 0
-6146 -6145 0
6146 6144 6145 0
39 -23368 0
-39 23368 0
-395 -232 0
-395 331 0
395 232 -331 0
-523 -233 0
-523 395 0
523 233 -395 0
-791 -224 0
-791 727 0
791 224 -727 0
-919 -225 0
-919 791 0
919 225 -791 0
-1187 -216 0
-1187 1123 0
1187 216 -1123 0
-1315 -217 0
-1315 1187 0
1315 217 -1187 0
-1583 -208 0
-1583 1519 0
1583 208 -1519 0
-1711 -209 0
-1711 1583 0
1711 209 -1583 0
-1979 -200 0
-1979 1915 0
1979 200 -1915 0
-2107 -201 0
-2107 1979 0
2107 201 -1979 0
-2375 -192 0
-2375 2311 0
2375 192 -2311 0
-2503 -193 0
-2503 2375 0
2503 193 -2375 0
-2771 -184 0
-2771 2707 0
2771 184 -2707 0
-2899 -185 0
-2899 2771 0
2899 185 -2771 0
-3167 -176 0
-3167 3103 0
3167 176 -3103 0
-3295 -177 0
-3295 3167 0
3295 177 -3167 0
-3563 -168 0
-3563 3499 0
3563 168 -3499 0
-3691 -169 0
-3691 3563 0
3691 169 -3563 0
-3959 -160 0
-3959 3895 0
3959 160 -3895 0
-4087 -161 0
-4087 3959 0
4087 161 -3959 0
-4355 -152 0
-4355 4291 0
4355 152 -4291 0
-4483 -153 0
-4483 4355 0
4483 153 -4355 0
-4627 -4087 0
-4627 -4483 0
4627 4087 4483 0
-4771 -3691 0
-4771 4627 0
4771 3691 -4627 0
-4915 -3295 0
-4915 4771 0
4915 3295 -4771 0
-5059 -2899 0
-5059 4915 0
5059 2899 -4915 0
-5203 -2503 0
-5203 5059 0
5203 2503 -5059 0
-5347 -2107 0
-5347 5203 0
5347 2107 -5203 0
-5491 -1711 0
-5491 5347 0
5491 1711 -5347 0
-5635 -1315 0
-5635 5491 0
5635 1315 -5491 0
-5779 -919 0
-5779 5635 0
5779 919 -5635 0
-5923 -523 0
-5923 5779 0
5923 523 -5779 0
-6141 39 0
-6141 5923 0
6141 -39 -5923 0
-6142 -39 0
-6142 -5923 0
6142 39 5923 0
-6143 -6141 0
-6143 -6142 0
6143 6141 6142 0
38 -23367 0
-38 23367 0
-394 -232 0
-394 330 0
394 232 -330 0
-522 -233 0
-522 394 0
522 233 -394 0
-790 -224 0
-790 726 0
790 224 -726 0
-918 -225 0
-918 790 0
918 225 -790 0
-1186 -216 0
-1186 1122 0
1186 216 -1122 0
-1314 -217 0
-1314 1186 0
1314 217 -1186 0
-1582 -208 0
-1582 1518 0
1582 208 -1518 0
-1710 -209 0
-1710 1582 0
1710 209 -1582 0
-1978 -200 0
-1978 1914 0
1978 200 -1914 0
-2106 -201 0
-2106 1978 0
2106 201 -1978 0
-2374 -192 0
-2374 2310 0
2374 192 -2310 0
-2502 -193 0
-2502 2374 0
2502 193 -2374 0
-2770 -184 0
-2770 2706 0
2770 184 -2706 0
-2898 -185 0
-2898 2770 0
2898 185 -2770 0
-3166 -176 0
-3166 3102 0
3166 176 -3102 0
-3294 -177 0
-3294 3166 0
3294 177 -3166 0
-3562 -168 0
-3562 3498 0
3562 168 -3498 0
-3690 -169 0
-3690 3562 0
3690 169 -3562 0
-3958 -160 0
-3958 3894 0
3958 160 -3894 0
-4086 -161 0
-4086 3958 0
4086 161 -3958 0
-4354 -152 0
-4354 4290 0
4354 152 -4290 0
-4482 -153 0
-4482 4354 0
4482 153 -4354 0
-4626 -4086 0
-4626 -4482 0
4626 4086 4482 0
-4770 -3690 0
-4770 4626 0
4770 3690 -4626 0
-4914 -3294 0
-4914 4770 0
4914 3294 -4770 0
-5058 -2898 0
-5058 4914 0
5058 2898 -4914 0
-5202 -2502 0
-5202 5058 0
5202 2502 -5058 0
-5346 -2106 0
-5346 5202 0
5346 2106 -5202 0
-5490 -1710 0
-5490 5346 0
5490 1710 -5346 0
-5634 -1314 0
-5634 5490 0
5634 1314 -5490 0
-5778 -918 0
-5778 5634 0
5778 918 -5634 0
-5922 -522 0
-5922 5778 0
5922 522 -5778 0
-6138 38 0
-6138 5922 0
6138 -38 -5922 0
-6139 -38 0
-6139 -5922 0
6139 38 5922 0
-6140 -6138 0
-6140 -6139 0
6140 6138 6139 0
37 -23366 0
-37 23366 0
-393 -232 0
-393 329 0
393 232 -329 0
-521 -233 0
-521 393 0
521 233 -393 0
-789 -224 0
-789 725 0
789 224 -725 0
-917 -225 0
-917 789 0
917 225 -789 0
-1185 -216 0
-1185 1121 0
1185 216 -1121 0
-1313 -217 0
-1313 1185 0
1313 217 -1185 0
-1581 -208 0
-1581 1517 0
1581 208 -1517 0
-1709 -209 0
-1709 1581 0
1709 209 -1581 0
-1977 -200 0
-1977 1913 0
1977 200 -1913 0
-2105 -201 0
-2105 1977 0
2105 201 -1977 0
-2373 -192 0
-2373 2309 0
2373 192 -2309 0
-2501 -193 0
-2501 2373 0
2501 193 -2373 0
-2769 -184 0
-2769 2705 0
2769 184 -2705 0
-2897 -185 0
-2897 2769 0
2897 185 -2769 0
-3165 -176 0
-3165 3101 0
3165 176 -3101 0
-3293 -177 0
-3293 3165 0
3293 177 -3165 0
-3561 -168 0
-3561 3497 0
3561 168 -3497 0
-3689 -169 0
-3689 3561 0
3689 169 -3561 0
-3957 -160 0
-3957 3893 0
3957 160 -3893 0
-4085 -161 0
-4085 3957 0
4085 161 -3957 0
-4353 -152 0
-4353 4289 0
4353 152 -4289 0
-4481 -153 0
-4481 4353 0
4481 153 -4353 0
-4625 -4085 0
-4625 -4481 0
4625 4085 4481 0
-4769 -3689 0
-4769 4625 0
4769 3689 -4625 0
-4913 -3293 0
-4913 4769 0
4913 3293 -4769 0
-5057 -2897 0
-5057 4913 0
5057 2897 -4913 0
-5201 -2501 0
-5201 5057 0
5201 2501 -5057 0
-5345 -2105 0
-5345 5201 0
5345 2105 -5201 0
-5489 -1709 0
-5489 5345 0
5489 1709 -5345 0
-5633 -1313 0
-5633 5489 0
5633 1313 -5489 0
-5777 -917 0
-5777 5633 0
5777 917 -5633 0
-5921 -521 0
-5921 5777 0
5921 521 -5777 0
-6135 37 0
-6135 5921 0
6135 -37 -5921 0
-6136 -37 0
-6136 -5921 0
6136 37 5921 0
-6137 -6135 0
-6137 -6136 0
6137 6135 6136 0
36 -23365 0
-36 23365 0
-392 -232 0
-392 328 0
392 232 -328 0
-520 -233 0
-520 392 0
520 233 -392 0
-788 -224 0
-788 724 0
788 224 -724 0
-916 -225 0
-916 788 0
916 225 -788 0
-1184 -216 0
-1184 1120 0
1184 216 -1120 0
-1312 -217 0
-1312 1184 0
1312 217 -1184 0
-1580 -208 0
-1580 1516 0
1580 208 -1516 0
-1708 -209 0
-1708 1580 0
1708 209 -1580 0
-1976 -200 0
-1976 1912 0
1976 200 -1912 0
-2104 -201 0
-2104 1976 0
2104 201 -1976 0
-2372 -192 0
-2372 2308 0
2372 192 -2308 0
-2500 -193 0
-2500 2372 0
2500 193 -2372 0
-2768 -184 0
-2768 2704 0
2768 184 -2704 0
-2896 -185 0
-2896 2768 0
2896 185 -2768 0
-3164 -176 0
-3164 3100 0
3164 176 -3100 0
-3292 -177 0
-3292 3164 0
3292 177 -3164 0
-3560 -168 0
-3560 3496 0
3560 168 -3496 0
-3688 -169 0
-3688 3560 0
3688 169 -3560 0
-3956 -160 0
-3956 3892 0
3956 160 -3892 0
-4084 -161 0
-4084 3956 0
4084 161 -3956 0
-4352 -152 0
-4352 4288 0
4352 152 -4288 0
-4480 -153 0
-4480 4352 0
4480 153 -4352 0
-4624 -4084 0
-4624 -4480 0
4624 4084 4480 0
-4768 -3688 0
-4768 4624 0
4768 3688 -4624 0
-4912 -3292 0
-4912 4768 0
4912 3292 -4768 0
-5056 -2896 0
-5056 4912 0
5056 2896 -4912 0
-5200 -2500 0
-5200 5056 0
5200 2500 -5056 0
-5344 -2104 0
-5344 5200 0
5344 2104 -5200 0
-5488 -1708 0
-5488 5344 0
5488 1708 -5344 0
-5632 -1312 0
-5632 5488 0
5632 1312 -5488 0
-5776 -916 0
-5776 5632 0
5776 916 -5632 0
-5920 -520 0
-5920 5776 0
5920 520 -5776 0
-6132 36 0
-6132 5920 0
6132 -36 -5920 0
-6133 -36 0
-6133 -5920 0
6133 36 5920 0
-6134 -6132 0
-6134 -6133 0
6134 6132 6133 0
35 -23364 0
-35 23364 0
-391 -232 0
-391 327 0
391 232 -327 0
-519 -233 0
-519 391 0
519 233 -391 0
-787 -224 0
-787 723 0
787 224 -723 0
-915 -225 0
-915 787 0
915 225 -787 0
-1183 -216 0
-1183 1119 0
1183 216 -1119 0
-1311 -217 0
-1311 1183 0
1311 217 -1183 0
-1579 -208 0
-1579 1515 0
1579 208 -1515 0
-1707 -209 0
-1707 1579 0
1707 209 -1579 0
-1975 -200 0
-1975 1911 0
1975 200 -1911 0
-2103 -201 0
-2103 1975 0
2103 201 -1975 0
-2371 -192 0
-2371 2307 0
2371 192 -2307 0
-2499 -193 0
-2499 2371 0
2499 193 -2371 0
-2767 -184 0
-2767 2703 0
2767 184 -2703 0
-2895 -185 0
-2895 2767 0
2895 185 -2767 0
-3163 -176 0
-3163 3099 0
3163 176 -3099 0
-3291 -177 0
-3291 3163 0
3291 177 -3163 0
-3559 -168 0
-3559 3495 0
3559 168 -3495 0
-3687 -169 0
-3687 3559 0
3687 169 -3559 0
-3955 -160 0
-3955 3891 0
3955 160 -3891 0
-4083 -161 0
-4083 3955 0
4083 161 -3955 0
-4351 -152 0
-4351 4287 0
4351 152 -4287 0
-4479 -153 0
-4479 4351 0
4479 153 -4351 0
-4623 -4083 0
-4623 -4479 0
4623 4083 4479 0
-4767 -3687 0
-4767 4623 0
4767 3687 -4623 0
-4911 -3291 0
-4911 4767 0
4911 3291 -4767 0
-5055 -2895 0
-5055 4911 0
5055 2895 -4911 0
-5199 -2499 0
-5199 5055 0
5199 2499 -5055 0
-5343 -2103 0
-5343 5199 0
5343 2103 -5199 0
-5487 -1707 0
-5487 5343 0
5487 1707 -5343 0
-5631 -1311 0
-5631 5487 0
5631 1311 -5487 0
-5775 -915 0
-5775 5631 0
5775 915 -5631 0
-5919 -519 0
-5919 5775 0
5919 519 -5775 0
-6129 35 0
-6129 5919 0
6129 -35 -5919 0
-6130 -35 0
-6130 -5919 0
6130 35 5919 0
-6131 -6129 0
-6131 -6130 0
6131 6129 6130 0
34 -23363 0
-34 23363 0
-390 -232 0
-390 326 0
390 232 -326 0
-518 -233 0
-518 390 0
518 233 -390 0
-786 -224 0
-786 722 0
786 224 -722 0
-914 -225 0
-914 786 0
914 225 -786 0
-1182 -216 0
-1182 1118 0
1182 216 -1118 0
-1310 -217 0
-1310 1182 0
1310 217 -1182 0
-1578 -208 0
-1578 1514 0
1578 208 -1514 0
-1706 -209 0
-1706 1578 0
1706 209 -1578 0
-1974 -200 0
-1974 1910 0
1974 200 -1910 0
-2102 -201 0
-2102 1974 0
2102 201 -1974 0
-2370 -192 0
-2370 2306 0
2370 192 -2306 0
-2498 -193 0
-2498 2370 0
2498 193 -2370 0
-2766 -184 0
-2766 2702 0
2766 184 -2702 0
-2894 -185 0
-2894 2766 0
2894 185 -2766 0
-3162 -176 0
-3162 3098 0
3162 176 -3098 0
-3290 -177 0
-3290 3162 0
3290 177 -3162 0
-3558 -168 0
-3558 3494 0
3558 168 -3494 0
-3686 -169 0
-3686 3558 0
3686 169 -3558 0
-3954 -160 0
-3954 3890 0
3954 160 -3890 0
-4082 -161 0
-4082 3954 0
4082 161 -3954 0
-4350 -152 0
-4350 4286 0
4350 152 -4286 0
-4478 -153 0
-4478 4350 0
4478 153 -4350 0
-4622 -4082 0
-4622 -4478 0
4622 4082 4478 0
-4766 -3686 0
-4766 4622 0
4766 3686 -4622 0
-4910 -3290 0
-4910 4766 0
4910 3290 -4766 0
-5054 -2894 0
-5054 4910 0
5054 2894 -4910 0
-5198 -2498 0
-5198 5054 0
5198 2498 -5054 0
-5342 -2102 0
-5342 5198 0
5342 2102 -5198 0
-5486 -1706 0
-5486 5342 0
5486 1706 -5342 0
-5630 -1310 0
-5630 5486 0
5630 1310 -5486 0
-5774 -914 0
-5774 5630 0
5774 914 -5630 0
-5918 -518 0
-5918 5774 0
5918 518 -5774 0
-6126 34 0
-6126 5918 0
6126 -34 -5918 0
-6127 -34 0
-6127 -5918 0
6127 34 5918 0
-6128 -6126 0
-6128 -6127 0
6128 6126 6127 0
33 -23362 0
-33 23362 0
-389 -232 0
-389 325 0
389 232 -325 0
-517 -233 0
-517 389 0
517 233 -389 0
-785 -224 0
-785 721 0
785 224 -721 0
-913 -225 0
-913 785 0
913 225 -785 0
-1181 -216 0
-1181 1117 0
1181 216 -1117 0
-1309 -217 0
-1309 1181 0
1309 217 -1181 0
-1577 -208 0
-1577 1513 0
1577 208 -1513 0
-1705 -209 0
-1705 1577 0
1705 209 -1577 0
-1973 -200 0
-1973 1909 0
1973 200 -1909 0
-2101 -201 0
-2101 1973 0
2101 201 -1973 0
-2369 -192 0
-2369 2305 0
2369 192 -2305 0
-2497 -193 0
-2497 2369 0
2497 193 -2369 0
-2765 -184 0
-2765 2701 0
2765 184 -2701 0
-2893 -185 0
-2893 2765 0
2893 185 -2765 0
-3161 -176 0
-3161 3097 0
3161 176 -3097 0
-3289 -177 0
-3289 3161 0
3289 177 -3161 0
-3557 -168 0
-3557 3493 0
3557 168 -3493 0
-3685 -169 0
-3685 3557 0
3685 169 -3557 0
-3953 -160 0
-3953 3889 0
3953 160 -3889 0
-4081 -161 0
-4081 3953 0
4081 161 -3953 0
-4349 -152 0
-4349 4285 0
4349 152 -4285 0
-4477 -153 0
-4477 4349 0
4477 153 -4349 0
-4621 -4081 0
-4621 -4477 0
4621 4081 4477 0
-4765 -3685 0
-4765 4621 0
4765 3685 -4621 0
-4909 -3289 0
-4909 4765 0
4909 3289 -4765 0
-5053 -2893 0
-5053 4909 0
5053 2893 -4909 0
-5197 -2497 0
-5197 5053 0
5197 2497 -5053 0
-5341 -2101 0
-5341 5197 0
5341 2101 -5197 0
-5485 -1705 0
-5485 5341 0
5485 1705 -5341 0
-5629 -1309 0
-5629 5485 0
5629 1309 -5485 0
-5773 -913 0
-5773 5629 0
5773 913 -5629 0
-5917 -517 0
-5917 5773 0
5917 517 -5773 0
-6123 33 0
-6123 5917 0
6123 -33 -5917 0
-6124 -33 0
-6124 -5917 0
6124 33 5917 0
-6125 -6123 0
-6125 -6124 0
6125 6123 6124 0
32 -23361 0
-32 23361 0
-388 -232 0
-388 324 0
388 232 -324 0
-516 -233 0
-516 388 0
516 233 -388 0
-784 -224 0
-784 720 0
784 224 -720 0
-912 -225 0
-912 784 0
912 225 -784 0
-1180 -216 0
-1180 1116 0
1180 216 -1116 0
-1308 -217 0
-1308 1180 0
1308 217 -1180 0
-1576 -208 0
-1576 1512 0
1576 208 -1512 0
-1704 -209 0
-1704 1576 0
1704 209 -1576 0
-1972 -200 0
-1972 1908 0
1972 200 -1908 0
-2100 -201 0
-2100 1972 0
2100 201 -1972 0
-2368 -192 0
-2368 2304 0
2368 192 -2304 0
-2496 -193 0
-2496 2368 0
2496 193 -2368 0
-2764 -184 0
-2764 2700 0
2764 184 -2700 0
-2892 -185 0
-2892 2764 0
2892 185 -2764 0
-3160 -176 0
-3160 3096 0
3160 176 -3096 0
-3288 -177 0
-3288 3160 0
3288 177 -3160 0
-3556 -168 0
-3556 3492 0
3556 168 -3492 0
-3684 -169 0
-3684 3556 0
3684 169 -3556 0
-3952 -160 0
-3952 3888 0
3952 160 -3888 0
-4080 -161 0
-4080 3952 0
4080 161 -3952 0
-4348 -152 0
-4348 4284 0
4348 152 -4284 0
-4476 -153 0
-4476 4348 0
4476 153 -4348 0
-4620 -4080 0
-4620 -4476 0
4620 4080 4476 0
-4764 -3684 0
-4764 4620 0
4764 3684 -4620 0
-4908 -3288 0
-4908 4764 0
4908 3288 -4764 0
-5052 -2892 0
-5052 4908 0
5052 2892 -4908 0
-5196 -2496 0
-5196 5052 0
5196 2496 -5052 0
-5340 -2100 0
-5340 5196 0
5340 2100 -5196 0
-5484 -1704 0
-5484 5340 0
5484 1704 -5340 0
-5628 -1308 0
-5628 5484 0
5628 1308 -5484 0
-5772 -912 0
-5772 5628 0
5772 912 -5628 0
-5916 -516 0
-5916 5772 0
5916 516 -5772 0
-6120 32 0
-6120 5916 0
6120 -32 -5916 0
-6121 -32 0
-6121 -5916 0
6121 32 5916 0
-6122 -6120 0
-6122 -6121 0
6122 6120 6121 0
31 -23360 0
-31 23360 0
-387 -232 0
-387 323 0
387 232 -323 0
-515 -233 0
-515 387 0
515 233 -387 0
-783 -224 0
-783 719 0
783 224 -719 0
-911 -225 0
-911 783 0
911 225 -783 0
-1179 -216 0
-1179 1115 0
1179 216 -1115 0
-1307 -217 0
-1307 1179 0
1307 217 -1179 0
-1575 -208 0
-1575 1511 0
1575 208 -1511 0
-1703 -209 0
-1703 1575 0
1703 209 -1575 0
-1971 -200 0
-1971 1907 0
1971 200 -1907 0
-2099 -201 0
-2099 1971 0
2099 201 -1971 0
-2367 -192 0
-2367 2303 0
2367 192 -2303 0
-2495 -193 0
-2495 2367 0
2495 193 -2367 0
-2763 -184 0
-2763 2699 0
2763 184 -2699 0
-2891 -185 0
-2891 2763 0
2891 185 -2763 0
-3159 -176 0
-3159 3095 0
3159 176 -3095 0
-3287 -177 0
-3287 3159 0
3287 177 -3159 0
-3555 -168 0
-3555 3491 0
3555 168 -3491 0
-3683 -169 0
-3683 3555 0
3683 169 -3555 0
-3951 -160 0
-3951 3887 0
3951 160 -3887 0
-4079 -161 0
-4079 3951 0
4079 161 -3951 0
-4347 -152 0
-4347 4283 0
4347 152 -4283 0
-4475 -153 0
-4475 4347 0
4475 153 -4347 0
-4619 -4079 0
-4619 -4475 0
4619 4079 4475 0
-4763 -3683 0
-4763 4619 0
4763 3683 -4619 0
-4907 -3287 0
-4907 4763 0
4907 3287 -4763 0
-5051 -2891 0
-5051 4907 0
5051 2891 -4907 0
-5195 -2495 0
-5195 5051 0
5195 2495 -5051 0
-5339 -2099 0
-5339 5195 0
5339 2099 -5195 0
-5483 -1703 0
-5483 5339 0
5483 1703 -5339 0
-5627 -1307 0
-5627 5483 0
5627 1307 -5483 0
-5771 -911 0
-5771 5627 0
5771 911 -5627 0
-5915 -515 0
-5915 5771 0
5915 515 -5771 0
-6117 31 0
-6117 5915 0
6117 -31 -5915 0
-6118 -31 0
-6118 -5915 0
6118 31 5915 0
-6119 -6117 0
-6119 -6118 0
6119 6117 6118 0
30 -23359 0
-30 23359 0
-386 -232 0
-386 322 0
386 232 -322 0
-514 -233 0
-514 386 0
514 233 -386 0
-782 -224 0
-782 718 0
782 224 -718 0
-910 -225 0
-910 782 0
910 225 -782 0
-1178 -216 0
-1178 1114 0
1178 216 -1114 0
-1306 -217 0
-1306 1178 0
1306 217 -1178 0
-1574 -208 0
-1574 1510 0
1574 208 -1510 0
-1702 -209 0
-1702 1574 0
1702 209 -1574 0
-1970 -200 0
-1970 1906 0
1970 200 -1906 0
-2098 -201 0
-2098 1970 0
2098 201 -1970 0
-2366 -192 0
-2366 2302 0
2366 192 -2302 0
-2494 -193 0
-2494 2366 0
2494 193 -2366 0
-2762 -184 0
-2762 2698 0
2762 184 -2698 0
-2890 -185 0
-2890 2762 0
2890 185 -2762 0
-3158 -176 0
-3158 3094 0
3158 176 -3094 0
-3286 -177 0
-3286 3158 0
3286 177 -3158 0
-3554 -168 0
-3554 3490 0
3554 168 -3490 0
-3682 -169 0
-3682 3554 0
3682 169 -3554 0
-3950 -160 0
-3950 3886 0
3950 160 -3886 0
-4078 -161 0
-4078 3950 0
4078 161 -3950 0
-4346 -152 0
-4346 4282 0
4346 152 -4282 0
-4474 -153 0
-4474 4346 0
4474 153 -4346 0
-4618 -4078 0
-4618 -4474 0
4618 4078 4474 0
-4762 -3682 0
-4762 4618 0
4762 3682 -4618 0
-4906 -3286 0
-4906 4762 0
4906 3286 -4762 0
-5050 -2890 0
-5050 4906 0
5050 2890 -4906 0
-5194 -2494 0
-5194 5050 0
5194 2494 -5050 0
-5338 -2098 0
-5338 5194 0
5338 2098 -5194 0
-5482 -1702 0
-5482 5338 0
5482 1702 -5338 0
-5626 -1306 0
-5626 5482 0
5626 1306 -5482 0
-5770 -910 0
-5770 5626 0
5770 910 -5626 0
-5914 -514 0
-5914 5770 0
5914 514 -5770 0
-6114 30 0
-6114 5914 0
6114 -30 -5914 0
-6115 -30 0
-6115 -5914 0
6115 30 5914 0
-6116 -6114 0
-6116 -6115 0
6116 6114 6115 0
29 -23358 0
-29 23358 0
-385 -232 0
-385 321 0
385 232 -321 0
-513 -233 0
-513 385 0
513 233 -385 0
-781 -224 0
-781 717 0
781 224 -717 0
-909 -225 0
-909 781 0
909 225 -781 0
-1177 -216 0
-1177 1113 0
1177 216 -1113 0
-1305 -217 0
-1305 1177 0
1305 217 -1177 0
-1573 -208 0
-1573 1509 0
1573 208 -1509 0
-1701 -209 0
-1701 1573 0
1701 209 -1573 0
-1969 -200 0
-1969 1905 0
1969 200 -1905 0
-2097 -201 0
-2097 1969 0
2097 201 -1969 0
-2365 -192 0
-2365 2301 0
2365 192 -2301 0
-2493 -193 0
-2493 2365 0
2493 193 -2365 0
-2761 -184 0
-2761 2697 0
2761 184 -2697 0
-2889 -185 0
-2889 2761 0
2889 185 -2761 0
-3157 -176 0
-3157 3093 0
3157 176 -3093 0
-3285 -177 0
-3285 3157 0
3285 177 -3157 0
-3553 -168 0
-3553 3489 0
3553 168 -3489 0
-3681 -169 0
-3681 3553 0
3681 169 -3553 0
-3949 -160 0
-3949 3885 0
3949 160 -3885 0
-4077 -161 0
-4077 3949 0
4077 161 -3949 0
-4345 -152 0
-4345 4281 0
4345 152 -4281 0
-4473 -153 0
-4473 4345 0
4473 153 -4345 0
-4617 -4077 0
-4617 -4473 0
4617 4077 4473 0
-4761 -3681 0
-4761 4617 0
4761 3681 -4617 0
-4905 -3285 0
-4905 4761 0
4905 3285 -4761 0
-5049 -2889 0
-5049 4905 0
5049 2889 -4905 0
-5193 -2493 0
-5193 5049 0
5193 2493 -5049 0
-5337 -2097 0
-5337 5193 0
5337 2097 -5193 0
-5481 -1701 0
-5481 5337 0
5481 1701 -5337 0
-5625 -1305 0
-5625 5481 0
5625 1305 -5481 0
-5769 -909 0
-5769 5625 0
5769 909 -5625 0
-5913 -513 0
-5913 5769 0
5913 513 -5769 0
-6111 29 0
-6111 5913 0
6111 -29 -5913 0
-6112 -29 0
-6112 -5913 0
6112 29 5913 0
-6113 -6111 0
-6113 -6112 0
6113 6111 6112 0
28 -23357 0
-28 23357 0
-384 -232 0
-384 320 0
384 232 -320 0
-512 -233 0
-512 384 0
512 233 -384 0
-780 -224 0
-780 716 0
780 224 -716 0
-908 -225 0
-908 780 0
908 225 -780 0
-1176 -216 0
-1176 1112 0
1176 216 -1112 0
-1304 -217 0
-1304 1176 0
1304 217 -1176 0
-1572 -208 0
-1572 1508 0
1572 208 -1508 0
-1700 -209 0
-1700 1572 0
1700 209 -1572 0
-1968 -200 0
-1968 1904 0
1968 200 -1904 0
-2096 -201 0
-2096 1968 0
2096 201 -1968 0
-2364 -192 0
-2364 2300 0
2364 192 -2300 0
-2492 -193 0
-2492 2364 0
2492 193 -2364 0
-2760 -184 0
-2760 2696 0
2760 184 -2696 0
-2888 -185 0
-2888 2760 0
2888 185 -2760 0
-3156 -176 0
-3156 3092 0
3156 176 -3092 0
-3284 -177 0
-3284 3156 0
3284 177 -3156 0
-3552 -168 0
-3552 3488 0
3552 168 -3488 0
-3680 -169 0
-3680 3552 0
3680 169 -3552 0
-3948 -160 0
-3948 3884 0
3948 160 -3884 0
-4076 -161 0
-4076 3948 0
4076 161 -3948 0
-4344 -152 0
-4344 4280 0
4344 152 -4280 0
-4472 -153 0
-4472 4344 0
4472 153 -4344 0
-4616 -4076 0
-4616 -4472 0
4616 4076 4472 0
-4760 -3680 0
-4760 4616 0
4760 3680 -4616 0
-4904 -3284 0
-4904 4760 0
4904 3284 -4760 0
-5048 -2888 0
-5048 4904 0
5048 2888 -4904 0
-5192 -2492 0
-5192 5048 0
5192 2492 -5048 0
-5336 -2096 0
-5336 5192 0
5336 2096 -5192 0
-5480 -1700 0
-5480 5336 0
5480 1700 -5336 0
-5624 -1304 0
-5624 5480 0
5624 1304 -5480 0
-5768 -908 0
-5768 5624 0
5768 908 -5624 0
-5912 -512 0
-5912 5768 0
5912 512 -5768 0
-6108 28 0
-6108 5912 0
6108 -28 -5912 0
-6109 -28 0
-6109 -5912 0
6109 28 5912 0
-6110 -6108 0
-6110 -6109 0
6110 6108 6109 0
27 -23356 0
-27 23356 0
-383 -232 0
-383 319 0
383 232 -319 0
-511 -233 0
-511 383 0
511 233 -383 0
-779 -224 0
-779 715 0
779 224 -715 0
-907 -225 0
-907 779 0
907 225 -779 0
-1175 -216 0
-1175 1111 0
1175 216 -1111 0
-1303 -217 0
-1303 1175 0
1303 217 -1175 0
-1571 -208 0
-1571 1507 0
1571 208 -1507 0
-1699 -209 0
-1699 1571 0
1699 209 -1571 0
-1967 -200 0
-1967 1903 0
1967 200 -1903 0
-2095 -201 0
-2095 1967 0
2095 201 -1967 0
-2363 -192 0
-2363 2299 0
2363 192 -2299 0
-2491 -193 0
-2491 2363 0
2491 193 -2363 0
-2759 -184 0
-2759 2695 0
2759 184 -2695 0
-2887 -185 0
-2887 2759 0
2887 185 -2759 0
-3155 -176 0
-3155 3091 0
3155 176 -3091 0
-3283 -177 0
-3283 3155 0
3283 177 -3155 0
-3551 -168 0
-3551 3487 0
3551 168 -3487 0
-3679 -169 0
-3679 3551 0
3679 169 -3551 0
-3947 -160 0
-3947 3883 0
3947 160 -3883 0
-4075 -161 0
-4075 3947 0
4075 161 -3947 0
-4343 -152 0
-4343 4279 0
4343 152 -4279 0
-4471 -153 0
-4471 4343 0
4471 153 -4343 0
-4615 -4075 0
-4615 -4471 0
4615 4075 4471 0
-4759 -3679 0
-4759 4615 0
4759 3679 -4615 0
-4903 -3283 0
-4903 4759 0
4903 3283 -4759 0
-5047 -2887 0
-5047 4903 0
5047 2887 -4903 0
-5191 -2491 0
-5191 5047 0
5191 2491 -5047 0
-5335 -2095 0
-5335 5191 0
5335 2095 -5191 0
-5479 -1699 0
-5479 5335 0
5479 1699 -5335 0
-5623 -1303 0
-5623 5479 0
5623 1303 -5479 0
-5767 -907 0
-5767 5623 0
5767 907 -5623 0
-5911 -511 0
-5911 5767 0
5911 511 -5767 0
-6105 27 0
-6105 5911 0
6105 -27 -5911 0
-6106 -27 0
-6106 -5911 0
6106 27 5911 0
-6107 -6105 0
-6107 -6106 0
6107 6105 6106 0
26 -23355 0
-26 23355 0
-382 -232 0
-382 318 0
382 232 -318 0
-510 -233 0
-510 382 0
510 233 -382 0
-778 -224 0
-778 714 0
778 224 -714 0
-906 -225 0
-906 778 0
906 225 -778 0
-1174 -216 0
-1174 1110 0
1174 216 -1110 0
-1302 -217 0
-1302 1174 0
1302 217 -1174 0
-1570 -208 0
-1570 1506 0
1570 208 -1506 0
-1698 -209 0
-1698 1570 0
1698 209 -1570 0
-1966 -200 0
-1966 1902 0
1966 200 -1902 0
-2094 -201 0
-2094 1966 0
2094 201 -1966 0
-2362 -192 0
-2362 2298 0
2362 192 -2298 0
-2490 -193 0
-2490 2362 0
2490 193 -2362 0
-2758 -184 0
-2758 2694 0
2758 184 -2694 0
-2886 -185 0
-2886 2758 0
2886 185 -2758 0
-3154 -176 0
-3154 3090 0
3154 176 -3090 0
-3282 -177 0
-3282 3154 0
3282 177 -3154 0
-3550 -168 0
-3550 3486 0
3550 168 -3486 0
-3678 -169 0
-3678 3550 0
3678 169 -3550 0
-3946 -160 0
-3946 3882 0
3946 160 -3882 0
-4074 -161 0
-4074 3946 0
4074 161 -3946 0
-4342 -152 0
-4342 4278 0
4342 152 -4278 0
-4470 -153 0
-4470 4342 0
4470 153 -4342 0
-4614 -4074 0
-4614 -4470 0
4614 4074 4470 0
-4758 -3678 0
-4758 4614 0
4758 3678 -4614 0
-4902 -3282 0
-4902 4758 0
4902 3282 -4758 0
-5046 -2886 0
-5046 4902 0
5046 2886 -4902 0
-5190 -2490 0
-5190 5046 0
5190 2490 -5046 0
-5334 -2094 0
-5334 5190 0
5334 2094 -5190 0
-5478 -1698 0
-5478 5334 0
5478 1698 -5334 0
-5622 -1302 0
-5622 5478 0
5622 1302 -5478 0
-5766 -906 0
-5766 5622 0
5766 906 -5622 0
-5910 -510 0
-5910 5766 0
5910 510 -5766 0
-6102 26 0
-6102 5910 0
6102 -26 -5910 0
-6103 -26 0
-6103 -5910 0
6103 26 5910 0
-6104 -6102 0
-6104 -6103 0
6104 6102 6103 0
25 -23354 0
-25 23354 0
-381 -232 0
-381 317 0
381 232 -317 0
-509 -233 0
-509 381 0
509 233 -381 0
-777 -224 0
-777 713 0
777 224 -713 0
-905 -225 0
-905 777 0
905 225 -777 0
-1173 -216 0
-1173 1109 0
1173 216 -1109 0
-1301 -217 0
-1301 1173 0
1301 217 -1173 0
-1569 -208 0
-1569 1505 0
1569 208 -1505 0
-1697 -209 0
-1697 1569 0
1697 209 -1569 0
-1965 -200 0
-1965 1901 0
1965 200 -1901 0
-2093 -201 0
-2093 1965 0
2093 201 -1965 0
-2361 -192 0
-2361 2297 0
2361 192 -2297 0
-2489 -193 0
-2489 2361 0
2489 193 -2361 0
-2757 -184 0
-2757 2693 0
2757 184 -2693 0
-2885 -185 0
-2885 2757 0
2885 185 -2757 0
-3153 -176 0
-3153 3089 0
3153 176 -3089 0
-3281 -177 0
-3281 3153 0
3281 177 -3153 0
-3549 -168 0
-3549 3485 0
3549 168 -3485 0
-3677 -169 0
-3677 3549 0
3677 169 -3549 0
-3945 -160 0
-3945 3881 0
3945 160 -3881 0
-4073 -161 0
-4073 3945 0
4073 161 -3945 0
-4341 -152 0
-4341 4277 0
4341 152 -4277 0
-4469 -153 0
-4469 4341 0
4469 153 -4341 0
-4613 -4073 0
-4613 -4469 0
4613 4073 4469 0
-4757 -3677 0
-4757 4613 0
4757 3677 -4613 0
-4901 -3281 0
-4901 4757 0
4901 3281 -4757 0
-5045 -2885 0
-5045 4901 0
5045 2885 -4901 0
-5189 -2489 0
-5189 5045 0
5189 2489 -5045 0
-5333 -2093 0
-5333 5189 0
5333 2093 -5189 0
-5477 -1697 0
-5477 5333 0
5477 1697 -5333 0
-5621 -1301 0
-5621 5477 0
5621 1301 -5477 0
-5765 -905 0
-5765 5621 0
5765 905 -5621 0
-5909 -509 0
-5909 5765 0
5909 509 -5765 0
-6099 25 0
-6099 5909 0
6099 -25 -5909 0
-6100 -25 0
-6100 -5909 0
6100 25 5909 0
-6101 -6099 0
-6101 -6100 0
6101 6099 6100 0
24 -23353 0
-24 23353 0
-380 -232 0
-380 316 0
380 232 -316 0
-508 -233 0
-508 380 0
508 233 -380 0
-776 -224 0
-776 712 0
776 224 -712 0
-904 -225 0
-904 776 0
904 225 -776 0
-1172 -216 0
-1172 1108 0
1172 216 -1108 0
-1300 -217 0
-1300 1172 0
1300 217 -1172 0
-1568 -208 0
-1568 1504 0
1568 208 -1504 0
-1696 -209 0
-1696 1568 0
1696 209 -1568 0
-1964 -200 0
-1964 1900 0
1964 200 -1900 0
-2092 -201 0
-2092 1964 0
2092 201 -1964 0
-2360 -192 0
-2360 2296 0
2360 192 -2296 0
-2488 -193 0
-2488 2360 0
2488 193 -2360 0
-2756 -184 0
-2756 2692 0
2756 184 -2692 0
-2884 -185 0
-2884 2756 0
2884 185 -2756 0
-3152 -176 0
-3152 3088 0
3152 176 -3088 0
-3280 -177 0
-3280 3152 0
3280 177 -3152 0
-3548 -168 0
-3548 3484 0
3548 168 -3484 0
-3676 -169 0
-3676 3548 0
3676 169 -3548 0
-3944 -160 0
-3944 3880 0
3944 160 -3880 0
-4072 -161 0
-4072 3944 0
4072 161 -3944 0
-4340 -152 0
-4340 4276 0
4340 152 -4276 0
-4468 -153 0
-4468 4340 0
4468 153 -4340 0
-4612 -4072 0
-4612 -4468 0
4612 4072 4468 0
-4756 -3676 0
-4756 4612 0
4756 3676 -4612 0
-4900 -3280 0
-4900 4756 0
4900 3280 -4756 0
-5044 -2884 0
-5044 4900 0
5044 2884 -4900 0
-5188 -2488 0
-5188 5044 0
5188 2488 -5044 0
-5332 -2092 0
-5332 5188 0
5332 2092 -5188 0
-5476 -1696 0
-5476 5332 0
5476 1696 -5332 0
-5620 -1300 0
-5620 5476 0
5620 1300 -5476 0
-5764 -904 0
-5764 5620 0
5764 904 -5620 0
-5908 -508 0
-5908 5764 0
5908 508 -5764 0
-6096 24 0
-6096 5908 0
6096 -24 -5908 0
-6097 -24 0
-6097 -5908 0
6097 24 5908 0
-6098 -6096 0
-6098 -6097 0
6098 6096 6097 0
23 -23352 0
-23 23352 0
-379 -232 0
-379 315 0
379 232 -315 0
-507 -233 0
-507 379 0
507 233 -379 0
-775 -224 0
-775 711 0
775 224 -711 0
-903 -225 0
-903 775 0
903 225 -775 0
-1171 -216 0
-1171 1107 0
1171 216 -1107 0
-1299 -217 0
-1299 1171 0
1299 217 -1171 0
-1567 -208 0
-1567 1503 0
1567 208 -1503 0
-1695 -209 0
-1695 1567 0
1695 209 -1567 0
-1963 -200 0
-1963 1899 0
1963 200 -1899 0
-2091 -201 0
-2091 1963 0
2091 201 -1963 0
-2359 -192 0
-2359 2295 0
2359 192 -2295 0
-2487 -193 0
-2487 2359 0
2487 193 -2359 0
-2755 -184 0
-2755 2691 0
2755 184 -2691 0
-2883 -185 0
-2883 2755 0
2883 185 -2755 0
-3151 -176 0
-3151 3087 0
3151 176 -3087 0
-3279 -177 0
-3279 3151 0
3279 177 -3151 0
-3547 -168 0
-3547 3483 0
3547 168 -3483 0
-3675 -169 0
-3675 3547 0
3675 169 -3547 0
-3943 -160 0
-3943 3879 0
3943 160 -3879 0
-4071 -161 0
-4071 3943 0
4071 161 -3943 0
-4339 -152 0
-4339 4275 0
4339 152 -4275 0
-4467 -153 0
-4467 4339 0
4467 153 -4339 0
-4611 -4071 0
-4611 -4467 0
4611 4071 4467 0
-4755 -3675 0
-4755 4611 0
4755 3675 -4611 0
-4899 -3279 0
-4899 4755 0
4899 3279 -4755 0
-5043 -2883 0
-5043 4899 0
5043 2883 -4899 0
-5187 -2487 0
-5187 5043 0
5187 2487 -5043 0
-5331 -2091 0
-5331 5187 0
5331 2091 -5187 0
-5475 -1695 0
-5475 5331 0
5475 1695 -5331 0
-5619 -1299 0
-5619 5475 0
5619 1299 -5475 0
-5763 -903 0
-5763 5619 0
5763 903 -5619 0
-5907 -507 0
-5907 5763 0
5907 507 -5763 0
-6093 23 0
-6093 5907 0
6093 -23 -5907 0
-6094 -23 0
-6094 -5907 0
6094 23 5907 0
-6095 -6093 0
-6095 -6094 0
6095 6093 6094 0
22 -23351 0
-22 23351 0
-378 -232 0
-378 314 0
378 232 -314 0
-506 -233 0
-506 378 0
506 233 -378 0
-774 -224 0
-774 710 0
774 224 -710 0
-902 -225 0
-902 774 0
902 225 -774 0
-1170 -216 0
-1170 1106 0
1170 216 -1106 0
-1298 -217 0
-1298 1170 0
1298 217 -1170 0
-1566 -208 0
-1566 1502 0
1566 208 -1502 0
-1694 -209 0
-1694 1566 0
1694 209 -1566 0
-1962 -200 0
-1962 1898 0
1962 200 -1898 0
-2090 -201 0
-2090 1962 0
2090 201 -1962 0
-2358 -192 0
-2358 2294 0
2358 192 -2294 0
-2486 -193 0
-2486 2358 0
2486 193 -2358 0
-2754 -184 0
-2754 2690 0
2754 184 -2690 0
-2882 -185 0
-2882 2754 0
2882 185 -2754 0
-3150 -176 0
-3150 3086 0
3150 176 -3086 0
-3278 -177 0
-3278 3150 0
3278 177 -3150 0
-3546 -168 0
-3546 3482 0
3546 168 -3482 0
-3674 -169 0
-3674 3546 0
3674 169 -3546 0
-3942 -160 0
-3942 3878 0
3942 160 -3878 0
-4070 -161 0
-4070 3942 0
4070 161 -3942 0
-4338 -152 0
-4338 4274 0
4338 152 -4274 0
-4466 -153 0
-4466 4338 0
4466 153 -4338 0
-4610 -4070 0
-4610 -4466 0
4610 4070 4466 0
-4754 -3674 0
-4754 4610 0
4754 3674 -4610 0
-4898 -3278 0
-4898 4754 0
4898 3278 -4754 0
-5042 -2882 0
-5042 4898 0
5042 2882 -4898 0
-5186 -2486 0
-5186 5042 0
5186 2486 -5042 0
-5330 -2090 0
-5330 5186 0
5330 2090 -5186 0
-5474 -1694 0
-5474 5330 0
5474 1694 -5330 0
-5618 -1298 0
-5618 5474 0
5618 1298 -5474 0
-5762 -902 0
-5762 5618 0
5762 902 -5618 0
-5906 -506 0
-5906 5762 0
5906 506 -5762 0
-6090 22 0
-6090 5906 0
6090 -22 -5906 0
-6091 -22 0
-6091 -5906 0
6091 22 5906 0
-6092 -6090 0
-6092 -6091 0
6092 6090 6091 0
21 -23350 0
-21 23350 0
-377 -232 0
-377 313 0
377 232 -313 0
-505 -233 0
-505 377 0
505 233 -377 0
-773 -224 0
-773 709 0
773 224 -709 0
-901 -225 0
-901 773 0
901 225 -773 0
-1169 -216 0
-1169 1105 0
1169 216 -1105 0
-1297 -217 0
-1297 1169 0
1297 217 -1169 0
-1565 -208 0
-1565 1501 0
1565 208 -1501 0
-1693 -209 0
-1693 1565 0
1693 209 -1565 0
-1961 -200 0
-1961 1897 0
1961 200 -1897 0
-2089 -201 0
-2089 1961 0
2089 201 -1961 0
-2357 -192 0
-2357 2293 0
2357 192 -2293 0
-2485 -193 0
-2485 2357 0
2485 193 -2357 0
-2753 -184 0
-2753 2689 0
2753 184 -2689 0
-2881 -185 0
-2881 2753 0
2881 185 -2753 0
-3149 -176 0
-3149 3085 0
3149 176 -3085 0
-3277 -177 0
-3277 3149 0
3277 177 -3149 0
-3545 -168 0
-3545 3481 0
3545 168 -3481 0
-3673 -169 0
-3673 3545 0
3673 169 -3545 0
-3941 -160 0
-3941 3877 0
3941 160 -3877 0
-4069 -161 0
-4069 3941 0
4069 161 -3941 0
-4337 -152 0
-4337 4273 0
4337 152 -4273 0
-4465 -153 0
-4465 4337 0
4465 153 -4337 0
-4609 -4069 0
-4609 -4465 0
4609 4069 4465 0
-4753 -3673 0
-4753 4609 0
4753 3673 -4609 0
-4897 -3277 0
-4897 4753 0
4897 3277 -4753 0
-5041 -2881 0
-5041 4897 0
5041 2881 -4897 0
-5185 -2485 0
-5185 5041 0
5185 2485 -5041 0
-5329 -2089 0
-5329 5185 0
5329 2089 -5185 0
-5473 -1693 0
-5473 5329 0
5473 1693 -5329 0
-5617 -1297 0
-5617 5473 0
5617 1297 -5473 0
-5761 -901 0
-5761 5617 0
5761 901 -5617 0
-5905 -505 0
-5905 5761 0
5905 505 -5761 0
-6087 21 0
-6087 5905 0
6087 -21 -5905 0
-6088 -21 0
-6088 -5905 0
6088 21 5905 0
-6089 -6087 0
-6089 -6088 0
6089 6087 6088 0
20 -23349 0
-20 23349 0
-376 -232 0
-376 312 0
376 232 -312 0
-504 -233 0
-504 376 0
504 233 -376 0
-772 -224 0
-772 708 0
772 224 -708 0
-900 -225 0
-900 772 0
900 225 -772 0
-1168 -216 0
-1168 1104 0
1168 216 -1104 0
-1296 -217 0
-1296 1168 0
1296 217 -1168 0
-1564 -208 0
-1564 1500 0
1564 208 -1500 0
-1692 -209 0
-1692 1564 0
1692 209 -1564 0
-1960 -200 0
-1960 1896 0
1960 200 -1896 0
-2088 -201 0
-2088 1960 0
2088 201 -1960 0
-2356 -192 0
-2356 2292 0
2356 192 -2292 0
-2484 -193 0
-2484 2356 0
2484 193 -2356 0
-2752 -184 0
-2752 2688 0
2752 184 -2688 0
-2880 -185 0
-2880 2752 0
2880 185 -2752 0
-3148 -176 0
-3148 3084 0
3148 176 -3084 0
-3276 -177 0
-3276 3148 0
3276 177 -3148 0
-3544 -168 0
-3544 3480 0
3544 168 -3480 0
-3672 -169 0
-3672 3544 0
3672 169 -3544 0
-3940 -160 0
-3940 3876 0
3940 160 -3876 0
-4068 -161 0
-4068 3940 0
4068 161 -3940 0
-4336 -152 0
-4336 4272 0
4336 152 -4272 0
-4464 -153 0
-4464 4336 0
4464 153 -4336 0
-4608 -4068 0
-4608 -4464 0
4608 4068 4464 0
-4752 -3672 0
-4752 4608 0
4752 3672 -4608 0
-4896 -3276 0
-4896 4752 0
4896 3276 -4752 0
-5040 -2880 0
-5040 4896 0
5040 2880 -4896 0
-5184 -2484 0
-5184 5040 0
5184 2484 -5040 0
-5328 -2088 0
-5328 5184 0
5328 2088 -5184 0
-5472 -1692 0
-5472 5328 0
5472 1692 -5328 0
-5616 -1296 0
-5616 5472 0
5616 1296 -5472 0
-5760 -900 0
-5760 5616 0
5760 900 -5616 0
-5904 -504 0
-5904 5760 0
5904 504 -5760 0
-6084 20 0
-6084 5904 0
6084 -20 -5904 0
-6085 -20 0
-6085 -5904 0
6085 20 5904 0
-6086 -6084 0
-6086 -6085 0
6086 6084 6085 0
19 -23348 0
-19 23348 0
-375 -232 0
-375 311 0
375 232 -311 0
-503 -233 0
-503 375 0
503 233 -375 0
-771 -224 0
-771 707 0
771 224 -707 0
-899 -225 0
-899 771 0
899 225 -771 0
-1167 -216 0
-1167 1103 0
1167 216 -1103 0
-1295 -217 0
-1295 1167 0
1295 217 -1167 0
-1563 -208 0
-1563 1499 0
1563 208 -1499 0
-1691 -209 0
-1691 1563 0
1691 209 -1563 0
-1959 -200 0
-1959 1895 0
1959 200 -1895 0
-2087 -201 0
-2087 1959 0
2087 201 -1959 0
-2355 -192 0
-2355 2291 0
2355 192 -2291 0
-2483 -193 0
-2483 2355 0
2483 193 -2355 0
-2751 -184 0
-2751 2687 0
2751 184 -2687 0
-2879 -185 0
-2879 2751 0
2879 185 -2751 0
-3147 -176 0
-3147 3083 0
3147 176 -3083 0
-3275 -177 0
-3275 3147 0
3275 177 -3147 0
-3543 -168 0
-3543 3479 0
3543 168 -3479 0
-3671 -169 0
-3671 3543 0
3671 169 -3543 0
-3939 -160 0
-3939 3875 0
3939 160 -3875 0
-4067 -161 0
-4067 3939 0
4067 161 -3939 0
-4335 -152 0
-4335 4271 0
4335 152 -4271 0
-4463 -153 0
-4463 4335 0
4463 153 -4335 0
-4607 -4067 0
-4607 -4463 0
4607 4067 4463 0
-4751 -3671 0
-4751 4607 0
4751 3671 -4607 0
-4895 -3275 0
-4895 4751 0
4895 3275 -4751 0
-5039 -2879 0
-5039 4895 0
5039 2879 -4895 0
-5183 -2483 0
-5183 5039 0
5183 2483 -5039 0
-5327 -2087 0
-5327 5183 0
5327 2087 -5183 0
-5471 -1691 0
-5471 5327 0
5471 1691 -5327 0
-5615 -1295 0
-5615 5471 0
5615 1295 -5471 0
-5759 -899 0
-5759 5615 0
5759 899 -5615 0
-5903 -503 0
-5903 5759 0
5903 503 -5759 0
-6081 19 0
-6081 5903 0
6081 -19 -5903 0
-6082 -19 0
-6082 -5903 0
6082 19 5903 0
-6083 -6081 0
-6083 -6082 0
6083 6081 6082 0
18 -23347 0
-18 23347 0
-374 -232 0
-374 310 0
374 232 -310 0
-502 -233 0
-502 374 0
502 233 -374 0
-770 -224 0
-770 706 0
770 224 -706 0
-898 -225 0
-898 770 0
898 225 -770 0
-1166 -216 0
-1166 1102 0
1166 216 -1102 0
-1294 -217 0
-1294 1166 0
1294 217 -1166 0
-1562 -208 0
-1562 1498 0
1562 208 -1498 0
-1690 -209 0
-1690 1562 0
1690 209 -1562 0
-1958 -200 0
-1958 1894 0
1958 200 -1894 0
-2086 -201 0
-2086 1958 0
2086 201 -1958 0
-2354 -192 0
-2354 2290 0
2354 192 -2290 0
-2482 -193 0
-2482 2354 0
2482 193 -2354 0
-2750 -184 0
-2750 2686 0
2750 184 -2686 0
-2878 -185 0
-2878 2750 0
2878 185 -2750 0
-3146 -176 0
-3146 3082 0
3146 176 -3082 0
-3274 -177 0
-3274 3146 0
3274 177 -3146 0
-3542 -168 0
-3542 3478 0
3542 168 -3478 0
-3670 -169 0
-3670 3542 0
3670 169 -3542 0
-3938 -160 0
-3938 3874 0
3938 160 -3874 0
-4066 -161 0
-4066 3938 0
4066 161 -3938 0
-4334 -152 0
-4334 4270 0
4334 152 -4270 0
-4462 -153 0
-4462 4334 0
4462 153 -4334 0
-4606 -4066 0
-4606 -4462 0
4606 4066 4462 0
-4750 -3670 0
-4750 4606 0
4750 3670 -4606 0
-4894 -3274 0
-4894 4750 0
4894 3274 -4750 0
-5038 -2878 0
-5038 4894 0
5038 2878 -4894 0
-5182 -2482 0
-5182 5038 0
5182 2482 -5038 0
-5326 -2086 0
-5326 5182 0
5326 2086 -5182 0
-5470 -1690 0
-5470 5326 0
5470 1690 -5326 0
-5614 -1294 0
-5614 5470 0
5614 1294 -5470 0
-5758 -898 0
-5758 5614 0
5758 898 -5614 0
-5902 -502 0
-5902 5758 0
5902 502 -5758 0
-6078 18 0
-6078 5902 0
6078 -18 -5902 0
-6079 -18 0
-6079 -5902 0
6079 18 5902 0
-6080 -6078 0
-6080 -6079 0
6080 6078 6079 0
17 -23346 0
-17 23346 0
-501 -233 0
-501 373 0
501 233 -373 0
-897 -225 0
-897 769 0
897 225 -769 0
-1293 -217 0
-1293 1165 0
1293 217 -1165 0
-1689 -209 0
-1689 1561 0
1689 209 -1561 0
-2085 -201 0
-2085 1957 0
2085 201 -1957 0
-2481 -193 0
-2481 2353 0
2481 193 -2353 0
-2877 -185 0
-2877 2749 0
2877 185 -2749 0
-3273 -177 0
-3273 3145 0
3273 177 -3145 0
-3669 -169 0
-3669 3541 0
3669 169 -3541 0
-4065 -161 0
-4065 3937 0
4065 161 -3937 0
-4461 -153 0
-4461 4333 0
4461 153 -4333 0
-4605 -4065 0
-4605 -4461 0
4605 4065 4461 0
-4749 -3669 0
-4749 4605 0
4749 3669 -4605 0
-4893 -3273 0
-4893 4749 0
4893 3273 -4749 0
-5037 -2877 0
-5037 4893 0
5037 2877 -4893 0
-5181 -2481 0
-5181 5037 0
5181 2481 -5037 0
-5325 -2085 0
-5325 5181 0
5325 2085 -5181 0
-5469 -1689 0
-5469 5325 0
5469 1689 -5325 0
-5613 -1293 0
-5613 5469 0
5613 1293 -5469 0
-5757 -897 0
-5757 5613 0
5757 897 -5613 0
-5901 -501 0
-5901 5757 0
5901 501 -5757 0
-6075 17 0
-6075 5901 0
6075 -17 -5901 0
-6076 -17 0
-6076 -5901 0
6076 17 5901 0
-6077 -6075 0
-6077 -6076 0
6077 6075 6076 0
16 -23345 0
-16 23345 0
-500 -233 0
-500 372 0
500 233 -372 0
-896 -225 0
-896 768 0
896 225 -768 0
-1292 -217 0
-1292 1164 0
1292 217 -1164 0
-1688 -209 0
-1688 1560 0
1688 209 -1560 0
-2084 -201 0
-2084 1956 0
2084 201 -1956 0
-2480 -193 0
-2480 2352 0
2480 193 -2352 0
-2876 -185 0
-2876 2748 0
2876 185 -2748 0
-3272 -177 0
-3272 3144 0
3272 177 -3144 0
-3668 -169 0
-3668 3540 0
3668 169 -3540 0
-4064 -161 0
-4064 3936 0
4064 161 -3936 0
-4460 -153 0
-4460 4332 0
4460 153 -4332 0
-4604 -4064 0
-4604 -4460 0
4604 4064 4460 0
-4748 -3668 0
-4748 4604 0
4748 3668 -4604 0
-4892 -3272 0
-4892 4748 0
4892 3272 -4748 0
-5036 -2876 0
-5036 4892 0
5036 2876 -4892 0
-5180 -2480 0
-5180 5036 0
5180 2480 -5036 0
-5324 -2084 0
-5324 5180 0
5324 2084 -5180 0
-5468 -1688 0
-5468 5324 0
5468 1688 -5324 0
-5612 -1292 0
-5612 5468 0
5612 1292 -5468 0
-5756 -896 0
-5756 5612 0
5756 896 -5612 0
-5900 -500 0
-5900 5756 0
5900 500 -5756 0
-6072 16 0
-6072 5900 0
6072 -16 -5900 0
-6073 -16 0
-6073 -5900 0
6073 16 5900 0
-6074 -6072 0
-6074 -6073 0
6074 6072 6073 0
15 -23344 0
-15 23344 0
-499 -233 0
-499 371 0
499 233 -371 0
-895 -225 0
-895 767 0
895 225 -767 0
-1291 -217 0
-1291 1163 0
1291 217 -1163 0
-1687 -209 0
-1687 1559 0
1687 209 -1559 0
-2083 -201 0
-2083 1955 0
2083 201 -1955 0
-2479 -193 0
-2479 2351 0
2479 193 -2351 0
-2875 -185 0
-2875 2747 0
2875 185 -2747 0
-3271 -177 0
-3271 3143 0
3271 177 -3143 0
-3667 -169 0
-3667 3539 0
3667 169 -3539 0
-4063 -161 0
-4063 3935 0
4063 161 -3935 0
-4459 -153 0
-4459 4331 0
4459 153 -4331 0
-4603 -4063 0
-4603 -4459 0
4603 4063 4459 0
-4747 -3667 0
-4747 4603 0
4747 3667 -4603 0
-4891 -3271 0
-4891 4747 0
4891 3271 -4747 0
-5035 -2875 0
-5035 4891 0
5035 2875 -4891 0
-5179 -2479 0
-5179 5035 0
5179 2479 -5035 0
-5323 -2083 0
-5323 5179 0
5323 2083 -5179 0
-5467 -1687 0
-5467 5323 0
5467 1687 -5323 0
-5611 -1291 0
-5611 5467 0
5611 1291 -5467 0
-5755 -895 0
-5755 5611 0
5755 895 -5611 0
-5899 -499 0
-5899 5755 0
5899 499 -5755 0
-6069 15 0
-6069 5899 0
6069 -15 -5899 0
-6070 -15 0
-6070 -5899 0
6070 15 5899 0
-6071 -6069 0
-6071 -6070 0
6071 6069 6070 0
14 -23343 0
-14 23343 0
-498 -233 0
-498 370 0
498 233 -370 0
-894 -225 0
-894 766 0
894 225 -766 0
-1290 -217 0
-1290 1162 0
1290 217 -1162 0
-1686 -209 0
-1686 1558 0
1686 209 -1558 0
-2082 -201 0
-2082 1954 0
2082 201 -1954 0
-2478 -193 0
-2478 2350 0
2478 193 -2350 0
-2874 -185 0
-2874 2746 0
2874 185 -2746 0
-3270 -177 0
-3270 3142 0
3270 177 -3142 0
-3666 -169 0
-3666 3538 0
3666 169 -3538 0
-4062 -161 0
-4062 3934 0
4062 161 -3934 0
-4458 -153 0
-4458 4330 0
4458 153 -4330 0
-4602 -4062 0
-4602 -4458 0
4602 4062 4458 0
-4746 -3666 0
-4746 4602 0
4746 3666 -4602 0
-4890 -3270 0
-4890 4746 0
4890 3270 -4746 0
-5034 -2874 0
-5034 4890 0
5034 2874 -4890 0
-5178 -2478 0
-5178 5034 0
5178 2478 -5034 0
-5322 -2082 0
-5322 5178 0
5322 2082 -5178 0
-5466 -1686 0
-5466 5322 0
5466 1686 -5322 0
-5610 -1290 0
-5610 5466 0
5610 1290 -5466 0
-5754 -894 0
-5754 5610 0
5754 894 -5610 0
-5898 -498 0
-5898 5754 0
5898 498 -5754 0
-6066 14 0
-6066 5898 0
6066 -14 -5898 0
-6067 -14 0
-6067 -5898 0
6067 14 5898 0
-6068 -6066 0
-6068 -6067 0
6068 6066 6067 0
13 -23342 0
-13 23342 0
-497 -233 0
-497 369 0
497 233 -369 0
-893 -225 0
-893 765 0
893 225 -765 0
-1289 -217 0
-1289 1161 0
1289 217 -1161 0
-1685 -209 0
-1685 1557 0
1685 209 -1557 0
-2081 -201 0
-2081 1953 0
2081 201 -1953 0
-2477 -193 0
-2477 2349 0
2477 193 -2349 0
-2873 -185 0
-2873 2745 0
2873 185 -2745 0
-3269 -177 0
-3269 3141 0
3269 177 -3141 0
-3665 -169 0
-3665 3537 0
3665 169 -3537 0
-4061 -161 0
-4061 3933 0
4061 161 -3933 0
-4457 -153 0
-4457 4329 0
4457 153 -4329 0
-4601 -4061 0
-4601 -4457 0
4601 4061 4457 0
-4745 -3665 0
-4745 4601 0
4745 3665 -4601 0
-4889 -3269 0
-4889 4745 0
4889 3269 -4745 0
-5033 -2873 0
-5033 4889 0
5033 2873 -4889 0
-5177 -2477 0
-5177 5033 0
5177 2477 -5033 0
-5321 -2081 0
-5321 5177 0
5321 2081 -5177 0
-5465 -1685 0
-5465 5321 0
5465 1685 -5321 0
-5609 -1289 0
-5609 5465 0
5609 1289 -5465 0
-5753 -893 0
-5753 5609 0
5753 893 -5609 0
-5897 -497 0
-5897 5753 0
5897 497 -5753 0
-6063 13 0
-6063 5897 0
6063 -13 -5897 0
-6064 -13 0
-6064 -5897 0
6064 13 5897 0
-6065 -6063 0
-6065 -6064 0
6065 6063 6064 0
12 -23341 0
-12 23341 0
-496 -233 0
-496 368 0
496 233 -368 0
-892 -225 0
-892 764 0
892 225 -764 0
-1288 -217 0
-1288 1160 0
1288 217 -1160 0
-1684 -209 0
-1684 1556 0
1684 209 -1556 0
-2080 -201 0
-2080 1952 0
2080 201 -1952 0
-2476 -193 0
-2476 2348 0
2476 193 -2348 0
-2872 -185 0
-2872 2744 0
2872 185 -2744 0
-3268 -177 0
-3268 3140 0
3268 177 -3140 0
-3664 -169 0
-3664 3536 0
3664 169 -3536 0
-4060 -161 0
-4060 3932 0
4060 161 -3932 0
-4456 -153 0
-4456 4328 0
4456 153 -4328 0
-4600 -4060 0
-4600 -4456 0
4600 4060 4456 0
-4744 -3664 0
-4744 4600 0
4744 3664 -4600 0
-4888 -3268 0
-4888 4744 0
4888 3268 -4744 0
-5032 -2872 0
-5032 4888 0
5032 2872 -4888 0
-5176 -2476 0
-5176 5032 0
5176 2476 -5032 0
-5320 -2080 0
-5320 5176 0
5320 2080 -5176 0
-5464 -1684 0
-5464 5320 0
5464 1684 -5320 0
-5608 -1288 0
-5608 5464 0
5608 1288 -5464 0
-5752 -892 0
-5752 5608 0
5752 892 -5608 0
-5896 -496 0
-5896 5752 0
5896 496 -5752 0
-6060 12 0
-6060 5896 0
6060 -12 -5896 0
-6061 -12 0
-6061 -5896 0
6061 12 5896 0
-6062 -6060 0
-6062 -6061 0
6062 6060 6061 0
11 -23340 0
-11 23340 0
-495 -233 0
-495 367 0
495 233 -367 0
-891 -225 0
-891 763 0
891 225 -763 0
-1287 -217 0
-1287 1159 0
1287 217 -1159 0
-1683 -209 0
-1683 1555 0
1683 209 -1555 0
-2079 -201 0
-2079 1951 0
2079 201 -1951 0
-2475 -193 0
-2475 2347 0
2475 193 -2347 0
-2871 -185 0
-2871 2743 0
2871 185 -2743 0
-3267 -177 0
-3267 3139 0
3267 177 -3139 0
-3663 -169 0
-3663 3535 0
3663 169 -3535 0
-4059 -161 0
-4059 3931 0
4059 161 -3931 0
-4455 -153 0
-4455 4327 0
4455 153 -4327 0
-4599 -4059 0
-4599 -4455 0
4599 4059 4455 0
-4743 -3663 0
-4743 4599 0
4743 3663 -4599 0
-4887 -3267 0
-4887 4743 0
4887 3267 -4743 0
-5031 -2871 0
-5031 4887 0
5031 2871 -4887 0
-5175 -2475 0
-5175 5031 0
5175 2475 -5031 0
-5319 -2079 0
-5319 5175 0
5319 2079 -5175 0
-5463 -1683 0
-5463 5319 0
5463 1683 -5319 0
-5607 -1287 0
-5607 5463 0
5607 1287 -5463 0
-5751 -891 0
-5751 5607 0
5751 891 -5607 0
-5895 -495 0
-5895 5751 0
5895 495 -5751 0
-6057 11 0
-6057 5895 0
6057 -11 -5895 0
-6058 -11 0
-6058 -5895 0
6058 11 5895 0
-6059 -6057 0
-6059 -6058 0
6059 6057 6058 0
10 -23339 0
-10 23339 0
-494 -233 0
-494 366 0
494 233 -366 0
-890 -225 0
-890 762 0
890 225 -762 0
-1286 -217 0
-1286 1158 0
1286 217 -1158 0
-1682 -209 0
-1682 1554 0
1682 209 -1554 0
-2078 -201 0
-2078 1950 0
2078 201 -1950 0
-2474 -193 0
-2474 2346 0
2474 193 -2346 0
-2870 -185 0
-2870 2742 0
2870 185 -2742 0
-3266 -177 0
-3266 3138 0
3266 177 -3138 0
-3662 -169 0
-3662 3534 0
3662 169 -3534 0
-4058 -161 0
-4058 3930 0
4058 161 -3930 0
-4454 -153 0
-4454 4326 0
4454 153 -4326 0
-4598 -4058 0
-4598 -4454 0
4598 4058 4454 0
-4742 -3662 0
-4742 4598 0
4742 3662 -4598 0
-4886 -3266 0
-4886 4742 0
4886 3266 -4742 0
-5030 -2870 0
-5030 4886 0
5030 2870 -4886 0
-5174 -2474 0
-5174 5030 0
5174 2474 -5030 0
-5318 -2078 0
-5318 5174 0
5318 2078 -5174 0
-5462 -1682 0
-5462 5318 0
5462 1682 -5318 0
-5606 -1286 0
-5606 5462 0
5606 1286 -5462 0
-5750 -890 0
-5750 5606 0
5750 890 -5606 0
-5894 -494 0
-5894 5750 0
5894 494 -5750 0
-6054 10 0
-6054 5894 0
6054 -10 -5894 0
-6055 -10 0
-6055 -5894 0
6055 10 5894 0
-6056 -6054 0
-6056 -6055 0
6056 6054 6055 0
9 -23338 0
-9 23338 0
-493 -233 0
-493 365 0
493 233 -365 0
-889 -225 0
-889 761 0
889 225 -761 0
-1285 -217 0
-1285 1157 0
1285 217 -1157 0
-1681 -209 0
-1681 1553 0
1681 209 -1553 0
-2077 -201 0
-2077 1949 0
2077 201 -1949 0
-2473 -193 0
-2473 2345 0
2473 193 -2345 0
-2869 -185 0
-2869 2741 0
2869 185 -2741 0
-3265 -177 0
-3265 3137 0
3265 177 -3137 0
-3661 -169 0
-3661 3533 0
3661 169 -3533 0
-4057 -161 0
-4057 3929 0
4057 161 -3929 0
-4453 -153 0
-4453 4325 0
4453 153 -4325 0
-4597 -4057 0
-4597 -4453 0
4597 4057 4453 0
-4741 -3661 0
-4741 4597 0
4741 3661 -4597 0
-4885 -3265 0
-4885 4741 0
4885 3265 -4741 0
-5029 -2869 0
-5029 4885 0
5029 2869 -4885 0
-5173 -2473 0
-5173 5029 0
5173 2473 -5029 0
-5317 -2077 0
-5317 5173 0
5317 2077 -5173 0
-5461 -1681 0
-5461 5317 0
5461 1681 -5317 0
-5605 -1285 0
-5605 5461 0
5605 1285 -5461 0
-5749 -889 0
-5749 5605 0
5749 889 -5605 0
-5893 -493 0
-5893 5749 0
5893 493 -5749 0
-6051 9 0
-6051 5893 0
6051 -9 -5893 0
-6052 -9 0
-6052 -5893 0
6052 9 5893 0
-6053 -6051 0
-6053 -6052 0
6053 6051 6052 0
8 -23337 0
-8 23337 0
-492 -233 0
-492 364 0
492 233 -364 0
-888 -225 0
-888 760 0
888 225 -760 0
-1284 -217 0
-1284 1156 0
1284 217 -1156 0
-1680 -209 0
-1680 1552 0
1680 209 -1552 0
-2076 -201 0
-2076 1948 0
2076 201 -1948 0
-2472 -193 0
-2472 2344 0
2472 193 -2344 0
-2868 -185 0
-2868 2740 0
2868 185 -2740 0
-3264 -177 0
-3264 3136 0
3264 177 -3136 0
-3660 -169 0
-3660 3532 0
3660 169 -3532 0
-4056 -161 0
-4056 3928 0
4056 161 -3928 0
-4452 -153 0
-4452 4324 0
4452 153 -4324 0
-4596 -4056 0
-4596 -4452 0
4596 4056 4452 0
-4740 -3660 0
-4740 4596 0
4740 3660 -4596 0
-4884 -3264 0
-4884 4740 0
4884 3264 -4740 0
-5028 -2868 0
-5028 4884 0
5028 2868 -4884 0
-5172 -2472 0
-5172 5028 0
5172 2472 -5028 0
-5316 -2076 0
-5316 5172 0
5316 2076 -5172 0
-5460 -1680 0
-5460 5316 0
5460 1680 -5316 0
-5604 -1284 0
-5604 5460 0
5604 1284 -5460 0
-5748 -888 0
-5748 5604 0
5748 888 -5604 0
-5892 -492 0
-5892 5748 0
5892 492 -5748 0
-6048 8 0
-6048 5892 0
6048 -8 -5892 0
-6049 -8 0
-6049 -5892 0
6049 8 5892 0
-6050 -6048 0
-6050 -6049 0
6050 6048 6049 0
7 -23336 0
-7 23336 0
-491 -233 0
-491 363 0
491 233 -363 0
-887 -225 0
-887 759 0
887 225 -759 0
-1283 -217 0
-1283 1155 0
1283 217 -1155 0
-1679 -209 0
-1679 1551 0
1679 209 -1551 0
-2075 -201 0
-2075 1947 0
2075 201 -1947 0
-2471 -193 0
-2471 2343 0
2471 193 -2343 0
-2867 -185 0
-2867 2739 0
2867 185 -2739 0
-3263 -177 0
-3263 3135 0
3263 177 -3135 0
-3659 -169 0
-3659 3531 0
3659 169 -3531 0
-4055 -161 0
-4055 3927 0
4055 161 -3927 0
-4451 -153 0
-4451 4323 0
4451 153 -4323 0
-4595 -4055 0
-4595 -4451 0
4595 4055 4451 0
-4739 -3659 0
-4739 4595 0
4739 3659 -4595 0
-4883 -3263 0
-4883 4739 0
4883 3263 -4739 0
-5027 -2867 0
-5027 4883 0
5027 2867 -4883 0
-5171 -2471 0
-5171 5027 0
5171 2471 -5027 0
-5315 -2075 0
-5315 5171 0
5315 2075 -5171 0
-5459 -1679 0
-5459 5315 0
5459 1679 -5315 0
-5603 -1283 0
-5603 5459 0
5603 1283 -5459 0
-5747 -887 0
-5747 5603 0
5747 887 -5603 0
-5891 -491 0
-5891 5747 0
5891 491 -5747 0
-6045 7 0
-6045 5891 0
6045 -7 -5891 0
-6046 -7 0
-6046 -5891 0
6046 7 5891 0
-6047 -6045 0
-6047 -6046 0
6047 6045 6046 0
6 -23335 0
-6 23335 0
-490 -233 0
-490 362 0
490 233 -362 0
-886 -225 0
-886 758 0
886 225 -758 0
-1282 -217 0
-1282 1154 0
1282 217 -1154 0
-1678 -209 0
-1678 1550 0
1678 209 -1550 0
-2074 -201 0
-2074 1946 0
2074 201 -1946 0
-2470 -193 0
-2470 2342 0
2470 193 -2342 0
-2866 -185 0
-2866 2738 0
2866 185 -2738 0
-3262 -177 0
-3262 3134 0
3262 177 -3134 0
-3658 -169 0
-3658 3530 0
3658 169 -3530 0
-4054 -161 0
-4054 3926 0
4054 161 -3926 0
-4450 -153 0
-4450 4322 0
4450 153 -4322 0
-4594 -4054 0
-4594 -4450 0
4594 4054 4450 0
-4738 -3658 0
-4738 4594 0
4738 3658 -4594 0
-4882 -3262 0
-4882 4738 0
4882 3262 -4738 0
-5026 -2866 0
-5026 4882 0
5026 2866 -4882 0
-5170 -2470 0
-5170 5026 0
5170 2470 -5026 0
-5314 -2074 0
-5314 5170 0
5314 2074 -5170 0
-5458 -1678 0
-5458 5314 0
5458 1678 -5314 0
-5602 -1282 0
-5602 5458 0
5602 1282 -5458 0
-5746 -886 0
-5746 5602 0
5746 886 -5602 0
-5890 -490 0
-5890 5746 0
5890 490 -5746 0
-6042 6 0
-6042 5890 0
6042 -6 -5890 0
-6043 -6 0
-6043 -5890 0
6043 6 5890 0
-6044 -6042 0
-6044 -6043 0
6044 6042 6043 0
5 -23334 0
-5 23334 0
-489 -233 0
-489 361 0
489 233 -361 0
-885 -225 0
-885 757 0
885 225 -757 0
-1281 -217 0
-1281 1153 0
1281 217 -1153 0
-1677 -209 0
-1677 1549 0
1677 209 -1549 0
-2073 -201 0
-2073 1945 0
2073 201 -1945 0
-2469 -193 0
-2469 2341 0
2469 193 -2341 0
-2865 -185 0
-2865 2737 0
2865 185 -2737 0
-3261 -177 0
-3261 3133 0
3261 177 -3133 0
-3657 -169 0
-3657 3529 0
3657 169 -3529 0
-4053 -161 0
-4053 3925 0
4053 161 -3925 0
-4449 -153 0
-4449 4321 0
4449 153 -4321 0
-4593 -4053 0
-4593 -4449 0
4593 4053 4449 0
-4737 -3657 0
-4737 4593 0
4737 3657 -4593 0
-4881 -3261 0
-4881 4737 0
4881 3261 -4737 0
-5025 -2865 0
-5025 4881 0
5025 2865 -4881 0
-5169 -2469 0
-5169 5025 0
5169 2469 -5025 0
-5313 -2073 0
-5313 5169 0
5313 2073 -5169 0
-5457 -1677 0
-5457 5313 0
5457 1677 -5313 0
-5601 -1281 0
-5601 5457 0
5601 1281 -5457 0
-5745 -885 0
-5745 5601 0
5745 885 -5601 0
-5889 -489 0
-5889 5745 0
5889 489 -5745 0
-6039 5 0
-6039 5889 0
6039 -5 -5889 0
-6040 -5 0
-6040 -5889 0
6040 5 5889 0
-6041 -6039 0
-6041 -6040 0
6041 6039 6040 0
4 -23333 0
-4 23333 0
-488 -233 0
-488 360 0
488 233 -360 0
-884 -225 0
-884 756 0
884 225 -756 0
-1280 -217 0
-1280 1152 0
1280 217 -1152 0
-1676 -209 0
-1676 1548 0
1676 209 -1548 0
-2072 -201 0
-2072 1944 0
2072 201 -1944 0
-2468 -193 0
-2468 2340 0
2468 193 -2340 0
-2864 -185 0
-2864 2736 0
2864 185 -2736 0
-3260 -177 0
-3260 3132 0
3260 177 -3132 0
-3656 -169 0
-3656 3528 0
3656 169 -3528 0
-4052 -161 0
-4052 3924 0
4052 161 -3924 0
-4448 -153 0
-4448 4320 0
4448 153 -4320 0
-4592 -4052 0
-4592 -4448 0
4592 4052 4448 0
-4736 -3656 0
-4736 4592 0
4736 3656 -4592 0
-4880 -3260 0
-4880 4736 0
4880 3260 -4736 0
-5024 -2864 0
-5024 4880 0
5024 2864 -4880 0
-5168 -2468 0
-5168 5024 0
5168 2468 -5024 0
-5312 -2072 0
-5312 5168 0
5312 2072 -5168 0
-5456 -1676 0
-5456 5312 0
5456 1676 -5312 0
-5600 -1280 0
-5600 5456 0
5600 1280 -5456 0
-5744 -884 0
-5744 5600 0
5744 884 -5600 0
-5888 -488 0
-5888 5744 0
5888 488 -5744 0
-6036 4 0
-6036 5888 0
6036 -4 -5888 0
-6037 -4 0
-6037 -5888 0
6037 4 5888 0
-6038 -6036 0
-6038 -6037 0
6038 6036 6037 0
2 -23331 0
-2 23331 0
-486 -233 0
-486 358 0
486 233 -358 0
-882 -225 0
-882 754 0
882 225 -754 0
-1278 -217 0
-1278 1150 0
1278 217 -1150 0
-1674 -209 0
-1674 1546 0
1674 209 -1546 0
-2070 -201 0
-2070 1942 0
2070 201 -1942 0
-2466 -193 0
-2466 2338 0
2466 193 -2338 0
-2862 -185 0
-2862 2734 0
2862 185 -2734 0
-3258 -177 0
-3258 3130 0
3258 177 -3130 0
-3654 -169 0
-3654 3526 0
3654 169 -3526 0
-4050 -161 0
-4050 3922 0
4050 161 -3922 0
-4446 -153 0
-4446 4318 0
4446 153 -4318 0
-4590 -4050 0
-4590 -4446 0
4590 4050 4446 0
-4734 -3654 0
-4734 4590 0
4734 3654 -4590 0
-4878 -3258 0
-4878 4734 0
4878 3258 -4734 0
-5022 -2862 0
-5022 4878 0
5022 2862 -4878 0
-5166 -2466 0
-5166 5022 0
5166 2466 -5022 0
-5310 -2070 0
-5310 5166 0
5310 2070 -5166 0
-5454 -1674 0
-5454 5310 0
5454 1674 -5310 0
-5598 -1278 0
-5598 5454 0
5598 1278 -5454 0
-5742 -882 0
-5742 5598 0
5742 882 -5598 0
-5886 -486 0
-5886 5742 0
5886 486 -5742 0
-6030 2 0
-6030 5886 0
6030 -2 -5886 0
-6031 -2 0
-6031 -5886 0
6031 2 5886 0
-6032 -6030 0
-6032 -6031 0
6032 6030 6031 0
3 -23332 0
-3 23332 0
-487 -233 0
-487 359 0
487 233 -359 0
-883 -225 0
-883 755 0
883 225 -755 0
-1279 -217 0
-1279 1151 0
1279 217 -1151 0
-1675 -209 0
-1675 1547 0
1675 209 -1547 0
-2071 -201 0
-2071 1943 0
2071 201 -1943 0
-2467 -193 0
-2467 2339 0
2467 193 -2339 0
-2863 -185 0
-2863 2735 0
2863 185 -2735 0
-3259 -177 0
-3259 3131 0
3259 177 -3131 0
-3655 -169 0
-3655 3527 0
3655 169 -3527 0
-4051 -161 0
-4051 3923 0
4051 161 -3923 0
-4447 -153 0
-4447 4319 0
4447 153 -4319 0
-4591 -4051 0
-4591 -4447 0
4591 4051 4447 0
-4735 -3655 0
-4735 4591 0
4735 3655 -4591 0
-4879 -3259 0
-4879 4735 0
4879 3259 -4735 0
-5023 -2863 0
-5023 4879 0
5023 2863 -4879 0
-5167 -2467 0
-5167 5023 0
5167 2467 -5023 0
-5311 -2071 0
-5311 5167 0
5311 2071 -5167 0
-5455 -1675 0
-5455 5311 0
5455 1675 -5311 0
-5599 -1279 0
-5599 5455 0
5599 1279 -5455 0
-5743 -883 0
-5743 5599 0
5743 883 -5599 0
-5887 -487 0
-5887 5743 0
5887 487 -5743 0
-6033 3 0
-6033 5887 0
6033 -3 -5887 0
-6034 -3 0
-6034 -5887 0
6034 3 5887 0
-6035 -6033 0
-6035 -6034 0
6035 6033 6034 0
-6462 6032 0
-6462 6035 0
6462 -6032 -6035 0
-6463 6038 0
-6463 6462 0
6463 -6038 -6462 0
-6464 6041 0
-6464 6463 0
6464 -6041 -6463 0
-6465 6044 0
-6465 6464 0
6465 -6044 -6464 0
-6466 6047 0
-6466 6465 0
6466 -6047 -6465 0
-6467 6050 0
-6467 6466 0
6467 -6050 -6466 0
-6468 6053 0
-6468 6467 0
6468 -6053 -6467 0
-6469 6056 0
-6469 6468 0
6469 -6056 -6468 0
-6470 6059 0
-6470 6469 0
6470 -6059 -6469 0
-6471 6062 0
-6471 6470 0
6471 -6062 -6470 0
-6472 6065 0
-6472 6471 0
6472 -6065 -6471 0
-6473 6068 0
-6473 6472 0
6473 -6068 -6472 0
-6474 6071 0
-6474 6473 0
6474 -6071 -6473 0
-6475 6074 0
-6475 6474 0
6475 -6074 -6474 0
-6476 6077 0
-6476 6475 0
6476 -6077 -6475 0
-6477 6080 0
-6477 6476 0
6477 -6080 -6476 0
-6478 6083 0
-6478 6477 0
6478 -6083 -6477 0
-6479 6086 0
-6479 6478 0
6479 -6086 -6478 0
-6480 6089 0
-6480 6479 0
6480 -6089 -6479 0
-6481 6092 0
-6481 6480 0
6481 -6092 -6480 0
-6482 6095 0
-6482 6481 0
6482 -6095 -6481 0
-6483 6098 0
-6483 6482 0
6483 -6098 -6482 0
-6484 6101 0
-6484 6483 0
6484 -6101 -6483 0
-6485 6104 0
-6485 6484 0
6485 -6104 -6484 0
-6486 6107 0
-6486 6485 0
6486 -6107 -6485 0
-6487 6110 0
-6487 6486 0
6487 -6110 -6486 0
-6488 6113 0
-6488 6487 0
6488 -6113 -6487 0
-6489 6116 0
-6489 6488 0
6489 -6116 -6488 0
-6490 6119 0
-6490 6489 0
6490 -6119 -6489 0
-6491 6122 0
-6491 6490 0
6491 -6122 -6490 0
-6492 6125 0
-6492 6491 0
6492 -6125 -6491 0
-6493 6128 0
-6493 6492 0
6493 -6128 -6492 0
-6494 6131 0
-6494 6493 0
6494 -6131 -6493 0
-6495 6134 0
-6495 6494 0
6495 -6134 -6494 0
-6496 6137 0
-6496 6495 0
6496 -6137 -6495 0
-6497 6140 0
-6497 6496 0
6497 -6140 -6496 0
-6498 6143 0
-6498 6497 0
6498 -6143 -6497 0
-6499 6146 0
-6499 6498 0
6499 -6146 -6498 0
-6500 6149 0
-6500 6499 0
6500 -6149 -6499 0
-6501 6152 0
-6501 6500 0
6501 -6152 -6500 0
-6502 6155 0
-6502 6501 0
6502 -6155 -6501 0
-6503 6158 0
-6503 6502 0
6503 -6158 -6502 0
-6504 6161 0
-6504 6503 0
6504 -6161 -6503 0
-6505 6164 0
-6505 6504 0
6505 -6164 -6504 0
-6506 6167 0
-6506 6505 0
6506 -6167 -6505 0
-6507 6170 0
-6507 6506 0
6507 -6170 -6506 0
-6508 6173 0
-6508 6507 0
6508 -6173 -6507 0
-6509 6176 0
-6509 6508 0
6509 -6176 -6508 0
-6510 6179 0
-6510 6509 0
6510 -6179 -6509 0
-6511 6182 0
-6511 6510 0
6511 -6182 -6510 0
-6512 6185 0
-6512 6511 0
6512 -6185 -6511 0
-6513 6188 0
-6513 6512 0
6513 -6188 -6512 0
-6514 6191 0
-6514 6513 0
6514 -6191 -6513 0
-6515 6194 0
-6515 6514 0
6515 -6194 -6514 0
-6516 6197 0
-6516 6515 0
6516 -6197 -6515 0
-6517 6200 0
-6517 6516 0
6517 -6200 -6516 0
-6518 6203 0
-6518 6517 0
6518 -6203 -6517 0
-6519 6206 0
-6519 6518 0
6519 -6206 -6518 0
-6520 6209 0
-6520 6519 0
6520 -6209 -6519 0
-6521 6212 0
-6521 6520 0
6521 -6212 -6520 0
-6522 6215 0
-6522 6521 0
6522 -6215 -6521 0
-6523 6218 0
-6523 6522 0
6523 -6218 -6522 0
-6524 6221 0
-6524 6523 0
6524 -6221 -6523 0
-6525 6224 0
-6525 6524 0
6525 -6224 -6524 0
-6526 6227 0
-6526 6525 0
6526 -6227 -6525 0
-6527 6230 0
-6527 6526 0
6527 -6230 -6526 0
-6528 6233 0
-6528 6527 0
6528 -6233 -6527 0
-6529 6236 0
-6529 6528 0
6529 -6236 -6528 0
-6530 6239 0
-6530 6529 0
6530 -6239 -6529 0
-6531 6242 0
-6531 6530 0
6531 -6242 -6530 0
-6532 6245 0
-6532 6531 0
6532 -6245 -6531 0
-6533 6248 0
-6533 6532 0
6533 -6248 -6532 0
-6534 6251 0
-6534 6533 0
6534 -6251 -6533 0
-6535 6254 0
-6535 6534 0
6535 -6254 -6534 0
-6536 6257 0
-6536 6535 0
6536 -6257 -6535 0
-6537 6260 0
-6537 6536 0
6537 -6260 -6536 0
-6538 6263 0
-6538 6537 0
6538 -6263 -6537 0
-6539 6266 0
-6539 6538 0
6539 -6266 -6538 0
-6540 6269 0
-6540 6539 0
6540 -6269 -6539 0
-6541 6272 0
-6541 6540 0
6541 -6272 -6540 0
-6542 6275 0
-6542 6541 0
6542 -6275 -6541 0
-6543 6278 0
-6543 6542 0
6543 -6278 -6542 0
-6544 6281 0
-6544 6543 0
6544 -6281 -6543 0
-6545 6284 0
-6545 6544 0
6545 -6284 -6544 0
-6546 6287 0
-6546 6545 0
6546 -6287 -6545 0
-6547 6290 0
-6547 6546 0
6547 -6290 -6546 0
-6548 6293 0
-6548 6547 0
6548 -6293 -6547 0
-6549 6296 0
-6549 6548 0
6549 -6296 -6548 0
-6550 6299 0
-6550 6549 0
6550 -6299 -6549 0
-6551 6302 0
-6551 6550 0
6551 -6302 -6550 0
-6552 6305 0
-6552 6551 0
6552 -6305 -6551 0
-6553 6308 0
-6553 6552 0
6553 -6308 -6552 0
-6554 6311 0
-6554 6553 0
6554 -6311 -6553 0
-6555 6314 0
-6555 6554 0
6555 -6314 -6554 0
-6556 6317 0
-6556 6555 0
6556 -6317 -6555 0
-6557 6320 0
-6557 6556 0
6557 -6320 -6556 0
-6558 6323 0
-6558 6557 0
6558 -6323 -6557 0
-6559 6326 0
-6559 6558 0
6559 -6326 -6558 0
-6560 6329 0
-6560 6559 0
6560 -6329 -6559 0
-6561 6332 0
-6561 6560 0
6561 -6332 -6560 0
-6562 6335 0
-6562 6561 0
6562 -6335 -6561 0
-6563 6338 0
-6563 6562 0
6563 -6338 -6562 0
-6564 6341 0
-6564 6563 0
6564 -6341 -6563 0
-6565 6344 0
-6565 6564 0
6565 -6344 -6564 0
-6566 6347 0
-6566 6565 0
6566 -6347 -6565 0
-6567 6350 0
-6567 6566 0
6567 -6350 -6566 0
-6568 6353 0
-6568 6567 0
6568 -6353 -6567 0
-6569 6356 0
-6569 6568 0
6569 -6356 -6568 0
-6570 6359 0
-6570 6569 0
6570 -6359 -6569 0
-6571 6362 0
-6571 6570 0
6571 -6362 -6570 0
-6572 6365 0
-6572 6571 0
6572 -6365 -6571 0
-6573 6368 0
-6573 6572 0
6573 -6368 -6572 0
-6574 6371 0
-6574 6573 0
6574 -6371 -6573 0
-6575 6374 0
-6575 6574 0
6575 -6374 -6574 0
-6576 6377 0
-6576 6575 0
6576 -6377 -6575 0
-6577 6380 0
-6577 6576 0
6577 -6380 -6576 0
-6578 6383 0
-6578 6577 0
6578 -6383 -6577 0
-6579 6386 0
-6579 6578 0
6579 -6386 -6578 0
-6580 6389 0
-6580 6579 0
6580 -6389 -6579 0
-6581 6392 0
-6581 6580 0
6581 -6392 -6580 0
-6582 6395 0
-6582 6581 0
6582 -6395 -6581 0
-6583 6398 0
-6583 6582 0
6583 -6398 -6582 0
-6584 6401 0
-6584 6583 0
6584 -6401 -6583 0
-6585 6404 0
-6585 6584 0
6585 -6404 -6584 0
-6586 6407 0
-6586 6585 0
6586 -6407 -6585 0
-6587 6410 0
-6587 6586 0
6587 -6410 -6586 0
-6588 6413 0
-6588 6587 0
6588 -6413 -6587 0
-6589 6416 0
-6589 6588 0
6589 -6416 -6588 0
-6590 6419 0
-6590 6589 0
6590 -6419 -6589 0
-6591 6422 0
-6591 6590 0
6591 -6422 -6590 0
-6592 6425 0
-6592 6591 0
6592 -6425 -6591 0
-6593 6428 0
-6593 6592 0
6593 -6428 -6592 0
-6594 6431 0
-6594 6593 0
6594 -6431 -6593 0
-6595 6434 0
-6595 6594 0
6595 -6434 -6594 0
-6596 6437 0
-6596 6595 0
6596 -6437 -6595 0
-6597 6440 0
-6597 6596 0
6597 -6440 -6596 0
-6598 6443 0
-6598 6597 0
6598 -6443 -6597 0
-6599 6446 0
-6599 6598 0
6599 -6446 -6598 0
-6600 6449 0
-6600 6599 0
6600 -6449 -6599 0
-6601 6452 0
-6601 6600 0
6601 -6452 -6600 0
-6602 6455 0
-6602 6601 0
6602 -6455 -6601 0
-6603 6458 0
-6603 6602 0
6603 -6458 -6602 0
-6604 6461 0
-6604 6603 0
6604 -6461 -6603 0
-6605 143 0
-6605 144 0
6605 -143 -144 0
-6606 -143 0
-6606 -144 0
6606 143 144 0
-6607 -6605 0
-6607 -6606 0
6607 6605 6606 0
-6608 67 0
-6608 70 0
6608 -67 -70 0
-6609 -67 0
-6609 -70 0
6609 67 70 0
-6610 -6608 0
-6610 -6609 0
6610 6608 6609 0
-6626 127 0
-6626 6610 0
6626 -127 -6610 0
-6627 -127 0
-6627 -6610 0
6627 127 6610 0
-6628 -6626 0
-6628 -6627 0
6628 6626 6627 0
-6629 61 0
-6629 6628 0
6629 -61 -6628 0
-6630 -61 0
-6630 -6628 0
6630 61 6628 0
-6631 -6629 0
-6631 -6630 0
6631 6629 6630 0
-6632 6607 0
-6632 6631 0
6632 -6607 -6631 0
-6633 -6607 0
-6633 -6631 0
6633 6607 6631 0
-6634 -6632 0
-6634 -6633 0
6634 6632 6633 0
-6635 6604 0
-6635 -6634 0
6635 -6604 6634 0
-6636 142 0
-6636 143 0
6636 -142 -143 0
-6637 -142 0
-6637 -143 0
6637 142 143 0
-6638 -6636 0
-6638 -6637 0
6638 6636 6637 0
-6639 66 0
-6639 69 0
6639 -66 -69 0
-6640 -66 0
-6640 -69 0
6640 66 69 0
-6641 -6639 0
-6641 -6640 0
6641 6639 6640 0
-6657 126 0
-6657 6641 0
6657 -126 -6641 0
-6658 -126 0
-6658 -6641 0
6658 126 6641 0
-6659 -6657 0
-6659 -6658 0
6659 6657 6658 0
-6660 60 0
-6660 6659 0
6660 -60 -6659 0
-6661 -60 0
-6661 -6659 0
6661 60 6659 0
-6662 -6660 0
-6662 -6661 0
6662 6660 6661 0
-6663 6638 0
-6663 6662 0
6663 -6638 -6662 0
-6664 -6638 0
-6664 -6662 0
6664 6638 6662 0
-6665 -6663 0
-6665 -6664 0
6665 6663 6664 0
-6666 6635 0
-6666 -6665 0
6666 -6635 6665 0
-6667 141 0
-6667 142 0
6667 -141 -142 0
-6668 -141 0
-6668 -142 0
6668 141 142 0
-6669 -6667 0
-6669 -6668 0
6669 6667 6668 0
-6673 59 0
-6673 65 0
6673 -59 -65 0
-6674 -59 0
-6674 -65 0
6674 59 65 0
-6675 -6673 0
-6675 -6674 0
6675 6673 6674 0
-6688 68 0
-6688 125 0
6688 -68 -125 0
-6689 -68 0
-6689 -125 0
6689 68 125 0
-6690 -6688 0
-6690 -6689 0
6690 6688 6689 0
-6691 6675 0
-6691 6690 0
6691 -6675 -6690 0
-6692 -6675 0
-6692 -6690 0
6692 6675 6690 0
-6693 -6691 0
-6693 -6692 0
6693 6691 6692 0
-6694 6669 0
-6694 6693 0
6694 -6669 -6693 0
-6695 -6669 0
-6695 -6693 0
6695 6669 6693 0
-6696 -6694 0
-6696 -6695 0
6696 6694 6695 0
-6697 6666 0
-6697 -6696 0
6697 -6666 6696 0
-6698 140 0
-6698 141 0
6698 -140 -141 0
-6699 -140 0
-6699 -141 0
6699 140 141 0
-6700 -6698 0
-6700 -6699 0
6700 6698 6699 0
-6701 58 0
-6701 64 0
6701 -58 -64 0
-6702 -58 0
-6702 -64 0
6702 58 64 0
-6703 -6701 0
-6703 -6702 0
6703 6701 6702 0
-6719 73 0
-6719 124 0
6719 -73 -124 0
-6720 -73 0
-6720 -124 0
6720 73 124 0
-6721 -6719 0
-6721 -6720 0
6721 6719 6720 0
-6722 6703 0
-6722 6721 0
6722 -6703 -6721 0
-6723 -6703 0
-6723 -6721 0
6723 6703 6721 0
-6724 -6722 0
-6724 -6723 0
6724 6722 6723 0
-6725 6700 0
-6725 6724 0
6725 -6700 -6724 0
-6726 -6700 0
-6726 -6724 0
6726 6700 6724 0
-6727 -6725 0
-6727 -6726 0
6727 6725 6726 0
-6728 6697 0
-6728 -6727 0
6728 -6697 6727 0
-6732 140 0
-6732 145 0
6732 -140 -145 0
-6733 -140 0
-6733 -145 0
6733 140 145 0
-6734 -6732 0
-6734 -6733 0
6734 6732 6733 0
-6729 57 0
-6729 63 0
6729 -57 -63 0
-6730 -57 0
-6730 -63 0
6730 57 63 0
-6731 -6729 0
-6731 -6730 0
6731 6729 6730 0
-6750 72 0
-6750 123 0
6750 -72 -123 0
-6751 -72 0
-6751 -123 0
6751 72 123 0
-6752 -6750 0
-6752 -6751 0
6752 6750 6751 0
-6753 6731 0
-6753 6752 0
6753 -6731 -6752 0
-6754 -6731 0
-6754 -6752 0
6754 6731 6752 0
-6755 -6753 0
-6755 -6754 0
6755 6753 6754 0
-6756 6734 0
-6756 6755 0
6756 -6734 -6755 0
-6757 -6734 0
-6757 -6755 0
6757 6734 6755 0
-6758 -6756 0
-6758 -6757 0
6758 6756 6757 0
-6759 6728 0
-6759 -6758 0
6759 -6728 6758 0
-6760 144 0
-6760 145 0
6760 -144 -145 0
-6761 -144 0
-6761 -145 0
6761 144 145 0
-6762 -6760 0
-6762 -6761 0
6762 6760 6761 0
-6763 56 0
-6763 62 0
6763 -56 -62 0
-6764 -56 0
-6764 -62 0
6764 56 62 0
-6765 -6763 0
-6765 -6764 0
6765 6763 6764 0
-6781 71 0
-6781 122 0
6781 -71 -122 0
-6782 -71 0
-6782 -122 0
6782 71 122 0
-6783 -6781 0
-6783 -6782 0
6783 6781 6782 0
-6784 6765 0
-6784 6783 0
6784 -6765 -6783 0
-6785 -6765 0
-6785 -6783 0
6785 6765 6783 0
-6786 -6784 0
-6786 -6785 0
6786 6784 6785 0
-6787 6762 0
-6787 6786 0
6787 -6762 -6786 0
-6788 -6762 0
-6788 -6786 0
6788 6762 6786 0
-6789 -6787 0
-6789 -6788 0
6789 6787 6788 0
-6790 6759 0
-6790 -6789 0
6790 -6759 6789 0
-6791 137 0
-6791 138 0
6791 -137 -138 0
-6792 -137 0
-6792 -138 0
6792 137 138 0
-6793 -6791 0
-6793 -6792 0
6793 6791 6792 0
-6794 61 0
-6794 64 0
6794 -61 -64 0
-6795 -61 0
-6795 -64 0
6795 61 64 0
-6796 -6794 0
-6796 -6795 0
6796 6794 6795 0
-6800 55 0
-6800 6796 0
6800 -55 -6796 0
-6801 -55 0
-6801 -6796 0
6801 55 6796 0
-6802 -6800 0
-6802 -6801 0
6802 6800 6801 0
-6812 121 0
-6812 6802 0
6812 -121 -6802 0
-6813 -121 0
-6813 -6802 0
6813 121 6802 0
-6814 -6812 0
-6814 -6813 0
6814 6812 6813 0
-6815 6793 0
-6815 6814 0
6815 -6793 -6814 0
-6816 -6793 0
-6816 -6814 0
6816 6793 6814 0
-6817 -6815 0
-6817 -6816 0
6817 6815 6816 0
-6818 6790 0
-6818 -6817 0
6818 -6790 6817 0
-6819 136 0
-6819 137 0
6819 -136 -137 0
-6820 -136 0
-6820 -137 0
6820 136 137 0
-6821 -6819 0
-6821 -6820 0
6821 6819 6820 0
-6822 60 0
-6822 63 0
6822 -60 -63 0
-6823 -60 0
-6823 -63 0
6823 60 63 0
-6824 -6822 0
-6824 -6823 0
6824 6822 6823 0
-6828 54 0
-6828 6824 0
6828 -54 -6824 0
-6829 -54 0
-6829 -6824 0
6829 54 6824 0
-6830 -6828 0
-6830 -6829 0
6830 6828 6829 0
-6840 120 0
-6840 6830 0
6840 -120 -6830 0
-6841 -120 0
-6841 -6830 0
6841 120 6830 0
-6842 -6840 0
-6842 -6841 0
6842 6840 6841 0
-6843 6821 0
-6843 6842 0
6843 -6821 -6842 0
-6844 -6821 0
-6844 -6842 0
6844 6821 6842 0
-6845 -6843 0
-6845 -6844 0
6845 6843 6844 0
-6846 6818 0
-6846 -6845 0
6846 -6818 6845 0
-6847 135 0
-6847 136 0
6847 -135 -136 0
-6848 -135 0
-6848 -136 0
6848 135 136 0
-6849 -6847 0
-6849 -6848 0
6849 6847 6848 0
-6850 59 0
-6850 62 0
6850 -59 -62 0
-6851 -59 0
-6851 -62 0
6851 59 62 0
-6852 -6850 0
-6852 -6851 0
6852 6850 6851 0
-6856 53 0
-6856 6852 0
6856 -53 -6852 0
-6857 -53 0
-6857 -6852 0
6857 53 6852 0
-6858 -6856 0
-6858 -6857 0
6858 6856 6857 0
-6868 119 0
-6868 6858 0
6868 -119 -6858 0
-6869 -119 0
-6869 -6858 0
6869 119 6858 0
-6870 -6868 0
-6870 -6869 0
6870 6868 6869 0
-6871 6849 0
-6871 6870 0
6871 -6849 -6870 0
-6872 -6849 0
-6872 -6870 0
6872 6849 6870 0
-6873 -6871 0
-6873 -6872 0
6873 6871 6872 0
-6874 6846 0
-6874 -6873 0
6874 -6846 6873 0
-6875 134 0
-6875 135 0
6875 -134 -135 0
-6876 -134 0
-6876 -135 0
6876 134 135 0
-6877 -6875 0
-6877 -6876 0
6877 6875 6876 0
-6878 52 0
-6878 58 0
6878 -52 -58 0
-6879 -52 0
-6879 -58 0
6879 52 58 0
-6880 -6878 0
-6880 -6879 0
6880 6878 6879 0
-6896 67 0
-6896 118 0
6896 -67 -118 0
-6897 -67 0
-6897 -118 0
6897 67 118 0
-6898 -6896 0
-6898 -6897 0
6898 6896 6897 0
-6899 6880 0
-6899 6898 0
6899 -6880 -6898 0
-6900 -6880 0
-6900 -6898 0
6900 6880 6898 0
-6901 -6899 0
-6901 -6900 0
6901 6899 6900 0
-6902 6877 0
-6902 6901 0
6902 -6877 -6901 0
-6903 -6877 0
-6903 -6901 0
6903 6877 6901 0
-6904 -6902 0
-6904 -6903 0
6904 6902 6903 0
-6905 6874 0
-6905 -6904 0
6905 -6874 6904 0
-6909 134 0
-6909 139 0
6909 -134 -139 0
-6910 -134 0
-6910 -139 0
6910 134 139 0
-6911 -6909 0
-6911 -6910 0
6911 6909 6910 0
-6906 51 0
-6906 57 0
6906 -51 -57 0
-6907 -51 0
-6907 -57 0
6907 51 57 0
-6908 -6906 0
-6908 -6907 0
6908 6906 6907 0
-6927 66 0
-6927 117 0
6927 -66 -117 0
-6928 -66 0
-6928 -117 0
6928 66 117 0
-6929 -6927 0
-6929 -6928 0
6929 6927 6928 0
-6930 6908 0
-6930 6929 0
6930 -6908 -6929 0
-6931 -6908 0
-6931 -6929 0
6931 6908 6929 0
-6932 -6930 0
-6932 -6931 0
6932 6930 6931 0
-6933 6911 0
-6933 6932 0
6933 -6911 -6932 0
-6934 -6911 0
-6934 -6932 0
6934 6911 6932 0
-6935 -6933 0
-6935 -6934 0
6935 6933 6934 0
-6936 6905 0
-6936 -6935 0
6936 -6905 6935 0
-6937 138 0
-6937 139 0
6937 -138 -139 0
-6938 -138 0
-6938 -139 0
6938 138 139 0
-6939 -6937 0
-6939 -6938 0
6939 6937 6938 0
-6940 50 0
-6940 56 0
6940 -50 -56 0
-6941 -50 0
-6941 -56 0
6941 50 56 0
-6942 -6940 0
-6942 -6941 0
6942 6940 6941 0
-6943 65 0
-6943 6942 0
6943 -65 -6942 0
-6944 -65 0
-6944 -6942 0
6944 65 6942 0
-6945 -6943 0
-6945 -6944 0
6945 6943 6944 0
-6958 116 0
-6958 6945 0
6958 -116 -6945 0
-6959 -116 0
-6959 -6945 0
6959 116 6945 0
-6960 -6958 0
-6960 -6959 0
6960 6958 6959 0
-6961 6939 0
-6961 6960 0
6961 -6939 -6960 0
-6962 -6939 0
-6962 -6960 0
6962 6939 6960 0
-6963 -6961 0
-6963 -6962 0
6963 6961 6962 0
-6964 6936 0
-6964 -6963 0
6964 -6936 6963 0
-6965 131 0
-6965 132 0
6965 -131 -132 0
-6966 -131 0
-6966 -132 0
6966 131 132 0
-6967 -6965 0
-6967 -6966 0
6967 6965 6966 0
-6968 55 0
-6968 58 0
6968 -55 -58 0
-6969 -55 0
-6969 -58 0
6969 55 58 0
-6970 -6968 0
-6970 -6969 0
6970 6968 6969 0
-6974 49 0
-6974 6970 0
6974 -49 -6970 0
-6975 -49 0
-6975 -6970 0
6975 49 6970 0
-6976 -6974 0
-6976 -6975 0
6976 6974 6975 0
-6986 115 0
-6986 6976 0
6986 -115 -6976 0
-6987 -115 0
-6987 -6976 0
6987 115 6976 0
-6988 -6986 0
-6988 -6987 0
6988 6986 6987 0
-6989 6967 0
-6989 6988 0
6989 -6967 -6988 0
-6990 -6967 0
-6990 -6988 0
6990 6967 6988 0
-6991 -6989 0
-6991 -6990 0
6991 6989 6990 0
-6992 6964 0
-6992 -6991 0
6992 -6964 6991 0
-6993 130 0
-6993 131 0
6993 -130 -131 0
-6994 -130 0
-6994 -131 0
6994 130 131 0
-6995 -6993 0
-6995 -6994 0
6995 6993 6994 0
-6996 54 0
-6996 57 0
6996 -54 -57 0
-6997 -54 0
-6997 -57 0
6997 54 57 0
-6998 -6996 0
-6998 -6997 0
6998 6996 6997 0
-7002 48 0
-7002 6998 0
7002 -48 -6998 0
-7003 -48 0
-7003 -6998 0
7003 48 6998 0
-7004 -7002 0
-7004 -7003 0
7004 7002 7003 0
-7014 114 0
-7014 7004 0
7014 -114 -7004 0
-7015 -114 0
-7015 -7004 0
7015 114 7004 0
-7016 -7014 0
-7016 -7015 0
7016 7014 7015 0
-7017 6995 0
-7017 7016 0
7017 -6995 -7016 0
-7018 -6995 0
-7018 -7016 0
7018 6995 7016 0
-7019 -7017 0
-7019 -7018 0
7019 7017 7018 0
-7020 6992 0
-7020 -7019 0
7020 -6992 7019 0
-7024 53 0
-7024 56 0
7024 -53 -56 0
-7025 -53 0
-7025 -56 0
7025 53 56 0
-7026 -7024 0
-7026 -7025 0
7026 7024 7025 0
-7030 47 0
-7030 7026 0
7030 -47 -7026 0
-7031 -47 0
-7031 -7026 0
7031 47 7026 0
-7032 -7030 0
-7032 -7031 0
7032 7030 7031 0
-7036 113 0
-7036 129 0
7036 -113 -129 0
-7037 -113 0
-7037 -129 0
7037 113 129 0
-7038 -7036 0
-7038 -7037 0
7038 7036 7037 0
-7042 7032 0
-7042 7038 0
7042 -7032 -7038 0
-7043 -7032 0
-7043 -7038 0
7043 7032 7038 0
-7044 -7042 0
-7044 -7043 0
7044 7042 7043 0
-7045 130 0
-7045 7044 0
7045 -130 -7044 0
-7046 -130 0
-7046 -7044 0
7046 130 7044 0
-7047 -7045 0
-7047 -7046 0
7047 7045 7046 0
-7048 7020 0
-7048 -7047 0
7048 -7020 7047 0
-7058 52 0
-7058 61 0
7058 -52 -61 0
-7059 -52 0
-7059 -61 0
7059 52 61 0
-7060 -7058 0
-7060 -7059 0
7060 7058 7059 0
-7061 46 0
-7061 7060 0
7061 -46 -7060 0
-7062 -46 0
-7062 -7060 0
7062 46 7060 0
-7063 -7061 0
-7063 -7062 0
7063 7061 7062 0
-7049 128 0
-7049 129 0
7049 -128 -129 0
-7050 -128 0
-7050 -129 0
7050 128 129 0
-7051 -7049 0
-7051 -7050 0
7051 7049 7050 0
-7067 112 0
-7067 7051 0
7067 -112 -7051 0
-7068 -112 0
-7068 -7051 0
7068 112 7051 0
-7069 -7067 0
-7069 -7068 0
7069 7067 7068 0
-7070 7063 0
-7070 7069 0
7070 -7063 -7069 0
-7071 -7063 0
-7071 -7069 0
7071 7063 7069 0
-7072 -7070 0
-7072 -7071 0
7072 7070 7071 0
-7073 7048 0
-7073 -7072 0
7073 -7048 7072 0
-7083 51 0
-7083 60 0
7083 -51 -60 0
-7084 -51 0
-7084 -60 0
7084 51 60 0
-7085 -7083 0
-7085 -7084 0
7085 7083 7084 0
-7086 45 0
-7086 7085 0
7086 -45 -7085 0
-7087 -45 0
-7087 -7085 0
7087 45 7085 0
-7088 -7086 0
-7088 -7087 0
7088 7086 7087 0
-7089 111 0
-7089 128 0
7089 -111 -128 0
-7090 -111 0
-7090 -128 0
7090 111 128 0
-7091 -7089 0
-7091 -7090 0
7091 7089 7090 0
-7095 7088 0
-7095 7091 0
7095 -7088 -7091 0
-7096 -7088 0
-7096 -7091 0
7096 7088 7091 0
-7097 -7095 0
-7097 -7096 0
7097 7095 7096 0
-7098 133 0
-7098 7097 0
7098 -133 -7097 0
-7099 -133 0
-7099 -7097 0
7099 133 7097 0
-7100 -7098 0
-7100 -7099 0
7100 7098 7099 0
-7101 7073 0
-7101 -7100 0
7101 -7073 7100 0
-7102 132 0
-7102 133 0
7102 -132 -133 0
-7103 -132 0
-7103 -133 0
7103 132 133 0
-7104 -7102 0
-7104 -7103 0
7104 7102 7103 0
-7111 50 0
-7111 59 0
7111 -50 -59 0
-7112 -50 0
-7112 -59 0
7112 50 59 0
-7113 -7111 0
-7113 -7112 0
7113 7111 7112 0
-7114 44 0
-7114 7113 0
7114 -44 -7113 0
-7115 -44 0
-7115 -7113 0
7115 44 7113 0
-7116 -7114 0
-7116 -7115 0
7116 7114 7115 0
-7123 110 0
-7123 7116 0
7123 -110 -7116 0
-7124 -110 0
-7124 -7116 0
7124 110 7116 0
-7125 -7123 0
-7125 -7124 0
7125 7123 7124 0
-7126 7104 0
-7126 7125 0
7126 -7104 -7125 0
-7127 -7104 0
-7127 -7125 0
7127 7104 7125 0
-7128 -7126 0
-7128 -7127 0
7128 7126 7127 0
-7129 7101 0
-7129 -7128 0
7129 -7101 7128 0
-7136 43 0
-7136 49 0
7136 -43 -49 0
-7137 -43 0
-7137 -49 0
7137 43 49 0
-7138 -7136 0
-7138 -7137 0
7138 7136 7137 0
-7142 52 0
-7142 7138 0
7142 -52 -7138 0
-7143 -52 0
-7143 -7138 0
7143 52 7138 0
-7144 -7142 0
-7144 -7143 0
7144 7142 7143 0
-7130 125 0
-7130 126 0
7130 -125 -126 0
-7131 -125 0
-7131 -126 0
7131 125 126 0
-7132 -7130 0
-7132 -7131 0
7132 7130 7131 0
-7148 109 0
-7148 7132 0
7148 -109 -7132 0
-7149 -109 0
-7149 -7132 0
7149 109 7132 0
-7150 -7148 0
-7150 -7149 0
7150 7148 7149 0
-7151 7144 0
-7151 7150 0
7151 -7144 -7150 0
-7152 -7144 0
-7152 -7150 0
7152 7144 7150 0
-7153 -7151 0
-7153 -7152 0
7153 7151 7152 0
-7154 7129 0
-7154 -7153 0
7154 -7129 7153 0
-7161 42 0
-7161 48 0
7161 -42 -48 0
-7162 -42 0
-7162 -48 0
7162 42 48 0
-7163 -7161 0
-7163 -7162 0
7163 7161 7162 0
-7167 51 0
-7167 7163 0
7167 -51 -7163 0
-7168 -51 0
-7168 -7163 0
7168 51 7163 0
-7169 -7167 0
-7169 -7168 0
7169 7167 7168 0
-7155 124 0
-7155 125 0
7155 -124 -125 0
-7156 -124 0
-7156 -125 0
7156 124 125 0
-7157 -7155 0
-7157 -7156 0
7157 7155 7156 0
-7173 108 0
-7173 7157 0
7173 -108 -7157 0
-7174 -108 0
-7174 -7157 0
7174 108 7157 0
-7175 -7173 0
-7175 -7174 0
7175 7173 7174 0
-7176 7169 0
-7176 7175 0
7176 -7169 -7175 0
-7177 -7169 0
-7177 -7175 0
7177 7169 7175 0
-7178 -7176 0
-7178 -7177 0
7178 7176 7177 0
-7179 7154 0
-7179 -7178 0
7179 -7154 7178 0
-7186 41 0
-7186 47 0
7186 -41 -47 0
-7187 -41 0
-7187 -47 0
7187 41 47 0
-7188 -7186 0
-7188 -7187 0
7188 7186 7187 0
-7192 50 0
-7192 7188 0
7192 -50 -7188 0
-7193 -50 0
-7193 -7188 0
7193 50 7188 0
-7194 -7192 0
-7194 -7193 0
7194 7192 7193 0
-7180 123 0
-7180 124 0
7180 -123 -124 0
-7181 -123 0
-7181 -124 0
7181 123 124 0
-7182 -7180 0
-7182 -7181 0
7182 7180 7181 0
-7198 107 0
-7198 7182 0
7198 -107 -7182 0
-7199 -107 0
-7199 -7182 0
7199 107 7182 0
-7200 -7198 0
-7200 -7199 0
7200 7198 7199 0
-7201 7194 0
-7201 7200 0
7201 -7194 -7200 0
-7202 -7194 0
-7202 -7200 0
7202 7194 7200 0
-7203 -7201 0
-7203 -7202 0
7203 7201 7202 0
-7204 7179 0
-7204 -7203 0
7204 -7179 7203 0
-7208 40 0
-7208 46 0
7208 -40 -46 0
-7209 -40 0
-7209 -46 0
7209 40 46 0
-7210 -7208 0
-7210 -7209 0
7210 7208 7209 0
-7211 55 0
-7211 7210 0
7211 -55 -7210 0
-7212 -55 0
-7212 -7210 0
7212 55 7210 0
-7213 -7211 0
-7213 -7212 0
7213 7211 7212 0
-7205 122 0
-7205 123 0
7205 -122 -123 0
-7206 -122 0
-7206 -123 0
7206 122 123 0
-7207 -7205 0
-7207 -7206 0
7207 7205 7206 0
-7220 106 0
-7220 7207 0
7220 -106 -7207 0
-7221 -106 0
-7221 -7207 0
7221 106 7207 0
-7222 -7220 0
-7222 -7221 0
7222 7220 7221 0
-7223 7213 0
-7223 7222 0
7223 -7213 -7222 0
-7224 -7213 0
-7224 -7222 0
7224 7213 7222 0
-7225 -7223 0
-7225 -7224 0
7225 7223 7224 0
-7226 7204 0
-7226 -7225 0
7226 -7204 7225 0
-7227 39 0
-7227 45 0
7227 -39 -45 0
-7228 -39 0
-7228 -45 0
7228 39 45 0
-7229 -7227 0
-7229 -7228 0
7229 7227 7228 0
-7233 54 0
-7233 7229 0
7233 -54 -7229 0
-7234 -54 0
-7234 -7229 0
7234 54 7229 0
-7235 -7233 0
-7235 -7234 0
7235 7233 7234 0
-7230 122 0
-7230 127 0
7230 -122 -127 0
-7231 -122 0
-7231 -127 0
7231 122 127 0
-7232 -7230 0
-7232 -7231 0
7232 7230 7231 0
-7242 105 0
-7242 7232 0
7242 -105 -7232 0
-7243 -105 0
-7243 -7232 0
7243 105 7232 0
-7244 -7242 0
-7244 -7243 0
7244 7242 7243 0
-7245 7235 0
-7245 7244 0
7245 -7235 -7244 0
-7246 -7235 0
-7246 -7244 0
7246 7235 7244 0
-7247 -7245 0
-7247 -7246 0
7247 7245 7246 0
-7248 7226 0
-7248 -7247 0
7248 -7226 7247 0
-7252 38 0
-7252 44 0
7252 -38 -44 0
-7253 -38 0
-7253 -44 0
7253 38 44 0
-7254 -7252 0
-7254 -7253 0
7254 7252 7253 0
-7255 53 0
-7255 7254 0
7255 -53 -7254 0
-7256 -53 0
-7256 -7254 0
7256 53 7254 0
-7257 -7255 0
-7257 -7256 0
7257 7255 7256 0
-7249 126 0
-7249 127 0
7249 -126 -127 0
-7250 -126 0
-7250 -127 0
7250 126 127 0
-7251 -7249 0
-7251 -7250 0
7251 7249 7250 0
-7264 104 0
-7264 7251 0
7264 -104 -7251 0
-7265 -104 0
-7265 -7251 0
7265 104 7251 0
-7266 -7264 0
-7266 -7265 0
7266 7264 7265 0
-7267 7257 0
-7267 7266 0
7267 -7257 -7266 0
-7268 -7257 0
-7268 -7266 0
7268 7257 7266 0
-7269 -7267 0
-7269 -7268 0
7269 7267 7268 0
-7270 7248 0
-7270 -7269 0
7270 -7248 7269 0
-7274 43 0
-7274 46 0
7274 -43 -46 0
-7275 -43 0
-7275 -46 0
7275 43 46 0
-7276 -7274 0
-7276 -7275 0
7276 7274 7275 0
-7280 37 0
-7280 7276 0
7280 -37 -7276 0
-7281 -37 0
-7281 -7276 0
7281 37 7276 0
-7282 -7280 0
-7282 -7281 0
7282 7280 7281 0
-7271 119 0
-7271 120 0
7271 -119 -120 0
-7272 -119 0
-7272 -120 0
7272 119 120 0
-7273 -7271 0
-7273 -7272 0
7273 7271 7272 0
-7289 103 0
-7289 7273 0
7289 -103 -7273 0
-7290 -103 0
-7290 -7273 0
7290 103 7273 0
-7291 -7289 0
-7291 -7290 0
7291 7289 7290 0
-7292 7282 0
-7292 7291 0
7292 -7282 -7291 0
-7293 -7282 0
-7293 -7291 0
7293 7282 7291 0
-7294 -7292 0
-7294 -7293 0
7294 7292 7293 0
-7295 7270 0
-7295 -7294 0
7295 -7270 7294 0
-7299 42 0
-7299 45 0
7299 -42 -45 0
-7300 -42 0
-7300 -45 0
7300 42 45 0
-7301 -7299 0
-7301 -7300 0
7301 7299 7300 0
-7305 36 0
-7305 7301 0
7305 -36 -7301 0
-7306 -36 0
-7306 -7301 0
7306 36 7301 0
-7307 -7305 0
-7307 -7306 0
7307 7305 7306 0
-7296 118 0
-7296 119 0
7296 -118 -119 0
-7297 -118 0
-7297 -119 0
7297 118 119 0
-7298 -7296 0
-7298 -7297 0
7298 7296 7297 0
-7314 102 0
-7314 7298 0
7314 -102 -7298 0
-7315 -102 0
-7315 -7298 0
7315 102 7298 0
-7316 -7314 0
-7316 -7315 0
7316 7314 7315 0
-7317 7307 0
-7317 7316 0
7317 -7307 -7316 0
-7318 -7307 0
-7318 -7316 0
7318 7307 7316 0
-7319 -7317 0
-7319 -7318 0
7319 7317 7318 0
-7320 7295 0
-7320 -7319 0
7320 -7295 7319 0
-7327 35 0
-7327 41 0
7327 -35 -41 0
-7328 -35 0
-7328 -41 0
7328 35 41 0
-7329 -7327 0
-7329 -7328 0
7329 7327 7328 0
-7330 44 0
-7330 7329 0
7330 -44 -7329 0
-7331 -44 0
-7331 -7329 0
7331 44 7329 0
-7332 -7330 0
-7332 -7331 0
7332 7330 7331 0
-7321 117 0
-7321 118 0
7321 -117 -118 0
-7322 -117 0
-7322 -118 0
7322 117 118 0
-7323 -7321 0
-7323 -7322 0
7323 7321 7322 0
-7339 101 0
-7339 7323 0
7339 -101 -7323 0
-7340 -101 0
-7340 -7323 0
7340 101 7323 0
-7341 -7339 0
-7341 -7340 0
7341 7339 7340 0
-7342 7332 0
-7342 7341 0
7342 -7332 -7341 0
-7343 -7332 0
-7343 -7341 0
7343 7332 7341 0
-7344 -7342 0
-7344 -7343 0
7344 7342 7343 0
-7345 7320 0
-7345 -7344 0
7345 -7320 7344 0
-7349 34 0
-7349 40 0
7349 -34 -40 0
-7350 -34 0
-7350 -40 0
7350 34 40 0
-7351 -7349 0
-7351 -7350 0
7351 7349 7350 0
-7352 49 0
-7352 7351 0
7352 -49 -7351 0
-7353 -49 0
-7353 -7351 0
7353 49 7351 0
-7354 -7352 0
-7354 -7353 0
7354 7352 7353 0
-7346 116 0
-7346 117 0
7346 -116 -117 0
-7347 -116 0
-7347 -117 0
7347 116 117 0
-7348 -7346 0
-7348 -7347 0
7348 7346 7347 0
-7361 100 0
-7361 7348 0
7361 -100 -7348 0
-7362 -100 0
-7362 -7348 0
7362 100 7348 0
-7363 -7361 0
-7363 -7362 0
7363 7361 7362 0
-7364 7354 0
-7364 7363 0
7364 -7354 -7363 0
-7365 -7354 0
-7365 -7363 0
7365 7354 7363 0
-7366 -7364 0
-7366 -7365 0
7366 7364 7365 0
-7367 7345 0
-7367 -7366 0
7367 -7345 7366 0
-7374 39 0
-7374 48 0
7374 -39 -48 0
-7375 -39 0
-7375 -48 0
7375 39 48 0
-7376 -7374 0
-7376 -7375 0
7376 7374 7375 0
-7380 33 0
-7380 7376 0
7380 -33 -7376 0
-7381 -33 0
-7381 -7376 0
7381 33 7376 0
-7382 -7380 0
-7382 -7381 0
7382 7380 7381 0
-7371 116 0
-7371 121 0
7371 -116 -121 0
-7372 -116 0
-7372 -121 0
7372 116 121 0
-7373 -7371 0
-7373 -7372 0
7373 7371 7372 0
-7386 99 0
-7386 7373 0
7386 -99 -7373 0
-7387 -99 0
-7387 -7373 0
7387 99 7373 0
-7388 -7386 0
-7388 -7387 0
7388 7386 7387 0
-7389 7382 0
-7389 7388 0
7389 -7382 -7388 0
-7390 -7382 0
-7390 -7388 0
7390 7382 7388 0
-7391 -7389 0
-7391 -7390 0
7391 7389 7390 0
-7392 7367 0
-7392 -7391 0
7392 -7367 7391 0
-7399 38 0
-7399 47 0
7399 -38 -47 0
-7400 -38 0
-7400 -47 0
7400 38 47 0
-7401 -7399 0
-7401 -7400 0
7401 7399 7400 0
-7405 32 0
-7405 7401 0
7405 -32 -7401 0
-7406 -32 0
-7406 -7401 0
7406 32 7401 0
-7407 -7405 0
-7407 -7406 0
7407 7405 7406 0
-7393 120 0
-7393 121 0
7393 -120 -121 0
-7394 -120 0
-7394 -121 0
7394 120 121 0
-7395 -7393 0
-7395 -7394 0
7395 7393 7394 0
-7411 98 0
-7411 7395 0
7411 -98 -7395 0
-7412 -98 0
-7412 -7395 0
7412 98 7395 0
-7413 -7411 0
-7413 -7412 0
7413 7411 7412 0
-7414 7407 0
-7414 7413 0
7414 -7407 -7413 0
-7415 -7407 0
-7415 -7413 0
7415 7407 7413 0
-7416 -7414 0
-7416 -7415 0
7416 7414 7415 0
-7417 7392 0
-7417 -7416 0
7417 -7392 7416 0
-7421 37 0
-7421 40 0
7421 -37 -40 0
-7422 -37 0
-7422 -40 0
7422 37 40 0
-7423 -7421 0
-7423 -7422 0
7423 7421 7422 0
-7427 31 0
-7427 7423 0
7427 -31 -7423 0
-7428 -31 0
-7428 -7423 0
7428 31 7423 0
-7429 -7427 0
-7429 -7428 0
7429 7427 7428 0
-7418 113 0
-7418 114 0
7418 -113 -114 0
-7419 -113 0
-7419 -114 0
7419 113 114 0
-7420 -7418 0
-7420 -7419 0
7420 7418 7419 0
-7436 97 0
-7436 7420 0
7436 -97 -7420 0
-7437 -97 0
-7437 -7420 0
7437 97 7420 0
-7438 -7436 0
-7438 -7437 0
7438 7436 7437 0
-7439 7429 0
-7439 7438 0
7439 -7429 -7438 0
-7440 -7429 0
-7440 -7438 0
7440 7429 7438 0
-7441 -7439 0
-7441 -7440 0
7441 7439 7440 0
-7442 7417 0
-7442 -7441 0
7442 -7417 7441 0
-7446 36 0
-7446 39 0
7446 -36 -39 0
-7447 -36 0
-7447 -39 0
7447 36 39 0
-7448 -7446 0
-7448 -7447 0
7448 7446 7447 0
-7452 30 0
-7452 7448 0
7452 -30 -7448 0
-7453 -30 0
-7453 -7448 0
7453 30 7448 0
-7454 -7452 0
-7454 -7453 0
7454 7452 7453 0
-7443 112 0
-7443 113 0
7443 -112 -113 0
-7444 -112 0
-7444 -113 0
7444 112 113 0
-7445 -7443 0
-7445 -7444 0
7445 7443 7444 0
-7461 96 0
-7461 7445 0
7461 -96 -7445 0
-7462 -96 0
-7462 -7445 0
7462 96 7445 0
-7463 -7461 0
-7463 -7462 0
7463 7461 7462 0
-7464 7454 0
-7464 7463 0
7464 -7454 -7463 0
-7465 -7454 0
-7465 -7463 0
7465 7454 7463 0
-7466 -7464 0
-7466 -7465 0
7466 7464 7465 0
-7467 7442 0
-7467 -7466 0
7467 -7442 7466 0
-7471 35 0
-7471 38 0
7471 -35 -38 0
-7472 -35 0
-7472 -38 0
7472 35 38 0
-7473 -7471 0
-7473 -7472 0
7473 7471 7472 0
-7477 29 0
-7477 7473 0
7477 -29 -7473 0
-7478 -29 0
-7478 -7473 0
7478 29 7473 0
-7479 -7477 0
-7479 -7478 0
7479 7477 7478 0
-7468 111 0
-7468 112 0
7468 -111 -112 0
-7469 -111 0
-7469 -112 0
7469 111 112 0
-7470 -7468 0
-7470 -7469 0
7470 7468 7469 0
-7486 95 0
-7486 7470 0
7486 -95 -7470 0
-7487 -95 0
-7487 -7470 0
7487 95 7470 0
-7488 -7486 0
-7488 -7487 0
7488 7486 7487 0
-7489 7479 0
-7489 7488 0
7489 -7479 -7488 0
-7490 -7479 0
-7490 -7488 0
7490 7479 7488 0
-7491 -7489 0
-7491 -7490 0
7491 7489 7490 0
-7492 7467 0
-7492 -7491 0
7492 -7467 7491 0
-7499 34 0
-7499 43 0
7499 -34 -43 0
-7500 -34 0
-7500 -43 0
7500 34 43 0
-7501 -7499 0
-7501 -7500 0
7501 7499 7500 0
-7505 28 0
-7505 7501 0
7505 -28 -7501 0
-7506 -28 0
-7506 -7501 0
7506 28 7501 0
-7507 -7505 0
-7507 -7506 0
7507 7505 7506 0
-7493 110 0
-7493 111 0
7493 -110 -111 0
-7494 -110 0
-7494 -111 0
7494 110 111 0
-7495 -7493 0
-7495 -7494 0
7495 7493 7494 0
-7511 94 0
-7511 7495 0
7511 -94 -7495 0
-7512 -94 0
-7512 -7495 0
7512 94 7495 0
-7513 -7511 0
-7513 -7512 0
7513 7511 7512 0
-7514 7507 0
-7514 7513 0
7514 -7507 -7513 0
-7515 -7507 0
-7515 -7513 0
7515 7507 7513 0
-7516 -7514 0
-7516 -7515 0
7516 7514 7515 0
-7517 7492 0
-7517 -7516 0
7517 -7492 7516 0
-7518 27 0
-7518 33 0
7518 -27 -33 0
-7519 -27 0
-7519 -33 0
7519 27 33 0
-7520 -7518 0
-7520 -7519 0
7520 7518 7519 0
-7524 42 0
-7524 7520 0
7524 -42 -7520 0
-7525 -42 0
-7525 -7520 0
7525 42 7520 0
-7526 -7524 0
-7526 -7525 0
7526 7524 7525 0
-7521 110 0
-7521 115 0
7521 -110 -115 0
-7522 -110 0
-7522 -115 0
7522 110 115 0
-7523 -7521 0
-7523 -7522 0
7523 7521 7522 0
-7533 93 0
-7533 7523 0
7533 -93 -7523 0
-7534 -93 0
-7534 -7523 0
7534 93 7523 0
-7535 -7533 0
-7535 -7534 0
7535 7533 7534 0
-7536 7526 0
-7536 7535 0
7536 -7526 -7535 0
-7537 -7526 0
-7537 -7535 0
7537 7526 7535 0
-7538 -7536 0
-7538 -7537 0
7538 7536 7537 0
-7539 7517 0
-7539 -7538 0
7539 -7517 7538 0
-7543 26 0
-7543 32 0
7543 -26 -32 0
-7544 -26 0
-7544 -32 0
7544 26 32 0
-7545 -7543 0
-7545 -7544 0
7545 7543 7544 0
-7546 41 0
-7546 7545 0
7546 -41 -7545 0
-7547 -41 0
-7547 -7545 0
7547 41 7545 0
-7548 -7546 0
-7548 -7547 0
7548 7546 7547 0
-7540 114 0
-7540 115 0
7540 -114 -115 0
-7541 -114 0
-7541 -115 0
7541 114 115 0
-7542 -7540 0
-7542 -7541 0
7542 7540 7541 0
-7555 92 0
-7555 7542 0
7555 -92 -7542 0
-7556 -92 0
-7556 -7542 0
7556 92 7542 0
-7557 -7555 0
-7557 -7556 0
7557 7555 7556 0
-7558 7548 0
-7558 7557 0
7558 -7548 -7557 0
-7559 -7548 0
-7559 -7557 0
7559 7548 7557 0
-7560 -7558 0
-7560 -7559 0
7560 7558 7559 0
-7561 7539 0
-7561 -7560 0
7561 -7539 7560 0
-7568 25 0
-7568 31 0
7568 -25 -31 0
-7569 -25 0
-7569 -31 0
7569 25 31 0
-7570 -7568 0
-7570 -7569 0
7570 7568 7569 0
-7574 34 0
-7574 7570 0
7574 -34 -7570 0
-7575 -34 0
-7575 -7570 0
7575 34 7570 0
-7576 -7574 0
-7576 -7575 0
7576 7574 7575 0
-7562 107 0
-7562 108 0
7562 -107 -108 0
-7563 -107 0
-7563 -108 0
7563 107 108 0
-7564 -7562 0
-7564 -7563 0
7564 7562 7563 0
-7580 91 0
-7580 7564 0
7580 -91 -7564 0
-7581 -91 0
-7581 -7564 0
7581 91 7564 0
-7582 -7580 0
-7582 -7581 0
7582 7580 7581 0
-7583 7576 0
-7583 7582 0
7583 -7576 -7582 0
-7584 -7576 0
-7584 -7582 0
7584 7576 7582 0
-7585 -7583 0
-7585 -7584 0
7585 7583 7584 0
-7586 7561 0
-7586 -7585 0
7586 -7561 7585 0
-7590 30 0
-7590 33 0
7590 -30 -33 0
-7591 -30 0
-7591 -33 0
7591 30 33 0
-7592 -7590 0
-7592 -7591 0
7592 7590 7591 0
-7596 24 0
-7596 7592 0
7596 -24 -7592 0
-7597 -24 0
-7597 -7592 0
7597 24 7592 0
-7598 -7596 0
-7598 -7597 0
7598 7596 7597 0
-7587 106 0
-7587 107 0
7587 -106 -107 0
-7588 -106 0
-7588 -107 0
7588 106 107 0
-7589 -7587 0
-7589 -7588 0
7589 7587 7588 0
-7605 90 0
-7605 7589 0
7605 -90 -7589 0
-7606 -90 0
-7606 -7589 0
7606 90 7589 0
-7607 -7605 0
-7607 -7606 0
7607 7605 7606 0
-7608 7598 0
-7608 7607 0
7608 -7598 -7607 0
-7609 -7598 0
-7609 -7607 0
7609 7598 7607 0
-7610 -7608 0
-7610 -7609 0
7610 7608 7609 0
-7611 7586 0
-7611 -7610 0
7611 -7586 7610 0
-7615 29 0
-7615 32 0
7615 -29 -32 0
-7616 -29 0
-7616 -32 0
7616 29 32 0
-7617 -7615 0
-7617 -7616 0
7617 7615 7616 0
-7621 23 0
-7621 7617 0
7621 -23 -7617 0
-7622 -23 0
-7622 -7617 0
7622 23 7617 0
-7623 -7621 0
-7623 -7622 0
7623 7621 7622 0
-7612 105 0
-7612 106 0
7612 -105 -106 0
-7613 -105 0
-7613 -106 0
7613 105 106 0
-7614 -7612 0
-7614 -7613 0
7614 7612 7613 0
-7630 89 0
-7630 7614 0
7630 -89 -7614 0
-7631 -89 0
-7631 -7614 0
7631 89 7614 0
-7632 -7630 0
-7632 -7631 0
7632 7630 7631 0
-7633 7623 0
-7633 7632 0
7633 -7623 -7632 0
-7634 -7623 0
-7634 -7632 0
7634 7623 7632 0
-7635 -7633 0
-7635 -7634 0
7635 7633 7634 0
-7636 7611 0
-7636 -7635 0
7636 -7611 7635 0
-7640 22 0
-7640 28 0
7640 -22 -28 0
-7641 -22 0
-7641 -28 0
7641 22 28 0
-7642 -7640 0
-7642 -7641 0
7642 7640 7641 0
-7643 37 0
-7643 7642 0
7643 -37 -7642 0
-7644 -37 0
-7644 -7642 0
7644 37 7642 0
-7645 -7643 0
-7645 -7644 0
7645 7643 7644 0
-7637 104 0
-7637 105 0
7637 -104 -105 0
-7638 -104 0
-7638 -105 0
7638 104 105 0
-7639 -7637 0
-7639 -7638 0
7639 7637 7638 0
-7652 88 0
-7652 7639 0
7652 -88 -7639 0
-7653 -88 0
-7653 -7639 0
7653 88 7639 0
-7654 -7652 0
-7654 -7653 0
7654 7652 7653 0
-7655 7645 0
-7655 7654 0
7655 -7645 -7654 0
-7656 -7645 0
-7656 -7654 0
7656 7645 7654 0
-7657 -7655 0
-7657 -7656 0
7657 7655 7656 0
-7658 7636 0
-7658 -7657 0
7658 -7636 7657 0
-7659 21 0
-7659 27 0
7659 -21 -27 0
-7660 -21 0
-7660 -27 0
7660 21 27 0
-7661 -7659 0
-7661 -7660 0
7661 7659 7660 0
-7665 36 0
-7665 7661 0
7665 -36 -7661 0
-7666 -36 0
-7666 -7661 0
7666 36 7661 0
-7667 -7665 0
-7667 -7666 0
7667 7665 7666 0
-7662 104 0
-7662 109 0
7662 -104 -109 0
-7663 -104 0
-7663 -109 0
7663 104 109 0
-7664 -7662 0
-7664 -7663 0
7664 7662 7663 0
-7674 87 0
-7674 7664 0
7674 -87 -7664 0
-7675 -87 0
-7675 -7664 0
7675 87 7664 0
-7676 -7674 0
-7676 -7675 0
7676 7674 7675 0
-7677 7667 0
-7677 7676 0
7677 -7667 -7676 0
-7678 -7667 0
-7678 -7676 0
7678 7667 7676 0
-7679 -7677 0
-7679 -7678 0
7679 7677 7678 0
-7680 7658 0
-7680 -7679 0
7680 -7658 7679 0
-7684 20 0
-7684 26 0
7684 -20 -26 0
-7685 -20 0
-7685 -26 0
7685 20 26 0
-7686 -7684 0
-7686 -7685 0
7686 7684 7685 0
-7687 35 0
-7687 7686 0
7687 -35 -7686 0
-7688 -35 0
-7688 -7686 0
7688 35 7686 0
-7689 -7687 0
-7689 -7688 0
7689 7687 7688 0
-7681 108 0
-7681 109 0
7681 -108 -109 0
-7682 -108 0
-7682 -109 0
7682 108 109 0
-7683 -7681 0
-7683 -7682 0
7683 7681 7682 0
-7696 86 0
-7696 7683 0
7696 -86 -7683 0
-7697 -86 0
-7697 -7683 0
7697 86 7683 0
-7698 -7696 0
-7698 -7697 0
7698 7696 7697 0
-7699 7689 0
-7699 7698 0
7699 -7689 -7698 0
-7700 -7689 0
-7700 -7698 0
7700 7689 7698 0
-7701 -7699 0
-7701 -7700 0
7701 7699 7700 0
-7702 7680 0
-7702 -7701 0
7702 -7680 7701 0
-7709 19 0
-7709 25 0
7709 -19 -25 0
-7710 -19 0
-7710 -25 0
7710 19 25 0
-7711 -7709 0
-7711 -7710 0
7711 7709 7710 0
-7712 28 0
-7712 7711 0
7712 -28 -7711 0
-7713 -28 0
-7713 -7711 0
7713 28 7711 0
-7714 -7712 0
-7714 -7713 0
7714 7712 7713 0
-7703 101 0
-7703 102 0
7703 -101 -102 0
-7704 -101 0
-7704 -102 0
7704 101 102 0
-7705 -7703 0
-7705 -7704 0
7705 7703 7704 0
-7718 85 0
-7718 7705 0
7718 -85 -7705 0
-7719 -85 0
-7719 -7705 0
7719 85 7705 0
-7720 -7718 0
-7720 -7719 0
7720 7718 7719 0
-7721 7714 0
-7721 7720 0
7721 -7714 -7720 0
-7722 -7714 0
-7722 -7720 0
7722 7714 7720 0
-7723 -7721 0
-7723 -7722 0
7723 7721 7722 0
-7724 7702 0
-7724 -7723 0
7724 -7702 7723 0
-7731 18 0
-7731 24 0
7731 -18 -24 0
-7732 -18 0
-7732 -24 0
7732 18 24 0
-7733 -7731 0
-7733 -7732 0
7733 7731 7732 0
-7734 27 0
-7734 7733 0
7734 -27 -7733 0
-7735 -27 0
-7735 -7733 0
7735 27 7733 0
-7736 -7734 0
-7736 -7735 0
7736 7734 7735 0
-7725 100 0
-7725 101 0
7725 -100 -101 0
-7726 -100 0
-7726 -101 0
7726 100 101 0
-7727 -7725 0
-7727 -7726 0
7727 7725 7726 0
-7740 84 0
-7740 7727 0
7740 -84 -7727 0
-7741 -84 0
-7741 -7727 0
7741 84 7727 0
-7742 -7740 0
-7742 -7741 0
7742 7740 7741 0
-7743 7736 0
-7743 7742 0
7743 -7736 -7742 0
-7744 -7736 0
-7744 -7742 0
7744 7736 7742 0
-7745 -7743 0
-7745 -7744 0
7745 7743 7744 0
-7746 7724 0
-7746 -7745 0
7746 -7724 7745 0
-7750 23 0
-7750 26 0
7750 -23 -26 0
-7751 -23 0
-7751 -26 0
7751 23 26 0
-7752 -7750 0
-7752 -7751 0
7752 7750 7751 0
-7756 17 0
-7756 7752 0
7756 -17 -7752 0
-7757 -17 0
-7757 -7752 0
7757 17 7752 0
-7758 -7756 0
-7758 -7757 0
7758 7756 7757 0
-7747 99 0
-7747 100 0
7747 -99 -100 0
-7748 -99 0
-7748 -100 0
7748 99 100 0
-7749 -7747 0
-7749 -7748 0
7749 7747 7748 0
-7762 83 0
-7762 7749 0
7762 -83 -7749 0
-7763 -83 0
-7763 -7749 0
7763 83 7749 0
-7764 -7762 0
-7764 -7763 0
7764 7762 7763 0
-7765 7758 0
-7765 7764 0
7765 -7758 -7764 0
-7766 -7758 0
-7766 -7764 0
7766 7758 7764 0
-7767 -7765 0
-7767 -7766 0
7767 7765 7766 0
-7768 7746 0
-7768 -7767 0
7768 -7746 7767 0
-7775 22 0
-7775 31 0
7775 -22 -31 0
-7776 -22 0
-7776 -31 0
7776 22 31 0
-7777 -7775 0
-7777 -7776 0
7777 7775 7776 0
-7778 16 0
-7778 7777 0
7778 -16 -7777 0
-7779 -16 0
-7779 -7777 0
7779 16 7777 0
-7780 -7778 0
-7780 -7779 0
7780 7778 7779 0
-7769 98 0
-7769 99 0
7769 -98 -99 0
-7770 -98 0
-7770 -99 0
7770 98 99 0
-7771 -7769 0
-7771 -7770 0
7771 7769 7770 0
-7784 82 0
-7784 7771 0
7784 -82 -7771 0
-7785 -82 0
-7785 -7771 0
7785 82 7771 0
-7786 -7784 0
-7786 -7785 0
7786 7784 7785 0
-7787 7780 0
-7787 7786 0
7787 -7780 -7786 0
-7788 -7780 0
-7788 -7786 0
7788 7780 7786 0
-7789 -7787 0
-7789 -7788 0
7789 7787 7788 0
-7790 7768 0
-7790 -7789 0
7790 -7768 7789 0
-7797 21 0
-7797 30 0
7797 -21 -30 0
-7798 -21 0
-7798 -30 0
7798 21 30 0
-7799 -7797 0
-7799 -7798 0
7799 7797 7798 0
-7800 15 0
-7800 7799 0
7800 -15 -7799 0
-7801 -15 0
-7801 -7799 0
7801 15 7799 0
-7802 -7800 0
-7802 -7801 0
7802 7800 7801 0
-7794 98 0
-7794 103 0
7794 -98 -103 0
-7795 -98 0
-7795 -103 0
7795 98 103 0
-7796 -7794 0
-7796 -7795 0
7796 7794 7795 0
-7806 81 0
-7806 7796 0
7806 -81 -7796 0
-7807 -81 0
-7807 -7796 0
7807 81 7796 0
-7808 -7806 0
-7808 -7807 0
7808 7806 7807 0
-7809 7802 0
-7809 7808 0
7809 -7802 -7808 0
-7810 -7802 0
-7810 -7808 0
7810 7802 7808 0
-7811 -7809 0
-7811 -7810 0
7811 7809 7810 0
-7812 7790 0
-7812 -7811 0
7812 -7790 7811 0
-7819 20 0
-7819 29 0
7819 -20 -29 0
-7820 -20 0
-7820 -29 0
7820 20 29 0
-7821 -7819 0
-7821 -7820 0
7821 7819 7820 0
-7822 14 0
-7822 7821 0
7822 -14 -7821 0
-7823 -14 0
-7823 -7821 0
7823 14 7821 0
-7824 -7822 0
-7824 -7823 0
7824 7822 7823 0
-7813 102 0
-7813 103 0
7813 -102 -103 0
-7814 -102 0
-7814 -103 0
7814 102 103 0
-7815 -7813 0
-7815 -7814 0
7815 7813 7814 0
-7828 80 0
-7828 7815 0
7828 -80 -7815 0
-7829 -80 0
-7829 -7815 0
7829 80 7815 0
-7830 -7828 0
-7830 -7829 0
7830 7828 7829 0
-7831 7824 0
-7831 7830 0
7831 -7824 -7830 0
-7832 -7824 0
-7832 -7830 0
7832 7824 7830 0
-7833 -7831 0
-7833 -7832 0
7833 7831 7832 0
-7834 7812 0
-7834 -7833 0
7834 -7812 7833 0
-7838 19 0
-7838 22 0
7838 -19 -22 0
-7839 -19 0
-7839 -22 0
7839 19 22 0
-7840 -7838 0
-7840 -7839 0
7840 7838 7839 0
-7844 13 0
-7844 7840 0
7844 -13 -7840 0
-7845 -13 0
-7845 -7840 0
7845 13 7840 0
-7846 -7844 0
-7846 -7845 0
7846 7844 7845 0
-7835 95 0
-7835 96 0
7835 -95 -96 0
-7836 -95 0
-7836 -96 0
7836 95 96 0
-7837 -7835 0
-7837 -7836 0
7837 7835 7836 0
-7847 79 0
-7847 7837 0
7847 -79 -7837 0
-7848 -79 0
-7848 -7837 0
7848 79 7837 0
-7849 -7847 0
-7849 -7848 0
7849 7847 7848 0
-7853 7846 0
-7853 7849 0
7853 -7846 -7849 0
-7854 -7846 0
-7854 -7849 0
7854 7846 7849 0
-7855 -7853 0
-7855 -7854 0
7855 7853 7854 0
-7856 7834 0
-7856 -7855 0
7856 -7834 7855 0
-7860 18 0
-7860 21 0
7860 -18 -21 0
-7861 -18 0
-7861 -21 0
7861 18 21 0
-7862 -7860 0
-7862 -7861 0
7862 7860 7861 0
-7866 12 0
-7866 7862 0
7866 -12 -7862 0
-7867 -12 0
-7867 -7862 0
7867 12 7862 0
-7868 -7866 0
-7868 -7867 0
7868 7866 7867 0
-7857 94 0
-7857 95 0
7857 -94 -95 0
-7858 -94 0
-7858 -95 0
7858 94 95 0
-7859 -7857 0
-7859 -7858 0
7859 7857 7858 0
-7869 78 0
-7869 7859 0
7869 -78 -7859 0
-7870 -78 0
-7870 -7859 0
7870 78 7859 0
-7871 -7869 0
-7871 -7870 0
7871 7869 7870 0
-7875 7868 0
-7875 7871 0
7875 -7868 -7871 0
-7876 -7868 0
-7876 -7871 0
7876 7868 7871 0
-7877 -7875 0
-7877 -7876 0
7877 7875 7876 0
-7878 7856 0
-7878 -7877 0
7878 -7856 7877 0
-7885 11 0
-7885 17 0
7885 -11 -17 0
-7886 -11 0
-7886 -17 0
7886 11 17 0
-7887 -7885 0
-7887 -7886 0
7887 7885 7886 0
-7888 20 0
-7888 7887 0
7888 -20 -7887 0
-7889 -20 0
-7889 -7887 0
7889 20 7887 0
-7890 -7888 0
-7890 -7889 0
7890 7888 7889 0
-7879 93 0
-7879 94 0
7879 -93 -94 0
-7880 -93 0
-7880 -94 0
7880 93 94 0
-7881 -7879 0
-7881 -7880 0
7881 7879 7880 0
-7891 77 0
-7891 7881 0
7891 -77 -7881 0
-7892 -77 0
-7892 -7881 0
7892 77 7881 0
-7893 -7891 0
-7893 -7892 0
7893 7891 7892 0
-7897 7890 0
-7897 7893 0
7897 -7890 -7893 0
-7898 -7890 0
-7898 -7893 0
7898 7890 7893 0
-7899 -7897 0
-7899 -7898 0
7899 7897 7898 0
-7900 7878 0
-7900 -7899 0
7900 -7878 7899 0
-7904 10 0
-7904 16 0
7904 -10 -16 0
-7905 -10 0
-7905 -16 0
7905 10 16 0
-7906 -7904 0
-7906 -7905 0
7906 7904 7905 0
-7907 25 0
-7907 7906 0
7907 -25 -7906 0
-7908 -25 0
-7908 -7906 0
7908 25 7906 0
-7909 -7907 0
-7909 -7908 0
7909 7907 7908 0
-7901 92 0
-7901 93 0
7901 -92 -93 0
-7902 -92 0
-7902 -93 0
7902 92 93 0
-7903 -7901 0
-7903 -7902 0
7903 7901 7902 0
-7910 76 0
-7910 7903 0
7910 -76 -7903 0
-7911 -76 0
-7911 -7903 0
7911 76 7903 0
-7912 -7910 0
-7912 -7911 0
7912 7910 7911 0
-7916 7909 0
-7916 7912 0
7916 -7909 -7912 0
-7917 -7909 0
-7917 -7912 0
7917 7909 7912 0
-7918 -7916 0
-7918 -7917 0
7918 7916 7917 0
-7919 7900 0
-7919 -7918 0
7919 -7900 7918 0
-7920 9 0
-7920 15 0
7920 -9 -15 0
-7921 -9 0
-7921 -15 0
7921 9 15 0
-7922 -7920 0
-7922 -7921 0
7922 7920 7921 0
-7926 24 0
-7926 7922 0
7926 -24 -7922 0
-7927 -24 0
-7927 -7922 0
7927 24 7922 0
-7928 -7926 0
-7928 -7927 0
7928 7926 7927 0
-7923 92 0
-7923 97 0
7923 -92 -97 0
-7924 -92 0
-7924 -97 0
7924 92 97 0
-7925 -7923 0
-7925 -7924 0
7925 7923 7924 0
-7929 75 0
-7929 7925 0
7929 -75 -7925 0
-7930 -75 0
-7930 -7925 0
7930 75 7925 0
-7931 -7929 0
-7931 -7930 0
7931 7929 7930 0
-7935 7928 0
-7935 7931 0
7935 -7928 -7931 0
-7936 -7928 0
-7936 -7931 0
7936 7928 7931 0
-7937 -7935 0
-7937 -7936 0
7937 7935 7936 0
-7938 7919 0
-7938 -7937 0
7938 -7919 7937 0
-7942 8 0
-7942 14 0
7942 -8 -14 0
-7943 -8 0
-7943 -14 0
7943 8 14 0
-7944 -7942 0
-7944 -7943 0
7944 7942 7943 0
-7945 23 0
-7945 7944 0
7945 -23 -7944 0
-7946 -23 0
-7946 -7944 0
7946 23 7944 0
-7947 -7945 0
-7947 -7946 0
7947 7945 7946 0
-7939 96 0
-7939 97 0
7939 -96 -97 0
-7940 -96 0
-7940 -97 0
7940 96 97 0
-7941 -7939 0
-7941 -7940 0
7941 7939 7940 0
-7948 74 0
-7948 7941 0
7948 -74 -7941 0
-7949 -74 0
-7949 -7941 0
7949 74 7941 0
-7950 -7948 0
-7950 -7949 0
7950 7948 7949 0
-7954 7947 0
-7954 7950 0
7954 -7947 -7950 0
-7955 -7947 0
-7955 -7950 0
7955 7947 7950 0
-7956 -7954 0
-7956 -7955 0
7956 7954 7955 0
-7957 7938 0
-7957 -7956 0
7957 -7938 7956 0
-7958 89 0
-7958 90 0
7958 -89 -90 0
-7959 -89 0
-7959 -90 0
7959 89 90 0
-7960 -7958 0
-7960 -7959 0
7960 7958 7959 0
-7961 13 0
-7961 16 0
7961 -13 -16 0
-7962 -13 0
-7962 -16 0
7962 13 16 0
-7963 -7961 0
-7963 -7962 0
7963 7961 7962 0
-7964 7 0
-7964 7963 0
7964 -7 -7963 0
-7965 -7 0
-7965 -7963 0
7965 7 7963 0
-7966 -7964 0
-7966 -7965 0
7966 7964 7965 0
-7967 7960 0
-7967 7966 0
7967 -7960 -7966 0
-7968 -7960 0
-7968 -7966 0
7968 7960 7966 0
-7969 -7967 0
-7969 -7968 0
7969 7967 7968 0
-7970 145 0
-7970 7969 0
7970 -145 -7969 0
-7971 -145 0
-7971 -7969 0
7971 145 7969 0
-7972 -7970 0
-7972 -7971 0
7972 7970 7971 0
-7973 7957 0
-7973 -7972 0
7973 -7957 7972 0
-7974 88 0
-7974 89 0
7974 -88 -89 0
-7975 -88 0
-7975 -89 0
7975 88 89 0
-7976 -7974 0
-7976 -7975 0
7976 7974 7975 0
-7977 12 0
-7977 15 0
7977 -12 -15 0
-7978 -12 0
-7978 -15 0
7978 12 15 0
-7979 -7977 0
-7979 -7978 0
7979 7977 7978 0
-7980 6 0
-7980 7979 0
7980 -6 -7979 0
-7981 -6 0
-7981 -7979 0
7981 6 7979 0
-7982 -7980 0
-7982 -7981 0
7982 7980 7981 0
-7983 7976 0
-7983 7982 0
7983 -7976 -7982 0
-7984 -7976 0
-7984 -7982 0
7984 7976 7982 0
-7985 -7983 0
-7985 -7984 0
7985 7983 7984 0
-7986 144 0
-7986 7985 0
7986 -144 -7985 0
-7987 -144 0
-7987 -7985 0
7987 144 7985 0
-7988 -7986 0
-7988 -7987 0
7988 7986 7987 0
-7989 7973 0
-7989 -7988 0
7989 -7973 7988 0
-7990 87 0
-7990 88 0
7990 -87 -88 0
-7991 -87 0
-7991 -88 0
7991 87 88 0
-7992 -7990 0
-7992 -7991 0
7992 7990 7991 0
-7993 11 0
-7993 14 0
7993 -11 -14 0
-7994 -11 0
-7994 -14 0
7994 11 14 0
-7995 -7993 0
-7995 -7994 0
7995 7993 7994 0
-7996 5 0
-7996 7995 0
7996 -5 -7995 0
-7997 -5 0
-7997 -7995 0
7997 5 7995 0
-7998 -7996 0
-7998 -7997 0
7998 7996 7997 0
-7999 7992 0
-7999 7998 0
7999 -7992 -7998 0
-8000 -7992 0
-8000 -7998 0
8000 7992 7998 0
-8001 -7999 0
-8001 -8000 0
8001 7999 8000 0
-8002 143 0
-8002 8001 0
8002 -143 -8001 0
-8003 -143 0
-8003 -8001 0
8003 143 8001 0
-8004 -8002 0
-8004 -8003 0
8004 8002 8003 0
-8005 7989 0
-8005 -8004 0
8005 -7989 8004 0
-8006 86 0
-8006 87 0
8006 -86 -87 0
-8007 -86 0
-8007 -87 0
8007 86 87 0
-8008 -8006 0
-8008 -8007 0
8008 8006 8007 0
-8009 4 0
-8009 10 0
8009 -4 -10 0
-8010 -4 0
-8010 -10 0
8010 4 10 0
-8011 -8009 0
-8011 -8010 0
8011 8009 8010 0
-8012 19 0
-8012 8011 0
8012 -19 -8011 0
-8013 -19 0
-8013 -8011 0
8013 19 8011 0
-8014 -8012 0
-8014 -8013 0
8014 8012 8013 0
-8015 8008 0
-8015 8014 0
8015 -8008 -8014 0
-8016 -8008 0
-8016 -8014 0
8016 8008 8014 0
-8017 -8015 0
-8017 -8016 0
8017 8015 8016 0
-8018 142 0
-8018 8017 0
8018 -142 -8017 0
-8019 -142 0
-8019 -8017 0
8019 142 8017 0
-8020 -8018 0
-8020 -8019 0
8020 8018 8019 0
-8021 8005 0
-8021 -8020 0
8021 -8005 8020 0
-8025 86 0
-8025 91 0
8025 -86 -91 0
-8026 -86 0
-8026 -91 0
8026 86 91 0
-8027 -8025 0
-8027 -8026 0
8027 8025 8026 0
-8022 3 0
-8022 9 0
8022 -3 -9 0
-8023 -3 0
-8023 -9 0
8023 3 9 0
-8024 -8022 0
-8024 -8023 0
8024 8022 8023 0
-8028 18 0
-8028 8024 0
8028 -18 -8024 0
-8029 -18 0
-8029 -8024 0
8029 18 8024 0
-8030 -8028 0
-8030 -8029 0
8030 8028 8029 0
-8031 8027 0
-8031 8030 0
8031 -8027 -8030 0
-8032 -8027 0
-8032 -8030 0
8032 8027 8030 0
-8033 -8031 0
-8033 -8032 0
8033 8031 8032 0
-8034 141 0
-8034 8033 0
8034 -141 -8033 0
-8035 -141 0
-8035 -8033 0
8035 141 8033 0
-8036 -8034 0
-8036 -8035 0
8036 8034 8035 0
-8037 8021 0
-8037 -8036 0
8037 -8021 8036 0
-8038 90 0
-8038 91 0
8038 -90 -91 0
-8039 -90 0
-8039 -91 0
8039 90 91 0
-8040 -8038 0
-8040 -8039 0
8040 8038 8039 0
-8041 2 0
-8041 8 0
8041 -2 -8 0
-8042 -2 0
-8042 -8 0
8042 2 8 0
-8043 -8041 0
-8043 -8042 0
8043 8041 8042 0
-8044 17 0
-8044 8043 0
8044 -17 -8043 0
-8045 -17 0
-8045 -8043 0
8045 17 8043 0
-8046 -8044 0
-8046 -8045 0
8046 8044 8045 0
-8047 8040 0
-8047 8046 0
8047 -8040 -8046 0
-8048 -8040 0
-8048 -8046 0
8048 8040 8046 0
-8049 -8047 0
-8049 -8048 0
8049 8047 8048 0
-8050 140 0
-8050 8049 0
8050 -140 -8049 0
-8051 -140 0
-8051 -8049 0
8051 140 8049 0
-8052 -8050 0
-8052 -8051 0
8052 8050 8051 0
-8053 8037 0
-8053 -8052 0
8053 -8037 8052 0
-8057 7 0
-8057 10 0
8057 -7 -10 0
-8058 -7 0
-8058 -10 0
8058 7 10 0
-8059 -8057 0
-8059 -8058 0
8059 8057 8058 0
-8054 83 0
-8054 84 0
8054 -83 -84 0
-8055 -83 0
-8055 -84 0
8055 83 84 0
-8056 -8054 0
-8056 -8055 0
8056 8054 8055 0
-8063 73 0
-8063 8056 0
8063 -73 -8056 0
-8064 -73 0
-8064 -8056 0
8064 73 8056 0
-8065 -8063 0
-8065 -8064 0
8065 8063 8064 0
-8069 8059 0
-8069 8065 0
8069 -8059 -8065 0
-8070 -8059 0
-8070 -8065 0
8070 8059 8065 0
-8071 -8069 0
-8071 -8070 0
8071 8069 8070 0
-8072 139 0
-8072 8071 0
8072 -139 -8071 0
-8073 -139 0
-8073 -8071 0
8073 139 8071 0
-8074 -8072 0
-8074 -8073 0
8074 8072 8073 0
-8075 8053 0
-8075 -8074 0
8075 -8053 8074 0
-8079 6 0
-8079 9 0
8079 -6 -9 0
-8080 -6 0
-8080 -9 0
8080 6 9 0
-8081 -8079 0
-8081 -8080 0
8081 8079 8080 0
-8076 82 0
-8076 83 0
8076 -82 -83 0
-8077 -82 0
-8077 -83 0
8077 82 83 0
-8078 -8076 0
-8078 -8077 0
8078 8076 8077 0
-8085 72 0
-8085 8078 0
8085 -72 -8078 0
-8086 -72 0
-8086 -8078 0
8086 72 8078 0
-8087 -8085 0
-8087 -8086 0
8087 8085 8086 0
-8091 8081 0
-8091 8087 0
8091 -8081 -8087 0
-8092 -8081 0
-8092 -8087 0
8092 8081 8087 0
-8093 -8091 0
-8093 -8092 0
8093 8091 8092 0
-8094 138 0
-8094 8093 0
8094 -138 -8093 0
-8095 -138 0
-8095 -8093 0
8095 138 8093 0
-8096 -8094 0
-8096 -8095 0
8096 8094 8095 0
-8097 8075 0
-8097 -8096 0
8097 -8075 8096 0
-8101 5 0
-8101 8 0
8101 -5 -8 0
-8102 -5 0
-8102 -8 0
8102 5 8 0
-8103 -8101 0
-8103 -8102 0
8103 8101 8102 0
-8104 71 0
-8104 81 0
8104 -71 -81 0
-8105 -71 0
-8105 -81 0
8105 71 81 0
-8106 -8104 0
-8106 -8105 0
8106 8104 8105 0
-8110 82 0
-8110 8106 0
8110 -82 -8106 0
-8111 -82 0
-8111 -8106 0
8111 82 8106 0
-8112 -8110 0
-8112 -8111 0
8112 8110 8111 0
-8113 8103 0
-8113 8112 0
8113 -8103 -8112 0
-8114 -8103 0
-8114 -8112 0
8114 8103 8112 0
-8115 -8113 0
-8115 -8114 0
8115 8113 8114 0
-8116 137 0
-8116 8115 0
8116 -137 -8115 0
-8117 -137 0
-8117 -8115 0
8117 137 8115 0
-8118 -8116 0
-8118 -8117 0
8118 8116 8117 0
-8119 8097 0
-8119 -8118 0
8119 -8097 8118 0
-8123 4 0
-8123 13 0
8123 -4 -13 0
-8124 -4 0
-8124 -13 0
8124 4 13 0
-8125 -8123 0
-8125 -8124 0
8125 8123 8124 0
-8120 80 0
-8120 81 0
8120 -80 -81 0
-8121 -80 0
-8121 -81 0
8121 80 81 0
-8122 -8120 0
-8122 -8121 0
8122 8120 8121 0
-8129 70 0
-8129 8122 0
8129 -70 -8122 0
-8130 -70 0
-8130 -8122 0
8130 70 8122 0
-8131 -8129 0
-8131 -8130 0
8131 8129 8130 0
-8135 8125 0
-8135 8131 0
8135 -8125 -8131 0
-8136 -8125 0
-8136 -8131 0
8136 8125 8131 0
-8137 -8135 0
-8137 -8136 0
8137 8135 8136 0
-8138 136 0
-8138 8137 0
8138 -136 -8137 0
-8139 -136 0
-8139 -8137 0
8139 136 8137 0
-8140 -8138 0
-8140 -8139 0
8140 8138 8139 0
-8141 8119 0
-8141 -8140 0
8141 -8119 8140 0
-8142 3 0
-8142 12 0
8142 -3 -12 0
-8143 -3 0
-8143 -12 0
8143 3 12 0
-8144 -8142 0
-8144 -8143 0
8144 8142 8143 0
-8148 69 0
-8148 80 0
8148 -69 -80 0
-8149 -69 0
-8149 -80 0
8149 69 80 0
-8150 -8148 0
-8150 -8149 0
8150 8148 8149 0
-8151 85 0
-8151 8150 0
8151 -85 -8150 0
-8152 -85 0
-8152 -8150 0
8152 85 8150 0
-8153 -8151 0
-8153 -8152 0
8153 8151 8152 0
-8157 8144 0
-8157 8153 0
8157 -8144 -8153 0
-8158 -8144 0
-8158 -8153 0
8158 8144 8153 0
-8159 -8157 0
-8159 -8158 0
8159 8157 8158 0
-8160 135 0
-8160 8159 0
8160 -135 -8159 0
-8161 -135 0
-8161 -8159 0
8161 135 8159 0
-8162 -8160 0
-8162 -8161 0
8162 8160 8161 0
-8163 8141 0
-8163 -8162 0
8163 -8141 8162 0
-8167 2 0
-8167 11 0
8167 -2 -11 0
-8168 -2 0
-8168 -11 0
8168 2 11 0
-8169 -8167 0
-8169 -8168 0
8169 8167 8168 0
-8164 84 0
-8164 85 0
8164 -84 -85 0
-8165 -84 0
-8165 -85 0
8165 84 85 0
-8166 -8164 0
-8166 -8165 0
8166 8164 8165 0
-8170 68 0
-8170 8166 0
8170 -68 -8166 0
-8171 -68 0
-8171 -8166 0
8171 68 8166 0
-8172 -8170 0
-8172 -8171 0
8172 8170 8171 0
-8176 8169 0
-8176 8172 0
8176 -8169 -8172 0
-8177 -8169 0
-8177 -8172 0
8177 8169 8172 0
-8178 -8176 0
-8178 -8177 0
8178 8176 8177 0
-8179 134 0
-8179 8178 0
8179 -134 -8178 0
-8180 -134 0
-8180 -8178 0
8180 134 8178 0
-8181 -8179 0
-8181 -8180 0
8181 8179 8180 0
-8182 8163 0
-8182 -8181 0
8182 -8163 8181 0
-8183 77 0
-8183 78 0
8183 -77 -78 0
-8184 -77 0
-8184 -78 0
8184 77 78 0
-8185 -8183 0
-8185 -8184 0
8185 8183 8184 0
-8186 67 0
-8186 73 0
8186 -67 -73 0
-8187 -67 0
-8187 -73 0
8187 67 73 0
-8188 -8186 0
-8188 -8187 0
8188 8186 8187 0
-8201 8185 0
-8201 8188 0
8201 -8185 -8188 0
-8202 -8185 0
-8202 -8188 0
8202 8185 8188 0
-8203 -8201 0
-8203 -8202 0
8203 8201 8202 0
-8213 4 0
-8213 8203 0
8213 -4 -8203 0
-8214 -4 0
-8214 -8203 0
8214 4 8203 0
-8215 -8213 0
-8215 -8214 0
8215 8213 8214 0
-8216 133 0
-8216 8215 0
8216 -133 -8215 0
-8217 -133 0
-8217 -8215 0
8217 133 8215 0
-8218 -8216 0
-8218 -8217 0
8218 8216 8217 0
-8219 8182 0
-8219 -8218 0
8219 -8182 8218 0
-8220 76 0
-8220 77 0
8220 -76 -77 0
-8221 -76 0
-8221 -77 0
8221 76 77 0
-8222 -8220 0
-8222 -8221 0
8222 8220 8221 0
-8223 66 0
-8223 72 0
8223 -66 -72 0
-8224 -66 0
-8224 -72 0
8224 66 72 0
-8225 -8223 0
-8225 -8224 0
8225 8223 8224 0
-8238 8222 0
-8238 8225 0
8238 -8222 -8225 0
-8239 -8222 0
-8239 -8225 0
8239 8222 8225 0
-8240 -8238 0
-8240 -8239 0
8240 8238 8239 0
-8250 3 0
-8250 8240 0
8250 -3 -8240 0
-8251 -3 0
-8251 -8240 0
8251 3 8240 0
-8252 -8250 0
-8252 -8251 0
8252 8250 8251 0
-8253 132 0
-8253 8252 0
8253 -132 -8252 0
-8254 -132 0
-8254 -8252 0
8254 132 8252 0
-8255 -8253 0
-8255 -8254 0
8255 8253 8254 0
-8256 8219 0
-8256 -8255 0
8256 -8219 8255 0
-8257 75 0
-8257 76 0
8257 -75 -76 0
-8258 -75 0
-8258 -76 0
8258 75 76 0
-8259 -8257 0
-8259 -8258 0
8259 8257 8258 0
-8266 71 0
-8266 8259 0
8266 -71 -8259 0
-8267 -71 0
-8267 -8259 0
8267 71 8259 0
-8268 -8266 0
-8268 -8267 0
8268 8266 8267 0
-8281 2 0
-8281 65 0
8281 -2 -65 0
-8282 -2 0
-8282 -65 0
8282 2 65 0
-8283 -8281 0
-8283 -8282 0
8283 8281 8282 0
-8290 8268 0
-8290 8283 0
8290 -8268 -8283 0
-8291 -8268 0
-8291 -8283 0
8291 8268 8283 0
-8292 -8290 0
-8292 -8291 0
8292 8290 8291 0
-8293 131 0
-8293 8292 0
8293 -131 -8292 0
-8294 -131 0
-8294 -8292 0
8294 131 8292 0
-8295 -8293 0
-8295 -8294 0
8295 8293 8294 0
-8296 8256 0
-8296 -8295 0
8296 -8256 8295 0
-8297 74 0
-8297 75 0
8297 -74 -75 0
-8298 -74 0
-8298 -75 0
8298 74 75 0
-8299 -8297 0
-8299 -8298 0
8299 8297 8298 0
-8306 70 0
-8306 8299 0
8306 -70 -8299 0
-8307 -70 0
-8307 -8299 0
8307 70 8299 0
-8308 -8306 0
-8308 -8307 0
8308 8306 8307 0
-8321 7 0
-8321 64 0
8321 -7 -64 0
-8322 -7 0
-8322 -64 0
8322 7 64 0
-8323 -8321 0
-8323 -8322 0
8323 8321 8322 0
-8330 8308 0
-8330 8323 0
8330 -8308 -8323 0
-8331 -8308 0
-8331 -8323 0
8331 8308 8323 0
-8332 -8330 0
-8332 -8331 0
8332 8330 8331 0
-8333 130 0
-8333 8332 0
8333 -130 -8332 0
-8334 -130 0
-8334 -8332 0
8334 130 8332 0
-8335 -8333 0
-8335 -8334 0
8335 8333 8334 0
-8336 8296 0
-8336 -8335 0
8336 -8296 8335 0
-8358 6 0
-8358 63 0
8358 -6 -63 0
-8359 -6 0
-8359 -63 0
8359 6 63 0
-8360 -8358 0
-8360 -8359 0
8360 8358 8359 0
-8343 74 0
-8343 79 0
8343 -74 -79 0
-8344 -74 0
-8344 -79 0
8344 74 79 0
-8345 -8343 0
-8345 -8344 0
8345 8343 8344 0
-8352 69 0
-8352 8345 0
8352 -69 -8345 0
-8353 -69 0
-8353 -8345 0
8353 69 8345 0
-8354 -8352 0
-8354 -8353 0
8354 8352 8353 0
-8376 129 0
-8376 8354 0
8376 -129 -8354 0
-8377 -129 0
-8377 -8354 0
8377 129 8354 0
-8378 -8376 0
-8378 -8377 0
8378 8376 8377 0
-8379 8360 0
-8379 8378 0
8379 -8360 -8378 0
-8380 -8360 0
-8380 -8378 0
8380 8360 8378 0
-8381 -8379 0
-8381 -8380 0
8381 8379 8380 0
-8382 8336 0
-8382 -8381 0
8382 -8336 8381 0
-8395 5 0
-8395 62 0
8395 -5 -62 0
-8396 -5 0
-8396 -62 0
8396 5 62 0
-8397 -8395 0
-8397 -8396 0
8397 8395 8396 0
-8383 78 0
-8383 79 0
8383 -78 -79 0
-8384 -78 0
-8384 -79 0
8384 78 79 0
-8385 -8383 0
-8385 -8384 0
8385 8383 8384 0
-8392 68 0
-8392 8385 0
8392 -68 -8385 0
-8393 -68 0
-8393 -8385 0
8393 68 8385 0
-8394 -8392 0
-8394 -8393 0
8394 8392 8393 0
-8410 128 0
-8410 8394 0
8410 -128 -8394 0
-8411 -128 0
-8411 -8394 0
8411 128 8394 0
-8412 -8410 0
-8412 -8411 0
8412 8410 8411 0
-8413 8397 0
-8413 8412 0
8413 -8397 -8412 0
-8414 -8397 0
-8414 -8412 0
8414 8397 8412 0
-8415 -8413 0
-8415 -8414 0
8415 8413 8414 0
-8416 8382 0
-8416 -8415 0
8416 -8382 8415 0
-8564 81 0
-8564 8259 0
8564 -81 -8259 0
-8565 -81 0
-8565 -8259 0
8565 81 8259 0
-8566 -8564 0
-8566 -8565 0
8566 8564 8565 0
-8453 7 0
-8453 9 0
8453 -7 -9 0
-8454 -7 0
-8454 -9 0
8454 7 9 0
-8455 -8453 0
-8455 -8454 0
8455 8453 8454 0
-8456 10 0
-8456 13 0
8456 -10 -13 0
-8457 -10 0
-8457 -13 0
8457 10 13 0
-8458 -8456 0
-8458 -8457 0
8458 8456 8457 0
-8510 8455 0
-8510 8458 0
8510 -8455 -8458 0
-8511 -8455 0
-8511 -8458 0
8511 8455 8458 0
-8512 -8510 0
-8512 -8511 0
8512 8510 8511 0
-8465 23 0
-8465 25 0
8465 -23 -25 0
-8466 -23 0
-8466 -25 0
8466 23 25 0
-8467 -8465 0
-8467 -8466 0
8467 8465 8466 0
-8513 21 0
-8513 8467 0
8513 -21 -8467 0
-8514 -21 0
-8514 -8467 0
8514 21 8467 0
-8515 -8513 0
-8515 -8514 0
8515 8513 8514 0
-8471 27 0
-8471 29 0
8471 -27 -29 0
-8472 -27 0
-8472 -29 0
8472 27 29 0
-8473 -8471 0
-8473 -8472 0
8473 8471 8472 0
-8525 31 0
-8525 8473 0
8525 -31 -8473 0
-8526 -31 0
-8526 -8473 0
8526 31 8473 0
-8527 -8525 0
-8527 -8526 0
8527 8525 8526 0
-8570 8515 0
-8570 8527 0
8570 -8515 -8527 0
-8571 -8515 0
-8571 -8527 0
8571 8515 8527 0
-8572 -8570 0
-8572 -8571 0
8572 8570 8571 0
-8573 8512 0
-8573 8572 0
8573 -8512 -8572 0
-8574 -8512 0
-8574 -8572 0
8574 8512 8572 0
-8575 -8573 0
-8575 -8574 0
8575 8573 8574 0
-8420 38 0
-8420 39 0
8420 -38 -39 0
-8421 -38 0
-8421 -39 0
8421 38 39 0
-8422 -8420 0
-8422 -8421 0
8422 8420 8421 0
-8426 40 0
-8426 41 0
8426 -40 -41 0
-8427 -40 0
-8427 -41 0
8427 40 41 0
-8428 -8426 0
-8428 -8427 0
8428 8426 8427 0
-8480 8422 0
-8480 8428 0
8480 -8422 -8428 0
-8481 -8422 0
-8481 -8428 0
8481 8422 8428 0
-8482 -8480 0
-8482 -8481 0
8482 8480 8481 0
-8432 42 0
-8432 43 0
8432 -42 -43 0
-8433 -42 0
-8433 -43 0
8433 42 43 0
-8434 -8432 0
-8434 -8433 0
8434 8432 8433 0
-8438 44 0
-8438 45 0
8438 -44 -45 0
-8439 -44 0
-8439 -45 0
8439 44 45 0
-8440 -8438 0
-8440 -8439 0
8440 8438 8439 0
-8492 8434 0
-8492 8440 0
8492 -8434 -8440 0
-8493 -8434 0
-8493 -8440 0
8493 8434 8440 0
-8494 -8492 0
-8494 -8493 0
8494 8492 8493 0
-8444 46 0
-8444 47 0
8444 -46 -47 0
-8445 -46 0
-8445 -47 0
8445 46 47 0
-8446 -8444 0
-8446 -8445 0
8446 8444 8445 0
-8450 48 0
-8450 49 0
8450 -48 -49 0
-8451 -48 0
-8451 -49 0
8451 48 49 0
-8452 -8450 0
-8452 -8451 0
8452 8450 8451 0
-8504 8446 0
-8504 8452 0
8504 -8446 -8452 0
-8505 -8446 0
-8505 -8452 0
8505 8446 8452 0
-8506 -8504 0
-8506 -8505 0
8506 8504 8505 0
-8552 8494 0
-8552 8506 0
8552 -8494 -8506 0
-8553 -8494 0
-8553 -8506 0
8553 8494 8506 0
-8554 -8552 0
-8554 -8553 0
8554 8552 8553 0
-8576 8482 0
-8576 8554 0
8576 -8482 -8554 0
-8577 -8482 0
-8577 -8554 0
8577 8482 8554 0
-8578 -8576 0
-8578 -8577 0
8578 8576 8577 0
-8642 8575 0
-8642 8578 0
8642 -8575 -8578 0
-8643 -8575 0
-8643 -8578 0
8643 8575 8578 0
-8644 -8642 0
-8644 -8643 0
8644 8642 8643 0
-8663 8566 0
-8663 8644 0
8663 -8566 -8644 0
-8664 -8566 0
-8664 -8644 0
8664 8566 8644 0
-8665 -8663 0
-8665 -8664 0
8665 8663 8664 0
-8666 -145 0
-8666 8665 0
8666 145 -8665 0
-8667 145 0
-8667 -8665 0
8667 -145 8665 0
-8668 -8666 0
-8668 -8667 0
8668 8666 8667 0
-8711 80 0
-8711 8299 0
8711 -80 -8299 0
-8712 -80 0
-8712 -8299 0
8712 80 8299 0
-8713 -8711 0
-8713 -8712 0
8713 8711 8712 0
-8669 8 0
-8669 9 0
8669 -8 -9 0
-8670 -8 0
-8670 -9 0
8670 8 9 0
-8671 -8669 0
-8671 -8670 0
8671 8669 8670 0
-8672 6 0
-8672 8671 0
8672 -6 -8671 0
-8673 -6 0
-8673 -8671 0
8673 6 8671 0
-8674 -8672 0
-8674 -8673 0
8674 8672 8673 0
-8693 12 0
-8693 8674 0
8693 -12 -8674 0
-8694 -12 0
-8694 -8674 0
8694 12 8674 0
-8695 -8693 0
-8695 -8694 0
8695 8693 8694 0
-8681 22 0
-8681 24 0
8681 -22 -24 0
-8682 -22 0
-8682 -24 0
8682 22 24 0
-8683 -8681 0
-8683 -8682 0
8683 8681 8682 0
-8696 20 0
-8696 8683 0
8696 -20 -8683 0
-8697 -20 0
-8697 -8683 0
8697 20 8683 0
-8698 -8696 0
-8698 -8697 0
8698 8696 8697 0
-8687 26 0
-8687 28 0
8687 -26 -28 0
-8688 -26 0
-8688 -28 0
8688 26 28 0
-8689 -8687 0
-8689 -8688 0
8689 8687 8688 0
-8708 30 0
-8708 8689 0
8708 -30 -8689 0
-8709 -30 0
-8709 -8689 0
8709 30 8689 0
-8710 -8708 0
-8710 -8709 0
8710 8708 8709 0
-8717 8698 0
-8717 8710 0
8717 -8698 -8710 0
-8718 -8698 0
-8718 -8710 0
8718 8698 8710 0
-8719 -8717 0
-8719 -8718 0
8719 8717 8718 0
-8720 8695 0
-8720 8719 0
8720 -8695 -8719 0
-8721 -8695 0
-8721 -8719 0
8721 8695 8719 0
-8722 -8720 0
-8722 -8721 0
8722 8720 8721 0
-8759 8578 0
-8759 8722 0
8759 -8578 -8722 0
-8760 -8578 0
-8760 -8722 0
8760 8578 8722 0
-8761 -8759 0
-8761 -8760 0
8761 8759 8760 0
-8783 8713 0
-8783 8761 0
8783 -8713 -8761 0
-8784 -8713 0
-8784 -8761 0
8784 8713 8761 0
-8785 -8783 0
-8785 -8784 0
8785 8783 8784 0
-8786 -144 0
-8786 8785 0
8786 144 -8785 0
-8787 144 0
-8787 -8785 0
8787 -144 8785 0
-8788 -8786 0
-8788 -8787 0
8788 8786 8787 0
-8867 75 0
-8867 8122 0
8867 -75 -8122 0
-8868 -75 0
-8868 -8122 0
8868 75 8122 0
-8869 -8867 0
-8869 -8868 0
8869 8867 8868 0
-8861 8434 0
-8861 8482 0
8861 -8434 -8482 0
-8862 -8434 0
-8862 -8482 0
8862 8434 8482 0
-8863 -8861 0
-8863 -8862 0
8863 8861 8862 0
-8804 5 0
-8804 9 0
8804 -5 -9 0
-8805 -5 0
-8805 -9 0
8805 5 9 0
-8806 -8804 0
-8806 -8805 0
8806 8804 8805 0
-8831 11 0
-8831 8806 0
8831 -11 -8806 0
-8832 -11 0
-8832 -8806 0
8832 11 8806 0
-8833 -8831 0
-8833 -8832 0
8833 8831 8832 0
-8801 30 0
-8801 31 0
8801 -30 -31 0
-8802 -30 0
-8802 -31 0
8802 30 31 0
-8803 -8801 0
-8803 -8802 0
8803 8801 8802 0
-8789 26 0
-8789 27 0
8789 -26 -27 0
-8790 -26 0
-8790 -27 0
8790 26 27 0
-8791 -8789 0
-8791 -8790 0
8791 8789 8790 0
-8795 28 0
-8795 29 0
8795 -28 -29 0
-8796 -28 0
-8796 -29 0
8796 28 29 0
-8797 -8795 0
-8797 -8796 0
8797 8795 8796 0
-8816 8791 0
-8816 8797 0
8816 -8791 -8797 0
-8817 -8791 0
-8817 -8797 0
8817 8791 8797 0
-8818 -8816 0
-8818 -8817 0
8818 8816 8817 0
-8852 8803 0
-8852 8818 0
8852 -8803 -8818 0
-8853 -8803 0
-8853 -8818 0
8853 8803 8818 0
-8854 -8852 0
-8854 -8853 0
8854 8852 8853 0
-8870 8698 0
-8870 8854 0
8870 -8698 -8854 0
-8871 -8698 0
-8871 -8854 0
8871 8698 8854 0
-8872 -8870 0
-8872 -8871 0
8872 8870 8871 0
-8873 8833 0
-8873 8872 0
8873 -8833 -8872 0
-8874 -8833 0
-8874 -8872 0
8874 8833 8872 0
-8875 -8873 0
-8875 -8874 0
8875 8873 8874 0
-8921 8863 0
-8921 8875 0
8921 -8863 -8875 0
-8922 -8863 0
-8922 -8875 0
8922 8863 8875 0
-8923 -8921 0
-8923 -8922 0
8923 8921 8922 0
-8924 8869 0
-8924 8923 0
8924 -8869 -8923 0
-8925 -8869 0
-8925 -8923 0
8925 8869 8923 0
-8926 -8924 0
-8926 -8925 0
8926 8924 8925 0
-8927 -143 0
-8927 8926 0
8927 143 -8926 0
-8928 143 0
-8928 -8926 0
8928 -143 8926 0
-8929 -8927 0
-8929 -8928 0
8929 8927 8928 0
-9038 77 0
-9038 81 0
9038 -77 -81 0
-9039 -77 0
-9039 -81 0
9039 77 81 0
-9040 -9038 0
-9040 -9039 0
9040 9038 9039 0
-8930 10 0
-8930 11 0
8930 -10 -11 0
-8931 -10 0
-8931 -11 0
8931 10 11 0
-8932 -8930 0
-8932 -8931 0
8932 8930 8931 0
-8948 15 0
-8948 17 0
8948 -15 -17 0
-8949 -15 0
-8949 -17 0
8949 15 17 0
-8950 -8948 0
-8950 -8949 0
8950 8948 8949 0
-8978 8932 0
-8978 8950 0
8978 -8932 -8950 0
-8979 -8932 0
-8979 -8950 0
8979 8932 8950 0
-8980 -8978 0
-8980 -8979 0
8980 8978 8979 0
-8981 4 0
-8981 8980 0
8981 -4 -8980 0
-8982 -4 0
-8982 -8980 0
8982 4 8980 0
-8983 -8981 0
-8983 -8982 0
8983 8981 8982 0
-8933 32 0
-8933 33 0
8933 -32 -33 0
-8934 -32 0
-8934 -33 0
8934 32 33 0
-8935 -8933 0
-8935 -8934 0
8935 8933 8934 0
-8957 30 0
-8957 8935 0
8957 -30 -8935 0
-8958 -30 0
-8958 -8935 0
8958 30 8935 0
-8959 -8957 0
-8959 -8958 0
8959 8957 8958 0
-9002 8689 0
-9002 8959 0
9002 -8689 -8959 0
-9003 -8689 0
-9003 -8959 0
9003 8689 8959 0
-9004 -9002 0
-9004 -9003 0
9004 9002 9003 0
-9041 19 0
-9041 9004 0
9041 -19 -9004 0
-9042 -19 0
-9042 -9004 0
9042 19 9004 0
-9043 -9041 0
-9043 -9042 0
9043 9041 9042 0
-9044 8983 0
-9044 9043 0
9044 -8983 -9043 0
-9045 -8983 0
-9045 -9043 0
9045 8983 9043 0
-9046 -9044 0
-9046 -9045 0
9046 9044 9045 0
-8939 34 0
-8939 35 0
8939 -34 -35 0
-8940 -34 0
-8940 -35 0
8940 34 35 0
-8941 -8939 0
-8941 -8940 0
8941 8939 8940 0
-8945 36 0
-8945 37 0
8945 -36 -37 0
-8946 -36 0
-8946 -37 0
8946 36 37 0
-8947 -8945 0
-8947 -8946 0
8947 8945 8946 0
-8969 8941 0
-8969 8947 0
8969 -8941 -8947 0
-8970 -8941 0
-8970 -8947 0
8970 8941 8947 0
-8971 -8969 0
-8971 -8970 0
8971 8969 8970 0
-9032 8440 0
-9032 8506 0
9032 -8440 -8506 0
-9033 -8440 0
-9033 -8506 0
9033 8440 8506 0
-9034 -9032 0
-9034 -9033 0
9034 9032 9033 0
-9047 8971 0
-9047 9034 0
9047 -8971 -9034 0
-9048 -8971 0
-9048 -9034 0
9048 8971 9034 0
-9049 -9047 0
-9049 -9048 0
9049 9047 9048 0
-9107 9046 0
-9107 9049 0
9107 -9046 -9049 0
-9108 -9046 0
-9108 -9049 0
9108 9046 9049 0
-9109 -9107 0
-9109 -9108 0
9109 9107 9108 0
-9122 9040 0
-9122 9109 0
9122 -9040 -9109 0
-9123 -9040 0
-9123 -9109 0
9123 9040 9109 0
-9124 -9122 0
-9124 -9123 0
9124 9122 9123 0
-9125 -142 0
-9125 9124 0
9125 142 -9124 0
-9126 142 0
-9126 -9124 0
9126 -142 9124 0
-9127 -9125 0
-9127 -9126 0
9127 9125 9126 0
-9182 76 0
-9182 80 0
9182 -76 -80 0
-9183 -76 0
-9183 -80 0
9183 76 80 0
-9184 -9182 0
-9184 -9183 0
9184 9182 9183 0
-9131 14 0
-9131 16 0
9131 -14 -16 0
-9132 -14 0
-9132 -16 0
9132 14 16 0
-9133 -9131 0
-9133 -9132 0
9133 9131 9132 0
-9146 10 0
-9146 9133 0
9146 -10 -9133 0
-9147 -10 0
-9147 -9133 0
9147 10 9133 0
-9148 -9146 0
-9148 -9147 0
9148 9146 9147 0
-9149 8024 0
-9149 9148 0
9149 -8024 -9148 0
-9150 -8024 0
-9150 -9148 0
9150 8024 9148 0
-9151 -9149 0
-9151 -9150 0
9151 9149 9150 0
-9140 31 0
-9140 8935 0
9140 -31 -8935 0
-9141 -31 0
-9141 -8935 0
9141 31 8935 0
-9142 -9140 0
-9142 -9141 0
9142 9140 9141 0
-9164 8473 0
-9164 9142 0
9164 -8473 -9142 0
-9165 -8473 0
-9165 -9142 0
9165 8473 9142 0
-9166 -9164 0
-9166 -9165 0
9166 9164 9165 0
-9185 18 0
-9185 9166 0
9185 -18 -9166 0
-9186 -18 0
-9186 -9166 0
9186 18 9166 0
-9187 -9185 0
-9187 -9186 0
9187 9185 9186 0
-9188 9151 0
-9188 9187 0
9188 -9151 -9187 0
-9189 -9151 0
-9189 -9187 0
9189 9151 9187 0
-9190 -9188 0
-9190 -9189 0
9190 9188 9189 0
-9227 9049 0
-9227 9190 0
9227 -9049 -9190 0
-9228 -9049 0
-9228 -9190 0
9228 9049 9190 0
-9229 -9227 0
-9229 -9228 0
9229 9227 9228 0
-9245 9184 0
-9245 9229 0
9245 -9184 -9229 0
-9246 -9184 0
-9246 -9229 0
9246 9184 9229 0
-9247 -9245 0
-9247 -9246 0
9247 9245 9246 0
-9248 -141 0
-9248 9247 0
9248 141 -9247 0
-9249 141 0
-9249 -9247 0
9249 -141 9247 0
-9250 -9248 0
-9250 -9249 0
9250 9248 9249 0
-9266 77 0
-9266 8299 0
9266 -77 -8299 0
-9267 -77 0
-9267 -8299 0
9267 77 8299 0
-9268 -9266 0
-9268 -9267 0
9268 9266 9267 0
-9305 8122 0
-9305 9268 0
9305 -8122 -9268 0
-9306 -8122 0
-9306 -9268 0
9306 8122 9268 0
-9307 -9305 0
-9307 -9306 0
9307 9305 9306 0
-9254 2 0
-9254 9 0
9254 -2 -9 0
-9255 -2 0
-9255 -9 0
9255 2 9 0
-9256 -9254 0
-9256 -9255 0
9256 9254 9255 0
-9275 11 0
-9275 9256 0
9275 -11 -9256 0
-9276 -11 0
-9276 -9256 0
9276 11 9256 0
-9277 -9275 0
-9277 -9276 0
9277 9275 9276 0
-9317 8515 0
-9317 8854 0
9317 -8515 -8854 0
-9318 -8515 0
-9318 -8854 0
9318 8515 8854 0
-9319 -9317 0
-9319 -9318 0
9319 9317 9318 0
-9320 9277 0
-9320 9319 0
9320 -9277 -9319 0
-9321 -9277 0
-9321 -9319 0
9321 9277 9319 0
-9322 -9320 0
-9322 -9321 0
9322 9320 9321 0
-9359 8863 0
-9359 9322 0
9359 -8863 -9322 0
-9360 -8863 0
-9360 -9322 0
9360 8863 9322 0
-9361 -9359 0
-9361 -9360 0
9361 9359 9360 0
-9365 9307 0
-9365 9361 0
9365 -9307 -9361 0
-9366 -9307 0
-9366 -9361 0
9366 9307 9361 0
-9367 -9365 0
-9367 -9366 0
9367 9365 9366 0
-9368 -140 0
-9368 9367 0
9368 140 -9367 0
-9369 140 0
-9369 -9367 0
9369 -140 9367 0
-9370 -9368 0
-9370 -9369 0
9370 9368 9369 0
-9419 75 0
-9419 8222 0
9419 -75 -8222 0
-9420 -75 0
-9420 -8222 0
9420 75 8222 0
-9421 -9419 0
-9421 -9420 0
9421 9419 9420 0
-9509 8122 0
-9509 9421 0
9509 -8122 -9421 0
-9510 -8122 0
-9510 -9421 0
9510 8122 9421 0
-9511 -9509 0
-9511 -9510 0
9511 9509 9510 0
-9617 69 0
-9617 9511 0
9617 -69 -9511 0
-9618 -69 0
-9618 -9511 0
9618 69 9511 0
-9619 -9617 0
-9619 -9618 0
9619 9617 9618 0
-9371 16 0
-9371 17 0
9371 -16 -17 0
-9372 -16 0
-9372 -17 0
9372 16 17 0
-9373 -9371 0
-9373 -9372 0
9373 9371 9372 0
-9425 11 0
-9425 9373 0
9425 -11 -9373 0
-9426 -11 0
-9426 -9373 0
9426 11 9373 0
-9427 -9425 0
-9427 -9426 0
9427 9425 9426 0
-9428 8455 0
-9428 9427 0
9428 -8455 -9427 0
-9429 -8455 0
-9429 -9427 0
9429 8455 9427 0
-9430 -9428 0
-9430 -9429 0
9430 9428 9429 0
-9383 19 0
-9383 21 0
9383 -19 -21 0
-9384 -19 0
-9384 -21 0
9384 19 21 0
-9385 -9383 0
-9385 -9384 0
9385 9383 9384 0
-9431 8467 0
-9431 9385 0
9431 -8467 -9385 0
-9432 -8467 0
-9432 -9385 0
9432 8467 9385 0
-9433 -9431 0
-9433 -9432 0
9433 9431 9432 0
-9389 32 0
-9389 8803 0
9389 -32 -8803 0
-9390 -32 0
-9390 -8803 0
9390 32 8803 0
-9391 -9389 0
-9391 -9390 0
9391 9389 9390 0
-9452 8818 0
-9452 9391 0
9452 -8818 -9391 0
-9453 -8818 0
-9453 -9391 0
9453 8818 9391 0
-9454 -9452 0
-9454 -9453 0
9454 9452 9453 0
-9518 9433 0
-9518 9454 0
9518 -9433 -9454 0
-9519 -9433 0
-9519 -9454 0
9519 9433 9454 0
-9520 -9518 0
-9520 -9519 0
9520 9518 9519 0
-9521 9430 0
-9521 9520 0
9521 -9430 -9520 0
-9522 -9430 0
-9522 -9520 0
9522 9430 9520 0
-9523 -9521 0
-9523 -9522 0
9523 9521 9522 0
-9377 54 0
-9377 55 0
9377 -54 -55 0
-9378 -54 0
-9378 -55 0
9378 54 55 0
-9379 -9377 0
-9379 -9378 0
9379 9377 9378 0
-9410 50 0
-9410 53 0
9410 -50 -53 0
-9411 -50 0
-9411 -53 0
9411 50 53 0
-9412 -9410 0
-9412 -9411 0
9412 9410 9411 0
-9497 9379 0
-9497 9412 0
9497 -9379 -9412 0
-9498 -9379 0
-9498 -9412 0
9498 9379 9412 0
-9499 -9497 0
-9499 -9498 0
9499 9497 9498 0
-9401 36 0
-9401 8941 0
9401 -36 -8941 0
-9402 -36 0
-9402 -8941 0
9402 36 8941 0
-9403 -9401 0
-9403 -9402 0
9403 9401 9402 0
-9476 8482 0
-9476 9403 0
9476 -8482 -9403 0
-9477 -8482 0
-9477 -9403 0
9477 8482 9403 0
-9478 -9476 0
-9478 -9477 0
9478 9476 9477 0
-9524 8434 0
-9524 9478 0
9524 -8434 -9478 0
-9525 -8434 0
-9525 -9478 0
9525 8434 9478 0
-9526 -9524 0
-9526 -9525 0
9526 9524 9525 0
-9632 9499 0
-9632 9526 0
9632 -9499 -9526 0
-9633 -9499 0
-9633 -9526 0
9633 9499 9526 0
-9634 -9632 0
-9634 -9633 0
9634 9632 9633 0
-9635 9523 0
-9635 9634 0
9635 -9523 -9634 0
-9636 -9523 0
-9636 -9634 0
9636 9523 9634 0
-9637 -9635 0
-9637 -9636 0
9637 9635 9636 0
-9713 9619 0
-9713 9637 0
9713 -9619 -9637 0
-9714 -9619 0
-9714 -9637 0
9714 9619 9637 0
-9715 -9713 0
-9715 -9714 0
9715 9713 9714 0
-9716 -139 0
-9716 9715 0
9716 139 -9715 0
-9717 139 0
-9717 -9715 0
9717 -139 9715 0
-9718 -9716 0
-9718 -9717 0
9718 9716 9717 0
-9863 81 0
-9863 9421 0
9863 -81 -9421 0
-9864 -81 0
-9864 -9421 0
9864 81 9421 0
-9865 -9863 0
-9865 -9864 0
9865 9863 9864 0
-9980 68 0
-9980 9865 0
9980 -68 -9865 0
-9981 -68 0
-9981 -9865 0
9981 68 9865 0
-9982 -9980 0
-9982 -9981 0
9982 9980 9981 0
-9785 8932 0
-9785 9373 0
9785 -8932 -9373 0
-9786 -8932 0
-9786 -9373 0
9786 8932 9373 0
-9787 -9785 0
-9787 -9786 0
9787 9785 9786 0
-9788 6 0
-9788 9787 0
9788 -6 -9787 0
-9789 -6 0
-9789 -9787 0
9789 6 9787 0
-9790 -9788 0
-9790 -9789 0
9790 9788 9789 0
-8954 30 0
-8954 32 0
8954 -30 -32 0
-8955 -30 0
-8955 -32 0
8955 30 32 0
-8956 -8954 0
-8956 -8955 0
8956 8954 8955 0
-8999 8689 0
-8999 8956 0
8999 -8689 -8956 0
-9000 -8689 0
-9000 -8956 0
9000 8689 8956 0
-9001 -8999 0
-9001 -9000 0
9001 8999 9000 0
-9722 18 0
-9722 19 0
9722 -18 -19 0
-9723 -18 0
-9723 -19 0
9723 18 19 0
-9724 -9722 0
-9724 -9723 0
9724 9722 9723 0
-9728 20 0
-9728 21 0
9728 -20 -21 0
-9729 -20 0
-9729 -21 0
9729 20 21 0
-9730 -9728 0
-9730 -9729 0
9730 9728 9729 0
-9755 9724 0
-9755 9730 0
9755 -9724 -9730 0
-9756 -9724 0
-9756 -9730 0
9756 9724 9730 0
-9757 -9755 0
-9757 -9756 0
9757 9755 9756 0
-9734 22 0
-9734 23 0
9734 -22 -23 0
-9735 -22 0
-9735 -23 0
9735 22 23 0
-9736 -9734 0
-9736 -9735 0
9736 9734 9735 0
-9740 24 0
-9740 25 0
9740 -24 -25 0
-9741 -24 0
-9741 -25 0
9741 24 25 0
-9742 -9740 0
-9742 -9741 0
9742 9740 9741 0
-9767 9736 0
-9767 9742 0
9767 -9736 -9742 0
-9768 -9736 0
-9768 -9742 0
9768 9736 9742 0
-9769 -9767 0
-9769 -9768 0
9769 9767 9768 0
-9791 9757 0
-9791 9769 0
9791 -9757 -9769 0
-9792 -9757 0
-9792 -9769 0
9792 9757 9769 0
-9793 -9791 0
-9793 -9792 0
9793 9791 9792 0
-9872 9001 0
-9872 9793 0
9872 -9001 -9793 0
-9873 -9001 0
-9873 -9793 0
9873 9001 9793 0
-9874 -9872 0
-9874 -9873 0
9874 9872 9873 0
-9875 9790 0
-9875 9874 0
9875 -9790 -9874 0
-9876 -9790 0
-9876 -9874 0
9876 9790 9874 0
-9877 -9875 0
-9877 -9876 0
9877 9875 9876 0
-9743 52 0
-9743 53 0
9743 -52 -53 0
-9744 -52 0
-9744 -53 0
9744 52 53 0
-9745 -9743 0
-9745 -9744 0
9745 9743 9744 0
-9782 9379 0
-9782 9745 0
9782 -9379 -9745 0
-9783 -9379 0
-9783 -9745 0
9783 9379 9745 0
-9784 -9782 0
-9784 -9783 0
9784 9782 9783 0
-9878 36 0
-9878 9034 0
9878 -36 -9034 0
-9879 -36 0
-9879 -9034 0
9879 36 9034 0
-9880 -9878 0
-9880 -9879 0
9880 9878 9879 0
-9992 9784 0
-9992 9880 0
9992 -9784 -9880 0
-9993 -9784 0
-9993 -9880 0
9993 9784 9880 0
-9994 -9992 0
-9994 -9993 0
9994 9992 9993 0
-9995 9877 0
-9995 9994 0
9995 -9877 -9994 0
-9996 -9877 0
-9996 -9994 0
9996 9877 9994 0
-9997 -9995 0
-9997 -9996 0
9997 9995 9996 0
-10070 9982 0
-10070 9997 0
10070 -9982 -9997 0
-10071 -9982 0
-10071 -9997 0
10071 9982 9997 0
-10072 -10070 0
-10072 -10071 0
10072 10070 10071 0
-10073 -138 0
-10073 10072 0
10073 138 -10072 0
-10074 138 0
-10074 -10072 0
10074 -138 10072 0
-10075 -10073 0
-10075 -10074 0
10075 10073 10074 0
-10133 76 0
-10133 8299 0
10133 -76 -8299 0
-10134 -76 0
-10134 -8299 0
10134 76 8299 0
-10135 -10133 0
-10135 -10134 0
10135 10133 10134 0
-10226 80 0
-10226 10135 0
10226 -80 -10135 0
-10227 -80 0
-10227 -10135 0
10227 80 10135 0
-10228 -10226 0
-10228 -10227 0
10228 10226 10227 0
-10322 69 0
-10322 10228 0
10322 -69 -10228 0
-10323 -69 0
-10323 -10228 0
10323 69 10228 0
-10324 -10322 0
-10324 -10323 0
10324 10322 10323 0
-10076 14 0
-10076 15 0
10076 -14 -15 0
-10077 -14 0
-10077 -15 0
10077 14 15 0
-10078 -10076 0
-10078 -10077 0
10078 10076 10077 0
-10094 16 0
-10094 10078 0
10094 -16 -10078 0
-10095 -16 0
-10095 -10078 0
10095 16 10078 0
-10096 -10094 0
-10096 -10095 0
10096 10094 10095 0
-10136 10 0
-10136 10096 0
10136 -10 -10096 0
-10137 -10 0
-10137 -10096 0
10137 10 10096 0
-10138 -10136 0
-10138 -10137 0
10138 10136 10137 0
-10139 8806 0
-10139 10138 0
10139 -8806 -10138 0
-10140 -8806 0
-10140 -10138 0
10140 8806 10138 0
-10141 -10139 0
-10141 -10140 0
10141 10139 10140 0
-10100 19 0
-10100 9730 0
10100 -19 -9730 0
-10101 -19 0
-10101 -9730 0
10101 19 9730 0
-10102 -10100 0
-10102 -10101 0
10102 10100 10101 0
-10142 9769 0
-10142 10102 0
10142 -9769 -10102 0
-10143 -9769 0
-10143 -10102 0
10143 9769 10102 0
-10144 -10142 0
-10144 -10143 0
10144 10142 10143 0
-10109 31 0
-10109 33 0
10109 -31 -33 0
-10110 -31 0
-10110 -33 0
10110 31 33 0
-10111 -10109 0
-10111 -10110 0
10111 10109 10110 0
-10181 8473 0
-10181 10111 0
10181 -8473 -10111 0
-10182 -8473 0
-10182 -10111 0
10182 8473 10111 0
-10183 -10181 0
-10183 -10182 0
10183 10181 10182 0
-10232 10144 0
-10232 10183 0
10232 -10144 -10183 0
-10233 -10144 0
-10233 -10183 0
10233 10144 10183 0
-10234 -10232 0
-10234 -10233 0
10234 10232 10233 0
-10235 10141 0
-10235 10234 0
10235 -10141 -10234 0
-10236 -10141 0
-10236 -10234 0
10236 10141 10234 0
-10237 -10235 0
-10237 -10236 0
10237 10235 10236 0
-10085 50 0
-10085 51 0
10085 -50 -51 0
-10086 -50 0
-10086 -51 0
10086 50 51 0
-10087 -10085 0
-10087 -10086 0
10087 10085 10086 0
-10124 52 0
-10124 10087 0
10124 -52 -10087 0
-10125 -52 0
-10125 -10087 0
10125 52 10087 0
-10126 -10124 0
-10126 -10125 0
10126 10124 10125 0
-10211 55 0
-10211 10126 0
10211 -55 -10126 0
-10212 -55 0
-10212 -10126 0
10212 55 10126 0
-10213 -10211 0
-10213 -10212 0
10213 10211 10212 0
-10238 35 0
-10238 9034 0
10238 -35 -9034 0
-10239 -35 0
-10239 -9034 0
10239 35 9034 0
-10240 -10238 0
-10240 -10239 0
10240 10238 10239 0
-10334 10213 0
-10334 10240 0
10334 -10213 -10240 0
-10335 -10213 0
-10335 -10240 0
10335 10213 10240 0
-10336 -10334 0
-10336 -10335 0
10336 10334 10335 0
-10337 10237 0
-10337 10336 0
10337 -10237 -10336 0
-10338 -10237 0
-10338 -10336 0
10338 10237 10336 0
-10339 -10337 0
-10339 -10338 0
10339 10337 10338 0
-10403 10324 0
-10403 10339 0
10403 -10324 -10339 0
-10404 -10324 0
-10404 -10339 0
10404 10324 10339 0
-10405 -10403 0
-10405 -10404 0
10405 10403 10404 0
-10406 -137 0
-10406 10405 0
10406 137 -10405 0
-10407 137 0
-10407 -10405 0
10407 -137 10405 0
-10408 -10406 0
-10408 -10407 0
10408 10406 10407 0
-10472 68 0
-10472 8122 0
10472 -68 -8122 0
-10473 -68 0
-10473 -8122 0
10473 68 8122 0
-10474 -10472 0
-10474 -10473 0
10474 10472 10473 0
-10412 13 0
-10412 10078 0
10412 -13 -10078 0
-10413 -13 0
-10413 -10078 0
10413 13 10078 0
-10414 -10412 0
-10414 -10413 0
10414 10412 10413 0
-10427 4 0
-10427 10414 0
10427 -4 -10414 0
-10428 -4 0
-10428 -10414 0
10428 4 10414 0
-10429 -10427 0
-10429 -10428 0
10429 10427 10428 0
-10454 32 0
-10454 9724 0
10454 -32 -9724 0
-10455 -32 0
-10455 -9724 0
10455 32 9724 0
-10456 -10454 0
-10456 -10455 0
10456 10454 10455 0
-10457 10429 0
-10457 10456 0
10457 -10429 -10456 0
-10458 -10429 0
-10458 -10456 0
10458 10429 10456 0
-10459 -10457 0
-10459 -10458 0
10459 10457 10458 0
-10448 9379 0
-10448 10087 0
10448 -9379 -10087 0
-10449 -9379 0
-10449 -10087 0
10449 9379 10087 0
-10450 -10448 0
-10450 -10449 0
10450 10448 10449 0
-10475 34 0
-10475 10450 0
10475 -34 -10450 0
-10476 -34 0
-10476 -10450 0
10476 34 10450 0
-10477 -10475 0
-10477 -10476 0
10477 10475 10476 0
-10478 10459 0
-10478 10477 0
10478 -10459 -10477 0
-10479 -10459 0
-10479 -10477 0
10479 10459 10477 0
-10480 -10478 0
-10480 -10479 0
10480 10478 10479 0
-10517 10474 0
-10517 10480 0
10517 -10474 -10480 0
-10518 -10474 0
-10518 -10480 0
10518 10474 10480 0
-10519 -10517 0
-10519 -10518 0
10519 10517 10518 0
-10520 -136 0
-10520 10519 0
10520 136 -10519 0
-10521 136 0
-10521 -10519 0
10521 -136 10519 0
-10522 -10520 0
-10522 -10521 0
10522 10520 10521 0
-10544 74 0
-10544 77 0
10544 -74 -77 0
-10545 -74 0
-10545 -77 0
10545 74 77 0
-10546 -10544 0
-10546 -10545 0
10546 10544 10545 0
-10583 81 0
-10583 10546 0
10583 -81 -10546 0
-10584 -81 0
-10584 -10546 0
10584 81 10546 0
-10585 -10583 0
-10585 -10584 0
10585 10583 10584 0
-10652 69 0
-10652 10585 0
10652 -69 -10585 0
-10653 -69 0
-10653 -10585 0
10653 69 10585 0
-10654 -10652 0
-10654 -10653 0
10654 10652 10653 0
-10529 3 0
-10529 8 0
10529 -3 -8 0
-10530 -3 0
-10530 -8 0
10530 3 8 0
-10531 -10529 0
-10531 -10530 0
10531 10529 10530 0
-10523 11 0
-10523 12 0
10523 -11 -12 0
-10524 -11 0
-10524 -12 0
10524 11 12 0
-10525 -10523 0
-10525 -10524 0
10525 10523 10524 0
-10547 8950 0
-10547 10525 0
10547 -8950 -10525 0
-10548 -8950 0
-10548 -10525 0
10548 8950 10525 0
-10549 -10547 0
-10549 -10548 0
10549 10547 10548 0
-10550 10531 0
-10550 10549 0
10550 -10531 -10549 0
-10551 -10531 0
-10551 -10549 0
10551 10531 10549 0
-10552 -10550 0
-10552 -10551 0
10552 10550 10551 0
-10586 9166 0
-10586 9433 0
10586 -9166 -9433 0
-10587 -9166 0
-10587 -9433 0
10587 9166 9433 0
-10588 -10586 0
-10588 -10587 0
10588 10586 10587 0
-10589 10552 0
-10589 10588 0
10589 -10552 -10588 0
-10590 -10552 0
-10590 -10588 0
10590 10552 10588 0
-10591 -10589 0
-10591 -10590 0
10591 10589 10590 0
-10571 8482 0
-10571 8971 0
10571 -8482 -8971 0
-10572 -8482 0
-10572 -8971 0
10572 8482 8971 0
-10573 -10571 0
-10573 -10572 0
10573 10571 10572 0
-10592 8554 0
-10592 10573 0
10592 -8554 -10573 0
-10593 -8554 0
-10593 -10573 0
10593 8554 10573 0
-10594 -10592 0
-10594 -10593 0
10594 10592 10593 0
-10658 10591 0
-10658 10594 0
10658 -10591 -10594 0
-10659 -10591 0
-10659 -10594 0
10659 10591 10594 0
-10660 -10658 0
-10660 -10659 0
10660 10658 10659 0
-10700 10654 0
-10700 10660 0
10700 -10654 -10660 0
-10701 -10654 0
-10701 -10660 0
10701 10654 10660 0
-10702 -10700 0
-10702 -10701 0
10702 10700 10701 0
-10703 -135 0
-10703 10702 0
10703 135 -10702 0
-10704 135 0
-10704 -10702 0
10704 -135 10702 0
-10705 -10703 0
-10705 -10704 0
10705 10703 10704 0
-10736 80 0
-10736 9421 0
10736 -80 -9421 0
-10737 -80 0
-10737 -9421 0
10737 80 9421 0
-10738 -10736 0
-10738 -10737 0
10738 10736 10737 0
-10769 68 0
-10769 10738 0
10769 -68 -10738 0
-10770 -68 0
-10770 -10738 0
10770 68 10738 0
-10771 -10769 0
-10771 -10770 0
10771 10769 10770 0
-10706 9373 0
-10706 10078 0
10706 -9373 -10078 0
-10707 -9373 0
-10707 -10078 0
10707 9373 10078 0
-10708 -10706 0
-10708 -10707 0
10708 10706 10707 0
-10715 10 0
-10715 10708 0
10715 -10 -10708 0
-10716 -10 0
-10716 -10708 0
10716 10 10708 0
-10717 -10715 0
-10717 -10716 0
10717 10715 10716 0
-10718 9256 0
-10718 10717 0
10718 -9256 -10717 0
-10719 -9256 0
-10719 -10717 0
10719 9256 10717 0
-10720 -10718 0
-10720 -10719 0
10720 10718 10719 0
-10745 8527 0
-10745 9724 0
10745 -8527 -9724 0
-10746 -8527 0
-10746 -9724 0
10746 8527 9724 0
-10747 -10745 0
-10747 -10746 0
10747 10745 10746 0
-10748 10720 0
-10748 10747 0
10748 -10720 -10747 0
-10749 -10720 0
-10749 -10747 0
10749 10720 10747 0
-10750 -10748 0
-10750 -10749 0
10750 10748 10749 0
-10778 9034 0
-10778 10750 0
10778 -9034 -10750 0
-10779 -9034 0
-10779 -10750 0
10779 9034 10750 0
-10780 -10778 0
-10780 -10779 0
10780 10778 10779 0
-10823 10771 0
-10823 10780 0
10823 -10771 -10780 0
-10824 -10771 0
-10824 -10780 0
10824 10771 10780 0
-10825 -10823 0
-10825 -10824 0
10825 10823 10824 0
-10826 -134 0
-10826 10825 0
10826 134 -10825 0
-10827 134 0
-10827 -10825 0
10827 -134 10825 0
-10828 -10826 0
-10828 -10827 0
10828 10826 10827 0
-10862 74 0
-10862 8222 0
10862 -74 -8222 0
-10863 -74 0
-10863 -8222 0
10863 74 8222 0
-10864 -10862 0
-10864 -10863 0
10864 10862 10863 0
-11075 69 0
-11075 10864 0
11075 -69 -10864 0
-11076 -69 0
-11076 -10864 0
11076 69 10864 0
-11077 -11075 0
-11077 -11076 0
11077 11075 11076 0
-10829 13 0
-10829 8932 0
10829 -13 -8932 0
-10830 -13 0
-10830 -8932 0
10830 13 8932 0
-10831 -10829 0
-10831 -10830 0
10831 10829 10830 0
-10865 9373 0
-10865 10831 0
10865 -9373 -10831 0
-10866 -9373 0
-10866 -10831 0
10866 9373 10831 0
-10867 -10865 0
-10867 -10866 0
10867 10865 10866 0
-10868 4 0
-10868 10867 0
10868 -4 -10867 0
-10869 -4 0
-10869 -10867 0
10869 4 10867 0
-10870 -10868 0
-10870 -10869 0
10870 10868 10869 0
-10835 26 0
-10835 8797 0
10835 -26 -8797 0
-10836 -26 0
-10836 -8797 0
10836 26 8797 0
-10837 -10835 0
-10837 -10836 0
10837 10835 10836 0
-10898 8956 0
-10898 10837 0
10898 -8956 -10837 0
-10899 -8956 0
-10899 -10837 0
10899 8956 10837 0
-10900 -10898 0
-10900 -10899 0
10900 10898 10899 0
-10955 9433 0
-10955 10900 0
10955 -9433 -10900 0
-10956 -9433 0
-10956 -10900 0
10956 9433 10900 0
-10957 -10955 0
-10957 -10956 0
10957 10955 10956 0
-10958 10870 0
-10958 10957 0
10958 -10870 -10957 0
-10959 -10870 0
-10959 -10957 0
10959 10870 10957 0
-10960 -10958 0
-10960 -10959 0
10960 10958 10959 0
-10847 44 0
-10847 8434 0
10847 -44 -8434 0
-10848 -44 0
-10848 -8434 0
10848 44 8434 0
-10849 -10847 0
-10849 -10848 0
10849 10847 10848 0
-10853 47 0
-10853 8452 0
10853 -47 -8452 0
-10854 -47 0
-10854 -8452 0
10854 47 8452 0
-10855 -10853 0
-10855 -10854 0
10855 10853 10854 0
-10928 10849 0
-10928 10855 0
10928 -10849 -10855 0
-10929 -10849 0
-10929 -10855 0
10929 10849 10855 0
-10930 -10928 0
-10930 -10929 0
10930 10928 10929 0
-10961 9478 0
-10961 10930 0
10961 -9478 -10930 0
-10962 -9478 0
-10962 -10930 0
10962 9478 10930 0
-10963 -10961 0
-10963 -10962 0
10963 10961 10962 0
-11054 63 0
-11054 9499 0
11054 -63 -9499 0
-11055 -63 0
-11055 -9499 0
11055 63 9499 0
-11056 -11054 0
-11056 -11055 0
11056 11054 11055 0
-11087 10963 0
-11087 11056 0
11087 -10963 -11056 0
-11088 -10963 0
-11088 -11056 0
11088 10963 11056 0
-11089 -11087 0
-11089 -11088 0
11089 11087 11088 0
-11090 10960 0
-11090 11089 0
11090 -10960 -11089 0
-11091 -10960 0
-11091 -11089 0
11091 10960 11089 0
-11092 -11090 0
-11092 -11091 0
11092 11090 11091 0
-11165 11077 0
-11165 11092 0
11165 -11077 -11092 0
-11166 -11077 0
-11166 -11092 0
11166 11077 11092 0
-11167 -11165 0
-11167 -11166 0
11167 11165 11166 0
-11168 -133 0
-11168 11167 0
11168 133 -11167 0
-11169 133 0
-11169 -11167 0
11169 -133 11167 0
-11170 -11168 0
-11170 -11169 0
11170 11168 11169 0
-11300 68 0
-11300 8222 0
11300 -68 -8222 0
-11301 -68 0
-11301 -8222 0
11301 68 8222 0
-11302 -11300 0
-11302 -11301 0
11302 11300 11301 0
-11171 12 0
-11171 13 0
11171 -12 -13 0
-11172 -12 0
-11172 -13 0
11172 12 13 0
-11173 -11171 0
-11173 -11172 0
11173 11171 11172 0
-11174 8932 0
-11174 11173 0
11174 -8932 -11173 0
-11175 -8932 0
-11175 -11173 0
11175 8932 11173 0
-11176 -11174 0
-11176 -11175 0
11176 11174 11175 0
-11186 9373 0
-11186 11176 0
11186 -9373 -11176 0
-11187 -9373 0
-11187 -11176 0
11187 9373 11176 0
-11188 -11186 0
-11188 -11187 0
11188 11186 11187 0
-11189 3 0
-11189 11188 0
11189 -3 -11188 0
-11190 -3 0
-11190 -11188 0
11190 3 11188 0
-11191 -11189 0
-11191 -11190 0
11191 11189 11190 0
-11207 26 0
-11207 8956 0
11207 -26 -8956 0
-11208 -26 0
-11208 -8956 0
11208 26 8956 0
-11209 -11207 0
-11209 -11208 0
11209 11207 11208 0
-11219 9724 0
-11219 11209 0
11219 -9724 -11209 0
-11220 -9724 0
-11220 -11209 0
11220 9724 11209 0
-11221 -11219 0
-11221 -11220 0
11221 11219 11220 0
-11222 11191 0
-11222 11221 0
11222 -11191 -11221 0
-11223 -11191 0
-11223 -11221 0
11223 11191 11221 0
-11224 -11222 0
-11224 -11223 0
11224 11222 11223 0
-11225 36 0
-11225 8506 0
11225 -36 -8506 0
-11226 -36 0
-11226 -8506 0
11226 36 8506 0
-11227 -11225 0
-11227 -11226 0
11227 11225 11226 0
-11279 62 0
-11279 9784 0
11279 -62 -9784 0
-11280 -62 0
-11280 -9784 0
11280 62 9784 0
-11281 -11279 0
-11281 -11280 0
11281 11279 11280 0
-11303 11227 0
-11303 11281 0
11303 -11227 -11281 0
-11304 -11227 0
-11304 -11281 0
11304 11227 11281 0
-11305 -11303 0
-11305 -11304 0
11305 11303 11304 0
-11306 11224 0
-11306 11305 0
11306 -11224 -11305 0
-11307 -11224 0
-11307 -11305 0
11307 11224 11305 0
-11308 -11306 0
-11308 -11307 0
11308 11306 11307 0
-11366 11302 0
-11366 11308 0
11366 -11302 -11308 0
-11367 -11302 0
-11367 -11308 0
11367 11302 11308 0
-11368 -11366 0
-11368 -11367 0
11368 11366 11367 0
-11369 -132 0
-11369 11368 0
11369 132 -11368 0
-11370 132 0
-11370 -11368 0
11370 -132 11368 0
-11371 -11369 0
-11371 -11370 0
11371 11369 11370 0
-9503 69 0
-9503 8259 0
9503 -69 -8259 0
-9504 -69 0
-9504 -8259 0
9504 69 8259 0
-9505 -9503 0
-9505 -9504 0
9505 9503 9504 0
-11372 2 0
-11372 8671 0
11372 -2 -8671 0
-11373 -2 0
-11373 -8671 0
11373 2 8671 0
-11374 -11372 0
-11374 -11373 0
11374 11372 11373 0
-11393 8458 0
-11393 10096 0
11393 -8458 -10096 0
-11394 -8458 0
-11394 -10096 0
11394 8458 10096 0
-11395 -11393 0
-11395 -11394 0
11395 11393 11394 0
-11396 11374 0
-11396 11395 0
11396 -11374 -11395 0
-11397 -11374 0
-11397 -11395 0
11397 11374 11395 0
-11398 -11396 0
-11398 -11397 0
11398 11396 11397 0
-11411 33 0
-11411 8473 0
11411 -33 -8473 0
-11412 -33 0
-11412 -8473 0
11412 33 8473 0
-11413 -11411 0
-11413 -11412 0
11413 11411 11412 0
-11435 19 0
-11435 11413 0
11435 -19 -11413 0
-11436 -19 0
-11436 -11413 0
11436 19 11413 0
-11437 -11435 0
-11437 -11436 0
11437 11435 11436 0
-11438 11398 0
-11438 11437 0
11438 -11398 -11437 0
-11439 -11398 0
-11439 -11437 0
11439 11398 11437 0
-11440 -11438 0
-11440 -11439 0
11440 11438 11439 0
-11387 46 0
-11387 49 0
11387 -46 -49 0
-11388 -46 0
-11388 -49 0
11388 46 49 0
-11389 -11387 0
-11389 -11388 0
11389 11387 11388 0
-11417 8440 0
-11417 11389 0
11417 -8440 -11389 0
-11418 -8440 0
-11418 -11389 0
11418 8440 11389 0
-11419 -11417 0
-11419 -11418 0
11419 11417 11418 0
-11441 35 0
-11441 11419 0
11441 -35 -11419 0
-11442 -35 0
-11442 -11419 0
11442 35 11419 0
-11443 -11441 0
-11443 -11442 0
11443 11441 11442 0
-11504 63 0
-11504 10213 0
11504 -63 -10213 0
-11505 -63 0
-11505 -10213 0
11505 63 10213 0
-11506 -11504 0
-11506 -11505 0
11506 11504 11505 0
-11528 11443 0
-11528 11506 0
11528 -11443 -11506 0
-11529 -11443 0
-11529 -11506 0
11529 11443 11506 0
-11530 -11528 0
-11530 -11529 0
11530 11528 11529 0
-11531 11440 0
-11531 11530 0
11531 -11440 -11530 0
-11532 -11440 0
-11532 -11530 0
11532 11440 11530 0
-11533 -11531 0
-11533 -11532 0
11533 11531 11532 0
-11597 9505 0
-11597 11533 0
11597 -9505 -11533 0
-11598 -9505 0
-11598 -11533 0
11598 9505 11533 0
-11599 -11597 0
-11599 -11598 0
11599 11597 11598 0
-11600 -131 0
-11600 11599 0
11600 131 -11599 0
-11601 131 0
-11601 -11599 0
11601 -131 11599 0
-11602 -11600 0
-11602 -11601 0
11602 11600 11601 0
-11669 68 0
-11669 8299 0
11669 -68 -8299 0
-11670 -68 0
-11670 -8299 0
11670 68 8299 0
-11671 -11669 0
-11671 -11670 0
11671 11669 11670 0
-11606 7 0
-11606 8671 0
11606 -7 -8671 0
-11607 -7 0
-11607 -8671 0
11607 7 8671 0
-11608 -11606 0
-11608 -11607 0
11608 11606 11607 0
-11615 10078 0
-11615 11173 0
11615 -10078 -11173 0
-11616 -10078 0
-11616 -11173 0
11616 10078 11173 0
-11617 -11615 0
-11617 -11616 0
11617 11615 11616 0
-11627 11608 0
-11627 11617 0
11627 -11608 -11617 0
-11628 -11608 0
-11628 -11617 0
11628 11608 11617 0
-11629 -11627 0
-11629 -11628 0
11629 11627 11628 0
-11636 32 0
-11636 8689 0
11636 -32 -8689 0
-11637 -32 0
-11637 -8689 0
11637 32 8689 0
-11638 -11636 0
-11638 -11637 0
11638 11636 11637 0
-11672 9724 0
-11672 11638 0
11672 -9724 -11638 0
-11673 -9724 0
-11673 -11638 0
11673 9724 11638 0
-11674 -11672 0
-11674 -11673 0
11674 11672 11673 0
-11675 11629 0
-11675 11674 0
11675 -11629 -11674 0
-11676 -11629 0
-11676 -11674 0
11676 11629 11674 0
-11677 -11675 0
-11677 -11676 0
11677 11675 11676 0
-11645 8440 0
-11645 8452 0
11645 -8440 -8452 0
-11646 -8440 0
-11646 -8452 0
11646 8440 8452 0
-11647 -11645 0
-11647 -11646 0
11647 11645 11646 0
-11678 34 0
-11678 11647 0
11678 -34 -11647 0
-11679 -34 0
-11679 -11647 0
11679 34 11647 0
-11680 -11678 0
-11680 -11679 0
11680 11678 11679 0
-11735 62 0
-11735 10450 0
11735 -62 -10450 0
-11736 -62 0
-11736 -10450 0
11736 62 10450 0
-11737 -11735 0
-11737 -11736 0
11737 11735 11736 0
-11756 11680 0
-11756 11737 0
11756 -11680 -11737 0
-11757 -11680 0
-11757 -11737 0
11757 11680 11737 0
-11758 -11756 0
-11758 -11757 0
11758 11756 11757 0
-11759 11677 0
-11759 11758 0
11759 -11677 -11758 0
-11760 -11677 0
-11760 -11758 0
11760 11677 11758 0
-11761 -11759 0
-11761 -11760 0
11761 11759 11760 0
-11825 11671 0
-11825 11761 0
11825 -11671 -11761 0
-11826 -11671 0
-11826 -11761 0
11826 11671 11761 0
-11827 -11825 0
-11827 -11826 0
11827 11825 11826 0
-11828 -130 0
-11828 11827 0
11828 130 -11827 0
-11829 130 0
-11829 -11827 0
11829 -130 11827 0
-11830 -11828 0
-11830 -11829 0
11830 11828 11829 0
-10832 11 0
-10832 13 0
10832 -11 -13 0
-10833 -11 0
-10833 -13 0
10833 11 13 0
-10834 -10832 0
-10834 -10833 0
10834 10832 10833 0
-11843 8950 0
-11843 10834 0
11843 -8950 -10834 0
-11844 -8950 0
-11844 -10834 0
11844 8950 10834 0
-11845 -11843 0
-11845 -11844 0
11845 11843 11844 0
-11846 8081 0
-11846 11845 0
11846 -8081 -11845 0
-11847 -8081 0
-11847 -11845 0
11847 8081 11845 0
-11848 -11846 0
-11848 -11847 0
11848 11846 11847 0
-9725 19 0
-9725 20 0
9725 -19 -20 0
-9726 -19 0
-9726 -20 0
9726 19 20 0
-9727 -9725 0
-9727 -9726 0
9727 9725 9726 0
-11849 8683 0
-11849 9727 0
11849 -8683 -9727 0
-11850 -8683 0
-11850 -9727 0
11850 8683 9727 0
-11851 -11849 0
-11851 -11850 0
11851 11849 11850 0
-11840 8803 0
-11840 8935 0
11840 -8803 -8935 0
-11841 -8803 0
-11841 -8935 0
11841 8803 8935 0
-11842 -11840 0
-11842 -11841 0
11842 11840 11841 0
-11876 8818 0
-11876 11842 0
11876 -8818 -11842 0
-11877 -8818 0
-11877 -11842 0
11877 8818 11842 0
-11878 -11876 0
-11878 -11877 0
11878 11876 11877 0
-11894 11851 0
-11894 11878 0
11894 -11851 -11878 0
-11895 -11851 0
-11895 -11878 0
11895 11851 11878 0
-11896 -11894 0
-11896 -11895 0
11896 11894 11895 0
-11897 11848 0
-11897 11896 0
11897 -11848 -11896 0
-11898 -11848 0
-11898 -11896 0
11898 11848 11896 0
-11899 -11897 0
-11899 -11898 0
11899 11897 11898 0
-11900 8434 0
-11900 10573 0
11900 -8434 -10573 0
-11901 -8434 0
-11901 -10573 0
11901 8434 10573 0
-11902 -11900 0
-11902 -11901 0
11902 11900 11901 0
-11969 63 0
-11969 11902 0
11969 -63 -11902 0
-11970 -63 0
-11970 -11902 0
11970 63 11902 0
-11971 -11969 0
-11971 -11970 0
11971 11969 11970 0
-11972 11899 0
-11972 11971 0
11972 -11899 -11971 0
-11973 -11899 0
-11973 -11971 0
11973 11899 11971 0
-11974 -11972 0
-11974 -11973 0
11974 11972 11973 0
-11960 69 0
-11960 9268 0
11960 -69 -9268 0
-11961 -69 0
-11961 -9268 0
11961 69 9268 0
-11962 -11960 0
-11962 -11961 0
11962 11960 11961 0
-12017 129 0
-12017 11962 0
12017 -129 -11962 0
-12018 -129 0
-12018 -11962 0
12018 129 11962 0
-12019 -12017 0
-12019 -12018 0
12019 12017 12018 0
-12020 11974 0
-12020 12019 0
12020 -11974 -12019 0
-12021 -11974 0
-12021 -12019 0
12021 11974 12019 0
-12022 -12020 0
-12022 -12021 0
12022 12020 12021 0
-12023 5 0
-12023 8671 0
12023 -5 -8671 0
-12024 -5 0
-12024 -8671 0
12024 5 8671 0
-12025 -12023 0
-12025 -12024 0
12025 12023 12024 0
-12038 10708 0
-12038 11176 0
12038 -10708 -11176 0
-12039 -10708 0
-12039 -11176 0
12039 10708 11176 0
-12040 -12038 0
-12040 -12039 0
12040 12038 12039 0
-12041 12025 0
-12041 12040 0
12041 -12025 -12040 0
-12042 -12025 0
-12042 -12040 0
12042 12025 12040 0
-12043 -12041 0
-12043 -12042 0
12043 12041 12042 0
-12071 9793 0
-12071 12043 0
12071 -9793 -12043 0
-12072 -9793 0
-12072 -12043 0
12072 9793 12043 0
-12073 -12071 0
-12073 -12072 0
12073 12071 12072 0
-12095 62 0
-12095 12073 0
12095 -62 -12073 0
-12096 -62 0
-12096 -12073 0
12096 62 12073 0
-12097 -12095 0
-12097 -12096 0
12097 12095 12096 0
-12035 8222 0
-12035 8299 0
12035 -8222 -8299 0
-12036 -8222 0
-12036 -8299 0
12036 8222 8299 0
-12037 -12035 0
-12037 -12036 0
12037 12035 12036 0
-12083 68 0
-12083 12037 0
12083 -68 -12037 0
-12084 -68 0
-12084 -12037 0
12084 68 12037 0
-12085 -12083 0
-12085 -12084 0
12085 12083 12084 0
-12128 128 0
-12128 12085 0
12128 -128 -12085 0
-12129 -128 0
-12129 -12085 0
12129 128 12085 0
-12130 -12128 0
-12130 -12129 0
12130 12128 12129 0
-12131 12097 0
-12131 12130 0
12131 -12097 -12130 0
-12132 -12097 0
-12132 -12130 0
12132 12097 12130 0
-12133 -12131 0
-12133 -12132 0
12133 12131 12132 0
-12134 2 0
-12134 7 0
12134 -2 -7 0
-12135 -2 0
-12135 -7 0
12135 2 7 0
-12136 -12134 0
-12136 -12135 0
12136 12134 12135 0
-12158 10414 0
-12158 12136 0
12158 -10414 -12136 0
-12159 -10414 0
-12159 -12136 0
12159 10414 12136 0
-12160 -12158 0
-12160 -12159 0
12160 12158 12159 0
-12137 21 0
-12137 9724 0
12137 -21 -9724 0
-12138 -21 0
-12138 -9724 0
12138 21 9724 0
-12139 -12137 0
-12139 -12138 0
12139 12137 12138 0
-12161 25 0
-12161 12139 0
12161 -25 -12139 0
-12162 -25 0
-12162 -12139 0
12162 25 12139 0
-12163 -12161 0
-12163 -12162 0
12163 12161 12162 0
-12242 7617 0
-12242 12163 0
12242 -7617 -12163 0
-12243 -7617 0
-12243 -12163 0
12243 7617 12163 0
-12244 -12242 0
-12244 -12243 0
12244 12242 12243 0
-12245 12160 0
-12245 12244 0
12245 -12160 -12244 0
-12246 -12160 0
-12246 -12244 0
12246 12160 12244 0
-12247 -12245 0
-12247 -12246 0
12247 12245 12246 0
-12140 38 0
-12140 41 0
12140 -38 -41 0
-12141 -38 0
-12141 -41 0
12141 38 41 0
-12142 -12140 0
-12142 -12141 0
12142 12140 12141 0
-12194 34 0
-12194 12142 0
12194 -34 -12142 0
-12195 -34 0
-12195 -12142 0
12195 34 12142 0
-12196 -12194 0
-12196 -12195 0
12196 12194 12195 0
-12146 45 0
-12146 8434 0
12146 -45 -8434 0
-12147 -45 0
-12147 -8434 0
12147 45 8434 0
-12148 -12146 0
-12148 -12147 0
12148 12146 12147 0
-12218 46 0
-12218 12148 0
12218 -46 -12148 0
-12219 -46 0
-12219 -12148 0
12219 46 12148 0
-12220 -12218 0
-12220 -12219 0
12220 12218 12219 0
-12248 12196 0
-12248 12220 0
12248 -12196 -12220 0
-12249 -12196 0
-12249 -12220 0
12249 12196 12220 0
-12250 -12248 0
-12250 -12249 0
12250 12248 12249 0
-12152 57 0
-12152 9379 0
12152 -57 -9379 0
-12153 -57 0
-12153 -9379 0
12153 57 9379 0
-12154 -12152 0
-12154 -12153 0
12154 12152 12153 0
-12230 10087 0
-12230 12154 0
12230 -10087 -12154 0
-12231 -10087 0
-12231 -12154 0
12231 10087 12154 0
-12232 -12230 0
-12232 -12231 0
12232 12230 12231 0
-12332 63 0
-12332 12232 0
12332 -63 -12232 0
-12333 -63 0
-12333 -12232 0
12333 63 12232 0
-12334 -12332 0
-12334 -12333 0
12334 12332 12333 0
-12362 12250 0
-12362 12334 0
12362 -12250 -12334 0
-12363 -12250 0
-12363 -12334 0
12363 12250 12334 0
-12364 -12362 0
-12364 -12363 0
12364 12362 12363 0
-12365 12247 0
-12365 12364 0
12365 -12247 -12364 0
-12366 -12247 0
-12366 -12364 0
12366 12247 12364 0
-12367 -12365 0
-12367 -12366 0
12367 12365 12366 0
-12239 74 0
-12239 81 0
12239 -74 -81 0
-12240 -74 0
-12240 -81 0
12240 74 81 0
-12241 -12239 0
-12241 -12240 0
12241 12239 12240 0
-12356 68 0
-12356 12241 0
12356 -68 -12241 0
-12357 -68 0
-12357 -12241 0
12357 68 12241 0
-12358 -12356 0
-12358 -12357 0
12358 12356 12357 0
-12437 127 0
-12437 12358 0
12437 -127 -12358 0
-12438 -127 0
-12438 -12358 0
12438 127 12358 0
-12439 -12437 0
-12439 -12438 0
12439 12437 12438 0
-12440 12367 0
-12440 12439 0
12440 -12367 -12439 0
-12441 -12367 0
-12441 -12439 0
12441 12367 12439 0
-12442 -12440 0
-12442 -12441 0
12442 12440 12441 0
-12443 6 0
-12443 7 0
12443 -6 -7 0
-12444 -6 0
-12444 -7 0
12444 6 7 0
-12445 -12443 0
-12445 -12444 0
12445 12443 12444 0
-12446 9 0
-12446 12445 0
12446 -9 -12445 0
-12447 -9 0
-12447 -12445 0
12447 9 12445 0
-12448 -12446 0
-12448 -12447 0
12448 12446 12447 0
-12449 11 0
-12449 11173 0
12449 -11 -11173 0
-12450 -11 0
-12450 -11173 0
12450 11 11173 0
-12451 -12449 0
-12451 -12450 0
12451 12449 12450 0
-12470 8950 0
-12470 12451 0
12470 -8950 -12451 0
-12471 -8950 0
-12471 -12451 0
12471 8950 12451 0
-12472 -12470 0
-12472 -12471 0
12472 12470 12471 0
-12473 12448 0
-12473 12472 0
12473 -12448 -12472 0
-12474 -12448 0
-12474 -12472 0
12474 12448 12472 0
-12475 -12473 0
-12475 -12474 0
12475 12473 12474 0
-12458 29 0
-12458 8791 0
12458 -29 -8791 0
-12459 -29 0
-12459 -8791 0
12459 29 8791 0
-12460 -12458 0
-12460 -12459 0
12460 12458 12459 0
-12506 11842 0
-12506 12460 0
12506 -11842 -12460 0
-12507 -11842 0
-12507 -12460 0
12507 11842 12460 0
-12508 -12506 0
-12508 -12507 0
12508 12506 12507 0
-12542 7840 0
-12542 12508 0
12542 -7840 -12508 0
-12543 -7840 0
-12543 -12508 0
12543 7840 12508 0
-12544 -12542 0
-12544 -12543 0
12544 12542 12543 0
-12545 12475 0
-12545 12544 0
12545 -12475 -12544 0
-12546 -12475 0
-12546 -12544 0
12546 12475 12544 0
-12547 -12545 0
-12547 -12546 0
12547 12545 12546 0
-12518 8422 0
-12518 8971 0
12518 -8422 -8971 0
-12519 -8422 0
-12519 -8971 0
12519 8422 8971 0
-12520 -12518 0
-12520 -12519 0
12520 12518 12519 0
-12548 8440 0
-12548 12520 0
12548 -8440 -12520 0
-12549 -8440 0
-12549 -12520 0
12549 8440 12520 0
-12550 -12548 0
-12550 -12549 0
12550 12548 12549 0
-12635 6765 0
-12635 12550 0
12635 -6765 -12550 0
-12636 -6765 0
-12636 -12550 0
12636 6765 12550 0
-12637 -12635 0
-12637 -12636 0
12637 12635 12636 0
-12638 12547 0
-12638 12637 0
12638 -12547 -12637 0
-12639 -12547 0
-12639 -12637 0
12639 12547 12637 0
-12640 -12638 0
-12640 -12639 0
12640 12638 12639 0
-9269 75 0
-9269 77 0
9269 -75 -77 0
-9270 -75 0
-9270 -77 0
9270 75 77 0
-9271 -9269 0
-9271 -9270 0
9271 9269 9270 0
-12539 80 0
-12539 9271 0
12539 -80 -9271 0
-12540 -80 0
-12540 -9271 0
12540 80 9271 0
-12541 -12539 0
-12541 -12540 0
12541 12539 12540 0
-12629 69 0
-12629 12541 0
12629 -69 -12541 0
-12630 -69 0
-12630 -12541 0
12630 69 12541 0
-12631 -12629 0
-12631 -12630 0
12631 12629 12630 0
-12704 126 0
-12704 12631 0
12704 -126 -12631 0
-12705 -126 0
-12705 -12631 0
12705 126 12631 0
-12706 -12704 0
-12706 -12705 0
12706 12704 12705 0
-12707 12640 0
-12707 12706 0
12707 -12640 -12706 0
-12708 -12640 0
-12708 -12706 0
12708 12640 12706 0
-12709 -12707 0
-12709 -12708 0
12709 12707 12708 0
-11603 7 0
-11603 8 0
11603 -7 -8 0
-11604 -7 0
-11604 -8 0
11604 7 8 0
-11605 -11603 0
-11605 -11604 0
11605 11603 11604 0
-12710 2 0
-12710 11605 0
12710 -2 -11605 0
-12711 -2 0
-12711 -11605 0
12711 2 11605 0
-12712 -12710 0
-12712 -12711 0
12712 12710 12711 0
-12734 10708 0
-12734 10831 0
12734 -10708 -10831 0
-12735 -10708 0
-12735 -10831 0
12735 10708 10831 0
-12736 -12734 0
-12736 -12735 0
12736 12734 12735 0
-12737 12712 0
-12737 12736 0
12737 -12712 -12736 0
-12738 -12712 0
-12738 -12736 0
12738 12712 12736 0
-12739 -12737 0
-12739 -12738 0
12739 12737 12738 0
-12740 23 0
-12740 12139 0
12740 -23 -12139 0
-12741 -23 0
-12741 -12139 0
12741 23 12139 0
-12742 -12740 0
-12742 -12741 0
12742 12740 12741 0
-12782 8689 0
-12782 8803 0
12782 -8689 -8803 0
-12783 -8689 0
-12783 -8803 0
12783 8689 8803 0
-12784 -12782 0
-12784 -12783 0
12784 12782 12783 0
-12818 12742 0
-12818 12784 0
12818 -12742 -12784 0
-12819 -12742 0
-12819 -12784 0
12819 12742 12784 0
-12820 -12818 0
-12820 -12819 0
12820 12818 12819 0
-12821 12739 0
-12821 12820 0
12821 -12739 -12820 0
-12822 -12739 0
-12822 -12820 0
12822 12739 12820 0
-12823 -12821 0
-12823 -12822 0
12823 12821 12822 0
-12725 40 0
-12725 8422 0
12725 -40 -8422 0
-12726 -40 0
-12726 -8422 0
12726 40 8422 0
-12727 -12725 0
-12727 -12726 0
12727 12725 12726 0
-12731 43 0
-12731 8440 0
12731 -43 -8440 0
-12732 -43 0
-12732 -8440 0
12732 43 8440 0
-12733 -12731 0
-12733 -12732 0
12733 12731 12732 0
-12803 11389 0
-12803 12733 0
12803 -11389 -12733 0
-12804 -11389 0
-12804 -12733 0
12804 11389 12733 0
-12805 -12803 0
-12805 -12804 0
12805 12803 12804 0
-12824 12727 0
-12824 12805 0
12824 -12727 -12805 0
-12825 -12727 0
-12825 -12805 0
12825 12727 12805 0
-12826 -12824 0
-12826 -12825 0
12826 12824 12825 0
-12932 6731 0
-12932 12826 0
12932 -6731 -12826 0
-12933 -6731 0
-12933 -12826 0
12933 6731 12826 0
-12934 -12932 0
-12934 -12933 0
12934 12932 12933 0
-12935 12823 0
-12935 12934 0
12935 -12823 -12934 0
-12936 -12823 0
-12936 -12934 0
12936 12823 12934 0
-12937 -12935 0
-12937 -12936 0
12937 12935 12936 0
-9515 8122 0
-9515 8222 0
9515 -8122 -8222 0
-9516 -8122 0
-9516 -8222 0
9516 8122 8222 0
-9517 -9515 0
-9517 -9516 0
9517 9515 9516 0
-12923 68 0
-12923 9517 0
12923 -68 -9517 0
-12924 -68 0
-12924 -9517 0
12924 68 9517 0
-12925 -12923 0
-12925 -12924 0
12925 12923 12924 0
-13013 125 0
-13013 12925 0
13013 -125 -12925 0
-13014 -125 0
-13014 -12925 0
13014 125 12925 0
-13015 -13013 0
-13015 -13014 0
13015 13013 13014 0
-13016 12937 0
-13016 13015 0
13016 -12937 -13015 0
-13017 -12937 0
-13017 -13015 0
13017 12937 13015 0
-13018 -13016 0
-13018 -13017 0
13018 13016 13017 0
-13022 8671 0
-13022 12445 0
13022 -8671 -12445 0
-13023 -8671 0
-13023 -12445 0
13023 8671 12445 0
-13024 -13022 0
-13024 -13023 0
13024 13022 13023 0
-13040 11188 0
-13040 13024 0
13040 -11188 -13024 0
-13041 -11188 0
-13041 -13024 0
13041 11188 13024 0
-13042 -13040 0
-13042 -13041 0
13042 13040 13041 0
-13031 25 0
-13031 9736 0
13031 -25 -9736 0
-13032 -25 0
-13032 -9736 0
13032 25 9736 0
-13033 -13031 0
-13033 -13032 0
13033 13031 13032 0
-13043 10102 0
-13043 13033 0
13043 -10102 -13033 0
-13044 -10102 0
-13044 -13033 0
13044 10102 13033 0
-13045 -13043 0
-13045 -13044 0
13045 13043 13044 0
-13148 8956 0
-13148 13045 0
13148 -8956 -13045 0
-13149 -8956 0
-13149 -13045 0
13149 8956 13045 0
-13150 -13148 0
-13150 -13149 0
13150 13148 13149 0
-13151 13042 0
-13151 13150 0
13151 -13042 -13150 0
-13152 -13042 0
-13152 -13150 0
13152 13042 13150 0
-13153 -13151 0
-13153 -13152 0
13153 13151 13152 0
-13103 8428 0
-13103 9403 0
13103 -8428 -9403 0
-13104 -8428 0
-13104 -9403 0
13104 8428 9403 0
-13105 -13103 0
-13105 -13104 0
13105 13103 13104 0
-13154 8446 0
-13154 13105 0
13154 -8446 -13105 0
-13155 -8446 0
-13155 -13105 0
13155 8446 13105 0
-13156 -13154 0
-13156 -13155 0
13156 13154 13155 0
-13037 56 0
-13037 9379 0
13037 -56 -9379 0
-13038 -56 0
-13038 -9379 0
13038 56 9379 0
-13039 -13037 0
-13039 -13038 0
13039 13037 13038 0
-13136 9412 0
-13136 13039 0
13136 -9412 -13039 0
-13137 -9412 0
-13137 -13039 0
13137 9412 13039 0
-13138 -13136 0
-13138 -13137 0
13138 13136 13137 0
-13247 62 0
-13247 13138 0
13247 -62 -13138 0
-13248 -62 0
-13248 -13138 0
13248 62 13138 0
-13249 -13247 0
-13249 -13248 0
13249 13247 13248 0
-13301 13156 0
-13301 13249 0
13301 -13156 -13249 0
-13302 -13156 0
-13302 -13249 0
13302 13156 13249 0
-13303 -13301 0
-13303 -13302 0
13303 13301 13302 0
-13304 13153 0
-13304 13303 0
13304 -13153 -13303 0
-13305 -13153 0
-13305 -13303 0
13305 13153 13303 0
-13306 -13304 0
-13306 -13305 0
13306 13304 13305 0
-13145 81 0
-13145 12037 0
13145 -81 -12037 0
-13146 -81 0
-13146 -12037 0
13146 81 12037 0
-13147 -13145 0
-13147 -13146 0
13147 13145 13146 0
-13283 69 0
-13283 13147 0
13283 -69 -13147 0
-13284 -69 0
-13284 -13147 0
13284 69 13147 0
-13285 -13283 0
-13285 -13284 0
13285 13283 13284 0
-13400 124 0
-13400 13285 0
13400 -124 -13285 0
-13401 -124 0
-13401 -13285 0
13401 124 13285 0
-13402 -13400 0
-13402 -13401 0
13402 13400 13401 0
-13403 13306 0
-13403 13402 0
13403 -13306 -13402 0
-13404 -13306 0
-13404 -13402 0
13404 13306 13402 0
-13405 -13403 0
-13405 -13404 0
13405 13403 13404 0
-13406 10867 0
-13406 12136 0
13406 -10867 -12136 0
-13407 -10867 0
-13407 -12136 0
13407 10867 12136 0
-13408 -13406 0
-13408 -13407 0
13408 13406 13407 0
-13433 9001 0
-13433 9724 0
13433 -9001 -9724 0
-13434 -9001 0
-13434 -9724 0
13434 9001 9724 0
-13435 -13433 0
-13435 -13434 0
13435 13433 13434 0
-13436 13408 0
-13436 13435 0
13436 -13408 -13435 0
-13437 -13408 0
-13437 -13435 0
13437 13408 13435 0
-13438 -13436 0
-13438 -13437 0
13438 13436 13437 0
-13415 9745 0
-13415 12154 0
13415 -9745 -12154 0
-13416 -9745 0
-13416 -12154 0
13416 9745 12154 0
-13417 -13415 0
-13417 -13416 0
13417 13415 13416 0
-13475 63 0
-13475 13417 0
13475 -63 -13417 0
-13476 -63 0
-13476 -13417 0
13476 63 13417 0
-13477 -13475 0
-13477 -13476 0
13477 13475 13476 0
-13505 9880 0
-13505 13477 0
13505 -9880 -13477 0
-13506 -9880 0
-13506 -13477 0
13506 9880 13477 0
-13507 -13505 0
-13507 -13506 0
13507 13505 13506 0
-13508 13438 0
-13508 13507 0
13508 -13438 -13507 0
-13509 -13438 0
-13509 -13507 0
13509 13438 13507 0
-13510 -13508 0
-13510 -13509 0
13510 13508 13509 0
-13430 80 0
-13430 10864 0
13430 -80 -10864 0
-13431 -80 0
-13431 -10864 0
13431 80 10864 0
-13432 -13430 0
-13432 -13431 0
13432 13430 13431 0
-13499 68 0
-13499 13432 0
13499 -68 -13432 0
-13500 -68 0
-13500 -13432 0
13500 68 13432 0
-13501 -13499 0
-13501 -13500 0
13501 13499 13500 0
-13595 123 0
-13595 13501 0
13595 -123 -13501 0
-13596 -123 0
-13596 -13501 0
13596 123 13501 0
-13597 -13595 0
-13597 -13596 0
13597 13595 13596 0
-13598 13510 0
-13598 13597 0
13598 -13510 -13597 0
-13599 -13510 0
-13599 -13597 0
13599 13510 13597 0
-13600 -13598 0
-13600 -13599 0
13600 13598 13599 0
-13601 8 0
-13601 12445 0
13601 -8 -12445 0
-13602 -8 0
-13602 -12445 0
13602 8 12445 0
-13603 -13601 0
-13603 -13602 0
13603 13601 13602 0
-13604 10 0
-13604 11173 0
13604 -10 -11173 0
-13605 -10 0
-13605 -11173 0
13605 10 11173 0
-13606 -13604 0
-13606 -13605 0
13606 13604 13605 0
-13622 10096 0
-13622 13606 0
13622 -10096 -13606 0
-13623 -10096 0
-13623 -13606 0
13623 10096 13606 0
-13624 -13622 0
-13624 -13623 0
13624 13622 13623 0
-13625 13603 0
-13625 13624 0
13625 -13603 -13624 0
-13626 -13603 0
-13626 -13624 0
13626 13603 13624 0
-13627 -13625 0
-13627 -13626 0
13627 13625 13626 0
-13616 33 0
-13616 8803 0
13616 -33 -8803 0
-13617 -33 0
-13617 -8803 0
13617 33 8803 0
-13618 -13616 0
-13618 -13617 0
13618 13616 13617 0
-13652 8818 0
-13652 13618 0
13652 -8818 -13618 0
-13653 -8818 0
-13653 -13618 0
13653 8818 13618 0
-13654 -13652 0
-13654 -13653 0
13654 13652 13653 0
-13691 10144 0
-13691 13654 0
13691 -10144 -13654 0
-13692 -10144 0
-13692 -13654 0
13692 10144 13654 0
-13693 -13691 0
-13693 -13692 0
13693 13691 13692 0
-13694 13627 0
-13694 13693 0
13694 -13627 -13693 0
-13695 -13627 0
-13695 -13693 0
13695 13627 13693 0
-13696 -13694 0
-13696 -13695 0
13696 13694 13695 0
-13019 55 0
-13019 56 0
13019 -55 -56 0
-13020 -55 0
-13020 -56 0
13020 55 56 0
-13021 -13019 0
-13021 -13020 0
13021 13019 13020 0
-13673 10126 0
-13673 13021 0
13673 -10126 -13021 0
-13674 -10126 0
-13674 -13021 0
13674 10126 13021 0
-13675 -13673 0
-13675 -13674 0
13675 13673 13674 0
-13742 62 0
-13742 13675 0
13742 -62 -13675 0
-13743 -62 0
-13743 -13675 0
13743 62 13675 0
-13744 -13742 0
-13744 -13743 0
13744 13742 13743 0
-13775 35 0
-13775 13744 0
13775 -35 -13744 0
-13776 -35 0
-13776 -13744 0
13776 35 13744 0
-13777 -13775 0
-13777 -13776 0
13777 13775 13776 0
-13778 13696 0
-13778 13777 0
13778 -13696 -13777 0
-13779 -13696 0
-13779 -13777 0
13779 13696 13777 0
-13780 -13778 0
-13780 -13779 0
13780 13778 13779 0
-10859 74 0
-10859 76 0
10859 -74 -76 0
-10860 -74 0
-10860 -76 0
10860 74 76 0
-10861 -10859 0
-10861 -10860 0
10861 10859 10860 0
-13685 8122 0
-13685 10861 0
13685 -8122 -10861 0
-13686 -8122 0
-13686 -10861 0
13686 8122 10861 0
-13687 -13685 0
-13687 -13686 0
13687 13685 13686 0
-13763 69 0
-13763 13687 0
13763 -69 -13687 0
-13764 -69 0
-13764 -13687 0
13764 69 13687 0
-13765 -13763 0
-13765 -13764 0
13765 13763 13764 0
-13862 122 0
-13862 13765 0
13862 -122 -13765 0
-13863 -122 0
-13863 -13765 0
13863 122 13765 0
-13864 -13862 0
-13864 -13863 0
13864 13862 13863 0
-13865 13780 0
-13865 13864 0
13865 -13780 -13864 0
-13866 -13780 0
-13866 -13864 0
13866 13780 13864 0
-13867 -13865 0
-13867 -13866 0
13867 13865 13866 0
-13871 17 0
-13871 10078 0
13871 -17 -10078 0
-13872 -17 0
-13872 -10078 0
13872 17 10078 0
-13873 -13871 0
-13873 -13872 0
13873 13871 13872 0
-13898 12451 0
-13898 13873 0
13898 -12451 -13873 0
-13899 -12451 0
-13899 -13873 0
13899 12451 13873 0
-13900 -13898 0
-13900 -13899 0
13900 13898 13899 0
-13901 12712 0
-13901 13900 0
13901 -12712 -13900 0
-13902 -12712 0
-13902 -13900 0
13902 12712 13900 0
-13903 -13901 0
-13903 -13902 0
13903 13901 13902 0
-13904 25 0
-13904 7862 0
13904 -25 -7862 0
-13905 -25 0
-13905 -7862 0
13905 25 7862 0
-13906 -13904 0
-13906 -13905 0
13906 13904 13905 0
-13940 8473 0
-13940 11842 0
13940 -8473 -11842 0
-13941 -8473 0
-13941 -11842 0
13941 8473 11842 0
-13942 -13940 0
-13942 -13941 0
13942 13940 13941 0
-14033 13906 0
-14033 13942 0
14033 -13906 -13942 0
-14034 -13906 0
-14034 -13942 0
14034 13906 13942 0
-14035 -14033 0
-14035 -14034 0
14035 14033 14034 0
-14036 13903 0
-14036 14035 0
14036 -13903 -14035 0
-14037 -13903 0
-14037 -14035 0
14037 13903 14035 0
-14038 -14036 0
-14038 -14037 0
14038 14036 14037 0
-8942 35 0
-8942 36 0
8942 -35 -36 0
-8943 -35 0
-8943 -36 0
8943 35 36 0
-8944 -8942 0
-8944 -8943 0
8944 8942 8943 0
-13964 8944 0
-13964 12142 0
13964 -8944 -12142 0
-13965 -8944 0
-13965 -12142 0
13965 8944 12142 0
-13966 -13964 0
-13966 -13965 0
13966 13964 13965 0
-13988 8452 0
-13988 8494 0
13988 -8452 -8494 0
-13989 -8452 0
-13989 -8494 0
13989 8452 8494 0
-13990 -13988 0
-13990 -13989 0
13990 13988 13989 0
-14039 13966 0
-14039 13990 0
14039 -13966 -13990 0
-14040 -13966 0
-14040 -13990 0
14040 13966 13990 0
-14041 -14039 0
-14041 -14040 0
14041 14039 14040 0
-13892 53 0
-13892 10087 0
13892 -53 -10087 0
-13893 -53 0
-13893 -10087 0
13893 53 10087 0
-13894 -13892 0
-13894 -13893 0
13894 13892 13893 0
-14006 12154 0
-14006 13894 0
14006 -12154 -13894 0
-14007 -12154 0
-14007 -13894 0
14007 12154 13894 0
-14008 -14006 0
-14008 -14007 0
14008 14006 14007 0
-14132 62 0
-14132 14008 0
14132 -62 -14008 0
-14133 -62 0
-14133 -14008 0
14133 62 14008 0
-14134 -14132 0
-14134 -14133 0
14134 14132 14133 0
-14180 14041 0
-14180 14134 0
14180 -14041 -14134 0
-14181 -14041 0
-14181 -14134 0
14181 14041 14134 0
-14182 -14180 0
-14182 -14181 0
14182 14180 14181 0
-14183 14038 0
-14183 14182 0
14183 -14038 -14182 0
-14184 -14038 0
-14184 -14182 0
14184 14038 14182 0
-14185 -14183 0
-14185 -14184 0
14185 14183 14184 0
-13868 68 0
-13868 69 0
13868 -68 -69 0
-13869 -68 0
-13869 -69 0
13869 68 69 0
-13870 -13868 0
-13870 -13869 0
13870 13868 13869 0
-14030 8122 0
-14030 10546 0
14030 -8122 -10546 0
-14031 -8122 0
-14031 -10546 0
14031 8122 10546 0
-14032 -14030 0
-14032 -14031 0
14032 14030 14031 0
-14168 13870 0
-14168 14032 0
14168 -13870 -14032 0
-14169 -13870 0
-14169 -14032 0
14169 13870 14032 0
-14170 -14168 0
-14170 -14169 0
14170 14168 14169 0
-14273 121 0
-14273 14170 0
14273 -121 -14170 0
-14274 -121 0
-14274 -14170 0
14274 121 14170 0
-14275 -14273 0
-14275 -14274 0
14275 14273 14274 0
-14276 14185 0
-14276 14275 0
14276 -14185 -14275 0
-14277 -14185 0
-14277 -14275 0
14277 14185 14275 0
-14278 -14276 0
-14278 -14277 0
14278 14276 14277 0
-14288 16 0
-14288 8458 0
14288 -16 -8458 0
-14289 -16 0
-14289 -8458 0
14289 16 8458 0
-14290 -14288 0
-14290 -14289 0
14290 14288 14289 0
-14291 12448 0
-14291 14290 0
14291 -12448 -14290 0
-14292 -12448 0
-14292 -14290 0
14292 12448 14290 0
-14293 -14291 0
-14293 -14292 0
14293 14291 14292 0
-14294 7862 0
-14294 13033 0
14294 -7862 -13033 0
-14295 -7862 0
-14295 -13033 0
14295 7862 13033 0
-14296 -14294 0
-14296 -14295 0
14296 14294 14295 0
-14381 9166 0
-14381 14296 0
14381 -9166 -14296 0
-14382 -9166 0
-14382 -14296 0
14382 9166 14296 0
-14383 -14381 0
-14383 -14382 0
14383 14381 14382 0
-14384 14293 0
-14384 14383 0
14384 -14293 -14383 0
-14385 -14293 0
-14385 -14383 0
14385 14293 14383 0
-14386 -14384 0
-14386 -14385 0
14386 14384 14385 0
-14339 8428 0
-14339 8941 0
14339 -8428 -8941 0
-14340 -8428 0
-14340 -8941 0
14340 8428 8941 0
-14341 -14339 0
-14341 -14340 0
14341 14339 14340 0
-14387 8554 0
-14387 14341 0
14387 -8554 -14341 0
-14388 -8554 0
-14388 -14341 0
14388 8554 14341 0
-14389 -14387 0
-14389 -14388 0
14389 14387 14388 0
-14366 52 0
-14366 56 0
14366 -52 -56 0
-14367 -52 0
-14367 -56 0
14367 52 56 0
-14368 -14366 0
-14368 -14367 0
14368 14366 14367 0
-14480 63 0
-14480 14368 0
14480 -63 -14368 0
-14481 -63 0
-14481 -14368 0
14481 63 14368 0
-14482 -14480 0
-14482 -14481 0
14482 14480 14481 0
-14528 14389 0
-14528 14482 0
14528 -14389 -14482 0
-14529 -14389 0
-14529 -14482 0
14529 14389 14482 0
-14530 -14528 0
-14530 -14529 0
14530 14528 14529 0
-14531 14386 0
-14531 14530 0
14531 -14386 -14530 0
-14532 -14386 0
-14532 -14530 0
14532 14386 14530 0
-14533 -14531 0
-14533 -14532 0
14533 14531 14532 0
-14378 81 0
-14378 10135 0
14378 -81 -10135 0
-14379 -81 0
-14379 -10135 0
14379 81 10135 0
-14380 -14378 0
-14380 -14379 0
14380 14378 14379 0
-14513 13870 0
-14513 14380 0
14513 -13870 -14380 0
-14514 -13870 0
-14514 -14380 0
14514 13870 14380 0
-14515 -14513 0
-14515 -14514 0
14515 14513 14514 0
-14627 120 0
-14627 14515 0
14627 -120 -14515 0
-14628 -120 0
-14628 -14515 0
14628 120 14515 0
-14629 -14627 0
-14629 -14628 0
14629 14627 14628 0
-14630 14533 0
-14630 14629 0
14630 -14533 -14629 0
-14631 -14533 0
-14631 -14629 0
14631 14533 14629 0
-14632 -14630 0
-14632 -14631 0
14632 14630 14631 0
-14636 14 0
-14636 17 0
14636 -14 -17 0
-14637 -14 0
-14637 -17 0
14637 14 17 0
-14638 -14636 0
-14638 -14637 0
14638 14636 14637 0
-14648 12451 0
-14648 14638 0
14648 -12451 -14638 0
-14649 -12451 0
-14649 -14638 0
14649 12451 14638 0
-14650 -14648 0
-14650 -14649 0
14650 14648 14649 0
-14651 12712 0
-14651 14650 0
14651 -12712 -14650 0
-14652 -12712 0
-14652 -14650 0
14652 12712 14650 0
-14653 -14651 0
-14653 -14652 0
14653 14651 14652 0
-14654 18 0
-14654 25 0
14654 -18 -25 0
-14655 -18 0
-14655 -25 0
14655 18 25 0
-14656 -14654 0
-14656 -14655 0
14656 14654 14655 0
-14723 10183 0
-14723 14656 0
14723 -10183 -14656 0
-14724 -10183 0
-14724 -14656 0
14724 10183 14656 0
-14725 -14723 0
-14725 -14724 0
14725 14723 14724 0
-14726 14653 0
-14726 14725 0
14726 -14653 -14725 0
-14727 -14653 0
-14727 -14725 0
14727 14653 14725 0
-14728 -14726 0
-14728 -14727 0
14728 14726 14727 0
-14639 35 0
-14639 8947 0
14639 -35 -8947 0
-14640 -35 0
-14640 -8947 0
14640 35 8947 0
-14641 -14639 0
-14641 -14640 0
14641 14639 14640 0
-14684 41 0
-14684 14641 0
14684 -41 -14641 0
-14685 -41 0
-14685 -14641 0
14685 41 14641 0
-14686 -14684 0
-14686 -14685 0
14686 14684 14685 0
-14645 42 0
-14645 8440 0
14645 -42 -8440 0
-14646 -42 0
-14646 -8440 0
14646 42 8440 0
-14647 -14645 0
-14647 -14646 0
14647 14645 14646 0
-14708 8506 0
-14708 14647 0
14708 -8506 -14647 0
-14709 -8506 0
-14709 -14647 0
14709 8506 14647 0
-14710 -14708 0
-14710 -14709 0
14710 14708 14709 0
-14729 14686 0
-14729 14710 0
14729 -14686 -14710 0
-14730 -14686 0
-14730 -14710 0
14730 14686 14710 0
-14731 -14729 0
-14731 -14730 0
14731 14729 14730 0
-14825 14134 0
-14825 14731 0
14825 -14134 -14731 0
-14826 -14134 0
-14826 -14731 0
14826 14134 14731 0
-14827 -14825 0
-14827 -14826 0
14827 14825 14826 0
-14828 14728 0
-14828 14827 0
14828 -14728 -14827 0
-14829 -14728 0
-14829 -14827 0
14829 14728 14827 0
-14830 -14828 0
-14830 -14829 0
14830 14828 14829 0
-14720 80 0
-14720 10546 0
14720 -80 -10546 0
-14721 -80 0
-14721 -10546 0
14721 80 10546 0
-14722 -14720 0
-14722 -14721 0
14722 14720 14721 0
-14816 13870 0
-14816 14722 0
14816 -13870 -14722 0
-14817 -13870 0
-14817 -14722 0
14817 13870 14722 0
-14818 -14816 0
-14818 -14817 0
14818 14816 14817 0
-14909 119 0
-14909 14818 0
14909 -119 -14818 0
-14910 -119 0
-14910 -14818 0
14910 119 14818 0
-14911 -14909 0
-14911 -14910 0
14911 14909 14910 0
-14912 14830 0
-14912 14911 0
14912 -14830 -14911 0
-14913 -14830 0
-14913 -14911 0
14913 14830 14911 0
-14914 -14912 0
-14914 -14913 0
14914 14912 14913 0
-14927 8458 0
-14927 9133 0
14927 -8458 -9133 0
-14928 -8458 0
-14928 -9133 0
14928 8458 9133 0
-14929 -14927 0
-14929 -14928 0
14929 14927 14928 0
-14930 12448 0
-14930 14929 0
14930 -12448 -14929 0
-14931 -12448 0
-14931 -14929 0
14931 12448 14929 0
-14932 -14930 0
-14932 -14931 0
14932 14930 14931 0
-14921 18 0
-14921 9730 0
14921 -18 -9730 0
-14922 -18 0
-14922 -9730 0
14922 18 9730 0
-14923 -14921 0
-14923 -14922 0
14923 14921 14922 0
-14933 13033 0
-14933 14923 0
14933 -13033 -14923 0
-14934 -13033 0
-14934 -14923 0
14934 13033 14923 0
-14935 -14933 0
-14935 -14934 0
14935 14933 14934 0
-14972 27 0
-14972 9142 0
14972 -27 -9142 0
-14973 -27 0
-14973 -9142 0
14973 27 9142 0
-14974 -14972 0
-14974 -14973 0
14974 14972 14973 0
-15029 14935 0
-15029 14974 0
15029 -14935 -14974 0
-15030 -14935 0
-15030 -14974 0
15030 14935 14974 0
-15031 -15029 0
-15031 -15030 0
15031 15029 15030 0
-15032 14932 0
-15032 15031 0
15032 -14932 -15031 0
-15033 -14932 0
-15033 -15031 0
15033 14932 15031 0
-15034 -15032 0
-15034 -15033 0
15034 15032 15033 0
-14987 8428 0
-14987 8971 0
14987 -8428 -8971 0
-14988 -8428 0
-14988 -8971 0
14988 8428 8971 0
-14989 -14987 0
-14989 -14988 0
14989 14987 14988 0
-15008 44 0
-15008 10855 0
15008 -44 -10855 0
-15009 -44 0
-15009 -10855 0
15009 44 10855 0
-15010 -15008 0
-15010 -15009 0
15010 15008 15009 0
-15035 14989 0
-15035 15010 0
15035 -14989 -15010 0
-15036 -14989 0
-15036 -15010 0
15036 14989 15010 0
-15037 -15035 0
-15037 -15036 0
15037 15035 15036 0
-15140 14482 0
-15140 15037 0
15140 -14482 -15037 0
-15141 -14482 0
-15141 -15037 0
15141 14482 15037 0
-15142 -15140 0
-15142 -15141 0
15142 15140 15141 0
-15143 15034 0
-15143 15142 0
15143 -15034 -15142 0
-15144 -15034 0
-15144 -15142 0
15144 15034 15142 0
-15145 -15143 0
-15145 -15144 0
15145 15143 15144 0
-15023 8122 0
-15023 10135 0
15023 -8122 -10135 0
-15024 -8122 0
-15024 -10135 0
15024 8122 10135 0
-15025 -15023 0
-15025 -15024 0
15025 15023 15024 0
-15122 13870 0
-15122 15025 0
15122 -13870 -15025 0
-15123 -13870 0
-15123 -15025 0
15123 13870 15025 0
-15124 -15122 0
-15124 -15123 0
15124 15122 15123 0
-15233 118 0
-15233 15124 0
15233 -118 -15124 0
-15234 -118 0
-15234 -15124 0
15234 118 15124 0
-15235 -15233 0
-15235 -15234 0
15235 15233 15234 0
-15236 15145 0
-15236 15235 0
15236 -15145 -15235 0
-15237 -15145 0
-15237 -15235 0
15237 15145 15235 0
-15238 -15236 0
-15238 -15237 0
15238 15236 15237 0
-15239 11617 0
-15239 12136 0
15239 -11617 -12136 0
-15240 -11617 0
-15240 -12136 0
15240 11617 12136 0
-15241 -15239 0
-15241 -15240 0
15241 15239 15240 0
-15242 7862 0
-15242 8467 0
15242 -7862 -8467 0
-15243 -7862 0
-15243 -8467 0
15243 7862 8467 0
-15244 -15242 0
-15244 -15243 0
15244 15242 15243 0
-15272 28 0
-15272 32 0
15272 -28 -32 0
-15273 -28 0
-15273 -32 0
15273 28 32 0
-15274 -15272 0
-15274 -15273 0
15274 15272 15273 0
-15311 15244 0
-15311 15274 0
15311 -15244 -15274 0
-15312 -15244 0
-15312 -15274 0
15312 15244 15274 0
-15313 -15311 0
-15313 -15312 0
15313 15311 15312 0
-15314 15241 0
-15314 15313 0
15314 -15241 -15313 0
-15315 -15241 0
-15315 -15313 0
15315 15241 15313 0
-15316 -15314 0
-15316 -15315 0
15316 15314 15315 0
-15317 8494 0
-15317 9478 0
15317 -8494 -9478 0
-15318 -8494 0
-15318 -9478 0
15318 8494 9478 0
-15319 -15317 0
-15319 -15318 0
15319 15317 15318 0
-15416 14134 0
-15416 15319 0
15416 -14134 -15319 0
-15417 -14134 0
-15417 -15319 0
15417 14134 15319 0
-15418 -15416 0
-15418 -15417 0
15418 15416 15417 0
-15419 15316 0
-15419 15418 0
15419 -15316 -15418 0
-15420 -15316 0
-15420 -15418 0
15420 15316 15418 0
-15421 -15419 0
-15421 -15420 0
15421 15419 15420 0
-15410 81 0
-15410 13870 0
15410 -81 -13870 0
-15411 -81 0
-15411 -13870 0
15411 81 13870 0
-15412 -15410 0
-15412 -15411 0
15412 15410 15411 0
-15494 117 0
-15494 15412 0
15494 -117 -15412 0
-15495 -117 0
-15495 -15412 0
15495 117 15412 0
-15496 -15494 0
-15496 -15495 0
15496 15494 15495 0
-15497 15421 0
-15497 15496 0
15497 -15421 -15496 0
-15498 -15421 0
-15498 -15496 0
15498 15421 15496 0
-15499 -15497 0
-15499 -15498 0
15499 15497 15498 0
-15500 13 0
-15500 13603 0
15500 -13 -13603 0
-15501 -13 0
-15501 -13603 0
15501 13 13603 0
-15502 -15500 0
-15502 -15501 0
15502 15500 15501 0
-14918 18 0
-14918 20 0
14918 -18 -20 0
-14919 -18 0
-14919 -20 0
14919 18 20 0
-14920 -14918 0
-14920 -14919 0
14920 14918 14919 0
-15503 8683 0
-15503 14920 0
15503 -8683 -14920 0
-15504 -8683 0
-15504 -14920 0
15504 8683 14920 0
-15505 -15503 0
-15505 -15504 0
15505 15503 15504 0
-15557 31 0
-15557 15505 0
15557 -31 -15505 0
-15558 -31 0
-15558 -15505 0
15558 31 15505 0
-15559 -15557 0
-15559 -15558 0
15559 15557 15558 0
-15560 15502 0
-15560 15559 0
15560 -15502 -15559 0
-15561 -15502 0
-15561 -15559 0
15561 15502 15559 0
-15562 -15560 0
-15562 -15561 0
15562 15560 15561 0
-15533 8482 0
-15533 8941 0
15533 -8482 -8941 0
-15534 -8482 0
-15534 -8941 0
15534 8482 8941 0
-15535 -15533 0
-15535 -15534 0
15535 15533 15534 0
-8447 47 0
-8447 48 0
8447 -47 -48 0
-8448 -47 0
-8448 -48 0
8448 47 48 0
-8449 -8447 0
-8449 -8448 0
8449 8447 8448 0
-15545 8434 0
-15545 8449 0
15545 -8434 -8449 0
-15546 -8434 0
-15546 -8449 0
15546 8434 8449 0
-15547 -15545 0
-15547 -15546 0
15547 15545 15546 0
-15563 15535 0
-15563 15547 0
15563 -15535 -15547 0
-15564 -15535 0
-15564 -15547 0
15564 15535 15547 0
-15565 -15563 0
-15565 -15564 0
15565 15563 15564 0
-15650 14482 0
-15650 15565 0
15650 -14482 -15565 0
-15651 -14482 0
-15651 -15565 0
15651 14482 15565 0
-15652 -15650 0
-15652 -15651 0
15652 15650 15651 0
-15653 15562 0
-15653 15652 0
15653 -15562 -15652 0
-15654 -15562 0
-15654 -15652 0
15654 15562 15652 0
-15655 -15653 0
-15655 -15654 0
15655 15653 15654 0
-15647 80 0
-15647 13870 0
15647 -80 -13870 0
-15648 -80 0
-15648 -13870 0
15648 80 13870 0
-15649 -15647 0
-15649 -15648 0
15649 15647 15648 0
-15713 116 0
-15713 15649 0
15713 -116 -15649 0
-15714 -116 0
-15714 -15649 0
15714 116 15649 0
-15715 -15713 0
-15715 -15714 0
15715 15713 15714 0
-15716 15655 0
-15716 15715 0
15716 -15655 -15715 0
-15717 -15655 0
-15717 -15715 0
15717 15655 15715 0
-15718 -15716 0
-15718 -15717 0
15718 15716 15717 0
-15746 10525 0
-15746 13873 0
15746 -10525 -13873 0
-15747 -10525 0
-15747 -13873 0
15747 10525 13873 0
-15748 -15746 0
-15748 -15747 0
15748 15746 15747 0
-15749 13024 0
-15749 15748 0
15749 -13024 -15748 0
-15750 -13024 0
-15750 -15748 0
15750 13024 15748 0
-15751 -15749 0
-15751 -15750 0
15751 15749 15750 0
-15752 22 0
-15752 14920 0
15752 -22 -14920 0
-15753 -22 0
-15753 -14920 0
15753 22 14920 0
-15754 -15752 0
-15754 -15753 0
15754 15752 15753 0
-15788 8959 0
-15788 12460 0
15788 -8959 -12460 0
-15789 -8959 0
-15789 -12460 0
15789 8959 12460 0
-15790 -15788 0
-15790 -15789 0
15790 15788 15789 0
-15872 15754 0
-15872 15790 0
15872 -15754 -15790 0
-15873 -15754 0
-15873 -15790 0
15873 15754 15790 0
-15874 -15872 0
-15874 -15873 0
15874 15872 15873 0
-15875 15751 0
-15875 15874 0
15875 -15751 -15874 0
-15876 -15751 0
-15876 -15874 0
15876 15751 15874 0
-15877 -15875 0
-15877 -15876 0
15877 15875 15876 0
-15812 8422 0
-15812 8944 0
15812 -8422 -8944 0
-15813 -8422 0
-15813 -8944 0
15813 8422 8944 0
-15814 -15812 0
-15814 -15813 0
15814 15812 15813 0
-15836 8494 0
-15836 10855 0
15836 -8494 -10855 0
-15837 -8494 0
-15837 -10855 0
15837 8494 10855 0
-15838 -15836 0
-15838 -15837 0
15838 15836 15837 0
-15878 15814 0
-15878 15838 0
15878 -15814 -15838 0
-15879 -15814 0
-15879 -15838 0
15879 15814 15838 0
-15880 -15878 0
-15880 -15879 0
15880 15878 15879 0
-15719 62 0
-15719 63 0
15719 -62 -63 0
-15720 -62 0
-15720 -63 0
15720 62 63 0
-15721 -15719 0
-15721 -15720 0
15721 15719 15720 0
-15854 13039 0
-15854 13894 0
15854 -13039 -13894 0
-15855 -13039 0
-15855 -13894 0
15855 13039 13894 0
-15856 -15854 0
-15856 -15855 0
15856 15854 15855 0
-15971 15721 0
-15971 15856 0
15971 -15721 -15856 0
-15972 -15721 0
-15972 -15856 0
15972 15721 15856 0
-15973 -15971 0
-15973 -15972 0
15973 15971 15972 0
-16013 15880 0
-16013 15973 0
16013 -15880 -15973 0
-16014 -15880 0
-16014 -15973 0
16014 15880 15973 0
-16015 -16013 0
-16015 -16014 0
16015 16013 16014 0
-16016 15877 0
-16016 16015 0
16016 -15877 -16015 0
-16017 -15877 0
-16017 -16015 0
16017 15877 16015 0
-16018 -16016 0
-16018 -16017 0
16018 16016 16017 0
-16004 9271 0
-16004 13870 0
16004 -9271 -13870 0
-16005 -9271 0
-16005 -13870 0
16005 9271 13870 0
-16006 -16004 0
-16006 -16005 0
16006 16004 16005 0
-16091 115 0
-16091 16006 0
16091 -115 -16006 0
-16092 -115 0
-16092 -16006 0
16092 115 16006 0
-16093 -16091 0
-16093 -16092 0
16093 16091 16092 0
-16094 16018 0
-16094 16093 0
16094 -16018 -16093 0
-16095 -16018 0
-16095 -16093 0
16095 16018 16093 0
-16096 -16094 0
-16096 -16095 0
16096 16094 16095 0
-13610 10 0
-13610 12 0
13610 -10 -12 0
-13611 -10 0
-13611 -12 0
13611 10 12 0
-13612 -13610 0
-13612 -13611 0
13612 13610 13611 0
-16100 16 0
-16100 13612 0
16100 -16 -13612 0
-16101 -16 0
-16101 -13612 0
16101 16 13612 0
-16102 -16100 0
-16102 -16101 0
16102 16100 16101 0
-16103 12136 0
-16103 16102 0
16103 -12136 -16102 0
-16104 -12136 0
-16104 -16102 0
16104 12136 16102 0
-16105 -16103 0
-16105 -16104 0
16105 16103 16104 0
-16115 8818 0
-16115 8935 0
16115 -8818 -8935 0
-16116 -8818 0
-16116 -8935 0
16116 8818 8935 0
-16117 -16115 0
-16117 -16116 0
16117 16115 16116 0
-16136 18 0
-16136 16117 0
16136 -18 -16117 0
-16137 -18 0
-16137 -16117 0
16137 18 16117 0
-16138 -16136 0
-16138 -16137 0
16138 16136 16137 0
-16139 16105 0
-16139 16138 0
16139 -16105 -16138 0
-16140 -16105 0
-16140 -16138 0
16140 16105 16138 0
-16141 -16139 0
-16141 -16140 0
16141 16139 16140 0
-16142 46 0
-16142 8941 0
16142 -46 -8941 0
-16143 -46 0
-16143 -8941 0
16143 46 8941 0
-16144 -16142 0
-16144 -16143 0
16144 16142 16143 0
-16130 52 0
-16130 57 0
16130 -52 -57 0
-16131 -52 0
-16131 -57 0
16131 52 57 0
-16132 -16130 0
-16132 -16131 0
16132 16130 16131 0
-16193 15721 0
-16193 16132 0
16193 -15721 -16132 0
-16194 -15721 0
-16194 -16132 0
16194 15721 16132 0
-16195 -16193 0
-16195 -16194 0
16195 16193 16194 0
-16226 16144 0
-16226 16195 0
16226 -16144 -16195 0
-16227 -16144 0
-16227 -16195 0
16227 16144 16195 0
-16228 -16226 0
-16228 -16227 0
16228 16226 16227 0
-16229 16141 0
-16229 16228 0
16229 -16141 -16228 0
-16230 -16141 0
-16230 -16228 0
16230 16141 16228 0
-16231 -16229 0
-16231 -16230 0
16231 16229 16230 0
-16220 10861 0
-16220 13870 0
16220 -10861 -13870 0
-16221 -10861 0
-16221 -13870 0
16221 10861 13870 0
-16222 -16220 0
-16222 -16221 0
16222 16220 16221 0
-16289 114 0
-16289 16222 0
16289 -114 -16222 0
-16290 -114 0
-16290 -16222 0
16290 114 16222 0
-16291 -16289 0
-16291 -16290 0
16291 16289 16290 0
-16292 16231 0
-16292 16291 0
16292 -16231 -16291 0
-16293 -16231 0
-16293 -16291 0
16293 16231 16291 0
-16294 -16292 0
-16294 -16293 0
16294 16292 16293 0
-16298 10525 0
-16298 14638 0
16298 -10525 -14638 0
-16299 -10525 0
-16299 -14638 0
16299 10525 14638 0
-16300 -16298 0
-16300 -16299 0
16300 16298 16299 0
-16301 13603 0
-16301 16300 0
16301 -13603 -16300 0
-16302 -13603 0
-16302 -16300 0
16302 13603 16300 0
-16303 -16301 0
-16303 -16302 0
16303 16301 16302 0
-16337 8473 0
-16337 13618 0
16337 -8473 -13618 0
-16338 -8473 0
-16338 -13618 0
16338 8473 13618 0
-16339 -16337 0
-16339 -16338 0
16339 16337 16338 0
-16370 15505 0
-16370 16339 0
16370 -15505 -16339 0
-16371 -15505 0
-16371 -16339 0
16371 15505 16339 0
-16372 -16370 0
-16372 -16371 0
16372 16370 16371 0
-16373 16303 0
-16373 16372 0
16373 -16303 -16372 0
-16374 -16303 0
-16374 -16372 0
16374 16303 16372 0
-16375 -16373 0
-16375 -16374 0
16375 16373 16374 0
-16361 8482 0
-16361 14641 0
16361 -8482 -14641 0
-16362 -8482 0
-16362 -14641 0
16362 8482 14641 0
-16363 -16361 0
-16363 -16362 0
16363 16361 16362 0
-16376 15838 0
-16376 16363 0
16376 -15838 -16363 0
-16377 -15838 0
-16377 -16363 0
16377 15838 16363 0
-16378 -16376 0
-16378 -16377 0
16378 16376 16377 0
-16460 15973 0
-16460 16378 0
16460 -15973 -16378 0
-16461 -15973 0
-16461 -16378 0
16461 15973 16378 0
-16462 -16460 0
-16462 -16461 0
16462 16460 16461 0
-16463 16375 0
-16463 16462 0
16463 -16375 -16462 0
-16464 -16375 0
-16464 -16462 0
16464 16375 16462 0
-16465 -16463 0
-16465 -16464 0
16465 16463 16464 0
-16454 77 0
-16454 13870 0
16454 -77 -13870 0
-16455 -77 0
-16455 -13870 0
16455 77 13870 0
-16456 -16454 0
-16456 -16455 0
16456 16454 16455 0
-16529 113 0
-16529 16456 0
16529 -113 -16456 0
-16530 -113 0
-16530 -16456 0
16530 113 16456 0
-16531 -16529 0
-16531 -16530 0
16531 16529 16530 0
-16532 16465 0
-16532 16531 0
16532 -16465 -16531 0
-16533 -16465 0
-16533 -16531 0
16533 16465 16531 0
-16534 -16532 0
-16534 -16533 0
16534 16532 16533 0
-16541 9133 0
-16541 13612 0
16541 -9133 -13612 0
-16542 -9133 0
-16542 -13612 0
16542 9133 13612 0
-16543 -16541 0
-16543 -16542 0
16543 16541 16542 0
-16544 12712 0
-16544 16543 0
16544 -12712 -16543 0
-16545 -12712 0
-16545 -16543 0
16545 12712 16543 0
-16546 -16544 0
-16546 -16545 0
16546 16544 16545 0
-16547 18 0
-16547 23 0
16547 -18 -23 0
-16548 -18 0
-16548 -23 0
16548 18 23 0
-16549 -16547 0
-16549 -16548 0
16549 16547 16548 0
-16592 11878 0
-16592 16549 0
16592 -11878 -16549 0
-16593 -11878 0
-16593 -16549 0
16593 11878 16549 0
-16594 -16592 0
-16594 -16593 0
16594 16592 16593 0
-16595 16546 0
-16595 16594 0
16595 -16546 -16594 0
-16596 -16546 0
-16596 -16594 0
16596 16546 16594 0
-16597 -16595 0
-16597 -16596 0
16597 16595 16596 0
-8423 39 0
-8423 40 0
8423 -39 -40 0
-8424 -39 0
-8424 -40 0
8424 39 40 0
-8425 -8423 0
-8425 -8424 0
8425 8423 8424 0
-16577 8425 0
-16577 8971 0
16577 -8425 -8971 0
-16578 -8425 0
-16578 -8971 0
16578 8425 8971 0
-16579 -16577 0
-16579 -16578 0
16579 16577 16578 0
-16598 46 0
-16598 16579 0
16598 -46 -16579 0
-16599 -46 0
-16599 -16579 0
16599 46 16579 0
-16600 -16598 0
-16600 -16599 0
16600 16598 16599 0
-16676 16195 0
-16676 16600 0
16676 -16195 -16600 0
-16677 -16195 0
-16677 -16600 0
16677 16195 16600 0
-16678 -16676 0
-16678 -16677 0
16678 16676 16677 0
-16679 16597 0
-16679 16678 0
16679 -16597 -16678 0
-16680 -16597 0
-16680 -16678 0
16680 16597 16678 0
-16681 -16679 0
-16681 -16680 0
16681 16679 16680 0
-16673 76 0
-16673 13870 0
16673 -76 -13870 0
-16674 -76 0
-16674 -13870 0
16674 76 13870 0
-16675 -16673 0
-16675 -16674 0
16675 16673 16674 0
-16727 112 0
-16727 16675 0
16727 -112 -16675 0
-16728 -112 0
-16728 -16675 0
16728 112 16675 0
-16729 -16727 0
-16729 -16728 0
16729 16727 16728 0
-16730 16681 0
-16730 16729 0
16730 -16681 -16729 0
-16731 -16681 0
-16731 -16729 0
16731 16681 16729 0
-16732 -16730 0
-16732 -16731 0
16732 16730 16731 0
-15728 12 0
-15728 10078 0
15728 -12 -10078 0
-15729 -12 0
-15729 -10078 0
15729 12 10078 0
-15730 -15728 0
-15730 -15729 0
15730 15728 15729 0
-16733 13024 0
-16733 15730 0
16733 -13024 -15730 0
-16734 -13024 0
-16734 -15730 0
16734 13024 15730 0
-16735 -16733 0
-16735 -16734 0
16735 16733 16734 0
-16736 18 0
-16736 22 0
16736 -18 -22 0
-16737 -18 0
-16737 -22 0
16737 18 22 0
-16738 -16736 0
-16738 -16737 0
16738 16736 16737 0
-16790 10900 0
-16790 16738 0
16790 -10900 -16738 0
-16791 -10900 0
-16791 -16738 0
16791 10900 16738 0
-16792 -16790 0
-16792 -16791 0
16792 16790 16791 0
-16793 16735 0
-16793 16792 0
16793 -16735 -16792 0
-16794 -16735 0
-16794 -16792 0
16794 16735 16792 0
-16795 -16793 0
-16795 -16794 0
16795 16793 16794 0
-16772 8422 0
-16772 9403 0
16772 -8422 -9403 0
-16773 -8422 0
-16773 -9403 0
16773 8422 9403 0
-16774 -16772 0
-16774 -16773 0
16774 16772 16773 0
-16784 8440 0
-16784 10855 0
16784 -8440 -10855 0
-16785 -8440 0
-16785 -10855 0
16785 8440 10855 0
-16786 -16784 0
-16786 -16785 0
16786 16784 16785 0
-16796 16774 0
-16796 16786 0
16796 -16774 -16786 0
-16797 -16774 0
-16797 -16786 0
16797 16774 16786 0
-16798 -16796 0
-16798 -16797 0
16798 16796 16797 0
-16877 15973 0
-16877 16798 0
16877 -15973 -16798 0
-16878 -15973 0
-16878 -16798 0
16878 15973 16798 0
-16879 -16877 0
-16879 -16878 0
16879 16877 16878 0
-16880 16795 0
-16880 16879 0
16880 -16795 -16879 0
-16881 -16795 0
-16881 -16879 0
16881 16795 16879 0
-16882 -16880 0
-16882 -16881 0
16882 16880 16881 0
-15869 75 0
-15869 13870 0
15869 -75 -13870 0
-15870 -75 0
-15870 -13870 0
15870 75 13870 0
-15871 -15869 0
-15871 -15870 0
15871 15869 15870 0
-16943 111 0
-16943 15871 0
16943 -111 -15871 0
-16944 -111 0
-16944 -15871 0
16944 111 15871 0
-16945 -16943 0
-16945 -16944 0
16945 16943 16944 0
-16946 16882 0
-16946 16945 0
16946 -16882 -16945 0
-16947 -16882 0
-16947 -16945 0
16947 16882 16945 0
-16948 -16946 0
-16948 -16947 0
16948 16946 16947 0
-16949 12 0
-16949 12136 0
16949 -12 -12136 0
-16950 -12 0
-16950 -12136 0
16950 12 12136 0
-16951 -16949 0
-16951 -16950 0
16951 16949 16950 0
-16979 8797 0
-16979 14656 0
16979 -8797 -14656 0
-16980 -8797 0
-16980 -14656 0
16980 8797 14656 0
-16981 -16979 0
-16981 -16980 0
16981 16979 16980 0
-16982 16951 0
-16982 16981 0
16982 -16951 -16981 0
-16983 -16951 0
-16983 -16981 0
16983 16951 16981 0
-16984 -16982 0
-16984 -16983 0
16984 16982 16983 0
-16967 41 0
-16967 8941 0
16967 -41 -8941 0
-16968 -41 0
-16968 -8941 0
16968 41 8941 0
-16969 -16967 0
-16969 -16968 0
16969 16967 16968 0
-16976 42 0
-16976 46 0
16976 -42 -46 0
-16977 -42 0
-16977 -46 0
16977 42 46 0
-16978 -16976 0
-16978 -16977 0
16978 16976 16977 0
-16985 16969 0
-16985 16978 0
16985 -16969 -16978 0
-16986 -16969 0
-16986 -16978 0
16986 16969 16978 0
-16987 -16985 0
-16987 -16986 0
16987 16985 16986 0
-17042 16195 0
-17042 16987 0
17042 -16195 -16987 0
-17043 -16195 0
-17043 -16987 0
17043 16195 16987 0
-17044 -17042 0
-17044 -17043 0
17044 17042 17043 0
-17045 16984 0
-17045 17044 0
17045 -16984 -17044 0
-17046 -16984 0
-17046 -17044 0
17046 16984 17044 0
-17047 -17045 0
-17047 -17046 0
17047 17045 17046 0
-14024 74 0
-14024 13870 0
14024 -74 -13870 0
-14025 -74 0
-14025 -13870 0
14025 74 13870 0
-14026 -14024 0
-14026 -14025 0
14026 14024 14025 0
-17096 110 0
-17096 14026 0
17096 -110 -14026 0
-17097 -110 0
-17097 -14026 0
17097 110 14026 0
-17098 -17096 0
-17098 -17097 0
17098 17096 17097 0
-17099 17047 0
-17099 17098 0
17099 -17047 -17098 0
-17100 -17047 0
-17100 -17098 0
17100 17047 17098 0
-17101 -17099 0
-17101 -17100 0
17101 17099 17100 0
-17105 2 0
-17105 8674 0
17105 -2 -8674 0
-17106 -2 0
-17106 -8674 0
17106 2 8674 0
-17107 -17105 0
-17107 -17106 0
17107 17105 17106 0
-17114 16543 0
-17114 17107 0
17114 -16543 -17107 0
-17115 -16543 0
-17115 -17107 0
17115 16543 17107 0
-17116 -17114 0
-17116 -17115 0
17116 17114 17115 0
-17117 7862 0
-17117 9736 0
17117 -7862 -9736 0
-17118 -7862 0
-17118 -9736 0
17118 7862 9736 0
-17119 -17117 0
-17119 -17118 0
17119 17117 17118 0
-17111 27 0
-17111 8797 0
17111 -27 -8797 0
-17112 -27 0
-17112 -8797 0
17112 27 8797 0
-17113 -17111 0
-17113 -17112 0
17113 17111 17112 0
-17138 8935 0
-17138 17113 0
17138 -8935 -17113 0
-17139 -8935 0
-17139 -17113 0
17139 8935 17113 0
-17140 -17138 0
-17140 -17139 0
17140 17138 17139 0
-17165 17119 0
-17165 17140 0
17165 -17119 -17140 0
-17166 -17119 0
-17166 -17140 0
17166 17119 17140 0
-17167 -17165 0
-17167 -17166 0
17167 17165 17166 0
-17168 17116 0
-17168 17167 0
17168 -17116 -17167 0
-17169 -17116 0
-17169 -17167 0
17169 17116 17167 0
-17170 -17168 0
-17170 -17169 0
17170 17168 17169 0
-17147 40 0
-17147 8971 0
17147 -40 -8971 0
-17148 -40 0
-17148 -8971 0
17148 40 8971 0
-17149 -17147 0
-17149 -17148 0
17149 17147 17148 0
-17171 46 0
-17171 17149 0
17171 -46 -17149 0
-17172 -46 0
-17172 -17149 0
17172 46 17149 0
-17173 -17171 0
-17173 -17172 0
17173 17171 17172 0
-17102 56 0
-17102 57 0
17102 -56 -57 0
-17103 -56 0
-17103 -57 0
17103 56 57 0
-17104 -17102 0
-17104 -17103 0
17104 17102 17103 0
-17156 52 0
-17156 17104 0
17156 -52 -17104 0
-17157 -52 0
-17157 -17104 0
17157 52 17104 0
-17158 -17156 0
-17158 -17157 0
17158 17156 17157 0
-17249 15721 0
-17249 17158 0
17249 -15721 -17158 0
-17250 -15721 0
-17250 -17158 0
17250 15721 17158 0
-17251 -17249 0
-17251 -17250 0
17251 17249 17250 0
-17285 17173 0
-17285 17251 0
17285 -17173 -17251 0
-17286 -17173 0
-17286 -17251 0
17286 17173 17251 0
-17287 -17285 0
-17287 -17286 0
17287 17285 17286 0
-17288 17170 0
-17288 17287 0
17288 -17170 -17287 0
-17289 -17170 0
-17289 -17287 0
17289 17170 17287 0
-17290 -17288 0
-17290 -17289 0
17290 17288 17289 0
-17276 8566 0
-17276 13870 0
17276 -8566 -13870 0
-17277 -8566 0
-17277 -13870 0
17277 8566 13870 0
-17278 -17276 0
-17278 -17277 0
17278 17276 17277 0
-17375 109 0
-17375 17278 0
17375 -109 -17278 0
-17376 -109 0
-17376 -17278 0
17376 109 17278 0
-17377 -17375 0
-17377 -17376 0
17377 17375 17376 0
-17378 17290 0
-17378 17377 0
17378 -17290 -17377 0
-17379 -17290 0
-17379 -17377 0
17379 17290 17377 0
-17380 -17378 0
-17380 -17379 0
17380 17378 17379 0
-17381 2 0
-17381 8081 0
17381 -2 -8081 0
-17382 -2 0
-17382 -8081 0
17382 2 8081 0
-17383 -17381 0
-17383 -17382 0
17383 17381 17382 0
-17402 15730 0
-17402 17383 0
17402 -15730 -17383 0
-17403 -15730 0
-17403 -17383 0
17403 15730 17383 0
-17404 -17402 0
-17404 -17403 0
17404 17402 17403 0
-17384 22 0
-17384 25 0
17384 -22 -25 0
-17385 -22 0
-17385 -25 0
17385 22 25 0
-17386 -17384 0
-17386 -17385 0
17386 17384 17385 0
-17405 14920 0
-17405 17386 0
17405 -14920 -17386 0
-17406 -14920 0
-17406 -17386 0
17406 14920 17386 0
-17407 -17405 0
-17407 -17406 0
17407 17405 17406 0
-9128 31 0
-9128 32 0
9128 -31 -32 0
-9129 -31 0
-9129 -32 0
9129 31 32 0
-9130 -9128 0
-9130 -9129 0
9130 9128 9129 0
-17429 8689 0
-17429 9130 0
17429 -8689 -9130 0
-17430 -8689 0
-17430 -9130 0
17430 8689 9130 0
-17431 -17429 0
-17431 -17430 0
17431 17429 17430 0
-17480 17407 0
-17480 17431 0
17480 -17407 -17431 0
-17481 -17407 0
-17481 -17431 0
17481 17407 17431 0
-17482 -17480 0
-17482 -17481 0
17482 17480 17481 0
-17483 17404 0
-17483 17482 0
17483 -17404 -17482 0
-17484 -17404 0
-17484 -17482 0
17484 17404 17482 0
-17485 -17483 0
-17485 -17484 0
17485 17483 17484 0
-17390 41 0
-17390 8422 0
17390 -41 -8422 0
-17391 -41 0
-17391 -8422 0
17391 41 8422 0
-17392 -17390 0
-17392 -17391 0
17392 17390 17391 0
-17444 9403 0
-17444 17392 0
17444 -9403 -17392 0
-17445 -9403 0
-17445 -17392 0
17445 9403 17392 0
-17446 -17444 0
-17446 -17445 0
17446 17444 17445 0
-17486 15838 0
-17486 17446 0
17486 -15838 -17446 0
-17487 -15838 0
-17487 -17446 0
17487 15838 17446 0
-17488 -17486 0
-17488 -17487 0
17488 17486 17487 0
-17396 9379 0
-17396 17104 0
17396 -9379 -17104 0
-17397 -9379 0
-17397 -17104 0
17397 9379 17104 0
-17398 -17396 0
-17398 -17397 0
17398 17396 17397 0
-17465 13894 0
-17465 17398 0
17465 -13894 -17398 0
-17466 -13894 0
-17466 -17398 0
17466 13894 17398 0
-17467 -17465 0
-17467 -17466 0
17467 17465 17466 0
-17576 15721 0
-17576 17467 0
17576 -15721 -17467 0
-17577 -15721 0
-17577 -17467 0
17577 15721 17467 0
-17578 -17576 0
-17578 -17577 0
17578 17576 17577 0
-17618 17488 0
-17618 17578 0
17618 -17488 -17578 0
-17619 -17488 0
-17619 -17578 0
17619 17488 17578 0
-17620 -17618 0
-17620 -17619 0
17620 17618 17619 0
-17621 17485 0
-17621 17620 0
17621 -17485 -17620 0
-17622 -17485 0
-17622 -17620 0
17622 17485 17620 0
-17623 -17621 0
-17623 -17622 0
17623 17621 17622 0
-17606 8713 0
-17606 13870 0
17606 -8713 -13870 0
-17607 -8713 0
-17607 -13870 0
17607 8713 13870 0
-17608 -17606 0
-17608 -17607 0
17608 17606 17607 0
-17714 108 0
-17714 17608 0
17714 -108 -17608 0
-17715 -108 0
-17715 -17608 0
17715 108 17608 0
-17716 -17714 0
-17716 -17715 0
17716 17714 17715 0
-17717 17623 0
-17717 17716 0
17717 -17623 -17716 0
-17718 -17623 0
-17718 -17716 0
17718 17623 17716 0
-17719 -17717 0
-17719 -17718 0
17719 17717 17718 0
-17720 12 0
-17720 17107 0
17720 -12 -17107 0
-17721 -12 0
-17721 -17107 0
17721 12 17107 0
-17722 -17720 0
-17722 -17721 0
17722 17720 17721 0
-17771 8689 0
-17771 14935 0
17771 -8689 -14935 0
-17772 -8689 0
-17772 -14935 0
17772 8689 14935 0
-17773 -17771 0
-17773 -17772 0
17773 17771 17772 0
-17774 17722 0
-17774 17773 0
17774 -17722 -17773 0
-17775 -17722 0
-17775 -17773 0
17775 17722 17773 0
-17776 -17774 0
-17776 -17775 0
17776 17774 17775 0
-17747 40 0
-17747 8941 0
17747 -40 -8941 0
-17748 -40 0
-17748 -8941 0
17748 40 8941 0
-17749 -17747 0
-17749 -17748 0
17749 17747 17748 0
-17777 16786 0
-17777 17749 0
17777 -16786 -17749 0
-17778 -16786 0
-17778 -17749 0
17778 16786 17749 0
-17779 -17777 0
-17779 -17778 0
17779 17777 17778 0
-17879 17251 0
-17879 17779 0
17879 -17251 -17779 0
-17880 -17251 0
-17880 -17779 0
17880 17251 17779 0
-17881 -17879 0
-17881 -17880 0
17881 17879 17880 0
-17882 17776 0
-17882 17881 0
17882 -17776 -17881 0
-17883 -17776 0
-17883 -17881 0
17883 17776 17881 0
-17884 -17882 0
-17884 -17883 0
17884 17882 17883 0
-17870 8869 0
-17870 13870 0
17870 -8869 -13870 0
-17871 -8869 0
-17871 -13870 0
17871 8869 13870 0
-17872 -17870 0
-17872 -17871 0
17872 17870 17871 0
-17975 107 0
-17975 17872 0
17975 -107 -17872 0
-17976 -107 0
-17976 -17872 0
17976 107 17872 0
-17977 -17975 0
-17977 -17976 0
17977 17975 17976 0
-17978 17884 0
-17978 17977 0
17978 -17884 -17977 0
-17979 -17884 0
-17979 -17977 0
17979 17884 17977 0
-17980 -17978 0
-17980 -17979 0
17980 17978 17979 0
-17981 6 0
-17981 8 0
17981 -6 -8 0
-17982 -6 0
-17982 -8 0
17982 6 8 0
-17983 -17981 0
-17983 -17982 0
17983 17981 17982 0
-17984 2 0
-17984 17983 0
17984 -2 -17983 0
-17985 -2 0
-17985 -17983 0
17985 2 17983 0
-17986 -17984 0
-17986 -17985 0
17986 17984 17985 0
-17987 15748 0
-17987 17986 0
17987 -15748 -17986 0
-17988 -15748 0
-17988 -17986 0
17988 15748 17986 0
-17989 -17987 0
-17989 -17988 0
17989 17987 17988 0
-17990 9769 0
-17990 14923 0
17990 -9769 -14923 0
-17991 -9769 0
-17991 -14923 0
17991 9769 14923 0
-17992 -17990 0
-17992 -17991 0
17992 17990 17991 0
-18035 9166 0
-18035 17992 0
18035 -9166 -17992 0
-18036 -9166 0
-18036 -17992 0
18036 9166 17992 0
-18037 -18035 0
-18037 -18036 0
18037 18035 18036 0
-18038 17989 0
-18038 18037 0
18038 -17989 -18037 0
-18039 -17989 0
-18039 -18037 0
18039 17989 18037 0
-18040 -18038 0
-18040 -18039 0
18040 18038 18039 0
-18029 40 0
-18029 8944 0
18029 -40 -8944 0
-18030 -40 0
-18030 -8944 0
18030 40 8944 0
-18031 -18029 0
-18031 -18030 0
18031 18029 18030 0
-18041 16786 0
-18041 18031 0
18041 -16786 -18031 0
-18042 -16786 0
-18042 -18031 0
18042 16786 18031 0
-18043 -18041 0
-18043 -18042 0
18043 18041 18042 0
-18119 17578 0
-18119 18043 0
18119 -17578 -18043 0
-18120 -17578 0
-18120 -18043 0
18120 17578 18043 0
-18121 -18119 0
-18121 -18120 0
18121 18119 18120 0
-18122 18040 0
-18122 18121 0
18122 -18040 -18121 0
-18123 -18040 0
-18123 -18121 0
18123 18040 18121 0
-18124 -18122 0
-18124 -18123 0
18124 18122 18123 0
-18113 9040 0
-18113 13870 0
18113 -9040 -13870 0
-18114 -9040 0
-18114 -13870 0
18114 9040 13870 0
-18115 -18113 0
-18115 -18114 0
18115 18113 18114 0
-18215 106 0
-18215 18115 0
18215 -106 -18115 0
-18216 -106 0
-18216 -18115 0
18216 106 18115 0
-18217 -18215 0
-18217 -18216 0
18217 18215 18216 0
-18218 18124 0
-18218 18217 0
18218 -18124 -18217 0
-18219 -18124 0
-18219 -18217 0
18219 18124 18217 0
-18220 -18218 0
-18220 -18219 0
18220 18218 18219 0
-18242 16102 0
-18242 17986 0
18242 -16102 -17986 0
-18243 -16102 0
-18243 -17986 0
18243 16102 17986 0
-18244 -18242 0
-18244 -18243 0
18244 18242 18243 0
-18227 24 0
-18227 9736 0
18227 -24 -9736 0
-18228 -24 0
-18228 -9736 0
18228 24 9736 0
-18229 -18227 0
-18229 -18228 0
18229 18227 18228 0
-18245 14920 0
-18245 18229 0
18245 -14920 -18229 0
-18246 -14920 0
-18246 -18229 0
18246 14920 18229 0
-18247 -18245 0
-18247 -18246 0
18247 18245 18246 0
-18233 28 0
-18233 8791 0
18233 -28 -8791 0
-18234 -28 0
-18234 -8791 0
18234 28 8791 0
-18235 -18233 0
-18235 -18234 0
18235 18233 18234 0
-18281 11842 0
-18281 18235 0
18281 -11842 -18235 0
-18282 -11842 0
-18282 -18235 0
18282 11842 18235 0
-18283 -18281 0
-18283 -18282 0
18283 18281 18282 0
-18332 18247 0
-18332 18283 0
18332 -18247 -18283 0
-18333 -18247 0
-18333 -18283 0
18333 18247 18283 0
-18334 -18332 0
-18334 -18333 0
18334 18332 18333 0
-18335 18244 0
-18335 18334 0
18335 -18244 -18334 0
-18336 -18244 0
-18336 -18334 0
18336 18244 18334 0
-18337 -18335 0
-18337 -18336 0
18337 18335 18336 0
-18305 8941 0
-18305 17392 0
18305 -8941 -17392 0
-18306 -8941 0
-18306 -17392 0
18306 8941 17392 0
-18307 -18305 0
-18307 -18306 0
18307 18305 18306 0
-18329 46 0
-18329 8434 0
18329 -46 -8434 0
-18330 -46 0
-18330 -8434 0
18330 46 8434 0
-18331 -18329 0
-18331 -18330 0
18331 18329 18330 0
-18338 18307 0
-18338 18331 0
18338 -18307 -18331 0
-18339 -18307 0
-18339 -18331 0
18339 18307 18331 0
-18340 -18338 0
-18340 -18339 0
18340 18338 18339 0
-18419 17251 0
-18419 18340 0
18419 -17251 -18340 0
-18420 -17251 0
-18420 -18340 0
18420 17251 18340 0
-18421 -18419 0
-18421 -18420 0
18421 18419 18420 0
-18422 18337 0
-18422 18421 0
18422 -18337 -18421 0
-18423 -18337 0
-18423 -18421 0
18423 18337 18421 0
-18424 -18422 0
-18424 -18423 0
18424 18422 18423 0
-18413 9184 0
-18413 13870 0
18413 -9184 -13870 0
-18414 -9184 0
-18414 -13870 0
18414 9184 13870 0
-18415 -18413 0
-18415 -18414 0
18415 18413 18414 0
-18506 105 0
-18506 18415 0
18506 -105 -18415 0
-18507 -105 0
-18507 -18415 0
18507 105 18415 0
-18508 -18506 0
-18508 -18507 0
18508 18506 18507 0
-18509 18424 0
-18509 18508 0
18509 -18424 -18508 0
-18510 -18424 0
-18510 -18508 0
18510 18424 18508 0
-18511 -18509 0
-18511 -18510 0
18511 18509 18510 0
-18518 16300 0
-18518 17383 0
18518 -16300 -17383 0
-18519 -16300 0
-18519 -17383 0
18519 16300 17383 0
-18520 -18518 0
-18520 -18519 0
18520 18518 18519 0
-18521 7862 0
-18521 17386 0
18521 -7862 -17386 0
-18522 -7862 0
-18522 -17386 0
18522 7862 17386 0
-18523 -18521 0
-18523 -18522 0
18523 18521 18522 0
-18554 8791 0
-18554 13618 0
18554 -8791 -13618 0
-18555 -8791 0
-18555 -13618 0
18555 8791 13618 0
-18556 -18554 0
-18556 -18555 0
18556 18554 18555 0
-18590 18523 0
-18590 18556 0
18590 -18523 -18556 0
-18591 -18523 0
-18591 -18556 0
18591 18523 18556 0
-18592 -18590 0
-18592 -18591 0
18592 18590 18591 0
-18593 18520 0
-18593 18592 0
18593 -18520 -18592 0
-18594 -18520 0
-18594 -18592 0
18594 18520 18592 0
-18595 -18593 0
-18595 -18594 0
18595 18593 18594 0
-18569 14641 0
-18569 17392 0
18569 -14641 -17392 0
-18570 -14641 0
-18570 -17392 0
18570 14641 17392 0
-18571 -18569 0
-18571 -18570 0
18571 18569 18570 0
-18596 18331 0
-18596 18571 0
18596 -18331 -18571 0
-18597 -18331 0
-18597 -18571 0
18597 18331 18571 0
-18598 -18596 0
-18598 -18597 0
18598 18596 18597 0
-18713 17578 0
-18713 18598 0
18713 -17578 -18598 0
-18714 -17578 0
-18714 -18598 0
18714 17578 18598 0
-18715 -18713 0
-18715 -18714 0
18715 18713 18714 0
-18716 18595 0
-18716 18715 0
18716 -18595 -18715 0
-18717 -18595 0
-18717 -18715 0
18717 18595 18715 0
-18718 -18716 0
-18718 -18717 0
18718 18716 18717 0
-18701 9307 0
-18701 13870 0
18701 -9307 -13870 0
-18702 -9307 0
-18702 -13870 0
18702 9307 13870 0
-18703 -18701 0
-18703 -18702 0
18703 18701 18702 0
-18833 104 0
-18833 18703 0
18833 -104 -18703 0
-18834 -104 0
-18834 -18703 0
18834 104 18703 0
-18835 -18833 0
-18835 -18834 0
18835 18833 18834 0
-18836 18718 0
-18836 18835 0
18836 -18718 -18835 0
-18837 -18718 0
-18837 -18835 0
18837 18718 18835 0
-18838 -18836 0
-18838 -18837 0
18838 18836 18837 0
-18839 12 0
-18839 8932 0
18839 -12 -8932 0
-18840 -12 0
-18840 -8932 0
18840 12 8932 0
-18841 -18839 0
-18841 -18840 0
18841 18839 18840 0
-18842 14 0
-18842 9373 0
18842 -14 -9373 0
-18843 -14 0
-18843 -9373 0
18843 14 9373 0
-18844 -18842 0
-18844 -18843 0
18844 18842 18843 0
-18854 18841 0
-18854 18844 0
18854 -18841 -18844 0
-18855 -18841 0
-18855 -18844 0
18855 18841 18844 0
-18856 -18854 0
-18856 -18855 0
18856 18854 18855 0
-18857 17107 0
-18857 18856 0
18857 -17107 -18856 0
-18858 -17107 0
-18858 -18856 0
18858 17107 18856 0
-18859 -18857 0
-18859 -18858 0
18859 18857 18858 0
-14279 21 0
-14279 9736 0
14279 -21 -9736 0
-14280 -21 0
-14280 -9736 0
14280 21 9736 0
-14281 -14279 0
-14281 -14280 0
14281 14279 14280 0
-18917 32 0
-18917 14281 0
18917 -32 -14281 0
-18918 -32 0
-18918 -14281 0
18918 32 14281 0
-18919 -18917 0
-18919 -18918 0
18919 18917 18918 0
-18920 18859 0
-18920 18919 0
18920 -18859 -18919 0
-18921 -18859 0
-18921 -18919 0
18921 18859 18919 0
-18922 -18920 0
-18922 -18921 0
18922 18920 18921 0
-18845 34 0
-18845 36 0
18845 -34 -36 0
-18846 -34 0
-18846 -36 0
18846 34 36 0
-18847 -18845 0
-18847 -18846 0
18847 18845 18846 0
-18887 40 0
-18887 18847 0
18887 -40 -18847 0
-18888 -40 0
-18888 -18847 0
18888 40 18847 0
-18889 -18887 0
-18889 -18888 0
18889 18887 18888 0
-18923 46 0
-18923 18889 0
18923 -46 -18889 0
-18924 -46 0
-18924 -18889 0
18924 46 18889 0
-18925 -18923 0
-18925 -18924 0
18925 18923 18924 0
-18848 9745 0
-18848 10087 0
18848 -9745 -10087 0
-18849 -9745 0
-18849 -10087 0
18849 9745 10087 0
-18850 -18848 0
-18850 -18849 0
18850 18848 18849 0
-18908 17398 0
-18908 18850 0
18908 -17398 -18850 0
-18909 -17398 0
-18909 -18850 0
18909 17398 18850 0
-18910 -18908 0
-18910 -18909 0
18910 18908 18909 0
-18998 15721 0
-18998 18910 0
18998 -15721 -18910 0
-18999 -15721 0
-18999 -18910 0
18999 15721 18910 0
-19000 -18998 0
-19000 -18999 0
19000 18998 18999 0
-19034 18925 0
-19034 19000 0
19034 -18925 -19000 0
-19035 -18925 0
-19035 -19000 0
19035 18925 19000 0
-19036 -19034 0
-19036 -19035 0
19036 19034 19035 0
-19037 18922 0
-19037 19036 0
19037 -18922 -19036 0
-19038 -18922 0
-19038 -19036 0
19038 18922 19036 0
-19039 -19037 0
-19039 -19038 0
19039 19037 19038 0
-19127 103 0
-19127 9511 0
19127 -103 -9511 0
-19128 -103 0
-19128 -9511 0
19128 103 9511 0
-19129 -19127 0
-19129 -19128 0
19129 19127 19128 0
-19148 19039 0
-19148 19129 0
19148 -19039 -19129 0
-19149 -19039 0
-19149 -19129 0
19149 19039 19129 0
-19150 -19148 0
-19150 -19149 0
19150 19148 19149 0
-19151 9373 0
-19151 18841 0
19151 -9373 -18841 0
-19152 -9373 0
-19152 -18841 0
19152 9373 18841 0
-19153 -19151 0
-19153 -19152 0
19153 19151 19152 0
-19154 17107 0
-19154 19153 0
19154 -17107 -19153 0
-19155 -17107 0
-19155 -19153 0
19155 17107 19153 0
-19156 -19154 0
-19156 -19155 0
19156 19154 19155 0
-9761 9730 0
-9761 9736 0
9761 -9730 -9736 0
-9762 -9730 0
-9762 -9736 0
9762 9730 9736 0
-9763 -9761 0
-9763 -9762 0
9763 9761 9762 0
-19187 7617 0
-19187 9763 0
19187 -7617 -9763 0
-19188 -7617 0
-19188 -9763 0
19188 7617 9763 0
-19189 -19187 0
-19189 -19188 0
19189 19187 19188 0
-19190 19156 0
-19190 19189 0
19190 -19156 -19189 0
-19191 -19156 0
-19191 -19189 0
19191 19156 19189 0
-19192 -19190 0
-19192 -19191 0
19192 19190 19191 0
-19223 19036 0
-19223 19192 0
19223 -19036 -19192 0
-19224 -19036 0
-19224 -19192 0
19224 19036 19192 0
-19225 -19223 0
-19225 -19224 0
19225 19223 19224 0
-19274 102 0
-19274 9865 0
19274 -102 -9865 0
-19275 -102 0
-19275 -9865 0
19275 102 9865 0
-19276 -19274 0
-19276 -19275 0
19276 19274 19275 0
-19286 19225 0
-19286 19276 0
19286 -19225 -19276 0
-19287 -19225 0
-19287 -19276 0
19287 19225 19276 0
-19288 -19286 0
-19288 -19287 0
19288 19286 19287 0
-10079 15 0
-10079 16 0
10079 -15 -16 0
-10080 -15 0
-10080 -16 0
10080 15 16 0
-10081 -10079 0
-10081 -10080 0
10081 10079 10080 0
-19298 10081 0
-19298 13612 0
19298 -10081 -13612 0
-19299 -10081 0
-19299 -13612 0
19299 10081 13612 0
-19300 -19298 0
-19300 -19299 0
19300 19298 19299 0
-19301 17383 0
-19301 19300 0
19301 -17383 -19300 0
-19302 -17383 0
-19302 -19300 0
19302 17383 19300 0
-19303 -19301 0
-19303 -19302 0
19303 19301 19302 0
-8678 20 0
-8678 22 0
8678 -20 -22 0
-8679 -20 0
-8679 -22 0
8679 20 22 0
-8680 -8678 0
-8680 -8679 0
8680 8678 8679 0
-8792 27 0
-8792 28 0
8792 -27 -28 0
-8793 -27 0
-8793 -28 0
8793 27 28 0
-8794 -8792 0
-8794 -8793 0
8794 8792 8793 0
-19331 8794 0
-19331 10111 0
19331 -8794 -10111 0
-19332 -8794 0
-19332 -10111 0
19332 8794 10111 0
-19333 -19331 0
-19333 -19332 0
19333 19331 19332 0
-19379 8680 0
-19379 19333 0
19379 -8680 -19333 0
-19380 -8680 0
-19380 -19333 0
19380 8680 19333 0
-19381 -19379 0
-19381 -19380 0
19381 19379 19380 0
-19382 19303 0
-19382 19381 0
19382 -19303 -19381 0
-19383 -19303 0
-19383 -19381 0
19383 19303 19381 0
-19384 -19382 0
-19384 -19383 0
19384 19382 19383 0
-19289 35 0
-19289 37 0
19289 -35 -37 0
-19290 -35 0
-19290 -37 0
19290 35 37 0
-19291 -19289 0
-19291 -19290 0
19291 19289 19290 0
-19352 17392 0
-19352 19291 0
19352 -17392 -19291 0
-19353 -17392 0
-19353 -19291 0
19353 17392 19291 0
-19354 -19352 0
-19354 -19353 0
19354 19352 19353 0
-19385 15838 0
-19385 19354 0
19385 -15838 -19354 0
-19386 -15838 0
-19386 -19354 0
19386 15838 19354 0
-19387 -19385 0
-19387 -19386 0
19387 19385 19386 0
-19496 19000 0
-19496 19387 0
19496 -19000 -19387 0
-19497 -19000 0
-19497 -19387 0
19497 19000 19387 0
-19498 -19496 0
-19498 -19497 0
19498 19496 19497 0
-19499 19384 0
-19499 19498 0
19499 -19384 -19498 0
-19500 -19384 0
-19500 -19498 0
19500 19384 19498 0
-19501 -19499 0
-19501 -19500 0
19501 19499 19500 0
-19589 101 0
-19589 10228 0
19589 -101 -10228 0
-19590 -101 0
-19590 -10228 0
19590 101 10228 0
-19591 -19589 0
-19591 -19590 0
19591 19589 19590 0
-19604 19501 0
-19604 19591 0
19604 -19501 -19591 0
-19605 -19501 0
-19605 -19591 0
19605 19501 19591 0
-19606 -19604 0
-19606 -19605 0
19606 19604 19605 0
-19607 15730 0
-19607 17986 0
19607 -15730 -17986 0
-19608 -15730 0
-19608 -17986 0
19608 15730 17986 0
-19609 -19607 0
-19609 -19608 0
19609 19607 19608 0
-19610 9730 0
-19610 9769 0
19610 -9730 -9769 0
-19611 -9730 0
-19611 -9769 0
19611 9730 9769 0
-19612 -19610 0
-19612 -19611 0
19612 19610 19611 0
-19643 28 0
-19643 9130 0
19643 -28 -9130 0
-19644 -28 0
-19644 -9130 0
19644 28 9130 0
-19645 -19643 0
-19645 -19644 0
19645 19643 19644 0
-19655 19612 0
-19655 19645 0
19655 -19612 -19645 0
-19656 -19612 0
-19656 -19645 0
19656 19612 19645 0
-19657 -19655 0
-19657 -19656 0
19657 19655 19656 0
-19658 19609 0
-19658 19657 0
19658 -19609 -19657 0
-19659 -19609 0
-19659 -19657 0
19659 19609 19657 0
-19660 -19658 0
-19660 -19659 0
19660 19658 19659 0
-19661 16786 0
-19661 18889 0
19661 -16786 -18889 0
-19662 -16786 0
-19662 -18889 0
19662 16786 18889 0
-19663 -19661 0
-19663 -19662 0
19663 19661 19662 0
-19733 19000 0
-19733 19663 0
19733 -19000 -19663 0
-19734 -19000 0
-19734 -19663 0
19734 19000 19663 0
-19735 -19733 0
-19735 -19734 0
19735 19733 19734 0
-19736 19660 0
-19736 19735 0
19736 -19660 -19735 0
-19737 -19660 0
-19737 -19735 0
19737 19660 19735 0
-19738 -19736 0
-19738 -19737 0
19738 19736 19737 0
-19811 100 0
-19811 8122 0
19811 -100 -8122 0
-19812 -100 0
-19812 -8122 0
19812 100 8122 0
-19813 -19811 0
-19813 -19812 0
19813 19811 19812 0
-19817 19738 0
-19817 19813 0
19817 -19738 -19813 0
-19818 -19738 0
-19818 -19813 0
19818 19738 19813 0
-19819 -19817 0
-19819 -19818 0
19819 19817 19818 0
-19820 2 0
-19820 6 0
19820 -2 -6 0
-19821 -2 0
-19821 -6 0
19821 2 6 0
-19822 -19820 0
-19822 -19821 0
19822 19820 19821 0
-19832 15748 0
-19832 19822 0
19832 -15748 -19822 0
-19833 -15748 0
-19833 -19822 0
19833 15748 19822 0
-19834 -19832 0
-19834 -19833 0
19834 19832 19833 0
-19829 22 0
-19829 9742 0
19829 -22 -9742 0
-19830 -22 0
-19830 -9742 0
19830 22 9742 0
-19831 -19829 0
-19831 -19830 0
19831 19829 19830 0
-19835 9730 0
-19835 19831 0
19835 -9730 -19831 0
-19836 -9730 0
-19836 -19831 0
19836 9730 19831 0
-19837 -19835 0
-19837 -19836 0
19837 19835 19836 0
-19880 8473 0
-19880 8956 0
19880 -8473 -8956 0
-19881 -8473 0
-19881 -8956 0
19881 8473 8956 0
-19882 -19880 0
-19882 -19881 0
19882 19880 19881 0
-19895 19837 0
-19895 19882 0
19895 -19837 -19882 0
-19896 -19837 0
-19896 -19882 0
19896 19837 19882 0
-19897 -19895 0
-19897 -19896 0
19897 19895 19896 0
-19898 19834 0
-19898 19897 0
19898 -19834 -19897 0
-19899 -19834 0
-19899 -19897 0
19899 19834 19897 0
-19900 -19898 0
-19900 -19899 0
19900 19898 19899 0
-19949 19735 0
-19949 19900 0
19949 -19735 -19900 0
-19950 -19735 0
-19950 -19900 0
19950 19735 19900 0
-19951 -19949 0
-19951 -19950 0
19951 19949 19950 0
-20012 99 0
-20012 10585 0
20012 -99 -10585 0
-20013 -99 0
-20013 -10585 0
20013 99 10585 0
-20014 -20012 0
-20014 -20013 0
20014 20012 20013 0
-20021 19951 0
-20021 20014 0
20021 -19951 -20014 0
-20022 -19951 0
-20022 -20014 0
20022 19951 20014 0
-20023 -20021 0
-20023 -20022 0
20023 20021 20022 0
-20027 10708 0
-20027 18841 0
20027 -10708 -18841 0
-20028 -10708 0
-20028 -18841 0
20028 10708 18841 0
-20029 -20027 0
-20029 -20028 0
20029 20027 20028 0
-20030 17107 0
-20030 20029 0
20030 -17107 -20029 0
-20031 -17107 0
-20031 -20029 0
20031 17107 20029 0
-20032 -20030 0
-20032 -20031 0
20032 20030 20031 0
-20054 8956 0
-20054 9736 0
20054 -8956 -9736 0
-20055 -8956 0
-20055 -9736 0
20055 8956 9736 0
-20056 -20054 0
-20056 -20055 0
20056 20054 20055 0
-20057 20032 0
-20057 20056 0
20057 -20032 -20056 0
-20058 -20032 0
-20058 -20056 0
20058 20032 20056 0
-20059 -20057 0
-20059 -20058 0
20059 20057 20058 0
-20084 19036 0
-20084 20059 0
20084 -19036 -20059 0
-20085 -19036 0
-20085 -20059 0
20085 19036 20059 0
-20086 -20084 0
-20086 -20085 0
20086 20084 20085 0
-20138 98 0
-20138 10738 0
20138 -98 -10738 0
-20139 -98 0
-20139 -10738 0
20139 98 10738 0
-20140 -20138 0
-20140 -20139 0
20140 20138 20139 0
-20150 20086 0
-20150 20140 0
20150 -20086 -20140 0
-20151 -20086 0
-20151 -20140 0
20151 20086 20140 0
-20152 -20150 0
-20152 -20151 0
20152 20150 20151 0
-20153 8932 0
-20153 18844 0
20153 -8932 -18844 0
-20154 -8932 0
-20154 -18844 0
20154 8932 18844 0
-20155 -20153 0
-20155 -20154 0
20155 20153 20154 0
-20156 17986 0
-20156 20155 0
20156 -17986 -20155 0
-20157 -17986 0
-20157 -20155 0
20157 17986 20155 0
-20158 -20156 0
-20158 -20157 0
20158 20156 20157 0
-20204 8698 0
-20204 9001 0
20204 -8698 -9001 0
-20205 -8698 0
-20205 -9001 0
20205 8698 9001 0
-20206 -20204 0
-20206 -20205 0
20206 20204 20205 0
-20207 20158 0
-20207 20206 0
20207 -20158 -20206 0
-20208 -20158 0
-20208 -20206 0
20208 20158 20206 0
-20209 -20207 0
-20209 -20208 0
20209 20207 20208 0
-20186 17392 0
-20186 18847 0
20186 -17392 -18847 0
-20187 -17392 0
-20187 -18847 0
20187 17392 18847 0
-20188 -20186 0
-20188 -20187 0
20188 20186 20187 0
-20210 8554 0
-20210 20188 0
20210 -8554 -20188 0
-20211 -8554 0
-20211 -20188 0
20211 8554 20188 0
-20212 -20210 0
-20212 -20211 0
20212 20210 20211 0
-20297 18910 0
-20297 20212 0
20297 -18910 -20212 0
-20298 -18910 0
-20298 -20212 0
20298 18910 20212 0
-20299 -20297 0
-20299 -20298 0
20299 20297 20298 0
-20300 20209 0
-20300 20299 0
20300 -20209 -20299 0
-20301 -20209 0
-20301 -20299 0
20301 20209 20299 0
-20302 -20300 0
-20302 -20301 0
20302 20300 20301 0
-20303 97 0
-20303 10864 0
20303 -97 -10864 0
-20304 -97 0
-20304 -10864 0
20304 97 10864 0
-20305 -20303 0
-20305 -20304 0
20305 20303 20304 0
-20381 20302 0
-20381 20305 0
20381 -20302 -20305 0
-20382 -20302 0
-20382 -20305 0
20382 20302 20305 0
-20383 -20381 0
-20383 -20382 0
20383 20381 20382 0
-20384 9787 0
-20384 19822 0
20384 -9787 -19822 0
-20385 -9787 0
-20385 -19822 0
20385 9787 19822 0
-20386 -20384 0
-20386 -20385 0
20386 20384 20385 0
-20387 20 0
-20387 18229 0
20387 -20 -18229 0
-20388 -20 0
-20388 -18229 0
20388 20 18229 0
-20389 -20387 0
-20389 -20388 0
20389 20387 20388 0
-20411 9001 0
-20411 20389 0
20411 -9001 -20389 0
-20412 -9001 0
-20412 -20389 0
20412 9001 20389 0
-20413 -20411 0
-20413 -20412 0
20413 20411 20412 0
-20414 20386 0
-20414 20413 0
20414 -20386 -20413 0
-20415 -20386 0
-20415 -20413 0
20415 20386 20413 0
-20416 -20414 0
-20416 -20415 0
20416 20414 20415 0
-20432 20299 0
-20432 20416 0
20432 -20299 -20416 0
-20433 -20299 0
-20433 -20416 0
20433 20299 20416 0
-20434 -20432 0
-20434 -20433 0
20434 20432 20433 0
-20435 96 0
-20435 8222 0
20435 -96 -8222 0
-20436 -96 0
-20436 -8222 0
20436 96 8222 0
-20437 -20435 0
-20437 -20436 0
20437 20435 20436 0
-20480 20434 0
-20480 20437 0
20480 -20434 -20437 0
-20481 -20434 0
-20481 -20437 0
20481 20434 20437 0
-20482 -20480 0
-20482 -20481 0
20482 20480 20481 0
-20483 10 0
-20483 10081 0
20483 -10 -10081 0
-20484 -10 0
-20484 -10081 0
20484 10 10081 0
-20485 -20483 0
-20485 -20484 0
20485 20483 20484 0
-20486 17383 0
-20486 20485 0
20486 -17383 -20485 0
-20487 -17383 0
-20487 -20485 0
20487 17383 20485 0
-20488 -20486 0
-20488 -20487 0
20488 20486 20487 0
-20522 9736 0
-20522 10183 0
20522 -9736 -10183 0
-20523 -9736 0
-20523 -10183 0
20523 9736 10183 0
-20524 -20522 0
-20524 -20523 0
20524 20522 20523 0
-20525 20488 0
-20525 20524 0
20525 -20488 -20524 0
-20526 -20488 0
-20526 -20524 0
20526 20488 20524 0
-20527 -20525 0
-20527 -20526 0
20527 20525 20526 0
-20510 40 0
-20510 19291 0
20510 -40 -19291 0
-20511 -40 0
-20511 -19291 0
20511 40 19291 0
-20512 -20510 0
-20512 -20511 0
20512 20510 20511 0
-20528 9034 0
-20528 20512 0
20528 -9034 -20512 0
-20529 -9034 0
-20529 -20512 0
20529 9034 20512 0
-20530 -20528 0
-20530 -20529 0
20530 20528 20529 0
-20594 18910 0
-20594 20530 0
20594 -18910 -20530 0
-20595 -18910 0
-20595 -20530 0
20595 18910 20530 0
-20596 -20594 0
-20596 -20595 0
20596 20594 20595 0
-20597 20527 0
-20597 20596 0
20597 -20527 -20596 0
-20598 -20527 0
-20598 -20596 0
20598 20527 20596 0
-20599 -20597 0
-20599 -20598 0
20599 20597 20598 0
-20600 95 0
-20600 8259 0
20600 -95 -8259 0
-20601 -95 0
-20601 -8259 0
20601 95 8259 0
-20602 -20600 0
-20602 -20601 0
20602 20600 20601 0
-20669 20599 0
-20669 20602 0
20669 -20599 -20602 0
-20670 -20599 0
-20670 -20602 0
20670 20599 20602 0
-20671 -20669 0
-20671 -20670 0
20671 20669 20670 0
-20672 10078 0
-20672 17107 0
20672 -10078 -17107 0
-20673 -10078 0
-20673 -17107 0
20673 10078 17107 0
-20674 -20672 0
-20674 -20673 0
20674 20672 20673 0
-20684 9001 0
-20684 17386 0
20684 -9001 -17386 0
-20685 -9001 0
-20685 -17386 0
20685 9001 17386 0
-20686 -20684 0
-20686 -20685 0
20686 20684 20685 0
-20687 20674 0
-20687 20686 0
20687 -20674 -20686 0
-20688 -20674 0
-20688 -20686 0
20688 20674 20686 0
-20689 -20687 0
-20689 -20688 0
20689 20687 20688 0
-20708 20299 0
-20708 20689 0
20708 -20299 -20689 0
-20709 -20299 0
-20709 -20689 0
20709 20299 20689 0
-20710 -20708 0
-20710 -20709 0
20710 20708 20709 0
-20711 94 0
-20711 8299 0
20711 -94 -8299 0
-20712 -94 0
-20712 -8299 0
20712 94 8299 0
-20713 -20711 0
-20713 -20712 0
20713 20711 20712 0
-20759 20710 0
-20759 20713 0
20759 -20710 -20713 0
-20760 -20710 0
-20760 -20713 0
20760 20710 20713 0
-20761 -20759 0
-20761 -20760 0
20761 20759 20760 0
-20762 11 0
-20762 13873 0
20762 -11 -13873 0
-20763 -11 0
-20763 -13873 0
20763 11 13873 0
-20764 -20762 0
-20764 -20763 0
20764 20762 20763 0
-20765 17107 0
-20765 20764 0
20765 -17107 -20764 0
-20766 -17107 0
-20766 -20764 0
20766 17107 20764 0
-20767 -20765 0
-20767 -20766 0
20767 20765 20766 0
-20768 20 0
-20768 17386 0
20768 -20 -17386 0
-20769 -20 0
-20769 -17386 0
20769 20 17386 0
-20770 -20768 0
-20770 -20769 0
20770 20768 20769 0
-20786 9001 0
-20786 20770 0
20786 -9001 -20770 0
-20787 -9001 0
-20787 -20770 0
20787 9001 20770 0
-20788 -20786 0
-20788 -20787 0
20788 20786 20787 0
-20789 20767 0
-20789 20788 0
20789 -20767 -20788 0
-20790 -20767 0
-20790 -20788 0
20790 20767 20788 0
-20791 -20789 0
-20791 -20790 0
20791 20789 20790 0
-20795 20299 0
-20795 20791 0
20795 -20299 -20791 0
-20796 -20299 0
-20796 -20791 0
20796 20299 20791 0
-20797 -20795 0
-20797 -20796 0
20797 20795 20796 0
-20798 93 0
-20798 9268 0
20798 -93 -9268 0
-20799 -93 0
-20799 -9268 0
20799 93 9268 0
-20800 -20798 0
-20800 -20799 0
20800 20798 20799 0
-20843 20797 0
-20843 20800 0
20843 -20797 -20800 0
-20844 -20797 0
-20844 -20800 0
20844 20797 20800 0
-20845 -20843 0
-20845 -20844 0
20845 20843 20844 0
-20849 8932 0
-20849 10708 0
20849 -8932 -10708 0
-20850 -8932 0
-20850 -10708 0
20850 8932 10708 0
-20851 -20849 0
-20851 -20850 0
20851 20849 20850 0
-20852 17107 0
-20852 20851 0
20852 -17107 -20851 0
-20853 -17107 0
-20853 -20851 0
20853 17107 20851 0
-20854 -20852 0
-20854 -20853 0
20854 20852 20853 0
-20867 8680 0
-20867 9001 0
20867 -8680 -9001 0
-20868 -8680 0
-20868 -9001 0
20868 8680 9001 0
-20869 -20867 0
-20869 -20868 0
20869 20867 20868 0
-20870 20854 0
-20870 20869 0
20870 -20854 -20869 0
-20871 -20854 0
-20871 -20869 0
20871 20854 20869 0
-20872 -20870 0
-20872 -20871 0
20872 20870 20871 0
-20888 20299 0
-20888 20872 0
20888 -20299 -20872 0
-20889 -20299 0
-20889 -20872 0
20889 20299 20872 0
-20890 -20888 0
-20890 -20889 0
20890 20888 20889 0
-20891 92 0
-20891 12037 0
20891 -92 -12037 0
-20892 -92 0
-20892 -12037 0
20892 92 12037 0
-20893 -20891 0
-20893 -20892 0
20893 20891 20892 0
-20948 20890 0
-20948 20893 0
20948 -20890 -20893 0
-20949 -20890 0
-20949 -20893 0
20949 20890 20893 0
-20950 -20948 0
-20950 -20949 0
20950 20948 20949 0
-20951 8 0
-20951 10078 0
20951 -8 -10078 0
-20952 -8 0
-20952 -10078 0
20952 8 10078 0
-20953 -20951 0
-20953 -20952 0
20953 20951 20952 0
-20978 32 0
-20978 8515 0
20978 -32 -8515 0
-20979 -32 0
-20979 -8515 0
20979 32 8515 0
-20980 -20978 0
-20980 -20979 0
20980 20978 20979 0
-20981 20953 0
-20981 20980 0
20981 -20953 -20980 0
-20982 -20953 0
-20982 -20980 0
20982 20953 20980 0
-20983 -20981 0
-20983 -20982 0
20983 20981 20982 0
-20972 9379 0
-20972 18850 0
20972 -9379 -18850 0
-20973 -9379 0
-20973 -18850 0
20973 9379 18850 0
-20974 -20972 0
-20974 -20973 0
20974 20972 20973 0
-20963 8482 0
-20963 18847 0
20963 -8482 -18847 0
-20964 -8482 0
-20964 -18847 0
20964 8482 18847 0
-20965 -20963 0
-20965 -20964 0
20965 20963 20964 0
-20984 8434 0
-20984 20965 0
20984 -8434 -20965 0
-20985 -8434 0
-20985 -20965 0
20985 8434 20965 0
-20986 -20984 0
-20986 -20985 0
20986 20984 20985 0
-21065 20974 0
-21065 20986 0
21065 -20974 -20986 0
-21066 -20974 0
-21066 -20986 0
21066 20974 20986 0
-21067 -21065 0
-21067 -21066 0
21067 21065 21066 0
-21068 20983 0
-21068 21067 0
21068 -20983 -21067 0
-21069 -20983 0
-21069 -21067 0
21069 20983 21067 0
-21070 -21068 0
-21070 -21069 0
21070 21068 21069 0
-21071 91 0
-21071 12241 0
21071 -91 -12241 0
-21072 -91 0
-21072 -12241 0
21072 91 12241 0
-21073 -21071 0
-21073 -21072 0
21073 21071 21072 0
-21125 21070 0
-21125 21073 0
21125 -21070 -21073 0
-21126 -21070 0
-21126 -21073 0
21126 21070 21073 0
-21127 -21125 0
-21127 -21126 0
21127 21125 21126 0
-21185 90 0
-21185 12541 0
21185 -90 -12541 0
-21186 -90 0
-21186 -12541 0
21186 90 12541 0
-21187 -21185 0
-21187 -21186 0
21187 21185 21186 0
-21128 9 0
-21128 20764 0
21128 -9 -20764 0
-21129 -9 0
-21129 -20764 0
21129 9 20764 0
-21130 -21128 0
-21130 -21129 0
21130 21128 21129 0
-21143 9454 0
-21143 21130 0
21143 -9454 -21130 0
-21144 -9454 0
-21144 -21130 0
21144 9454 21130 0
-21145 -21143 0
-21145 -21144 0
21145 21143 21144 0
-21194 18847 0
-21194 20974 0
21194 -18847 -20974 0
-21195 -18847 0
-21195 -20974 0
21195 18847 20974 0
-21196 -21194 0
-21196 -21195 0
21196 21194 21195 0
-21197 21145 0
-21197 21196 0
21197 -21145 -21196 0
-21198 -21145 0
-21198 -21196 0
21198 21145 21196 0
-21199 -21197 0
-21199 -21198 0
21199 21197 21198 0
-21251 21187 0
-21251 21199 0
21251 -21187 -21199 0
-21252 -21187 0
-21252 -21199 0
21252 21187 21199 0
-21253 -21251 0
-21253 -21252 0
21253 21251 21252 0
-21365 89 0
-21365 9517 0
21365 -89 -9517 0
-21366 -89 0
-21366 -9517 0
21366 89 9517 0
-21367 -21365 0
-21367 -21366 0
21367 21365 21366 0
-21275 8515 0
-21275 9001 0
21275 -8515 -9001 0
-21276 -8515 0
-21276 -9001 0
21276 8515 9001 0
-21277 -21275 0
-21277 -21276 0
21277 21275 21276 0
-21278 20851 0
-21278 21277 0
21278 -20851 -21277 0
-21279 -20851 0
-21279 -21277 0
21279 20851 21277 0
-21280 -21278 0
-21280 -21279 0
21280 21278 21279 0
-21281 8554 0
-21281 20965 0
21281 -8554 -20965 0
-21282 -8554 0
-21282 -20965 0
21282 8554 20965 0
-21283 -21281 0
-21283 -21282 0
21283 21281 21282 0
-21377 20974 0
-21377 21283 0
21377 -20974 -21283 0
-21378 -20974 0
-21378 -21283 0
21378 20974 21283 0
-21379 -21377 0
-21379 -21378 0
21379 21377 21378 0
-21380 21280 0
-21380 21379 0
21380 -21280 -21379 0
-21381 -21280 0
-21381 -21379 0
21381 21280 21379 0
-21382 -21380 0
-21382 -21381 0
21382 21380 21381 0
-21446 21367 0
-21446 21382 0
21446 -21367 -21382 0
-21447 -21367 0
-21447 -21382 0
21447 21367 21382 0
-21448 -21446 0
-21448 -21447 0
21448 21446 21447 0
-21500 88 0
-21500 13147 0
21500 -88 -13147 0
-21501 -88 0
-21501 -13147 0
21501 88 13147 0
-21502 -21500 0
-21502 -21501 0
21502 21500 21501 0
-21449 8671 0
-21449 20155 0
21449 -8671 -20155 0
-21450 -8671 0
-21450 -20155 0
21450 8671 20155 0
-21451 -21449 0
-21451 -21450 0
21451 21449 21450 0
-21461 32 0
-21461 19612 0
21461 -32 -19612 0
-21462 -32 0
-21462 -19612 0
21462 32 19612 0
-21463 -21461 0
-21463 -21462 0
21463 21461 21462 0
-21464 21451 0
-21464 21463 0
21464 -21451 -21463 0
-21465 -21451 0
-21465 -21463 0
21465 21451 21463 0
-21466 -21464 0
-21466 -21465 0
21466 21464 21465 0
-21512 21196 0
-21512 21466 0
21512 -21196 -21466 0
-21513 -21196 0
-21513 -21466 0
21513 21196 21466 0
-21514 -21512 0
-21514 -21513 0
21514 21512 21513 0
-21581 21502 0
-21581 21514 0
21581 -21502 -21514 0
-21582 -21502 0
-21582 -21514 0
21582 21502 21514 0
-21583 -21581 0
-21583 -21582 0
21583 21581 21582 0
-21650 87 0
-21650 13432 0
21650 -87 -13432 0
-21651 -87 0
-21651 -13432 0
21651 87 13432 0
-21652 -21650 0
-21652 -21651 0
21652 21650 21651 0
-21584 8 0
-21584 9787 0
21584 -8 -9787 0
-21585 -8 0
-21585 -9787 0
21585 8 9787 0
-21586 -21584 0
-21586 -21585 0
21586 21584 21585 0
-21596 8515 0
-21596 9454 0
21596 -8515 -9454 0
-21597 -8515 0
-21597 -9454 0
21597 8515 9454 0
-21598 -21596 0
-21598 -21597 0
21598 21596 21597 0
-21599 21586 0
-21599 21598 0
21599 -21586 -21598 0
-21600 -21586 0
-21600 -21598 0
21600 21586 21598 0
-21601 -21599 0
-21601 -21600 0
21601 21599 21600 0
-21659 21067 0
-21659 21601 0
21659 -21067 -21601 0
-21660 -21067 0
-21660 -21601 0
21660 21067 21601 0
-21661 -21659 0
-21661 -21660 0
21661 21659 21660 0
-21704 21652 0
-21704 21661 0
21704 -21652 -21661 0
-21705 -21652 0
-21705 -21661 0
21705 21652 21661 0
-21706 -21704 0
-21706 -21705 0
21706 21704 21705 0
-21800 86 0
-21800 13687 0
21800 -86 -13687 0
-21801 -86 0
-21801 -13687 0
21801 86 13687 0
-21802 -21800 0
-21802 -21801 0
21802 21800 21801 0
-21707 8 0
-21707 20485 0
21707 -8 -20485 0
-21708 -8 0
-21708 -20485 0
21708 8 20485 0
-21709 -21707 0
-21709 -21708 0
21709 21707 21708 0
-21734 8515 0
-21734 10183 0
21734 -8515 -10183 0
-21735 -8515 0
-21735 -10183 0
21735 8515 10183 0
-21736 -21734 0
-21736 -21735 0
21736 21734 21735 0
-21737 21709 0
-21737 21736 0
21737 -21709 -21736 0
-21738 -21709 0
-21738 -21736 0
21738 21709 21736 0
-21739 -21737 0
-21739 -21738 0
21739 21737 21738 0
-21719 8482 0
-21719 19291 0
21719 -8482 -19291 0
-21720 -8482 0
-21720 -19291 0
21720 8482 19291 0
-21721 -21719 0
-21721 -21720 0
21721 21719 21720 0
-21740 8554 0
-21740 21721 0
21740 -8554 -21721 0
-21741 -8554 0
-21741 -21721 0
21741 8554 21721 0
-21742 -21740 0
-21742 -21741 0
21742 21740 21741 0
-21806 20974 0
-21806 21742 0
21806 -20974 -21742 0
-21807 -20974 0
-21807 -21742 0
21807 20974 21742 0
-21808 -21806 0
-21808 -21807 0
21808 21806 21807 0
-21809 21739 0
-21809 21808 0
21809 -21739 -21808 0
-21810 -21739 0
-21810 -21808 0
21810 21739 21808 0
-21811 -21809 0
-21811 -21810 0
21811 21809 21810 0
-21866 21802 0
-21866 21811 0
21866 -21802 -21811 0
-21867 -21802 0
-21867 -21811 0
21867 21802 21811 0
-21868 -21866 0
-21868 -21867 0
21868 21866 21867 0
-21893 85 0
-21893 14032 0
21893 -85 -14032 0
-21894 -85 0
-21894 -14032 0
21894 85 14032 0
-21895 -21893 0
-21895 -21894 0
21895 21893 21894 0
-8984 11 0
-8984 8950 0
8984 -11 -8950 0
-8985 -11 0
-8985 -8950 0
8985 11 8950 0
-8986 -8984 0
-8986 -8985 0
8986 8984 8985 0
-21869 8 0
-21869 8986 0
21869 -8 -8986 0
-21870 -8 0
-21870 -8986 0
21870 8 8986 0
-21871 -21869 0
-21871 -21870 0
21871 21869 21870 0
-21878 10588 0
-21878 21871 0
21878 -10588 -21871 0
-21879 -10588 0
-21879 -21871 0
21879 10588 21871 0
-21880 -21878 0
-21880 -21879 0
21880 21878 21879 0
-21902 10594 0
-21902 21880 0
21902 -10594 -21880 0
-21903 -10594 0
-21903 -21880 0
21903 10594 21880 0
-21904 -21902 0
-21904 -21903 0
21904 21902 21903 0
-21935 21895 0
-21935 21904 0
21935 -21895 -21904 0
-21936 -21895 0
-21936 -21904 0
21936 21895 21904 0
-21937 -21935 0
-21937 -21936 0
21937 21935 21936 0
-22013 84 0
-22013 14380 0
22013 -84 -14380 0
-22014 -84 0
-22014 -14380 0
22014 84 14380 0
-22015 -22013 0
-22015 -22014 0
22015 22013 22014 0
-21941 8671 0
-21941 9148 0
21941 -8671 -9148 0
-21942 -8671 0
-21942 -9148 0
21942 8671 9148 0
-21943 -21941 0
-21943 -21942 0
21943 21941 21942 0
-21956 8935 0
-21956 15244 0
21956 -8935 -15244 0
-21957 -8935 0
-21957 -15244 0
21957 8935 15244 0
-21958 -21956 0
-21958 -21957 0
21958 21956 21957 0
-21959 21943 0
-21959 21958 0
21959 -21943 -21958 0
-21960 -21943 0
-21960 -21958 0
21960 21943 21958 0
-21961 -21959 0
-21961 -21960 0
21961 21959 21960 0
-22022 11902 0
-22022 21961 0
22022 -11902 -21961 0
-22023 -11902 0
-22023 -21961 0
22023 11902 21961 0
-22024 -22022 0
-22024 -22023 0
22024 22022 22023 0
-22037 22015 0
-22037 22024 0
22037 -22015 -22024 0
-22038 -22015 0
-22038 -22024 0
22038 22015 22024 0
-22039 -22037 0
-22039 -22038 0
22039 22037 22038 0
-10532 8 0
-10532 11 0
10532 -8 -11 0
-10533 -8 0
-10533 -11 0
10533 8 11 0
-10534 -10532 0
-10534 -10533 0
10534 10532 10533 0
-22049 8854 0
-22049 10534 0
22049 -8854 -10534 0
-22050 -8854 0
-22050 -10534 0
22050 8854 10534 0
-22051 -22049 0
-22051 -22050 0
22051 22049 22050 0
-22070 83 0
-22070 14722 0
22070 -83 -14722 0
-22071 -83 0
-22071 -14722 0
22071 83 14722 0
-22072 -22070 0
-22072 -22071 0
22072 22070 22071 0
-22073 22051 0
-22073 22072 0
22073 -22051 -22072 0
-22074 -22051 0
-22074 -22072 0
22074 22051 22072 0
-22075 -22073 0
-22075 -22074 0
22075 22073 22074 0
-22124 82 0
-22124 15025 0
22124 -82 -15025 0
-22125 -82 0
-22125 -15025 0
22125 82 15025 0
-22126 -22124 0
-22126 -22125 0
22126 22124 22125 0
-11378 10 0
-11378 8671 0
11378 -10 -8671 0
-11379 -10 0
-11379 -8671 0
11379 10 8671 0
-11380 -11378 0
-11380 -11379 0
11380 11378 11379 0
-22088 8527 0
-22088 19612 0
22088 -8527 -19612 0
-22089 -8527 0
-22089 -19612 0
22089 8527 19612 0
-22090 -22088 0
-22090 -22089 0
22090 22088 22089 0
-22091 11380 0
-22091 22090 0
22091 -11380 -22090 0
-22092 -11380 0
-22092 -22090 0
22092 11380 22090 0
-22093 -22091 0
-22093 -22092 0
22093 22091 22092 0
-22127 9034 0
-22127 22093 0
22127 -9034 -22093 0
-22128 -9034 0
-22128 -22093 0
22128 9034 22093 0
-22129 -22127 0
-22129 -22128 0
22129 22127 22128 0
-22148 22126 0
-22148 22129 0
22148 -22126 -22129 0
-22149 -22126 0
-22149 -22129 0
22149 22126 22129 0
-22150 -22148 0
-22150 -22149 0
22150 22148 22149 0
-22160 79 0
-22160 9271 0
22160 -79 -9271 0
-22161 -79 0
-22161 -9271 0
22161 79 9271 0
-22162 -22160 0
-22162 -22161 0
22162 22160 22161 0
-22154 9 0
-22154 11845 0
22154 -9 -11845 0
-22155 -9 0
-22155 -11845 0
22155 9 11845 0
-22156 -22154 0
-22156 -22155 0
22156 22154 22155 0
-22163 11896 0
-22163 22156 0
22163 -11896 -22156 0
-22164 -11896 0
-22164 -22156 0
22164 11896 22156 0
-22165 -22163 0
-22165 -22164 0
22165 22163 22164 0
-22166 11902 0
-22166 22165 0
22166 -11902 -22165 0
-22167 -11902 0
-22167 -22165 0
22167 11902 22165 0
-22168 -22166 0
-22168 -22167 0
22168 22166 22167 0
-22169 22162 0
-22169 22168 0
22169 -22162 -22168 0
-22170 -22162 0
-22170 -22168 0
22170 22162 22168 0
-22171 -22169 0
-22171 -22170 0
22171 22169 22170 0
-22181 78 0
-22181 10861 0
22181 -78 -10861 0
-22182 -78 0
-22182 -10861 0
22182 78 10861 0
-22183 -22181 0
-22183 -22182 0
22183 22181 22182 0
-22175 8 0
-22175 16543 0
22175 -8 -16543 0
-22176 -8 0
-22176 -16543 0
22176 8 16543 0
-22177 -22175 0
-22177 -22176 0
22177 22175 22176 0
-22184 11878 0
-22184 15244 0
22184 -11878 -15244 0
-22185 -11878 0
-22185 -15244 0
22185 11878 15244 0
-22186 -22184 0
-22186 -22185 0
22186 22184 22185 0
-22187 22177 0
-22187 22186 0
22187 -22177 -22186 0
-22188 -22177 0
-22188 -22186 0
22188 22177 22186 0
-22189 -22187 0
-22189 -22188 0
22189 22187 22188 0
-22211 11902 0
-22211 22189 0
22211 -11902 -22189 0
-22212 -11902 0
-22212 -22189 0
22212 11902 22189 0
-22213 -22211 0
-22213 -22212 0
22213 22211 22212 0
-22214 22183 0
-22214 22213 0
22214 -22183 -22213 0
-22215 -22183 0
-22215 -22213 0
22215 22183 22213 0
-22216 -22214 0
-22216 -22215 0
22216 22214 22215 0
-22232 69 0
-22232 73 0
22232 -69 -73 0
-22233 -69 0
-22233 -73 0
22233 69 73 0
-22234 -22232 0
-22234 -22233 0
22234 22232 22233 0
-22235 33 0
-22235 9724 0
22235 -33 -9724 0
-22236 -33 0
-22236 -9724 0
22236 33 9724 0
-22237 -22235 0
-22237 -22236 0
22237 22235 22236 0
-22238 14638 0
-22238 22237 0
22238 -14638 -22237 0
-22239 -14638 0
-22239 -22237 0
22239 14638 22237 0
-22240 -22238 0
-22240 -22239 0
22240 22238 22239 0
-22247 37 0
-22247 9499 0
22247 -37 -9499 0
-22248 -37 0
-22248 -9499 0
22248 37 9499 0
-22249 -22247 0
-22249 -22248 0
22249 22247 22248 0
-22250 22240 0
-22250 22249 0
22250 -22240 -22249 0
-22251 -22240 0
-22251 -22249 0
22251 22240 22249 0
-22252 -22250 0
-22252 -22251 0
22252 22250 22251 0
-22295 22234 0
-22295 22252 0
22295 -22234 -22252 0
-22296 -22234 0
-22296 -22252 0
22296 22234 22252 0
-22297 -22295 0
-22297 -22296 0
22297 22295 22296 0
-22304 68 0
-22304 72 0
22304 -68 -72 0
-22305 -68 0
-22305 -72 0
22305 68 72 0
-22306 -22304 0
-22306 -22305 0
22306 22304 22305 0
-22307 9373 0
-22307 10456 0
22307 -9373 -10456 0
-22308 -9373 0
-22308 -10456 0
22308 9373 10456 0
-22309 -22307 0
-22309 -22308 0
22309 22307 22308 0
-22313 36 0
-22313 9784 0
22313 -36 -9784 0
-22314 -36 0
-22314 -9784 0
22314 36 9784 0
-22315 -22313 0
-22315 -22314 0
22315 22313 22314 0
-22316 22309 0
-22316 22315 0
22316 -22309 -22315 0
-22317 -22309 0
-22317 -22315 0
22317 22309 22315 0
-22318 -22316 0
-22318 -22317 0
22318 22316 22317 0
-22352 22306 0
-22352 22318 0
22352 -22306 -22318 0
-22353 -22306 0
-22353 -22318 0
22353 22306 22318 0
-22354 -22352 0
-22354 -22353 0
22354 22352 22353 0
-22355 69 0
-22355 71 0
22355 -69 -71 0
-22356 -69 0
-22356 -71 0
22356 69 71 0
-22357 -22355 0
-22357 -22356 0
22357 22355 22356 0
-22241 19 0
-22241 33 0
22241 -19 -33 0
-22242 -19 0
-22242 -33 0
22242 19 33 0
-22243 -22241 0
-22243 -22242 0
22243 22241 22242 0
-22364 10096 0
-22364 22243 0
22364 -10096 -22243 0
-22365 -10096 0
-22365 -22243 0
22365 10096 22243 0
-22366 -22364 0
-22366 -22365 0
22366 22364 22365 0
-22370 35 0
-22370 10213 0
22370 -35 -10213 0
-22371 -35 0
-22371 -10213 0
22371 35 10213 0
-22372 -22370 0
-22372 -22371 0
22372 22370 22371 0
-22373 22366 0
-22373 22372 0
22373 -22366 -22372 0
-22374 -22366 0
-22374 -22372 0
22374 22366 22372 0
-22375 -22373 0
-22375 -22374 0
22375 22373 22374 0
-22409 22357 0
-22409 22375 0
22409 -22357 -22375 0
-22410 -22357 0
-22410 -22375 0
22410 22357 22375 0
-22411 -22409 0
-22411 -22410 0
22411 22409 22410 0
-22412 68 0
-22412 70 0
22412 -68 -70 0
-22413 -68 0
-22413 -70 0
22413 68 70 0
-22414 -22412 0
-22414 -22413 0
22414 22412 22413 0
-22418 10078 0
-22418 10456 0
22418 -10078 -10456 0
-22419 -10078 0
-22419 -10456 0
22419 10078 10456 0
-22420 -22418 0
-22420 -22419 0
22420 22418 22419 0
-22424 10477 0
-22424 22420 0
22424 -10477 -22420 0
-22425 -10477 0
-22425 -22420 0
22425 10477 22420 0
-22426 -22424 0
-22426 -22425 0
22426 22424 22425 0
-22448 22414 0
-22448 22426 0
22448 -22414 -22426 0
-22449 -22414 0
-22449 -22426 0
22449 22414 22426 0
-22450 -22448 0
-22450 -22449 0
22450 22448 22449 0
-22451 8 0
-22451 12451 0
22451 -8 -12451 0
-22452 -8 0
-22452 -12451 0
22452 8 12451 0
-22453 -22451 0
-22453 -22452 0
22453 22451 22452 0
-22454 27 0
-22454 31 0
22454 -27 -31 0
-22455 -27 0
-22455 -31 0
22455 27 31 0
-22456 -22454 0
-22456 -22455 0
22456 22454 22455 0
-22463 22453 0
-22463 22456 0
22463 -22453 -22456 0
-22464 -22453 0
-22464 -22456 0
22464 22453 22456 0
-22465 -22463 0
-22465 -22464 0
22465 22463 22464 0
-22478 63 0
-22478 15010 0
22478 -63 -15010 0
-22479 -63 0
-22479 -15010 0
22479 63 15010 0
-22480 -22478 0
-22480 -22479 0
22480 22478 22479 0
-22481 22465 0
-22481 22480 0
22481 -22465 -22480 0
-22482 -22465 0
-22482 -22480 0
22482 22465 22480 0
-22483 -22481 0
-22483 -22482 0
22483 22481 22482 0
-22511 67 0
-22511 22483 0
22511 -67 -22483 0
-22512 -67 0
-22512 -22483 0
22512 67 22483 0
-22513 -22511 0
-22513 -22512 0
22513 22511 22512 0
-11204 26 0
-11204 30 0
11204 -26 -30 0
-11205 -26 0
-11205 -30 0
11205 26 30 0
-11206 -11204 0
-11206 -11205 0
11206 11204 11205 0
-22520 11176 0
-22520 11206 0
22520 -11176 -11206 0
-22521 -11176 0
-22521 -11206 0
22521 11176 11206 0
-22522 -22520 0
-22522 -22521 0
22522 22520 22521 0
-22532 62 0
-22532 8506 0
22532 -62 -8506 0
-22533 -62 0
-22533 -8506 0
22533 62 8506 0
-22534 -22532 0
-22534 -22533 0
22534 22532 22533 0
-22535 22522 0
-22535 22534 0
22535 -22522 -22534 0
-22536 -22522 0
-22536 -22534 0
22536 22522 22534 0
-22537 -22535 0
-22537 -22536 0
22537 22535 22536 0
-22556 66 0
-22556 22537 0
22556 -66 -22537 0
-22557 -66 0
-22557 -22537 0
22557 66 22537 0
-22558 -22556 0
-22558 -22557 0
22558 22556 22557 0
-22562 8458 0
-22562 8671 0
22562 -8458 -8671 0
-22563 -8458 0
-22563 -8671 0
22563 8458 8671 0
-22564 -22562 0
-22564 -22563 0
22564 22562 22563 0
-22568 8473 0
-22568 22564 0
22568 -8473 -22564 0
-22569 -8473 0
-22569 -22564 0
22569 8473 22564 0
-22570 -22568 0
-22570 -22569 0
22570 22568 22569 0
-22559 63 0
-22559 65 0
22559 -63 -65 0
-22560 -63 0
-22560 -65 0
22560 63 65 0
-22561 -22559 0
-22561 -22560 0
22561 22559 22560 0
-22577 11419 0
-22577 22561 0
22577 -11419 -22561 0
-22578 -11419 0
-22578 -22561 0
22578 11419 22561 0
-22579 -22577 0
-22579 -22578 0
22579 22577 22578 0
-22580 22570 0
-22580 22579 0
22580 -22570 -22579 0
-22581 -22570 0
-22581 -22579 0
22581 22570 22579 0
-22582 -22580 0
-22582 -22581 0
22582 22580 22581 0
-22607 8671 0
-22607 11173 0
22607 -8671 -11173 0
-22608 -8671 0
-22608 -11173 0
22608 8671 11173 0
-22609 -22607 0
-22609 -22608 0
22609 22607 22608 0
-22613 8689 0
-22613 22609 0
22613 -8689 -22609 0
-22614 -8689 0
-22614 -22609 0
22614 8689 22609 0
-22615 -22613 0
-22615 -22614 0
22615 22613 22614 0
-22604 62 0
-22604 64 0
22604 -62 -64 0
-22605 -62 0
-22605 -64 0
22605 62 64 0
-22606 -22604 0
-22606 -22605 0
22606 22604 22605 0
-22625 11647 0
-22625 22606 0
22625 -11647 -22606 0
-22626 -11647 0
-22626 -22606 0
22626 11647 22606 0
-22627 -22625 0
-22627 -22626 0
22627 22625 22626 0
-22628 22615 0
-22628 22627 0
22628 -22615 -22627 0
-22629 -22615 0
-22629 -22627 0
22629 22615 22627 0
-22630 -22628 0
-22630 -22629 0
22630 22628 22629 0
-12173 21 0
-12173 25 0
12173 -21 -25 0
-12174 -21 0
-12174 -25 0
12174 21 25 0
-12175 -12173 0
-12175 -12174 0
12175 12173 12174 0
-22646 2 0
-22646 5 0
22646 -2 -5 0
-22647 -2 0
-22647 -5 0
22647 2 5 0
-22648 -22646 0
-22648 -22647 0
22648 22646 22647 0
-22652 12445 0
-22652 22648 0
22652 -12445 -22648 0
-22653 -12445 0
-22653 -22648 0
22653 12445 22648 0
-22654 -22652 0
-22654 -22653 0
22654 22652 22653 0
-22661 12175 0
-22661 22654 0
22661 -12175 -22654 0
-22662 -12175 0
-22662 -22654 0
22662 12175 22654 0
-22663 -22661 0
-22663 -22662 0
22663 22661 22662 0
-22655 8434 0
-22655 12142 0
22655 -8434 -12142 0
-22656 -8434 0
-22656 -12142 0
22656 8434 12142 0
-22657 -22655 0
-22657 -22656 0
22657 22655 22656 0
-22658 57 0
-22658 61 0
22658 -57 -61 0
-22659 -57 0
-22659 -61 0
22659 57 61 0
-22660 -22658 0
-22660 -22659 0
22660 22658 22659 0
-22676 22657 0
-22676 22660 0
22676 -22657 -22660 0
-22677 -22657 0
-22677 -22660 0
22677 22657 22660 0
-22678 -22676 0
-22678 -22677 0
22678 22676 22677 0
-22679 22663 0
-22679 22678 0
22679 -22663 -22678 0
-22680 -22663 0
-22680 -22678 0
22680 22663 22678 0
-22681 -22679 0
-22681 -22680 0
22681 22679 22680 0
-22703 4 0
-22703 5 0
22703 -4 -5 0
-22704 -4 0
-22704 -5 0
22704 4 5 0
-22705 -22703 0
-22705 -22704 0
22705 22703 22704 0
-22706 12445 0
-22706 22705 0
22706 -12445 -22705 0
-22707 -12445 0
-22707 -22705 0
22707 12445 22705 0
-22708 -22706 0
-22708 -22707 0
22708 22706 22707 0
-22709 20 0
-22709 24 0
22709 -20 -24 0
-22710 -20 0
-22710 -24 0
22710 20 24 0
-22711 -22709 0
-22711 -22710 0
22711 22709 22710 0
-22721 22708 0
-22721 22711 0
22721 -22708 -22711 0
-22722 -22708 0
-22722 -22711 0
22722 22708 22711 0
-22723 -22721 0
-22723 -22722 0
22723 22721 22722 0
-8486 8428 0
-8486 8434 0
8486 -8428 -8434 0
-8487 -8428 0
-8487 -8434 0
8487 8428 8434 0
-8488 -8486 0
-8488 -8487 0
8488 8486 8487 0
-22718 56 0
-22718 60 0
22718 -56 -60 0
-22719 -56 0
-22719 -60 0
22719 56 60 0
-22720 -22718 0
-22720 -22719 0
22720 22718 22719 0
-22733 8488 0
-22733 22720 0
22733 -8488 -22720 0
-22734 -8488 0
-22734 -22720 0
22734 8488 22720 0
-22735 -22733 0
-22735 -22734 0
22735 22733 22734 0
-22736 22723 0
-22736 22735 0
22736 -22723 -22735 0
-22737 -22723 0
-22737 -22735 0
22737 22723 22735 0
-22738 -22736 0
-22738 -22737 0
22738 22736 22737 0
-8462 21 0
-8462 23 0
8462 -21 -23 0
-8463 -21 0
-8463 -23 0
8463 21 23 0
-8464 -8462 0
-8464 -8463 0
8464 8462 8463 0
-22754 2 0
-22754 3 0
22754 -2 -3 0
-22755 -2 0
-22755 -3 0
22755 2 3 0
-22756 -22754 0
-22756 -22755 0
22756 22754 22755 0
-22757 4 0
-22757 22756 0
22757 -4 -22756 0
-22758 -4 0
-22758 -22756 0
22758 4 22756 0
-22759 -22757 0
-22759 -22758 0
22759 22757 22758 0
-22760 7 0
-22760 22759 0
22760 -7 -22759 0
-22761 -7 0
-22761 -22759 0
22761 7 22759 0
-22762 -22760 0
-22762 -22761 0
22762 22760 22761 0
-22775 8464 0
-22775 22762 0
22775 -8464 -22762 0
-22776 -8464 0
-22776 -22762 0
22776 8464 22762 0
-22777 -22775 0
-22777 -22776 0
22777 22775 22776 0
-22763 57 0
-22763 59 0
22763 -57 -59 0
-22764 -57 0
-22764 -59 0
22764 57 59 0
-22765 -22763 0
-22765 -22764 0
22765 22763 22764 0
-22769 43 0
-22769 12727 0
22769 -43 -12727 0
-22770 -43 0
-22770 -12727 0
22770 43 12727 0
-22771 -22769 0
-22771 -22770 0
22771 22769 22770 0
-22784 22765 0
-22784 22771 0
22784 -22765 -22771 0
-22785 -22765 0
-22785 -22771 0
22785 22765 22771 0
-22786 -22784 0
-22786 -22785 0
22786 22784 22785 0
-22787 22777 0
-22787 22786 0
22787 -22777 -22786 0
-22788 -22777 0
-22788 -22786 0
22788 22777 22786 0
-22789 -22787 0
-22789 -22788 0
22789 22787 22788 0
-22808 12445 0
-22808 22756 0
22808 -12445 -22756 0
-22809 -12445 0
-22809 -22756 0
22809 12445 22756 0
-22810 -22808 0
-22810 -22809 0
22810 22808 22809 0
-22823 8680 0
-22823 22810 0
22823 -8680 -22810 0
-22824 -8680 0
-22824 -22810 0
22824 8680 22810 0
-22825 -22823 0
-22825 -22824 0
22825 22823 22824 0
-22811 56 0
-22811 58 0
22811 -56 -58 0
-22812 -56 0
-22812 -58 0
22812 56 58 0
-22813 -22811 0
-22813 -22812 0
22813 22811 22812 0
-22817 8422 0
-22817 8434 0
22817 -8422 -8434 0
-22818 -8422 0
-22818 -8434 0
22818 8422 8434 0
-22819 -22817 0
-22819 -22818 0
22819 22817 22818 0
-22835 22813 0
-22835 22819 0
22835 -22813 -22819 0
-22836 -22813 0
-22836 -22819 0
22836 22813 22819 0
-22837 -22835 0
-22837 -22836 0
22837 22835 22836 0
-22838 22825 0
-22838 22837 0
22838 -22825 -22837 0
-22839 -22825 0
-22839 -22837 0
22839 22825 22837 0
-22840 -22838 0
-22840 -22839 0
22840 22838 22839 0
-22853 -22789 0
-22853 -22840 0
22853 22789 22840 0
-22854 -22738 0
-22854 22853 0
22854 22738 -22853 0
-22855 -22681 0
-22855 22854 0
22855 22681 -22854 0
-22856 -22630 0
-22856 22855 0
22856 22630 -22855 0
-22857 -22582 0
-22857 22856 0
22857 22582 -22856 0
-22858 -22558 0
-22858 22857 0
22858 22558 -22857 0
-22859 -22513 0
-22859 22858 0
22859 22513 -22858 0
-22860 -22450 0
-22860 22859 0
22860 22450 -22859 0
-22861 -22411 0
-22861 22860 0
22861 22411 -22860 0
-22862 -22354 0
-22862 22861 0
22862 22354 -22861 0
-22863 -22297 0
-22863 22862 0
22863 22297 -22862 0
-22864 -22216 0
-22864 22863 0
22864 22216 -22863 0
-22865 -22171 0
-22865 22864 0
22865 22171 -22864 0
-22866 -22150 0
-22866 22865 0
22866 22150 -22865 0
-22867 -22075 0
-22867 22866 0
22867 22075 -22866 0
-22868 -22039 0
-22868 22867 0
22868 22039 -22867 0
-22869 -21937 0
-22869 22868 0
22869 21937 -22868 0
-22870 -21868 0
-22870 22869 0
22870 21868 -22869 0
-22871 -21706 0
-22871 22870 0
22871 21706 -22870 0
-22872 -21583 0
-22872 22871 0
22872 21583 -22871 0
-22873 -21448 0
-22873 22872 0
22873 21448 -22872 0
-22874 -21253 0
-22874 22873 0
22874 21253 -22873 0
-22875 -21127 0
-22875 22874 0
22875 21127 -22874 0
-22876 -20950 0
-22876 22875 0
22876 20950 -22875 0
-22877 -20845 0
-22877 22876 0
22877 20845 -22876 0
-22878 -20761 0
-22878 22877 0
22878 20761 -22877 0
-22879 -20671 0
-22879 22878 0
22879 20671 -22878 0
-22880 -20482 0
-22880 22879 0
22880 20482 -22879 0
-22881 -20383 0
-22881 22880 0
22881 20383 -22880 0
-22882 -20152 0
-22882 22881 0
22882 20152 -22881 0
-22883 -20023 0
-22883 22882 0
22883 20023 -22882 0
-22884 -19819 0
-22884 22883 0
22884 19819 -22883 0
-22885 -19606 0
-22885 22884 0
22885 19606 -22884 0
-22886 -19288 0
-22886 22885 0
22886 19288 -22885 0
-22887 -19150 0
-22887 22886 0
22887 19150 -22886 0
-22888 -18838 0
-22888 22887 0
22888 18838 -22887 0
-22889 -18511 0
-22889 22888 0
22889 18511 -22888 0
-22890 -18220 0
-22890 22889 0
22890 18220 -22889 0
-22891 -17980 0
-22891 22890 0
22891 17980 -22890 0
-22892 -17719 0
-22892 22891 0
22892 17719 -22891 0
-22893 -17380 0
-22893 22892 0
22893 17380 -22892 0
-22894 -17101 0
-22894 22893 0
22894 17101 -22893 0
-22895 -16948 0
-22895 22894 0
22895 16948 -22894 0
-22896 -16732 0
-22896 22895 0
22896 16732 -22895 0
-22897 -16534 0
-22897 22896 0
22897 16534 -22896 0
-22898 -16294 0
-22898 22897 0
22898 16294 -22897 0
-22899 -16096 0
-22899 22898 0
22899 16096 -22898 0
-22900 -15718 0
-22900 22899 0
22900 15718 -22899 0
-22901 -15499 0
-22901 22900 0
22901 15499 -22900 0
-22902 -15238 0
-22902 22901 0
22902 15238 -22901 0
-22903 -14914 0
-22903 22902 0
22903 14914 -22902 0
-22904 -14632 0
-22904 22903 0
22904 14632 -22903 0
-22905 -14278 0
-22905 22904 0
22905 14278 -22904 0
-22906 -13867 0
-22906 22905 0
22906 13867 -22905 0
-22907 -13600 0
-22907 22906 0
22907 13600 -22906 0
-22908 -13405 0
-22908 22907 0
22908 13405 -22907 0
-22909 -13018 0
-22909 22908 0
22909 13018 -22908 0
-22910 -12709 0
-22910 22909 0
22910 12709 -22909 0
-22911 -12442 0
-22911 22910 0
22911 12442 -22910 0
-22912 -12133 0
-22912 22911 0
22912 12133 -22911 0
-22913 -12022 0
-22913 22912 0
22913 12022 -22912 0
-22914 11830 0
-22914 22913 0
22914 -11830 -22913 0
-22915 11602 0
-22915 22914 0
22915 -11602 -22914 0
-22916 11371 0
-22916 22915 0
22916 -11371 -22915 0
-22917 11170 0
-22917 22916 0
22917 -11170 -22916 0
-22918 10828 0
-22918 22917 0
22918 -10828 -22917 0
-22919 10705 0
-22919 22918 0
22919 -10705 -22918 0
-22920 10522 0
-22920 22919 0
22920 -10522 -22919 0
-22921 10408 0
-22921 22920 0
22921 -10408 -22920 0
-22922 10075 0
-22922 22921 0
22922 -10075 -22921 0
-22923 9718 0
-22923 22922 0
22923 -9718 -22922 0
-22924 9370 0
-22924 22923 0
22924 -9370 -22923 0
-22925 9250 0
-22925 22924 0
22925 -9250 -22924 0
-22926 9127 0
-22926 22925 0
22926 -9127 -22925 0
-22927 8929 0
-22927 22926 0
22927 -8929 -22926 0
-22928 8788 0
-22928 22927 0
22928 -8788 -22927 0
-22929 8668 0
-22929 22928 0
22929 -8668 -22928 0
-22930 8416 0
-22930 -22929 0
22930 -8416 22929 0
-22965 -225 0
-22965 233 0
22965 225 -233 0
-22960 -224 0
-22960 232 0
22960 224 -232 0
-22955 -223 0
-22955 231 0
22955 223 -231 0
-22950 -222 0
-22950 230 0
22950 222 -230 0
-22945 -221 0
-22945 229 0
22945 221 -229 0
-22940 -220 0
-22940 228 0
22940 220 -228 0
-22935 -219 0
-22935 227 0
22935 219 -227 0
-22931 -218 0
-22931 226 0
22931 218 -226 0
-22932 218 0
-22932 -226 0
22932 -218 226 0
-22933 -22931 0
-22933 -22932 0
22933 22931 22932 0
-22934 -22931 0
-22934 -22933 0
22934 22931 22933 0
-22936 219 0
-22936 -227 0
22936 -219 227 0
-22937 -22935 0
-22937 -22936 0
22937 22935 22936 0
-22938 -22934 0
-22938 22937 0
22938 22934 -22937 0
-22939 -22935 0
-22939 -22938 0
22939 22935 22938 0
-22941 220 0
-22941 -228 0
22941 -220 228 0
-22942 -22940 0
-22942 -22941 0
22942 22940 22941 0
-22943 -22939 0
-22943 22942 0
22943 22939 -22942 0
-22944 -22940 0
-22944 -22943 0
22944 22940 22943 0
-22946 221 0
-22946 -229 0
22946 -221 229 0
-22947 -22945 0
-22947 -22946 0
22947 22945 22946 0
-22948 -22944 0
-22948 22947 0
22948 22944 -22947 0
-22949 -22945 0
-22949 -22948 0
22949 22945 22948 0
-22951 222 0
-22951 -230 0
22951 -222 230 0
-22952 -22950 0
-22952 -22951 0
22952 22950 22951 0
-22953 -22949 0
-22953 22952 0
22953 22949 -22952 0
-22954 -22950 0
-22954 -22953 0
22954 22950 22953 0
-22956 223 0
-22956 -231 0
22956 -223 231 0
-22957 -22955 0
-22957 -22956 0
22957 22955 22956 0
-22958 -22954 0
-22958 22957 0
22958 22954 -22957 0
-22959 -22955 0
-22959 -22958 0
22959 22955 22958 0
-22961 224 0
-22961 -232 0
22961 -224 232 0
-22962 -22960 0
-22962 -22961 0
22962 22960 22961 0
-22963 -22959 0
-22963 22962 0
22963 22959 -22962 0
-22964 -22960 0
-22964 -22963 0
22964 22960 22963 0
-22966 225 0
-22966 -233 0
22966 -225 233 0
-22967 -22965 0
-22967 -22966 0
22967 22965 22966 0
-22968 -22964 0
-22968 22967 0
22968 22964 -22967 0
-22969 -22965 0
-22969 -22968 0
22969 22965 22968 0
-22970 22930 0
-22970 -22969 0
22970 -22930 22969 0
-23005 -217 0
-23005 225 0
23005 217 -225 0
-23000 -216 0
-23000 224 0
23000 216 -224 0
-22995 -215 0
-22995 223 0
22995 215 -223 0
-22990 -214 0
-22990 222 0
22990 214 -222 0
-22985 -213 0
-22985 221 0
22985 213 -221 0
-22980 -212 0
-22980 220 0
22980 212 -220 0
-22975 -211 0
-22975 219 0
22975 211 -219 0
-22971 -210 0
-22971 218 0
22971 210 -218 0
-22972 210 0
-22972 -218 0
22972 -210 218 0
-22973 -22971 0
-22973 -22972 0
22973 22971 22972 0
-22974 -22971 0
-22974 -22973 0
22974 22971 22973 0
-22976 211 0
-22976 -219 0
22976 -211 219 0
-22977 -22975 0
-22977 -22976 0
22977 22975 22976 0
-22978 -22974 0
-22978 22977 0
22978 22974 -22977 0
-22979 -22975 0
-22979 -22978 0
22979 22975 22978 0
-22981 212 0
-22981 -220 0
22981 -212 220 0
-22982 -22980 0
-22982 -22981 0
22982 22980 22981 0
-22983 -22979 0
-22983 22982 0
22983 22979 -22982 0
-22984 -22980 0
-22984 -22983 0
22984 22980 22983 0
-22986 213 0
-22986 -221 0
22986 -213 221 0
-22987 -22985 0
-22987 -22986 0
22987 22985 22986 0
-22988 -22984 0
-22988 22987 0
22988 22984 -22987 0
-22989 -22985 0
-22989 -22988 0
22989 22985 22988 0
-22991 214 0
-22991 -222 0
22991 -214 222 0
-22992 -22990 0
-22992 -22991 0
22992 22990 22991 0
-22993 -22989 0
-22993 22992 0
22993 22989 -22992 0
-22994 -22990 0
-22994 -22993 0
22994 22990 22993 0
-22996 215 0
-22996 -223 0
22996 -215 223 0
-22997 -22995 0
-22997 -22996 0
22997 22995 22996 0
-22998 -22994 0
-22998 22997 0
22998 22994 -22997 0
-22999 -22995 0
-22999 -22998 0
22999 22995 22998 0
-23001 216 0
-23001 -224 0
23001 -216 224 0
-23002 -23000 0
-23002 -23001 0
23002 23000 23001 0
-23003 -22999 0
-23003 23002 0
23003 22999 -23002 0
-23004 -23000 0
-23004 -23003 0
23004 23000 23003 0
-23006 217 0
-23006 -225 0
23006 -217 225 0
-23007 -23005 0
-23007 -23006 0
23007 23005 23006 0
-23008 -23004 0
-23008 23007 0
23008 23004 -23007 0
-23009 -23005 0
-23009 -23008 0
23009 23005 23008 0
-23010 22970 0
-23010 -23009 0
23010 -22970 23009 0
-23045 -209 0
-23045 217 0
23045 209 -217 0
-23040 -208 0
-23040 216 0
23040 208 -216 0
-23035 -207 0
-23035 215 0
23035 207 -215 0
-23030 -206 0
-23030 214 0
23030 206 -214 0
-23025 -205 0
-23025 213 0
23025 205 -213 0
-23020 -204 0
-23020 212 0
23020 204 -212 0
-23015 -203 0
-23015 211 0
23015 203 -211 0
-23011 -202 0
-23011 210 0
23011 202 -210 0
-23012 202 0
-23012 -210 0
23012 -202 210 0
-23013 -23011 0
-23013 -23012 0
23013 23011 23012 0
-23014 -23011 0
-23014 -23013 0
23014 23011 23013 0
-23016 203 0
-23016 -211 0
23016 -203 211 0
-23017 -23015 0
-23017 -23016 0
23017 23015 23016 0
-23018 -23014 0
-23018 23017 0
23018 23014 -23017 0
-23019 -23015 0
-23019 -23018 0
23019 23015 23018 0
-23021 204 0
-23021 -212 0
23021 -204 212 0
-23022 -23020 0
-23022 -23021 0
23022 23020 23021 0
-23023 -23019 0
-23023 23022 0
23023 23019 -23022 0
-23024 -23020 0
-23024 -23023 0
23024 23020 23023 0
-23026 205 0
-23026 -213 0
23026 -205 213 0
-23027 -23025 0
-23027 -23026 0
23027 23025 23026 0
-23028 -23024 0
-23028 23027 0
23028 23024 -23027 0
-23029 -23025 0
-23029 -23028 0
23029 23025 23028 0
-23031 206 0
-23031 -214 0
23031 -206 214 0
-23032 -23030 0
-23032 -23031 0
23032 23030 23031 0
-23033 -23029 0
-23033 23032 0
23033 23029 -23032 0
-23034 -23030 0
-23034 -23033 0
23034 23030 23033 0
-23036 207 0
-23036 -215 0
23036 -207 215 0
-23037 -23035 0
-23037 -23036 0
23037 23035 23036 0
-23038 -23034 0
-23038 23037 0
23038 23034 -23037 0
-23039 -23035 0
-23039 -23038 0
23039 23035 23038 0
-23041 208 0
-23041 -216 0
23041 -208 216 0
-23042 -23040 0
-23042 -23041 0
23042 23040 23041 0
-23043 -23039 0
-23043 23042 0
23043 23039 -23042 0
-23044 -23040 0
-23044 -23043 0
23044 23040 23043 0
-23046 209 0
-23046 -217 0
23046 -209 217 0
-23047 -23045 0
-23047 -23046 0
23047 23045 23046 0
-23048 -23044 0
-23048 23047 0
23048 23044 -23047 0
-23049 -23045 0
-23049 -23048 0
23049 23045 23048 0
-23050 23010 0
-23050 -23049 0
23050 -23010 23049 0
-23085 -201 0
-23085 209 0
23085 201 -209 0
-23080 -200 0
-23080 208 0
23080 200 -208 0
-23075 -199 0
-23075 207 0
23075 199 -207 0
-23070 -198 0
-23070 206 0
23070 198 -206 0
-23065 -197 0
-23065 205 0
23065 197 -205 0
-23060 -196 0
-23060 204 0
23060 196 -204 0
-23055 -195 0
-23055 203 0
23055 195 -203 0
-23051 -194 0
-23051 202 0
23051 194 -202 0
-23052 194 0
-23052 -202 0
23052 -194 202 0
-23053 -23051 0
-23053 -23052 0
23053 23051 23052 0
-23054 -23051 0
-23054 -23053 0
23054 23051 23053 0
-23056 195 0
-23056 -203 0
23056 -195 203 0
-23057 -23055 0
-23057 -23056 0
23057 23055 23056 0
-23058 -23054 0
-23058 23057 0
23058 23054 -23057 0
-23059 -23055 0
-23059 -23058 0
23059 23055 23058 0
-23061 196 0
-23061 -204 0
23061 -196 204 0
-23062 -23060 0
-23062 -23061 0
23062 23060 23061 0
-23063 -23059 0
-23063 23062 0
23063 23059 -23062 0
-23064 -23060 0
-23064 -23063 0
23064 23060 23063 0
-23066 197 0
-23066 -205 0
23066 -197 205 0
-23067 -23065 0
-23067 -23066 0
23067 23065 23066 0
-23068 -23064 0
-23068 23067 0
23068 23064 -23067 0
-23069 -23065 0
-23069 -23068 0
23069 23065 23068 0
-23071 198 0
-23071 -206 0
23071 -198 206 0
-23072 -23070 0
-23072 -23071 0
23072 23070 23071 0
-23073 -23069 0
-23073 23072 0
23073 23069 -23072 0
-23074 -23070 0
-23074 -23073 0
23074 23070 23073 0
-23076 199 0
-23076 -207 0
23076 -199 207 0
-23077 -23075 0
-23077 -23076 0
23077 23075 23076 0
-23078 -23074 0
-23078 23077 0
23078 23074 -23077 0
-23079 -23075 0
-23079 -23078 0
23079 23075 23078 0
-23081 200 0
-23081 -208 0
23081 -200 208 0
-23082 -23080 0
-23082 -23081 0
23082 23080 23081 0
-23083 -23079 0
-23083 23082 0
23083 23079 -23082 0
-23084 -23080 0
-23084 -23083 0
23084 23080 23083 0
-23086 201 0
-23086 -209 0
23086 -201 209 0
-23087 -23085 0
-23087 -23086 0
23087 23085 23086 0
-23088 -23084 0
-23088 23087 0
23088 23084 -23087 0
-23089 -23085 0
-23089 -23088 0
23089 23085 23088 0
-23090 23050 0
-23090 -23089 0
23090 -23050 23089 0
-23125 -193 0
-23125 201 0
23125 193 -201 0
-23120 -192 0
-23120 200 0
23120 192 -200 0
-23115 -191 0
-23115 199 0
23115 191 -199 0
-23110 -190 0
-23110 198 0
23110 190 -198 0
-23105 -189 0
-23105 197 0
23105 189 -197 0
-23100 -188 0
-23100 196 0
23100 188 -196 0
-23095 -187 0
-23095 195 0
23095 187 -195 0
-23091 -186 0
-23091 194 0
23091 186 -194 0
-23092 186 0
-23092 -194 0
23092 -186 194 0
-23093 -23091 0
-23093 -23092 0
23093 23091 23092 0
-23094 -23091 0
-23094 -23093 0
23094 23091 23093 0
-23096 187 0
-23096 -195 0
23096 -187 195 0
-23097 -23095 0
-23097 -23096 0
23097 23095 23096 0
-23098 -23094 0
-23098 23097 0
23098 23094 -23097 0
-23099 -23095 0
-23099 -23098 0
23099 23095 23098 0
-23101 188 0
-23101 -196 0
23101 -188 196 0
-23102 -23100 0
-23102 -23101 0
23102 23100 23101 0
-23103 -23099 0
-23103 23102 0
23103 23099 -23102 0
-23104 -23100 0
-23104 -23103 0
23104 23100 23103 0
-23106 189 0
-23106 -197 0
23106 -189 197 0
-23107 -23105 0
-23107 -23106 0
23107 23105 23106 0
-23108 -23104 0
-23108 23107 0
23108 23104 -23107 0
-23109 -23105 0
-23109 -23108 0
23109 23105 23108 0
-23111 190 0
-23111 -198 0
23111 -190 198 0
-23112 -23110 0
-23112 -23111 0
23112 23110 23111 0
-23113 -23109 0
-23113 23112 0
23113 23109 -23112 0
-23114 -23110 0
-23114 -23113 0
23114 23110 23113 0
-23116 191 0
-23116 -199 0
23116 -191 199 0
-23117 -23115 0
-23117 -23116 0
23117 23115 23116 0
-23118 -23114 0
-23118 23117 0
23118 23114 -23117 0
-23119 -23115 0
-23119 -23118 0
23119 23115 23118 0
-23121 192 0
-23121 -200 0
23121 -192 200 0
-23122 -23120 0
-23122 -23121 0
23122 23120 23121 0
-23123 -23119 0
-23123 23122 0
23123 23119 -23122 0
-23124 -23120 0
-23124 -23123 0
23124 23120 23123 0
-23126 193 0
-23126 -201 0
23126 -193 201 0
-23127 -23125 0
-23127 -23126 0
23127 23125 23126 0
-23128 -23124 0
-23128 23127 0
23128 23124 -23127 0
-23129 -23125 0
-23129 -23128 0
23129 23125 23128 0
-23130 23090 0
-23130 -23129 0
23130 -23090 23129 0
-23165 -185 0
-23165 193 0
23165 185 -193 0
-23160 -184 0
-23160 192 0
23160 184 -192 0
-23155 -183 0
-23155 191 0
23155 183 -191 0
-23150 -182 0
-23150 190 0
23150 182 -190 0
-23145 -181 0
-23145 189 0
23145 181 -189 0
-23140 -180 0
-23140 188 0
23140 180 -188 0
-23135 -179 0
-23135 187 0
23135 179 -187 0
-23131 -178 0
-23131 186 0
23131 178 -186 0
-23132 178 0
-23132 -186 0
23132 -178 186 0
-23133 -23131 0
-23133 -23132 0
23133 23131 23132 0
-23134 -23131 0
-23134 -23133 0
23134 23131 23133 0
-23136 179 0
-23136 -187 0
23136 -179 187 0
-23137 -23135 0
-23137 -23136 0
23137 23135 23136 0
-23138 -23134 0
-23138 23137 0
23138 23134 -23137 0
-23139 -23135 0
-23139 -23138 0
23139 23135 23138 0
-23141 180 0
-23141 -188 0
23141 -180 188 0
-23142 -23140 0
-23142 -23141 0
23142 23140 23141 0
-23143 -23139 0
-23143 23142 0
23143 23139 -23142 0
-23144 -23140 0
-23144 -23143 0
23144 23140 23143 0
-23146 181 0
-23146 -189 0
23146 -181 189 0
-23147 -23145 0
-23147 -23146 0
23147 23145 23146 0
-23148 -23144 0
-23148 23147 0
23148 23144 -23147 0
-23149 -23145 0
-23149 -23148 0
23149 23145 23148 0
-23151 182 0
-23151 -190 0
23151 -182 190 0
-23152 -23150 0
-23152 -23151 0
23152 23150 23151 0
-23153 -23149 0
-23153 23152 0
23153 23149 -23152 0
-23154 -23150 0
-23154 -23153 0
23154 23150 23153 0
-23156 183 0
-23156 -191 0
23156 -183 191 0
-23157 -23155 0
-23157 -23156 0
23157 23155 23156 0
-23158 -23154 0
-23158 23157 0
23158 23154 -23157 0
-23159 -23155 0
-23159 -23158 0
23159 23155 23158 0
-23161 184 0
-23161 -192 0
23161 -184 192 0
-23162 -23160 0
-23162 -23161 0
23162 23160 23161 0
-23163 -23159 0
-23163 23162 0
23163 23159 -23162 0
-23164 -23160 0
-23164 -23163 0
23164 23160 23163 0
-23166 185 0
-23166 -193 0
23166 -185 193 0
-23167 -23165 0
-23167 -23166 0
23167 23165 23166 0
-23168 -23164 0
-23168 23167 0
23168 23164 -23167 0
-23169 -23165 0
-23169 -23168 0
23169 23165 23168 0
-23170 23130 0
-23170 -23169 0
23170 -23130 23169 0
-23205 -177 0
-23205 185 0
23205 177 -185 0
-23200 -176 0
-23200 184 0
23200 176 -184 0
-23195 -175 0
-23195 183 0
23195 175 -183 0
-23190 -174 0
-23190 182 0
23190 174 -182 0
-23185 -173 0
-23185 181 0
23185 173 -181 0
-23180 -172 0
-23180 180 0
23180 172 -180 0
-23175 -171 0
-23175 179 0
23175 171 -179 0
-23171 -170 0
-23171 178 0
23171 170 -178 0
-23172 170 0
-23172 -178 0
23172 -170 178 0
-23173 -23171 0
-23173 -23172 0
23173 23171 23172 0
-23174 -23171 0
-23174 -23173 0
23174 23171 23173 0
-23176 171 0
-23176 -179 0
23176 -171 179 0
-23177 -23175 0
-23177 -23176 0
23177 23175 23176 0
-23178 -23174 0
-23178 23177 0
23178 23174 -23177 0
-23179 -23175 0
-23179 -23178 0
23179 23175 23178 0
-23181 172 0
-23181 -180 0
23181 -172 180 0
-23182 -23180 0
-23182 -23181 0
23182 23180 23181 0
-23183 -23179 0
-23183 23182 0
23183 23179 -23182 0
-23184 -23180 0
-23184 -23183 0
23184 23180 23183 0
-23186 173 0
-23186 -181 0
23186 -173 181 0
-23187 -23185 0
-23187 -23186 0
23187 23185 23186 0
-23188 -23184 0
-23188 23187 0
23188 23184 -23187 0
-23189 -23185 0
-23189 -23188 0
23189 23185 23188 0
-23191 174 0
-23191 -182 0
23191 -174 182 0
-23192 -23190 0
-23192 -23191 0
23192 23190 23191 0
-23193 -23189 0
-23193 23192 0
23193 23189 -23192 0
-23194 -23190 0
-23194 -23193 0
23194 23190 23193 0
-23196 175 0
-23196 -183 0
23196 -175 183 0
-23197 -23195 0
-23197 -23196 0
23197 23195 23196 0
-23198 -23194 0
-23198 23197 0
23198 23194 -23197 0
-23199 -23195 0
-23199 -23198 0
23199 23195 23198 0
-23201 176 0
-23201 -184 0
23201 -176 184 0
-23202 -23200 0
-23202 -23201 0
23202 23200 23201 0
-23203 -23199 0
-23203 23202 0
23203 23199 -23202 0
-23204 -23200 0
-23204 -23203 0
23204 23200 23203 0
-23206 177 0
-23206 -185 0
23206 -177 185 0
-23207 -23205 0
-23207 -23206 0
23207 23205 23206 0
-23208 -23204 0
-23208 23207 0
23208 23204 -23207 0
-23209 -23205 0
-23209 -23208 0
23209 23205 23208 0
-23210 23170 0
-23210 -23209 0
23210 -23170 23209 0
-23245 -169 0
-23245 177 0
23245 169 -177 0
-23240 -168 0
-23240 176 0
23240 168 -176 0
-23235 -167 0
-23235 175 0
23235 167 -175 0
-23230 -166 0
-23230 174 0
23230 166 -174 0
-23225 -165 0
-23225 173 0
23225 165 -173 0
-23220 -164 0
-23220 172 0
23220 164 -172 0
-23215 -163 0
-23215 171 0
23215 163 -171 0
-23211 -162 0
-23211 170 0
23211 162 -170 0
-23212 162 0
-23212 -170 0
23212 -162 170 0
-23213 -23211 0
-23213 -23212 0
23213 23211 23212 0
-23214 -23211 0
-23214 -23213 0
23214 23211 23213 0
-23216 163 0
-23216 -171 0
23216 -163 171 0
-23217 -23215 0
-23217 -23216 0
23217 23215 23216 0
-23218 -23214 0
-23218 23217 0
23218 23214 -23217 0
-23219 -23215 0
-23219 -23218 0
23219 23215 23218 0
-23221 164 0
-23221 -172 0
23221 -164 172 0
-23222 -23220 0
-23222 -23221 0
23222 23220 23221 0
-23223 -23219 0
-23223 23222 0
23223 23219 -23222 0
-23224 -23220 0
-23224 -23223 0
23224 23220 23223 0
-23226 165 0
-23226 -173 0
23226 -165 173 0
-23227 -23225 0
-23227 -23226 0
23227 23225 23226 0
-23228 -23224 0
-23228 23227 0
23228 23224 -23227 0
-23229 -23225 0
-23229 -23228 0
23229 23225 23228 0
-23231 166 0
-23231 -174 0
23231 -166 174 0
-23232 -23230 0
-23232 -23231 0
23232 23230 23231 0
-23233 -23229 0
-23233 23232 0
23233 23229 -23232 0
-23234 -23230 0
-23234 -23233 0
23234 23230 23233 0
-23236 167 0
-23236 -175 0
23236 -167 175 0
-23237 -23235 0
-23237 -23236 0
23237 23235 23236 0
-23238 -23234 0
-23238 23237 0
23238 23234 -23237 0
-23239 -23235 0
-23239 -23238 0
23239 23235 23238 0
-23241 168 0
-23241 -176 0
23241 -168 176 0
-23242 -23240 0
-23242 -23241 0
23242 23240 23241 0
-23243 -23239 0
-23243 23242 0
23243 23239 -23242 0
-23244 -23240 0
-23244 -23243 0
23244 23240 23243 0
-23246 169 0
-23246 -177 0
23246 -169 177 0
-23247 -23245 0
-23247 -23246 0
23247 23245 23246 0
-23248 -23244 0
-23248 23247 0
23248 23244 -23247 0
-23249 -23245 0
-23249 -23248 0
23249 23245 23248 0
-23250 23210 0
-23250 -23249 0
23250 -23210 23249 0
-23285 -161 0
-23285 169 0
23285 161 -169 0
-23280 -160 0
-23280 168 0
23280 160 -168 0
-23275 -159 0
-23275 167 0
23275 159 -167 0
-23270 -158 0
-23270 166 0
23270 158 -166 0
-23265 -157 0
-23265 165 0
23265 157 -165 0
-23260 -156 0
-23260 164 0
23260 156 -164 0
-23255 -155 0
-23255 163 0
23255 155 -163 0
-23251 -154 0
-23251 162 0
23251 154 -162 0
-23252 154 0
-23252 -162 0
23252 -154 162 0
-23253 -23251 0
-23253 -23252 0
23253 23251 23252 0
-23254 -23251 0
-23254 -23253 0
23254 23251 23253 0
-23256 155 0
-23256 -163 0
23256 -155 163 0
-23257 -23255 0
-23257 -23256 0
23257 23255 23256 0
-23258 -23254 0
-23258 23257 0
23258 23254 -23257 0
-23259 -23255 0
-23259 -23258 0
23259 23255 23258 0
-23261 156 0
-23261 -164 0
23261 -156 164 0
-23262 -23260 0
-23262 -23261 0
23262 23260 23261 0
-23263 -23259 0
-23263 23262 0
23263 23259 -23262 0
-23264 -23260 0
-23264 -23263 0
23264 23260 23263 0
-23266 157 0
-23266 -165 0
23266 -157 165 0
-23267 -23265 0
-23267 -23266 0
23267 23265 23266 0
-23268 -23264 0
-23268 23267 0
23268 23264 -23267 0
-23269 -23265 0
-23269 -23268 0
23269 23265 23268 0
-23271 158 0
-23271 -166 0
23271 -158 166 0
-23272 -23270 0
-23272 -23271 0
23272 23270 23271 0
-23273 -23269 0
-23273 23272 0
23273 23269 -23272 0
-23274 -23270 0
-23274 -23273 0
23274 23270 23273 0
-23276 159 0
-23276 -167 0
23276 -159 167 0
-23277 -23275 0
-23277 -23276 0
23277 23275 23276 0
-23278 -23274 0
-23278 23277 0
23278 23274 -23277 0
-23279 -23275 0
-23279 -23278 0
23279 23275 23278 0
-23281 160 0
-23281 -168 0
23281 -160 168 0
-23282 -23280 0
-23282 -23281 0
23282 23280 23281 0
-23283 -23279 0
-23283 23282 0
23283 23279 -23282 0
-23284 -23280 0
-23284 -23283 0
23284 23280 23283 0
-23286 161 0
-23286 -169 0
23286 -161 169 0
-23287 -23285 0
-23287 -23286 0
23287 23285 23286 0
-23288 -23284 0
-23288 23287 0
23288 23284 -23287 0
-23289 -23285 0
-23289 -23288 0
23289 23285 23288 0
-23290 23250 0
-23290 -23289 0
23290 -23250 23289 0
-23325 -153 0
-23325 161 0
23325 153 -161 0
-23320 -152 0
-23320 160 0
23320 152 -160 0
-23315 -151 0
-23315 159 0
23315 151 -159 0
-23310 -150 0
-23310 158 0
23310 150 -158 0
-23305 -149 0
-23305 157 0
23305 149 -157 0
-23300 -148 0
-23300 156 0
23300 148 -156 0
-23295 -147 0
-23295 155 0
23295 147 -155 0
-23291 -146 0
-23291 154 0
23291 146 -154 0
-23292 146 0
-23292 -154 0
23292 -146 154 0
-23293 -23291 0
-23293 -23292 0
23293 23291 23292 0
-23294 -23291 0
-23294 -23293 0
23294 23291 23293 0
-23296 147 0
-23296 -155 0
23296 -147 155 0
-23297 -23295 0
-23297 -23296 0
23297 23295 23296 0
-23298 -23294 0
-23298 23297 0
23298 23294 -23297 0
-23299 -23295 0
-23299 -23298 0
23299 23295 23298 0
-23301 148 0
-23301 -156 0
23301 -148 156 0
-23302 -23300 0
-23302 -23301 0
23302 23300 23301 0
-23303 -23299 0
-23303 23302 0
23303 23299 -23302 0
-23304 -23300 0
-23304 -23303 0
23304 23300 23303 0
-23306 149 0
-23306 -157 0
23306 -149 157 0
-23307 -23305 0
-23307 -23306 0
23307 23305 23306 0
-23308 -23304 0
-23308 23307 0
23308 23304 -23307 0
-23309 -23305 0
-23309 -23308 0
23309 23305 23308 0
-23311 150 0
-23311 -158 0
23311 -150 158 0
-23312 -23310 0
-23312 -23311 0
23312 23310 23311 0
-23313 -23309 0
-23313 23312 0
23313 23309 -23312 0
-23314 -23310 0
-23314 -23313 0
23314 23310 23313 0
-23316 151 0
-23316 -159 0
23316 -151 159 0
-23317 -23315 0
-23317 -23316 0
23317 23315 23316 0
-23318 -23314 0
-23318 23317 0
23318 23314 -23317 0
-23319 -23315 0
-23319 -23318 0
23319 23315 23318 0
-23321 152 0
-23321 -160 0
23321 -152 160 0
-23322 -23320 0
-23322 -23321 0
23322 23320 23321 0
-23323 -23319 0
-23323 23322 0
23323 23319 -23322 0
-23324 -23320 0
-23324 -23323 0
23324 23320 23323 0
-23326 153 0
-23326 -161 0
23326 -153 161 0
-23327 -23325 0
-23327 -23326 0
23327 23325 23326 0
-23328 -23324 0
-23328 23327 0
23328 23324 -23327 0
-23329 -23325 0
-23329 -23328 0
23329 23325 23328 0
-23330 23290 0
-23330 -23329 0
23330 -23290 23329 0
23330 0
