p cnf 2450 6108
7 -2146 0
-7 2146 0
2110 -2448 0
-2110 2448 0
-2113 -7 0
-2113 2110 0
2113 7 -2110 0
-2111 7 0
-2111 -2110 0
2111 -7 2110 0
13 -2152 0
-13 2152 0
1051 -2371 0
-1051 2371 0
-1054 -13 0
-1054 1051 0
1054 13 -1051 0
-1052 13 0
-1052 -1051 0
1052 -13 1051 0
9 -2148 0
-9 2148 0
1119 -2379 0
-1119 2379 0
-1122 -9 0
-1122 1119 0
1122 9 -1119 0
-1120 9 0
-1120 -1119 0
1120 -9 1119 0
10 -2149 0
-10 2149 0
1102 -2377 0
-1102 2377 0
-1105 -10 0
-1105 1102 0
1105 10 -1102 0
-1103 10 0
-1103 -1102 0
1103 -10 1102 0
11 -2150 0
-11 2150 0
1085 -2375 0
-1085 2375 0
-1088 -11 0
-1088 1085 0
1088 11 -1085 0
-1086 11 0
-1086 -1085 0
1086 -11 1085 0
12 -2151 0
-12 2151 0
1068 -2373 0
-1068 2373 0
-1071 -12 0
-1071 1068 0
1071 12 -1068 0
-1069 12 0
-1069 -1068 0
1069 -12 1068 0
19 -2158 0
-19 2158 0
949 -2359 0
-949 2359 0
-952 -19 0
-952 949 0
952 19 -949 0
-950 19 0
-950 -949 0
950 -19 949 0
15 -2154 0
-15 2154 0
1017 -2367 0
-1017 2367 0
-1020 -15 0
-1020 1017 0
1020 15 -1017 0
-1018 15 0
-1018 -1017 0
1018 -15 1017 0
16 -2155 0
-16 2155 0
1000 -2365 0
-1000 2365 0
-1003 -16 0
-1003 1000 0
1003 16 -1000 0
-1001 16 0
-1001 -1000 0
1001 -16 1000 0
17 -2156 0
-17 2156 0
983 -2363 0
-983 2363 0
-986 -17 0
-986 983 0
986 17 -983 0
-984 17 0
-984 -983 0
984 -17 983 0
18 -2157 0
-18 2157 0
966 -2361 0
-966 2361 0
-969 -18 0
-969 966 0
969 18 -966 0
-967 18 0
-967 -966 0
967 -18 966 0
24 -2163 0
-24 2163 0
864 -2349 0
-864 2349 0
-867 -24 0
-867 864 0
867 24 -864 0
-865 24 0
-865 -864 0
865 -24 864 0
20 -2159 0
-20 2159 0
932 -2357 0
-932 2357 0
-935 -20 0
-935 932 0
935 20 -932 0
-933 20 0
-933 -932 0
933 -20 932 0
21 -2160 0
-21 2160 0
915 -2355 0
-915 2355 0
-918 -21 0
-918 915 0
918 21 -915 0
-916 21 0
-916 -915 0
916 -21 915 0
22 -2161 0
-22 2161 0
898 -2353 0
-898 2353 0
-901 -22 0
-901 898 0
901 22 -898 0
-899 22 0
-899 -898 0
899 -22 898 0
23 -2162 0
-23 2162 0
881 -2351 0
-881 2351 0
-884 -23 0
-884 881 0
884 23 -881 0
-882 23 0
-882 -881 0
882 -23 881 0
30 -2169 0
-30 2169 0
762 -2337 0
-762 2337 0
-765 -30 0
-765 762 0
765 30 -762 0
-763 30 0
-763 -762 0
763 -30 762 0
26 -2165 0
-26 2165 0
830 -2345 0
-830 2345 0
-833 -26 0
-833 830 0
833 26 -830 0
-831 26 0
-831 -830 0
831 -26 830 0
27 -2166 0
-27 2166 0
813 -2343 0
-813 2343 0
-816 -27 0
-816 813 0
816 27 -813 0
-814 27 0
-814 -813 0
814 -27 813 0
28 -2167 0
-28 2167 0
796 -2341 0
-796 2341 0
-799 -28 0
-799 796 0
799 28 -796 0
-797 28 0
-797 -796 0
797 -28 796 0
29 -2168 0
-29 2168 0
779 -2339 0
-779 2339 0
-782 -29 0
-782 779 0
782 29 -779 0
-780 29 0
-780 -779 0
780 -29 779 0
36 -2175 0
-36 2175 0
660 -2325 0
-660 2325 0
-663 -36 0
-663 660 0
663 36 -660 0
-661 36 0
-661 -660 0
661 -36 660 0
32 -2171 0
-32 2171 0
728 -2333 0
-728 2333 0
-731 -32 0
-731 728 0
731 32 -728 0
-729 32 0
-729 -728 0
729 -32 728 0
33 -2172 0
-33 2172 0
711 -2331 0
-711 2331 0
-714 -33 0
-714 711 0
714 33 -711 0
-712 33 0
-712 -711 0
712 -33 711 0
34 -2173 0
-34 2173 0
694 -2329 0
-694 2329 0
-697 -34 0
-697 694 0
697 34 -694 0
-695 34 0
-695 -694 0
695 -34 694 0
35 -2174 0
-35 2174 0
677 -2327 0
-677 2327 0
-680 -35 0
-680 677 0
680 35 -677 0
-678 35 0
-678 -677 0
678 -35 677 0
42 -2181 0
-42 2181 0
558 -2313 0
-558 2313 0
-561 -42 0
-561 558 0
561 42 -558 0
-559 42 0
-559 -558 0
559 -42 558 0
38 -2177 0
-38 2177 0
626 -2321 0
-626 2321 0
-629 -38 0
-629 626 0
629 38 -626 0
-627 38 0
-627 -626 0
627 -38 626 0
39 -2178 0
-39 2178 0
609 -2319 0
-609 2319 0
-612 -39 0
-612 609 0
612 39 -609 0
-610 39 0
-610 -609 0
610 -39 609 0
40 -2179 0
-40 2179 0
592 -2317 0
-592 2317 0
-595 -40 0
-595 592 0
595 40 -592 0
-593 40 0
-593 -592 0
593 -40 592 0
41 -2180 0
-41 2180 0
575 -2315 0
-575 2315 0
-578 -41 0
-578 575 0
578 41 -575 0
-576 41 0
-576 -575 0
576 -41 575 0
48 -2187 0
-48 2187 0
456 -2301 0
-456 2301 0
-459 -48 0
-459 456 0
459 48 -456 0
-457 48 0
-457 -456 0
457 -48 456 0
44 -2183 0
-44 2183 0
524 -2309 0
-524 2309 0
-527 -44 0
-527 524 0
527 44 -524 0
-525 44 0
-525 -524 0
525 -44 524 0
45 -2184 0
-45 2184 0
507 -2307 0
-507 2307 0
-510 -45 0
-510 507 0
510 45 -507 0
-508 45 0
-508 -507 0
508 -45 507 0
46 -2185 0
-46 2185 0
490 -2305 0
-490 2305 0
-493 -46 0
-493 490 0
493 46 -490 0
-491 46 0
-491 -490 0
491 -46 490 0
47 -2186 0
-47 2186 0
473 -2303 0
-473 2303 0
-476 -47 0
-476 473 0
476 47 -473 0
-474 47 0
-474 -473 0
474 -47 473 0
54 -2193 0
-54 2193 0
354 -2289 0
-354 2289 0
-357 -54 0
-357 354 0
357 54 -354 0
-355 54 0
-355 -354 0
355 -54 354 0
50 -2189 0
-50 2189 0
422 -2297 0
-422 2297 0
-425 -50 0
-425 422 0
425 50 -422 0
-423 50 0
-423 -422 0
423 -50 422 0
51 -2190 0
-51 2190 0
405 -2295 0
-405 2295 0
-408 -51 0
-408 405 0
408 51 -405 0
-406 51 0
-406 -405 0
406 -51 405 0
52 -2191 0
-52 2191 0
388 -2293 0
-388 2293 0
-391 -52 0
-391 388 0
391 52 -388 0
-389 52 0
-389 -388 0
389 -52 388 0
53 -2192 0
-53 2192 0
371 -2291 0
-371 2291 0
-374 -53 0
-374 371 0
374 53 -371 0
-372 53 0
-372 -371 0
372 -53 371 0
60 -2199 0
-60 2199 0
268 -2279 0
-268 2279 0
-271 -60 0
-271 268 0
271 60 -268 0
-269 60 0
-269 -268 0
269 -60 268 0
56 -2195 0
-56 2195 0
320 -2285 0
-320 2285 0
-323 -56 0
-323 320 0
323 56 -320 0
-321 56 0
-321 -320 0
321 -56 320 0
57 -2196 0
-57 2196 0
311 -2284 0
-311 2284 0
-314 -57 0
-314 311 0
314 57 -311 0
-312 57 0
-312 -311 0
312 -57 311 0
58 -2197 0
-58 2197 0
302 -2283 0
-302 2283 0
-305 -58 0
-305 302 0
305 58 -302 0
-303 58 0
-303 -302 0
303 -58 302 0
59 -2198 0
-59 2198 0
285 -2281 0
-285 2281 0
-288 -59 0
-288 285 0
288 59 -285 0
-286 59 0
-286 -285 0
286 -59 285 0
62 -2201 0
-62 2201 0
242 -2276 0
-242 2276 0
-245 -62 0
-245 242 0
245 62 -242 0
-243 62 0
-243 -242 0
243 -62 242 0
63 -2202 0
-63 2202 0
233 -2275 0
-233 2275 0
-236 -63 0
-236 233 0
236 63 -233 0
-234 63 0
-234 -233 0
234 -63 233 0
64 -2203 0
-64 2203 0
224 -2274 0
-224 2274 0
-227 -64 0
-227 224 0
227 64 -224 0
-225 64 0
-225 -224 0
225 -64 224 0
65 -2204 0
-65 2204 0
207 -2272 0
-207 2272 0
-210 -65 0
-210 207 0
210 65 -207 0
-208 65 0
-208 -207 0
208 -65 207 0
66 -2205 0
-66 2205 0
1255 -2387 0
-1255 2387 0
-1258 -66 0
-1258 1255 0
1258 66 -1255 0
-1256 66 0
-1256 -1255 0
1256 -66 1255 0
67 -2206 0
-67 2206 0
198 -2271 0
-198 2271 0
-201 -67 0
-201 198 0
201 67 -198 0
-199 67 0
-199 -198 0
199 -67 198 0
55 -2194 0
-55 2194 0
3 -2142 0
-3 2142 0
4 -2143 0
-4 2143 0
8 -2147 0
-8 2147 0
1136 -2381 0
-1136 2381 0
-1139 -8 0
-1139 1136 0
1139 8 -1136 0
-1137 8 0
-1137 -1136 0
1137 -8 1136 0
61 -2200 0
-61 2200 0
68 -2207 0
-68 2207 0
69 -2208 0
-69 2208 0
70 -2209 0
-70 2209 0
71 -2210 0
-71 2210 0
72 -2211 0
-72 2211 0
73 -2212 0
-73 2212 0
74 -2213 0
-74 2213 0
75 -2214 0
-75 2214 0
76 -2215 0
-76 2215 0
77 -2216 0
-77 2216 0
78 -2217 0
-78 2217 0
79 -2218 0
-79 2218 0
80 -2219 0
-80 2219 0
81 -2220 0
-81 2220 0
82 -2221 0
-82 2221 0
83 -2222 0
-83 2222 0
84 -2223 0
-84 2223 0
85 -2224 0
-85 2224 0
86 -2225 0
-86 2225 0
87 -2226 0
-87 2226 0
88 -2227 0
-88 2227 0
89 -2228 0
-89 2228 0
90 -2229 0
-90 2229 0
91 -2230 0
-91 2230 0
92 -2231 0
-92 2231 0
93 -2232 0
-93 2232 0
94 -2233 0
-94 2233 0
95 -2234 0
-95 2234 0
96 -2235 0
-96 2235 0
97 -2236 0
-97 2236 0
98 -2237 0
-98 2237 0
99 -2238 0
-99 2238 0
100 -2239 0
-100 2239 0
101 -2240 0
-101 2240 0
102 -2241 0
-102 2241 0
103 -2242 0
-103 2242 0
104 -2243 0
-104 2243 0
105 -2244 0
-105 2244 0
106 -2245 0
-106 2245 0
107 -2246 0
-107 2246 0
108 -2247 0
-108 2247 0
109 -2248 0
-109 2248 0
110 -2249 0
-110 2249 0
111 -2250 0
-111 2250 0
112 -2251 0
-112 2251 0
113 -2252 0
-113 2252 0
114 -2253 0
-114 2253 0
115 -2254 0
-115 2254 0
116 -2255 0
-116 2255 0
117 -2256 0
-117 2256 0
118 -2257 0
-118 2257 0
119 -2258 0
-119 2258 0
120 -2259 0
-120 2259 0
121 -2260 0
-121 2260 0
122 -2261 0
-122 2261 0
123 -2262 0
-123 2262 0
124 -2263 0
-124 2263 0
125 -2264 0
-125 2264 0
126 -2265 0
-126 2265 0
127 -2266 0
-127 2266 0
128 -2267 0
-128 2267 0
129 -2268 0
-129 2268 0
130 -2269 0
-130 2269 0
2 -2141 0
-2 2141 0
131 -2270 0
-131 2270 0
-132 -2 0
-132 -131 0
132 2 131 0
-133 -130 0
-133 132 0
133 130 -132 0
-134 -129 0
-134 133 0
134 129 -133 0
-135 -128 0
-135 134 0
135 128 -134 0
-136 -127 0
-136 135 0
136 127 -135 0
-137 -126 0
-137 136 0
137 126 -136 0
-138 -125 0
-138 137 0
138 125 -137 0
-139 -124 0
-139 138 0
139 124 -138 0
-140 -123 0
-140 139 0
140 123 -139 0
-141 -122 0
-141 140 0
141 122 -140 0
-142 -121 0
-142 141 0
142 121 -141 0
-143 -120 0
-143 142 0
143 120 -142 0
-144 -119 0
-144 143 0
144 119 -143 0
-145 -118 0
-145 144 0
145 118 -144 0
-146 -117 0
-146 145 0
146 117 -145 0
-147 -116 0
-147 146 0
147 116 -146 0
-148 -115 0
-148 147 0
148 115 -147 0
-149 -114 0
-149 148 0
149 114 -148 0
-150 -113 0
-150 149 0
150 113 -149 0
-151 -112 0
-151 150 0
151 112 -150 0
-152 -111 0
-152 151 0
152 111 -151 0
-153 -110 0
-153 152 0
153 110 -152 0
-154 -109 0
-154 153 0
154 109 -153 0
-155 -108 0
-155 154 0
155 108 -154 0
-156 -107 0
-156 155 0
156 107 -155 0
-157 -106 0
-157 156 0
157 106 -156 0
-158 -105 0
-158 157 0
158 105 -157 0
-159 -104 0
-159 158 0
159 104 -158 0
-160 -103 0
-160 159 0
160 103 -159 0
-161 -102 0
-161 160 0
161 102 -160 0
-162 -101 0
-162 161 0
162 101 -161 0
-163 -100 0
-163 162 0
163 100 -162 0
-164 -99 0
-164 163 0
164 99 -163 0
-165 -98 0
-165 164 0
165 98 -164 0
-166 -97 0
-166 165 0
166 97 -165 0
-167 -96 0
-167 166 0
167 96 -166 0
-168 -95 0
-168 167 0
168 95 -167 0
-169 -94 0
-169 168 0
169 94 -168 0
-170 -93 0
-170 169 0
170 93 -169 0
-171 -92 0
-171 170 0
171 92 -170 0
-172 -91 0
-172 171 0
172 91 -171 0
-173 -90 0
-173 172 0
173 90 -172 0
-174 -89 0
-174 173 0
174 89 -173 0
-175 -88 0
-175 174 0
175 88 -174 0
-176 -87 0
-176 175 0
176 87 -175 0
-177 -86 0
-177 176 0
177 86 -176 0
-178 -85 0
-178 177 0
178 85 -177 0
-179 -84 0
-179 178 0
179 84 -178 0
-180 -83 0
-180 179 0
180 83 -179 0
-181 -82 0
-181 180 0
181 82 -180 0
-182 -81 0
-182 181 0
182 81 -181 0
-183 -80 0
-183 182 0
183 80 -182 0
-184 -79 0
-184 183 0
184 79 -183 0
-185 -78 0
-185 184 0
185 78 -184 0
-186 -77 0
-186 185 0
186 77 -185 0
-187 -76 0
-187 186 0
187 76 -186 0
-188 -75 0
-188 187 0
188 75 -187 0
-189 -74 0
-189 188 0
189 74 -188 0
-190 -73 0
-190 189 0
190 73 -189 0
-191 -72 0
-191 190 0
191 72 -190 0
-192 -71 0
-192 191 0
192 71 -191 0
-193 -70 0
-193 192 0
193 70 -192 0
-194 -69 0
-194 193 0
194 69 -193 0
-195 -68 0
-195 194 0
195 68 -194 0
-196 -67 0
-196 195 0
196 67 -195 0
-197 -61 0
-197 -196 0
197 61 196 0
-200 197 0
-200 -199 0
200 -197 199 0
-202 200 0
-202 -201 0
202 -200 201 0
-203 60 0
-203 -198 0
203 -60 198 0
-204 -60 0
-204 198 0
204 60 -198 0
-205 -203 0
-205 -204 0
205 203 204 0
-206 202 0
-206 205 0
206 -202 -205 0
-209 206 0
-209 -208 0
209 -206 208 0
-211 209 0
-211 -210 0
211 -209 210 0
-212 59 0
-212 -207 0
212 -59 207 0
-213 -59 0
-213 207 0
213 59 -207 0
-214 -212 0
-214 -213 0
214 212 213 0
215 -2273 0
-215 2273 0
-216 214 0
-216 215 0
216 -214 -215 0
-217 211 0
-217 -216 0
217 -211 216 0
-218 -214 0
-218 -215 0
218 214 215 0
-219 217 0
-219 -218 0
219 -217 218 0
-220 66 0
-220 -215 0
220 -66 215 0
-221 -66 0
-221 215 0
221 66 -215 0
-222 -220 0
-222 -221 0
222 220 221 0
-223 219 0
-223 222 0
223 -219 -222 0
-226 223 0
-226 -225 0
226 -223 225 0
-228 226 0
-228 -227 0
228 -226 227 0
-229 58 0
-229 -224 0
229 -58 224 0
-230 -58 0
-230 224 0
230 58 -224 0
-231 -229 0
-231 -230 0
231 229 230 0
-232 228 0
-232 231 0
232 -228 -231 0
-235 232 0
-235 -234 0
235 -232 234 0
-237 235 0
-237 -236 0
237 -235 236 0
-238 57 0
-238 -233 0
238 -57 233 0
-239 -57 0
-239 233 0
239 57 -233 0
-240 -238 0
-240 -239 0
240 238 239 0
-241 237 0
-241 240 0
241 -237 -240 0
-244 241 0
-244 -243 0
244 -241 243 0
-246 244 0
-246 -245 0
246 -244 245 0
-247 56 0
-247 -242 0
247 -56 242 0
-248 -56 0
-248 242 0
248 56 -242 0
-249 -247 0
-249 -248 0
249 247 248 0
-250 246 0
-250 249 0
250 -246 -249 0
251 -2277 0
-251 2277 0
-252 61 0
-252 -251 0
252 -61 251 0
-253 250 0
-253 -252 0
253 -250 252 0
-254 -61 0
-254 251 0
254 61 -251 0
-255 253 0
-255 -254 0
255 -253 254 0
-256 55 0
-256 -251 0
256 -55 251 0
-257 -55 0
-257 251 0
257 55 -251 0
-258 -256 0
-258 -257 0
258 256 257 0
259 -2278 0
-259 2278 0
-260 258 0
-260 259 0
260 -258 -259 0
-261 255 0
-261 -260 0
261 -255 260 0
-262 -258 0
-262 -259 0
262 258 259 0
-263 261 0
-263 -262 0
263 -261 262 0
-264 64 0
-264 -259 0
264 -64 259 0
-265 -64 0
-265 259 0
265 64 -259 0
-266 -264 0
-266 -265 0
266 264 265 0
-267 263 0
-267 266 0
267 -263 -266 0
-270 267 0
-270 -269 0
270 -267 269 0
-272 270 0
-272 -271 0
272 -270 271 0
-273 54 0
-273 -268 0
273 -54 268 0
-274 -54 0
-274 268 0
274 54 -268 0
-275 -273 0
-275 -274 0
275 273 274 0
276 -2280 0
-276 2280 0
-277 275 0
-277 276 0
277 -275 -276 0
-278 272 0
-278 -277 0
278 -272 277 0
-279 -275 0
-279 -276 0
279 275 276 0
-280 278 0
-280 -279 0
280 -278 279 0
-281 63 0
-281 -276 0
281 -63 276 0
-282 -63 0
-282 276 0
282 63 -276 0
-283 -281 0
-283 -282 0
283 281 282 0
-284 280 0
-284 283 0
284 -280 -283 0
-287 284 0
-287 -286 0
287 -284 286 0
-289 287 0
-289 -288 0
289 -287 288 0
-290 53 0
-290 -285 0
290 -53 285 0
-291 -53 0
-291 285 0
291 53 -285 0
-292 -290 0
-292 -291 0
292 290 291 0
293 -2282 0
-293 2282 0
-294 292 0
-294 293 0
294 -292 -293 0
-295 289 0
-295 -294 0
295 -289 294 0
-296 -292 0
-296 -293 0
296 292 293 0
-297 295 0
-297 -296 0
297 -295 296 0
-298 62 0
-298 -293 0
298 -62 293 0
-299 -62 0
-299 293 0
299 62 -293 0
-300 -298 0
-300 -299 0
300 298 299 0
-301 297 0
-301 300 0
301 -297 -300 0
-304 301 0
-304 -303 0
304 -301 303 0
-306 304 0
-306 -305 0
306 -304 305 0
-307 52 0
-307 -302 0
307 -52 302 0
-308 -52 0
-308 302 0
308 52 -302 0
-309 -307 0
-309 -308 0
309 307 308 0
-310 306 0
-310 309 0
310 -306 -309 0
-313 310 0
-313 -312 0
313 -310 312 0
-315 313 0
-315 -314 0
315 -313 314 0
-316 51 0
-316 -311 0
316 -51 311 0
-317 -51 0
-317 311 0
317 51 -311 0
-318 -316 0
-318 -317 0
318 316 317 0
-319 315 0
-319 318 0
319 -315 -318 0
-322 319 0
-322 -321 0
322 -319 321 0
-324 322 0
-324 -323 0
324 -322 323 0
-325 50 0
-325 -320 0
325 -50 320 0
-326 -50 0
-326 320 0
326 50 -320 0
-327 -325 0
-327 -326 0
327 325 326 0
328 -2286 0
-328 2286 0
-329 327 0
-329 328 0
329 -327 -328 0
-330 324 0
-330 -329 0
330 -324 329 0
-331 -327 0
-331 -328 0
331 327 328 0
-332 330 0
-332 -331 0
332 -330 331 0
-333 65 0
-333 -328 0
333 -65 328 0
-334 -65 0
-334 328 0
334 65 -328 0
-335 -333 0
-335 -334 0
335 333 334 0
-336 332 0
-336 335 0
336 -332 -335 0
337 -2287 0
-337 2287 0
-338 55 0
-338 -337 0
338 -55 337 0
-339 336 0
-339 -338 0
339 -336 338 0
-340 -55 0
-340 337 0
340 55 -337 0
-341 339 0
-341 -340 0
341 -339 340 0
49 -2188 0
-49 2188 0
-342 49 0
-342 -337 0
342 -49 337 0
-343 -49 0
-343 337 0
343 49 -337 0
-344 -342 0
-344 -343 0
344 342 343 0
345 -2288 0
-345 2288 0
-346 344 0
-346 345 0
346 -344 -345 0
-347 341 0
-347 -346 0
347 -341 346 0
-348 -344 0
-348 -345 0
348 344 345 0
-349 347 0
-349 -348 0
349 -347 348 0
-350 58 0
-350 -345 0
350 -58 345 0
-351 -58 0
-351 345 0
351 58 -345 0
-352 -350 0
-352 -351 0
352 350 351 0
-353 349 0
-353 352 0
353 -349 -352 0
-356 353 0
-356 -355 0
356 -353 355 0
-358 356 0
-358 -357 0
358 -356 357 0
-359 48 0
-359 -354 0
359 -48 354 0
-360 -48 0
-360 354 0
360 48 -354 0
-361 -359 0
-361 -360 0
361 359 360 0
362 -2290 0
-362 2290 0
-363 361 0
-363 362 0
363 -361 -362 0
-364 358 0
-364 -363 0
364 -358 363 0
-365 -361 0
-365 -362 0
365 361 362 0
-366 364 0
-366 -365 0
366 -364 365 0
-367 57 0
-367 -362 0
367 -57 362 0
-368 -57 0
-368 362 0
368 57 -362 0
-369 -367 0
-369 -368 0
369 367 368 0
-370 366 0
-370 369 0
370 -366 -369 0
-373 370 0
-373 -372 0
373 -370 372 0
-375 373 0
-375 -374 0
375 -373 374 0
-376 47 0
-376 -371 0
376 -47 371 0
-377 -47 0
-377 371 0
377 47 -371 0
-378 -376 0
-378 -377 0
378 376 377 0
379 -2292 0
-379 2292 0
-380 378 0
-380 379 0
380 -378 -379 0
-381 375 0
-381 -380 0
381 -375 380 0
-382 -378 0
-382 -379 0
382 378 379 0
-383 381 0
-383 -382 0
383 -381 382 0
-384 56 0
-384 -379 0
384 -56 379 0
-385 -56 0
-385 379 0
385 56 -379 0
-386 -384 0
-386 -385 0
386 384 385 0
-387 383 0
-387 386 0
387 -383 -386 0
-390 387 0
-390 -389 0
390 -387 389 0
-392 390 0
-392 -391 0
392 -390 391 0
-393 46 0
-393 -388 0
393 -46 388 0
-394 -46 0
-394 388 0
394 46 -388 0
-395 -393 0
-395 -394 0
395 393 394 0
396 -2294 0
-396 2294 0
-397 395 0
-397 396 0
397 -395 -396 0
-398 392 0
-398 -397 0
398 -392 397 0
-399 -395 0
-399 -396 0
399 395 396 0
-400 398 0
-400 -399 0
400 -398 399 0
-401 61 0
-401 -396 0
401 -61 396 0
-402 -61 0
-402 396 0
402 61 -396 0
-403 -401 0
-403 -402 0
403 401 402 0
-404 400 0
-404 403 0
404 -400 -403 0
-407 404 0
-407 -406 0
407 -404 406 0
-409 407 0
-409 -408 0
409 -407 408 0
-410 45 0
-410 -405 0
410 -45 405 0
-411 -45 0
-411 405 0
411 45 -405 0
-412 -410 0
-412 -411 0
412 410 411 0
413 -2296 0
-413 2296 0
-414 412 0
-414 413 0
414 -412 -413 0
-415 409 0
-415 -414 0
415 -409 414 0
-416 -412 0
-416 -413 0
416 412 413 0
-417 415 0
-417 -416 0
417 -415 416 0
-418 60 0
-418 -413 0
418 -60 413 0
-419 -60 0
-419 413 0
419 60 -413 0
-420 -418 0
-420 -419 0
420 418 419 0
-421 417 0
-421 420 0
421 -417 -420 0
-424 421 0
-424 -423 0
424 -421 423 0
-426 424 0
-426 -425 0
426 -424 425 0
-427 44 0
-427 -422 0
427 -44 422 0
-428 -44 0
-428 422 0
428 44 -422 0
-429 -427 0
-429 -428 0
429 427 428 0
430 -2298 0
-430 2298 0
-431 429 0
-431 430 0
431 -429 -430 0
-432 426 0
-432 -431 0
432 -426 431 0
-433 -429 0
-433 -430 0
433 429 430 0
-434 432 0
-434 -433 0
434 -432 433 0
-435 59 0
-435 -430 0
435 -59 430 0
-436 -59 0
-436 430 0
436 59 -430 0
-437 -435 0
-437 -436 0
437 435 436 0
-438 434 0
-438 437 0
438 -434 -437 0
439 -2299 0
-439 2299 0
-440 49 0
-440 -439 0
440 -49 439 0
-441 438 0
-441 -440 0
441 -438 440 0
-442 -49 0
-442 439 0
442 49 -439 0
-443 441 0
-443 -442 0
443 -441 442 0
43 -2182 0
-43 2182 0
-444 43 0
-444 -439 0
444 -43 439 0
-445 -43 0
-445 439 0
445 43 -439 0
-446 -444 0
-446 -445 0
446 444 445 0
447 -2300 0
-447 2300 0
-448 446 0
-448 447 0
448 -446 -447 0
-449 443 0
-449 -448 0
449 -443 448 0
-450 -446 0
-450 -447 0
450 446 447 0
-451 449 0
-451 -450 0
451 -449 450 0
-452 52 0
-452 -447 0
452 -52 447 0
-453 -52 0
-453 447 0
453 52 -447 0
-454 -452 0
-454 -453 0
454 452 453 0
-455 451 0
-455 454 0
455 -451 -454 0
-458 455 0
-458 -457 0
458 -455 457 0
-460 458 0
-460 -459 0
460 -458 459 0
-461 42 0
-461 -456 0
461 -42 456 0
-462 -42 0
-462 456 0
462 42 -456 0
-463 -461 0
-463 -462 0
463 461 462 0
464 -2302 0
-464 2302 0
-465 463 0
-465 464 0
465 -463 -464 0
-466 460 0
-466 -465 0
466 -460 465 0
-467 -463 0
-467 -464 0
467 463 464 0
-468 466 0
-468 -467 0
468 -466 467 0
-469 51 0
-469 -464 0
469 -51 464 0
-470 -51 0
-470 464 0
470 51 -464 0
-471 -469 0
-471 -470 0
471 469 470 0
-472 468 0
-472 471 0
472 -468 -471 0
-475 472 0
-475 -474 0
475 -472 474 0
-477 475 0
-477 -476 0
477 -475 476 0
-478 41 0
-478 -473 0
478 -41 473 0
-479 -41 0
-479 473 0
479 41 -473 0
-480 -478 0
-480 -479 0
480 478 479 0
481 -2304 0
-481 2304 0
-482 480 0
-482 481 0
482 -480 -481 0
-483 477 0
-483 -482 0
483 -477 482 0
-484 -480 0
-484 -481 0
484 480 481 0
-485 483 0
-485 -484 0
485 -483 484 0
-486 50 0
-486 -481 0
486 -50 481 0
-487 -50 0
-487 481 0
487 50 -481 0
-488 -486 0
-488 -487 0
488 486 487 0
-489 485 0
-489 488 0
489 -485 -488 0
-492 489 0
-492 -491 0
492 -489 491 0
-494 492 0
-494 -493 0
494 -492 493 0
-495 40 0
-495 -490 0
495 -40 490 0
-496 -40 0
-496 490 0
496 40 -490 0
-497 -495 0
-497 -496 0
497 495 496 0
498 -2306 0
-498 2306 0
-499 497 0
-499 498 0
499 -497 -498 0
-500 494 0
-500 -499 0
500 -494 499 0
-501 -497 0
-501 -498 0
501 497 498 0
-502 500 0
-502 -501 0
502 -500 501 0
-503 55 0
-503 -498 0
503 -55 498 0
-504 -55 0
-504 498 0
504 55 -498 0
-505 -503 0
-505 -504 0
505 503 504 0
-506 502 0
-506 505 0
506 -502 -505 0
-509 506 0
-509 -508 0
509 -506 508 0
-511 509 0
-511 -510 0
511 -509 510 0
-512 39 0
-512 -507 0
512 -39 507 0
-513 -39 0
-513 507 0
513 39 -507 0
-514 -512 0
-514 -513 0
514 512 513 0
515 -2308 0
-515 2308 0
-516 514 0
-516 515 0
516 -514 -515 0
-517 511 0
-517 -516 0
517 -511 516 0
-518 -514 0
-518 -515 0
518 514 515 0
-519 517 0
-519 -518 0
519 -517 518 0
-520 54 0
-520 -515 0
520 -54 515 0
-521 -54 0
-521 515 0
521 54 -515 0
-522 -520 0
-522 -521 0
522 520 521 0
-523 519 0
-523 522 0
523 -519 -522 0
-526 523 0
-526 -525 0
526 -523 525 0
-528 526 0
-528 -527 0
528 -526 527 0
-529 38 0
-529 -524 0
529 -38 524 0
-530 -38 0
-530 524 0
530 38 -524 0
-531 -529 0
-531 -530 0
531 529 530 0
532 -2310 0
-532 2310 0
-533 531 0
-533 532 0
533 -531 -532 0
-534 528 0
-534 -533 0
534 -528 533 0
-535 -531 0
-535 -532 0
535 531 532 0
-536 534 0
-536 -535 0
536 -534 535 0
-537 53 0
-537 -532 0
537 -53 532 0
-538 -53 0
-538 532 0
538 53 -532 0
-539 -537 0
-539 -538 0
539 537 538 0
-540 536 0
-540 539 0
540 -536 -539 0
541 -2311 0
-541 2311 0
-542 43 0
-542 -541 0
542 -43 541 0
-543 540 0
-543 -542 0
543 -540 542 0
-544 -43 0
-544 541 0
544 43 -541 0
-545 543 0
-545 -544 0
545 -543 544 0
37 -2176 0
-37 2176 0
-546 37 0
-546 -541 0
546 -37 541 0
-547 -37 0
-547 541 0
547 37 -541 0
-548 -546 0
-548 -547 0
548 546 547 0
549 -2312 0
-549 2312 0
-550 548 0
-550 549 0
550 -548 -549 0
-551 545 0
-551 -550 0
551 -545 550 0
-552 -548 0
-552 -549 0
552 548 549 0
-553 551 0
-553 -552 0
553 -551 552 0
-554 46 0
-554 -549 0
554 -46 549 0
-555 -46 0
-555 549 0
555 46 -549 0
-556 -554 0
-556 -555 0
556 554 555 0
-557 553 0
-557 556 0
557 -553 -556 0
-560 557 0
-560 -559 0
560 -557 559 0
-562 560 0
-562 -561 0
562 -560 561 0
-563 36 0
-563 -558 0
563 -36 558 0
-564 -36 0
-564 558 0
564 36 -558 0
-565 -563 0
-565 -564 0
565 563 564 0
566 -2314 0
-566 2314 0
-567 565 0
-567 566 0
567 -565 -566 0
-568 562 0
-568 -567 0
568 -562 567 0
-569 -565 0
-569 -566 0
569 565 566 0
-570 568 0
-570 -569 0
570 -568 569 0
-571 45 0
-571 -566 0
571 -45 566 0
-572 -45 0
-572 566 0
572 45 -566 0
-573 -571 0
-573 -572 0
573 571 572 0
-574 570 0
-574 573 0
574 -570 -573 0
-577 574 0
-577 -576 0
577 -574 576 0
-579 577 0
-579 -578 0
579 -577 578 0
-580 35 0
-580 -575 0
580 -35 575 0
-581 -35 0
-581 575 0
581 35 -575 0
-582 -580 0
-582 -581 0
582 580 581 0
583 -2316 0
-583 2316 0
-584 582 0
-584 583 0
584 -582 -583 0
-585 579 0
-585 -584 0
585 -579 584 0
-586 -582 0
-586 -583 0
586 582 583 0
-587 585 0
-587 -586 0
587 -585 586 0
-588 44 0
-588 -583 0
588 -44 583 0
-589 -44 0
-589 583 0
589 44 -583 0
-590 -588 0
-590 -589 0
590 588 589 0
-591 587 0
-591 590 0
591 -587 -590 0
-594 591 0
-594 -593 0
594 -591 593 0
-596 594 0
-596 -595 0
596 -594 595 0
-597 34 0
-597 -592 0
597 -34 592 0
-598 -34 0
-598 592 0
598 34 -592 0
-599 -597 0
-599 -598 0
599 597 598 0
600 -2318 0
-600 2318 0
-601 599 0
-601 600 0
601 -599 -600 0
-602 596 0
-602 -601 0
602 -596 601 0
-603 -599 0
-603 -600 0
603 599 600 0
-604 602 0
-604 -603 0
604 -602 603 0
-605 49 0
-605 -600 0
605 -49 600 0
-606 -49 0
-606 600 0
606 49 -600 0
-607 -605 0
-607 -606 0
607 605 606 0
-608 604 0
-608 607 0
608 -604 -607 0
-611 608 0
-611 -610 0
611 -608 610 0
-613 611 0
-613 -612 0
613 -611 612 0
-614 33 0
-614 -609 0
614 -33 609 0
-615 -33 0
-615 609 0
615 33 -609 0
-616 -614 0
-616 -615 0
616 614 615 0
617 -2320 0
-617 2320 0
-618 616 0
-618 617 0
618 -616 -617 0
-619 613 0
-619 -618 0
619 -613 618 0
-620 -616 0
-620 -617 0
620 616 617 0
-621 619 0
-621 -620 0
621 -619 620 0
-622 48 0
-622 -617 0
622 -48 617 0
-623 -48 0
-623 617 0
623 48 -617 0
-624 -622 0
-624 -623 0
624 622 623 0
-625 621 0
-625 624 0
625 -621 -624 0
-628 625 0
-628 -627 0
628 -625 627 0
-630 628 0
-630 -629 0
630 -628 629 0
-631 32 0
-631 -626 0
631 -32 626 0
-632 -32 0
-632 626 0
632 32 -626 0
-633 -631 0
-633 -632 0
633 631 632 0
634 -2322 0
-634 2322 0
-635 633 0
-635 634 0
635 -633 -634 0
-636 630 0
-636 -635 0
636 -630 635 0
-637 -633 0
-637 -634 0
637 633 634 0
-638 636 0
-638 -637 0
638 -636 637 0
-639 47 0
-639 -634 0
639 -47 634 0
-640 -47 0
-640 634 0
640 47 -634 0
-641 -639 0
-641 -640 0
641 639 640 0
-642 638 0
-642 641 0
642 -638 -641 0
643 -2323 0
-643 2323 0
-644 37 0
-644 -643 0
644 -37 643 0
-645 642 0
-645 -644 0
645 -642 644 0
-646 -37 0
-646 643 0
646 37 -643 0
-647 645 0
-647 -646 0
647 -645 646 0
31 -2170 0
-31 2170 0
-648 31 0
-648 -643 0
648 -31 643 0
-649 -31 0
-649 643 0
649 31 -643 0
-650 -648 0
-650 -649 0
650 648 649 0
651 -2324 0
-651 2324 0
-652 650 0
-652 651 0
652 -650 -651 0
-653 647 0
-653 -652 0
653 -647 652 0
-654 -650 0
-654 -651 0
654 650 651 0
-655 653 0
-655 -654 0
655 -653 654 0
-656 40 0
-656 -651 0
656 -40 651 0
-657 -40 0
-657 651 0
657 40 -651 0
-658 -656 0
-658 -657 0
658 656 657 0
-659 655 0
-659 658 0
659 -655 -658 0
-662 659 0
-662 -661 0
662 -659 661 0
-664 662 0
-664 -663 0
664 -662 663 0
-665 30 0
-665 -660 0
665 -30 660 0
-666 -30 0
-666 660 0
666 30 -660 0
-667 -665 0
-667 -666 0
667 665 666 0
668 -2326 0
-668 2326 0
-669 667 0
-669 668 0
669 -667 -668 0
-670 664 0
-670 -669 0
670 -664 669 0
-671 -667 0
-671 -668 0
671 667 668 0
-672 670 0
-672 -671 0
672 -670 671 0
-673 39 0
-673 -668 0
673 -39 668 0
-674 -39 0
-674 668 0
674 39 -668 0
-675 -673 0
-675 -674 0
675 673 674 0
-676 672 0
-676 675 0
676 -672 -675 0
-679 676 0
-679 -678 0
679 -676 678 0
-681 679 0
-681 -680 0
681 -679 680 0
-682 29 0
-682 -677 0
682 -29 677 0
-683 -29 0
-683 677 0
683 29 -677 0
-684 -682 0
-684 -683 0
684 682 683 0
685 -2328 0
-685 2328 0
-686 684 0
-686 685 0
686 -684 -685 0
-687 681 0
-687 -686 0
687 -681 686 0
-688 -684 0
-688 -685 0
688 684 685 0
-689 687 0
-689 -688 0
689 -687 688 0
-690 38 0
-690 -685 0
690 -38 685 0
-691 -38 0
-691 685 0
691 38 -685 0
-692 -690 0
-692 -691 0
692 690 691 0
-693 689 0
-693 692 0
693 -689 -692 0
-696 693 0
-696 -695 0
696 -693 695 0
-698 696 0
-698 -697 0
698 -696 697 0
-699 28 0
-699 -694 0
699 -28 694 0
-700 -28 0
-700 694 0
700 28 -694 0
-701 -699 0
-701 -700 0
701 699 700 0
702 -2330 0
-702 2330 0
-703 701 0
-703 702 0
703 -701 -702 0
-704 698 0
-704 -703 0
704 -698 703 0
-705 -701 0
-705 -702 0
705 701 702 0
-706 704 0
-706 -705 0
706 -704 705 0
-707 43 0
-707 -702 0
707 -43 702 0
-708 -43 0
-708 702 0
708 43 -702 0
-709 -707 0
-709 -708 0
709 707 708 0
-710 706 0
-710 709 0
710 -706 -709 0
-713 710 0
-713 -712 0
713 -710 712 0
-715 713 0
-715 -714 0
715 -713 714 0
-716 27 0
-716 -711 0
716 -27 711 0
-717 -27 0
-717 711 0
717 27 -711 0
-718 -716 0
-718 -717 0
718 716 717 0
719 -2332 0
-719 2332 0
-720 718 0
-720 719 0
720 -718 -719 0
-721 715 0
-721 -720 0
721 -715 720 0
-722 -718 0
-722 -719 0
722 718 719 0
-723 721 0
-723 -722 0
723 -721 722 0
-724 42 0
-724 -719 0
724 -42 719 0
-725 -42 0
-725 719 0
725 42 -719 0
-726 -724 0
-726 -725 0
726 724 725 0
-727 723 0
-727 726 0
727 -723 -726 0
-730 727 0
-730 -729 0
730 -727 729 0
-732 730 0
-732 -731 0
732 -730 731 0
-733 26 0
-733 -728 0
733 -26 728 0
-734 -26 0
-734 728 0
734 26 -728 0
-735 -733 0
-735 -734 0
735 733 734 0
736 -2334 0
-736 2334 0
-737 735 0
-737 736 0
737 -735 -736 0
-738 732 0
-738 -737 0
738 -732 737 0
-739 -735 0
-739 -736 0
739 735 736 0
-740 738 0
-740 -739 0
740 -738 739 0
-741 41 0
-741 -736 0
741 -41 736 0
-742 -41 0
-742 736 0
742 41 -736 0
-743 -741 0
-743 -742 0
743 741 742 0
-744 740 0
-744 743 0
744 -740 -743 0
745 -2335 0
-745 2335 0
-746 31 0
-746 -745 0
746 -31 745 0
-747 744 0
-747 -746 0
747 -744 746 0
-748 -31 0
-748 745 0
748 31 -745 0
-749 747 0
-749 -748 0
749 -747 748 0
25 -2164 0
-25 2164 0
-750 25 0
-750 -745 0
750 -25 745 0
-751 -25 0
-751 745 0
751 25 -745 0
-752 -750 0
-752 -751 0
752 750 751 0
753 -2336 0
-753 2336 0
-754 752 0
-754 753 0
754 -752 -753 0
-755 749 0
-755 -754 0
755 -749 754 0
-756 -752 0
-756 -753 0
756 752 753 0
-757 755 0
-757 -756 0
757 -755 756 0
-758 34 0
-758 -753 0
758 -34 753 0
-759 -34 0
-759 753 0
759 34 -753 0
-760 -758 0
-760 -759 0
760 758 759 0
-761 757 0
-761 760 0
761 -757 -760 0
-764 761 0
-764 -763 0
764 -761 763 0
-766 764 0
-766 -765 0
766 -764 765 0
-767 24 0
-767 -762 0
767 -24 762 0
-768 -24 0
-768 762 0
768 24 -762 0
-769 -767 0
-769 -768 0
769 767 768 0
770 -2338 0
-770 2338 0
-771 769 0
-771 770 0
771 -769 -770 0
-772 766 0
-772 -771 0
772 -766 771 0
-773 -769 0
-773 -770 0
773 769 770 0
-774 772 0
-774 -773 0
774 -772 773 0
-775 33 0
-775 -770 0
775 -33 770 0
-776 -33 0
-776 770 0
776 33 -770 0
-777 -775 0
-777 -776 0
777 775 776 0
-778 774 0
-778 777 0
778 -774 -777 0
-781 778 0
-781 -780 0
781 -778 780 0
-783 781 0
-783 -782 0
783 -781 782 0
-784 23 0
-784 -779 0
784 -23 779 0
-785 -23 0
-785 779 0
785 23 -779 0
-786 -784 0
-786 -785 0
786 784 785 0
787 -2340 0
-787 2340 0
-788 786 0
-788 787 0
788 -786 -787 0
-789 783 0
-789 -788 0
789 -783 788 0
-790 -786 0
-790 -787 0
790 786 787 0
-791 789 0
-791 -790 0
791 -789 790 0
-792 32 0
-792 -787 0
792 -32 787 0
-793 -32 0
-793 787 0
793 32 -787 0
-794 -792 0
-794 -793 0
794 792 793 0
-795 791 0
-795 794 0
795 -791 -794 0
-798 795 0
-798 -797 0
798 -795 797 0
-800 798 0
-800 -799 0
800 -798 799 0
-801 22 0
-801 -796 0
801 -22 796 0
-802 -22 0
-802 796 0
802 22 -796 0
-803 -801 0
-803 -802 0
803 801 802 0
804 -2342 0
-804 2342 0
-805 803 0
-805 804 0
805 -803 -804 0
-806 800 0
-806 -805 0
806 -800 805 0
-807 -803 0
-807 -804 0
807 803 804 0
-808 806 0
-808 -807 0
808 -806 807 0
-809 37 0
-809 -804 0
809 -37 804 0
-810 -37 0
-810 804 0
810 37 -804 0
-811 -809 0
-811 -810 0
811 809 810 0
-812 808 0
-812 811 0
812 -808 -811 0
-815 812 0
-815 -814 0
815 -812 814 0
-817 815 0
-817 -816 0
817 -815 816 0
-818 21 0
-818 -813 0
818 -21 813 0
-819 -21 0
-819 813 0
819 21 -813 0
-820 -818 0
-820 -819 0
820 818 819 0
821 -2344 0
-821 2344 0
-822 820 0
-822 821 0
822 -820 -821 0
-823 817 0
-823 -822 0
823 -817 822 0
-824 -820 0
-824 -821 0
824 820 821 0
-825 823 0
-825 -824 0
825 -823 824 0
-826 36 0
-826 -821 0
826 -36 821 0
-827 -36 0
-827 821 0
827 36 -821 0
-828 -826 0
-828 -827 0
828 826 827 0
-829 825 0
-829 828 0
829 -825 -828 0
-832 829 0
-832 -831 0
832 -829 831 0
-834 832 0
-834 -833 0
834 -832 833 0
-835 20 0
-835 -830 0
835 -20 830 0
-836 -20 0
-836 830 0
836 20 -830 0
-837 -835 0
-837 -836 0
837 835 836 0
838 -2346 0
-838 2346 0
-839 837 0
-839 838 0
839 -837 -838 0
-840 834 0
-840 -839 0
840 -834 839 0
-841 -837 0
-841 -838 0
841 837 838 0
-842 840 0
-842 -841 0
842 -840 841 0
-843 35 0
-843 -838 0
843 -35 838 0
-844 -35 0
-844 838 0
844 35 -838 0
-845 -843 0
-845 -844 0
845 843 844 0
-846 842 0
-846 845 0
846 -842 -845 0
847 -2347 0
-847 2347 0
-848 25 0
-848 -847 0
848 -25 847 0
-849 846 0
-849 -848 0
849 -846 848 0
-850 -25 0
-850 847 0
850 25 -847 0
-851 849 0
-851 -850 0
851 -849 850 0
-852 19 0
-852 -847 0
852 -19 847 0
-853 -19 0
-853 847 0
853 19 -847 0
-854 -852 0
-854 -853 0
854 852 853 0
855 -2348 0
-855 2348 0
-856 854 0
-856 855 0
856 -854 -855 0
-857 851 0
-857 -856 0
857 -851 856 0
-858 -854 0
-858 -855 0
858 854 855 0
-859 857 0
-859 -858 0
859 -857 858 0
-860 28 0
-860 -855 0
860 -28 855 0
-861 -28 0
-861 855 0
861 28 -855 0
-862 -860 0
-862 -861 0
862 860 861 0
-863 859 0
-863 862 0
863 -859 -862 0
-866 863 0
-866 -865 0
866 -863 865 0
-868 866 0
-868 -867 0
868 -866 867 0
-869 18 0
-869 -864 0
869 -18 864 0
-870 -18 0
-870 864 0
870 18 -864 0
-871 -869 0
-871 -870 0
871 869 870 0
872 -2350 0
-872 2350 0
-873 871 0
-873 872 0
873 -871 -872 0
-874 868 0
-874 -873 0
874 -868 873 0
-875 -871 0
-875 -872 0
875 871 872 0
-876 874 0
-876 -875 0
876 -874 875 0
-877 27 0
-877 -872 0
877 -27 872 0
-878 -27 0
-878 872 0
878 27 -872 0
-879 -877 0
-879 -878 0
879 877 878 0
-880 876 0
-880 879 0
880 -876 -879 0
-883 880 0
-883 -882 0
883 -880 882 0
-885 883 0
-885 -884 0
885 -883 884 0
-886 17 0
-886 -881 0
886 -17 881 0
-887 -17 0
-887 881 0
887 17 -881 0
-888 -886 0
-888 -887 0
888 886 887 0
889 -2352 0
-889 2352 0
-890 888 0
-890 889 0
890 -888 -889 0
-891 885 0
-891 -890 0
891 -885 890 0
-892 -888 0
-892 -889 0
892 888 889 0
-893 891 0
-893 -892 0
893 -891 892 0
-894 26 0
-894 -889 0
894 -26 889 0
-895 -26 0
-895 889 0
895 26 -889 0
-896 -894 0
-896 -895 0
896 894 895 0
-897 893 0
-897 896 0
897 -893 -896 0
-900 897 0
-900 -899 0
900 -897 899 0
-902 900 0
-902 -901 0
902 -900 901 0
-903 16 0
-903 -898 0
903 -16 898 0
-904 -16 0
-904 898 0
904 16 -898 0
-905 -903 0
-905 -904 0
905 903 904 0
906 -2354 0
-906 2354 0
-907 905 0
-907 906 0
907 -905 -906 0
-908 902 0
-908 -907 0
908 -902 907 0
-909 -905 0
-909 -906 0
909 905 906 0
-910 908 0
-910 -909 0
910 -908 909 0
-911 31 0
-911 -906 0
911 -31 906 0
-912 -31 0
-912 906 0
912 31 -906 0
-913 -911 0
-913 -912 0
913 911 912 0
-914 910 0
-914 913 0
914 -910 -913 0
-917 914 0
-917 -916 0
917 -914 916 0
-919 917 0
-919 -918 0
919 -917 918 0
-920 15 0
-920 -915 0
920 -15 915 0
-921 -15 0
-921 915 0
921 15 -915 0
-922 -920 0
-922 -921 0
922 920 921 0
923 -2356 0
-923 2356 0
-924 922 0
-924 923 0
924 -922 -923 0
-925 919 0
-925 -924 0
925 -919 924 0
-926 -922 0
-926 -923 0
926 922 923 0
-927 925 0
-927 -926 0
927 -925 926 0
-928 30 0
-928 -923 0
928 -30 923 0
-929 -30 0
-929 923 0
929 30 -923 0
-930 -928 0
-930 -929 0
930 928 929 0
-931 927 0
-931 930 0
931 -927 -930 0
-934 931 0
-934 -933 0
934 -931 933 0
-936 934 0
-936 -935 0
936 -934 935 0
14 -2153 0
-14 2153 0
-937 14 0
-937 -932 0
937 -14 932 0
-938 -14 0
-938 932 0
938 14 -932 0
-939 -937 0
-939 -938 0
939 937 938 0
940 -2358 0
-940 2358 0
-941 939 0
-941 940 0
941 -939 -940 0
-942 936 0
-942 -941 0
942 -936 941 0
-943 -939 0
-943 -940 0
943 939 940 0
-944 942 0
-944 -943 0
944 -942 943 0
-945 29 0
-945 -940 0
945 -29 940 0
-946 -29 0
-946 940 0
946 29 -940 0
-947 -945 0
-947 -946 0
947 945 946 0
-948 944 0
-948 947 0
948 -944 -947 0
-951 948 0
-951 -950 0
951 -948 950 0
-953 951 0
-953 -952 0
953 -951 952 0
-954 13 0
-954 -949 0
954 -13 949 0
-955 -13 0
-955 949 0
955 13 -949 0
-956 -954 0
-956 -955 0
956 954 955 0
957 -2360 0
-957 2360 0
-958 956 0
-958 957 0
958 -956 -957 0
-959 953 0
-959 -958 0
959 -953 958 0
-960 -956 0
-960 -957 0
960 956 957 0
-961 959 0
-961 -960 0
961 -959 960 0
-962 22 0
-962 -957 0
962 -22 957 0
-963 -22 0
-963 957 0
963 22 -957 0
-964 -962 0
-964 -963 0
964 962 963 0
-965 961 0
-965 964 0
965 -961 -964 0
-968 965 0
-968 -967 0
968 -965 967 0
-970 968 0
-970 -969 0
970 -968 969 0
-971 12 0
-971 -966 0
971 -12 966 0
-972 -12 0
-972 966 0
972 12 -966 0
-973 -971 0
-973 -972 0
973 971 972 0
974 -2362 0
-974 2362 0
-975 973 0
-975 974 0
975 -973 -974 0
-976 970 0
-976 -975 0
976 -970 975 0
-977 -973 0
-977 -974 0
977 973 974 0
-978 976 0
-978 -977 0
978 -976 977 0
-979 21 0
-979 -974 0
979 -21 974 0
-980 -21 0
-980 974 0
980 21 -974 0
-981 -979 0
-981 -980 0
981 979 980 0
-982 978 0
-982 981 0
982 -978 -981 0
-985 982 0
-985 -984 0
985 -982 984 0
-987 985 0
-987 -986 0
987 -985 986 0
-988 11 0
-988 -983 0
988 -11 983 0
-989 -11 0
-989 983 0
989 11 -983 0
-990 -988 0
-990 -989 0
990 988 989 0
991 -2364 0
-991 2364 0
-992 990 0
-992 991 0
992 -990 -991 0
-993 987 0
-993 -992 0
993 -987 992 0
-994 -990 0
-994 -991 0
994 990 991 0
-995 993 0
-995 -994 0
995 -993 994 0
-996 20 0
-996 -991 0
996 -20 991 0
-997 -20 0
-997 991 0
997 20 -991 0
-998 -996 0
-998 -997 0
998 996 997 0
-999 995 0
-999 998 0
999 -995 -998 0
-1002 999 0
-1002 -1001 0
1002 -999 1001 0
-1004 1002 0
-1004 -1003 0
1004 -1002 1003 0
-1005 10 0
-1005 -1000 0
1005 -10 1000 0
-1006 -10 0
-1006 1000 0
1006 10 -1000 0
-1007 -1005 0
-1007 -1006 0
1007 1005 1006 0
1008 -2366 0
-1008 2366 0
-1009 1007 0
-1009 1008 0
1009 -1007 -1008 0
-1010 1004 0
-1010 -1009 0
1010 -1004 1009 0
-1011 -1007 0
-1011 -1008 0
1011 1007 1008 0
-1012 1010 0
-1012 -1011 0
1012 -1010 1011 0
-1013 25 0
-1013 -1008 0
1013 -25 1008 0
-1014 -25 0
-1014 1008 0
1014 25 -1008 0
-1015 -1013 0
-1015 -1014 0
1015 1013 1014 0
-1016 1012 0
-1016 1015 0
1016 -1012 -1015 0
-1019 1016 0
-1019 -1018 0
1019 -1016 1018 0
-1021 1019 0
-1021 -1020 0
1021 -1019 1020 0
-1022 9 0
-1022 -1017 0
1022 -9 1017 0
-1023 -9 0
-1023 1017 0
1023 9 -1017 0
-1024 -1022 0
-1024 -1023 0
1024 1022 1023 0
1025 -2368 0
-1025 2368 0
-1026 1024 0
-1026 1025 0
1026 -1024 -1025 0
-1027 1021 0
-1027 -1026 0
1027 -1021 1026 0
-1028 -1024 0
-1028 -1025 0
1028 1024 1025 0
-1029 1027 0
-1029 -1028 0
1029 -1027 1028 0
-1030 24 0
-1030 -1025 0
1030 -24 1025 0
-1031 -24 0
-1031 1025 0
1031 24 -1025 0
-1032 -1030 0
-1032 -1031 0
1032 1030 1031 0
-1033 1029 0
-1033 1032 0
1033 -1029 -1032 0
1034 -2369 0
-1034 2369 0
-1035 14 0
-1035 -1034 0
1035 -14 1034 0
-1036 1033 0
-1036 -1035 0
1036 -1033 1035 0
-1037 -14 0
-1037 1034 0
1037 14 -1034 0
-1038 1036 0
-1038 -1037 0
1038 -1036 1037 0
-1039 8 0
-1039 -1034 0
1039 -8 1034 0
-1040 -8 0
-1040 1034 0
1040 8 -1034 0
-1041 -1039 0
-1041 -1040 0
1041 1039 1040 0
1042 -2370 0
-1042 2370 0
-1043 1041 0
-1043 1042 0
1043 -1041 -1042 0
-1044 1038 0
-1044 -1043 0
1044 -1038 1043 0
-1045 -1041 0
-1045 -1042 0
1045 1041 1042 0
-1046 1044 0
-1046 -1045 0
1046 -1044 1045 0
-1047 23 0
-1047 -1042 0
1047 -23 1042 0
-1048 -23 0
-1048 1042 0
1048 23 -1042 0
-1049 -1047 0
-1049 -1048 0
1049 1047 1048 0
-1050 1046 0
-1050 1049 0
1050 -1046 -1049 0
-1053 1050 0
-1053 -1052 0
1053 -1050 1052 0
-1055 1053 0
-1055 -1054 0
1055 -1053 1054 0
-1056 7 0
-1056 -1051 0
1056 -7 1051 0
-1057 -7 0
-1057 1051 0
1057 7 -1051 0
-1058 -1056 0
-1058 -1057 0
1058 1056 1057 0
1059 -2372 0
-1059 2372 0
-1060 1058 0
-1060 1059 0
1060 -1058 -1059 0
-1061 1055 0
-1061 -1060 0
1061 -1055 1060 0
-1062 -1058 0
-1062 -1059 0
1062 1058 1059 0
-1063 1061 0
-1063 -1062 0
1063 -1061 1062 0
-1064 16 0
-1064 -1059 0
1064 -16 1059 0
-1065 -16 0
-1065 1059 0
1065 16 -1059 0
-1066 -1064 0
-1066 -1065 0
1066 1064 1065 0
-1067 1063 0
-1067 1066 0
1067 -1063 -1066 0
-1070 1067 0
-1070 -1069 0
1070 -1067 1069 0
-1072 1070 0
-1072 -1071 0
1072 -1070 1071 0
6 -2145 0
-6 2145 0
-1073 6 0
-1073 -1068 0
1073 -6 1068 0
-1074 -6 0
-1074 1068 0
1074 6 -1068 0
-1075 -1073 0
-1075 -1074 0
1075 1073 1074 0
1076 -2374 0
-1076 2374 0
-1077 1075 0
-1077 1076 0
1077 -1075 -1076 0
-1078 1072 0
-1078 -1077 0
1078 -1072 1077 0
-1079 -1075 0
-1079 -1076 0
1079 1075 1076 0
-1080 1078 0
-1080 -1079 0
1080 -1078 1079 0
-1081 15 0
-1081 -1076 0
1081 -15 1076 0
-1082 -15 0
-1082 1076 0
1082 15 -1076 0
-1083 -1081 0
-1083 -1082 0
1083 1081 1082 0
-1084 1080 0
-1084 1083 0
1084 -1080 -1083 0
-1087 1084 0
-1087 -1086 0
1087 -1084 1086 0
-1089 1087 0
-1089 -1088 0
1089 -1087 1088 0
5 -2144 0
-5 2144 0
-1090 5 0
-1090 -1085 0
1090 -5 1085 0
-1091 -5 0
-1091 1085 0
1091 5 -1085 0
-1092 -1090 0
-1092 -1091 0
1092 1090 1091 0
1093 -2376 0
-1093 2376 0
-1094 1092 0
-1094 1093 0
1094 -1092 -1093 0
-1095 1089 0
-1095 -1094 0
1095 -1089 1094 0
-1096 -1092 0
-1096 -1093 0
1096 1092 1093 0
-1097 1095 0
-1097 -1096 0
1097 -1095 1096 0
-1098 14 0
-1098 -1093 0
1098 -14 1093 0
-1099 -14 0
-1099 1093 0
1099 14 -1093 0
-1100 -1098 0
-1100 -1099 0
1100 1098 1099 0
-1101 1097 0
-1101 1100 0
1101 -1097 -1100 0
-1104 1101 0
-1104 -1103 0
1104 -1101 1103 0
-1106 1104 0
-1106 -1105 0
1106 -1104 1105 0
-1107 4 0
-1107 -1102 0
1107 -4 1102 0
-1108 -4 0
-1108 1102 0
1108 4 -1102 0
-1109 -1107 0
-1109 -1108 0
1109 1107 1108 0
1110 -2378 0
-1110 2378 0
-1111 1109 0
-1111 1110 0
1111 -1109 -1110 0
-1112 1106 0
-1112 -1111 0
1112 -1106 1111 0
-1113 -1109 0
-1113 -1110 0
1113 1109 1110 0
-1114 1112 0
-1114 -1113 0
1114 -1112 1113 0
-1115 19 0
-1115 -1110 0
1115 -19 1110 0
-1116 -19 0
-1116 1110 0
1116 19 -1110 0
-1117 -1115 0
-1117 -1116 0
1117 1115 1116 0
-1118 1114 0
-1118 1117 0
1118 -1114 -1117 0
-1121 1118 0
-1121 -1120 0
1121 -1118 1120 0
-1123 1121 0
-1123 -1122 0
1123 -1121 1122 0
-1124 3 0
-1124 -1119 0
1124 -3 1119 0
-1125 -3 0
-1125 1119 0
1125 3 -1119 0
-1126 -1124 0
-1126 -1125 0
1126 1124 1125 0
1127 -2380 0
-1127 2380 0
-1128 1126 0
-1128 1127 0
1128 -1126 -1127 0
-1129 1123 0
-1129 -1128 0
1129 -1123 1128 0
-1130 -1126 0
-1130 -1127 0
1130 1126 1127 0
-1131 1129 0
-1131 -1130 0
1131 -1129 1130 0
-1132 18 0
-1132 -1127 0
1132 -18 1127 0
-1133 -18 0
-1133 1127 0
1133 18 -1127 0
-1134 -1132 0
-1134 -1133 0
1134 1132 1133 0
-1135 1131 0
-1135 1134 0
1135 -1131 -1134 0
-1138 1135 0
-1138 -1137 0
1138 -1135 1137 0
-1140 1138 0
-1140 -1139 0
1140 -1138 1139 0
-1141 2 0
-1141 -1136 0
1141 -2 1136 0
-1142 -2 0
-1142 1136 0
1142 2 -1136 0
-1143 -1141 0
-1143 -1142 0
1143 1141 1142 0
1144 -2382 0
-1144 2382 0
-1145 1143 0
-1145 1144 0
1145 -1143 -1144 0
-1146 1140 0
-1146 -1145 0
1146 -1140 1145 0
-1147 -1143 0
-1147 -1144 0
1147 1143 1144 0
-1148 1146 0
-1148 -1147 0
1148 -1146 1147 0
-1149 17 0
-1149 -1144 0
1149 -17 1144 0
-1150 -17 0
-1150 1144 0
1150 17 -1144 0
-1151 -1149 0
-1151 -1150 0
1151 1149 1150 0
-1152 1148 0
-1152 1151 0
1152 -1148 -1151 0
-1153 -1103 0
-1153 1152 0
1153 1103 -1152 0
-1154 -1105 0
-1154 1153 0
1154 1105 -1153 0
-1155 7 0
-1155 -1102 0
1155 -7 1102 0
-1156 -7 0
-1156 1102 0
1156 7 -1102 0
-1157 -1155 0
-1157 -1156 0
1157 1155 1156 0
-1158 1154 0
-1158 1157 0
1158 -1154 -1157 0
-1159 -1120 0
-1159 1158 0
1159 1120 -1158 0
-1160 -1122 0
-1160 1159 0
1160 1122 -1159 0
-1161 6 0
-1161 -1119 0
1161 -6 1119 0
-1162 -6 0
-1162 1119 0
1162 6 -1119 0
-1163 -1161 0
-1163 -1162 0
1163 1161 1162 0
-1164 1160 0
-1164 1163 0
1164 -1160 -1163 0
-1165 -1137 0
-1165 1164 0
1165 1137 -1164 0
-1166 -1139 0
-1166 1165 0
1166 1139 -1165 0
-1167 5 0
-1167 -1136 0
1167 -5 1136 0
-1168 -5 0
-1168 1136 0
1168 5 -1136 0
-1169 -1167 0
-1169 -1168 0
1169 1167 1168 0
-1170 1166 0
-1170 1169 0
1170 -1166 -1169 0
-1171 -1052 0
-1171 1170 0
1171 1052 -1170 0
-1172 -1054 0
-1172 1171 0
1172 1054 -1171 0
-1173 4 0
-1173 -1051 0
1173 -4 1051 0
-1174 -4 0
-1174 1051 0
1174 4 -1051 0
-1175 -1173 0
-1175 -1174 0
1175 1173 1174 0
-1176 1172 0
-1176 1175 0
1176 -1172 -1175 0
-1177 -1069 0
-1177 1176 0
1177 1069 -1176 0
-1178 -1071 0
-1178 1177 0
1178 1071 -1177 0
-1179 3 0
-1179 -1068 0
1179 -3 1068 0
-1180 -3 0
-1180 1068 0
1180 3 -1068 0
-1181 -1179 0
-1181 -1180 0
1181 1179 1180 0
1182 -2383 0
-1182 2383 0
-1183 1181 0
-1183 1182 0
1183 -1181 -1182 0
-1184 1178 0
-1184 -1183 0
1184 -1178 1183 0
-1185 -1181 0
-1185 -1182 0
1185 1181 1182 0
-1186 1184 0
-1186 -1185 0
1186 -1184 1185 0
-1187 67 0
-1187 -1182 0
1187 -67 1182 0
-1188 -67 0
-1188 1182 0
1188 67 -1182 0
-1189 -1187 0
-1189 -1188 0
1189 1187 1188 0
-1190 1186 0
-1190 1189 0
1190 -1186 -1189 0
-1191 -1086 0
-1191 1190 0
1191 1086 -1190 0
-1192 -1088 0
-1192 1191 0
1192 1088 -1191 0
-1193 2 0
-1193 -1085 0
1193 -2 1085 0
-1194 -2 0
-1194 1085 0
1194 2 -1085 0
-1195 -1193 0
-1195 -1194 0
1195 1193 1194 0
1196 -2384 0
-1196 2384 0
-1197 1195 0
-1197 1196 0
1197 -1195 -1196 0
-1198 1192 0
-1198 -1197 0
1198 -1192 1197 0
-1199 -1195 0
-1199 -1196 0
1199 1195 1196 0
-1200 1198 0
-1200 -1199 0
1200 -1198 1199 0
-1201 66 0
-1201 -1196 0
1201 -66 1196 0
-1202 -66 0
-1202 1196 0
1202 66 -1196 0
-1203 -1201 0
-1203 -1202 0
1203 1201 1202 0
-1204 1200 0
-1204 1203 0
1204 -1200 -1203 0
-1205 -4 0
-1205 1204 0
1205 4 -1204 0
-1206 -3 0
-1206 1205 0
1206 3 -1205 0
-1207 -208 0
-1207 1206 0
1207 208 -1206 0
-1208 -210 0
-1208 1207 0
1208 210 -1207 0
-1209 2 0
-1209 -207 0
1209 -2 207 0
-1210 -2 0
-1210 207 0
1210 2 -207 0
-1211 -1209 0
-1211 -1210 0
1211 1209 1210 0
-1212 1208 0
-1212 1211 0
1212 -1208 -1211 0
-1213 -225 0
-1213 1212 0
1213 225 -1212 0
-1214 -227 0
-1214 1213 0
1214 227 -1213 0
-1215 7 0
-1215 -224 0
1215 -7 224 0
-1216 -7 0
-1216 224 0
1216 7 -224 0
-1217 -1215 0
-1217 -1216 0
1217 1215 1216 0
-1218 1214 0
-1218 1217 0
1218 -1214 -1217 0
-1219 -234 0
-1219 1218 0
1219 234 -1218 0
-1220 -236 0
-1220 1219 0
1220 236 -1219 0
-1221 6 0
-1221 -233 0
1221 -6 233 0
-1222 -6 0
-1222 233 0
1222 6 -233 0
-1223 -1221 0
-1223 -1222 0
1223 1221 1222 0
1224 -2385 0
-1224 2385 0
-1225 1223 0
-1225 1224 0
1225 -1223 -1224 0
-1226 1220 0
-1226 -1225 0
1226 -1220 1225 0
-1227 -1223 0
-1227 -1224 0
1227 1223 1224 0
-1228 1226 0
-1228 -1227 0
1228 -1226 1227 0
-1229 67 0
-1229 -1224 0
1229 -67 1224 0
-1230 -67 0
-1230 1224 0
1230 67 -1224 0
-1231 -1229 0
-1231 -1230 0
1231 1229 1230 0
-1232 1228 0
-1232 1231 0
1232 -1228 -1231 0
-1233 -243 0
-1233 1232 0
1233 243 -1232 0
-1234 -245 0
-1234 1233 0
1234 245 -1233 0
-1235 5 0
-1235 -242 0
1235 -5 242 0
-1236 -5 0
-1236 242 0
1236 5 -242 0
-1237 -1235 0
-1237 -1236 0
1237 1235 1236 0
1238 -2386 0
-1238 2386 0
-1239 1237 0
-1239 1238 0
1239 -1237 -1238 0
-1240 1234 0
-1240 -1239 0
1240 -1234 1239 0
-1241 -1237 0
-1241 -1238 0
1241 1237 1238 0
-1242 1240 0
-1242 -1241 0
1242 -1240 1241 0
-1243 66 0
-1243 -1238 0
1243 -66 1238 0
-1244 -66 0
-1244 1238 0
1244 66 -1238 0
-1245 -1243 0
-1245 -1244 0
1245 1243 1244 0
-1246 1242 0
-1246 1245 0
1246 -1242 -1245 0
-1247 -55 0
-1247 1246 0
1247 55 -1246 0
-1248 -54 0
-1248 1247 0
1248 54 -1247 0
-1249 -199 0
-1249 1248 0
1249 199 -1248 0
-1250 -201 0
-1250 1249 0
1250 201 -1249 0
-1251 53 0
-1251 -198 0
1251 -53 198 0
-1252 -53 0
-1252 198 0
1252 53 -198 0
-1253 -1251 0
-1253 -1252 0
1253 1251 1252 0
-1254 1250 0
-1254 1253 0
1254 -1250 -1253 0
-1257 1254 0
-1257 -1256 0
1257 -1254 1256 0
-1259 1257 0
-1259 -1258 0
1259 -1257 1258 0
-1260 52 0
-1260 -1255 0
1260 -52 1255 0
-1261 -52 0
-1261 1255 0
1261 52 -1255 0
-1262 -1260 0
-1262 -1261 0
1262 1260 1261 0
1263 -2388 0
-1263 2388 0
-1264 1262 0
-1264 1263 0
1264 -1262 -1263 0
-1265 1259 0
-1265 -1264 0
1265 -1259 1264 0
-1266 -1262 0
-1266 -1263 0
1266 1262 1263 0
-1267 1265 0
-1267 -1266 0
1267 -1265 1266 0
-1268 67 0
-1268 -1263 0
1268 -67 1263 0
-1269 -67 0
-1269 1263 0
1269 67 -1263 0
-1270 -1268 0
-1270 -1269 0
1270 1268 1269 0
-1271 1267 0
-1271 1270 0
1271 -1267 -1270 0
-1272 -1256 0
-1272 1271 0
1272 1256 -1271 0
-1273 -1258 0
-1273 1272 0
1273 1258 -1272 0
-1274 51 0
-1274 -1255 0
1274 -51 1255 0
-1275 -51 0
-1275 1255 0
1275 51 -1255 0
-1276 -1274 0
-1276 -1275 0
1276 1274 1275 0
-1277 1273 0
-1277 1276 0
1277 -1273 -1276 0
-1278 -50 0
-1278 1277 0
1278 50 -1277 0
-1279 -208 0
-1279 1278 0
1279 208 -1278 0
-1280 -210 0
-1280 1279 0
1280 210 -1279 0
-1281 49 0
-1281 -207 0
1281 -49 207 0
-1282 -49 0
-1282 207 0
1282 49 -207 0
-1283 -1281 0
-1283 -1282 0
1283 1281 1282 0
-1284 1280 0
-1284 1283 0
1284 -1280 -1283 0
-1285 -225 0
-1285 1284 0
1285 225 -1284 0
-1286 -227 0
-1286 1285 0
1286 227 -1285 0
-1287 48 0
-1287 -224 0
1287 -48 224 0
-1288 -48 0
-1288 224 0
1288 48 -224 0
-1289 -1287 0
-1289 -1288 0
1289 1287 1288 0
1290 -2389 0
-1290 2389 0
-1291 1289 0
-1291 1290 0
1291 -1289 -1290 0
-1292 1286 0
-1292 -1291 0
1292 -1286 1291 0
-1293 -1289 0
-1293 -1290 0
1293 1289 1290 0
-1294 1292 0
-1294 -1293 0
1294 -1292 1293 0
-1295 65 0
-1295 -1290 0
1295 -65 1290 0
-1296 -65 0
-1296 1290 0
1296 65 -1290 0
-1297 -1295 0
-1297 -1296 0
1297 1295 1296 0
-1298 1294 0
-1298 1297 0
1298 -1294 -1297 0
-1299 -234 0
-1299 1298 0
1299 234 -1298 0
-1300 -236 0
-1300 1299 0
1300 236 -1299 0
-1301 47 0
-1301 -233 0
1301 -47 233 0
-1302 -47 0
-1302 233 0
1302 47 -233 0
-1303 -1301 0
-1303 -1302 0
1303 1301 1302 0
1304 -2390 0
-1304 2390 0
-1305 1303 0
-1305 1304 0
1305 -1303 -1304 0
-1306 1300 0
-1306 -1305 0
1306 -1300 1305 0
-1307 -1303 0
-1307 -1304 0
1307 1303 1304 0
-1308 1306 0
-1308 -1307 0
1308 -1306 1307 0
-1309 64 0
-1309 -1304 0
1309 -64 1304 0
-1310 -64 0
-1310 1304 0
1310 64 -1304 0
-1311 -1309 0
-1311 -1310 0
1311 1309 1310 0
-1312 1308 0
-1312 1311 0
1312 -1308 -1311 0
-1313 -243 0
-1313 1312 0
1313 243 -1312 0
-1314 -245 0
-1314 1313 0
1314 245 -1313 0
-1315 46 0
-1315 -242 0
1315 -46 242 0
-1316 -46 0
-1316 242 0
1316 46 -242 0
-1317 -1315 0
-1317 -1316 0
1317 1315 1316 0
1318 -2391 0
-1318 2391 0
-1319 1317 0
-1319 1318 0
1319 -1317 -1318 0
-1320 1314 0
-1320 -1319 0
1320 -1314 1319 0
-1321 -1317 0
-1321 -1318 0
1321 1317 1318 0
-1322 1320 0
-1322 -1321 0
1322 -1320 1321 0
-1323 63 0
-1323 -1318 0
1323 -63 1318 0
-1324 -63 0
-1324 1318 0
1324 63 -1318 0
-1325 -1323 0
-1325 -1324 0
1325 1323 1324 0
-1326 1322 0
-1326 1325 0
1326 -1322 -1325 0
-1327 -243 0
-1327 1326 0
1327 243 -1326 0
-1328 -245 0
-1328 1327 0
1328 245 -1327 0
-1329 45 0
-1329 -242 0
1329 -45 242 0
-1330 -45 0
-1330 242 0
1330 45 -242 0
-1331 -1329 0
-1331 -1330 0
1331 1329 1330 0
-1332 1328 0
-1332 1331 0
1332 -1328 -1331 0
-1333 -44 0
-1333 1332 0
1333 44 -1332 0
-1334 -286 0
-1334 1333 0
1334 286 -1333 0
-1335 -288 0
-1335 1334 0
1335 288 -1334 0
-1336 43 0
-1336 -285 0
1336 -43 285 0
-1337 -43 0
-1337 285 0
1337 43 -285 0
-1338 -1336 0
-1338 -1337 0
1338 1336 1337 0
1339 -2392 0
-1339 2392 0
-1340 1338 0
-1340 1339 0
1340 -1338 -1339 0
-1341 1335 0
-1341 -1340 0
1341 -1335 1340 0
-1342 -1338 0
-1342 -1339 0
1342 1338 1339 0
-1343 1341 0
-1343 -1342 0
1343 -1341 1342 0
-1344 60 0
-1344 -1339 0
1344 -60 1339 0
-1345 -60 0
-1345 1339 0
1345 60 -1339 0
-1346 -1344 0
-1346 -1345 0
1346 1344 1345 0
-1347 1343 0
-1347 1346 0
1347 -1343 -1346 0
-1348 -303 0
-1348 1347 0
1348 303 -1347 0
-1349 -305 0
-1349 1348 0
1349 305 -1348 0
-1350 42 0
-1350 -302 0
1350 -42 302 0
-1351 -42 0
-1351 302 0
1351 42 -302 0
-1352 -1350 0
-1352 -1351 0
1352 1350 1351 0
1353 -2393 0
-1353 2393 0
-1354 1352 0
-1354 1353 0
1354 -1352 -1353 0
-1355 1349 0
-1355 -1354 0
1355 -1349 1354 0
-1356 -1352 0
-1356 -1353 0
1356 1352 1353 0
-1357 1355 0
-1357 -1356 0
1357 -1355 1356 0
-1358 59 0
-1358 -1353 0
1358 -59 1353 0
-1359 -59 0
-1359 1353 0
1359 59 -1353 0
-1360 -1358 0
-1360 -1359 0
1360 1358 1359 0
-1361 1357 0
-1361 1360 0
1361 -1357 -1360 0
-1362 -312 0
-1362 1361 0
1362 312 -1361 0
-1363 -314 0
-1363 1362 0
1363 314 -1362 0
-1364 41 0
-1364 -311 0
1364 -41 311 0
-1365 -41 0
-1365 311 0
1365 41 -311 0
-1366 -1364 0
-1366 -1365 0
1366 1364 1365 0
1367 -2394 0
-1367 2394 0
-1368 1366 0
-1368 1367 0
1368 -1366 -1367 0
-1369 1363 0
-1369 -1368 0
1369 -1363 1368 0
-1370 -1366 0
-1370 -1367 0
1370 1366 1367 0
-1371 1369 0
-1371 -1370 0
1371 -1369 1370 0
-1372 58 0
-1372 -1367 0
1372 -58 1367 0
-1373 -58 0
-1373 1367 0
1373 58 -1367 0
-1374 -1372 0
-1374 -1373 0
1374 1372 1373 0
-1375 1371 0
-1375 1374 0
1375 -1371 -1374 0
-1376 -321 0
-1376 1375 0
1376 321 -1375 0
-1377 -323 0
-1377 1376 0
1377 323 -1376 0
-1378 40 0
-1378 -320 0
1378 -40 320 0
-1379 -40 0
-1379 320 0
1379 40 -320 0
-1380 -1378 0
-1380 -1379 0
1380 1378 1379 0
1381 -2395 0
-1381 2395 0
-1382 1380 0
-1382 1381 0
1382 -1380 -1381 0
-1383 1377 0
-1383 -1382 0
1383 -1377 1382 0
-1384 -1380 0
-1384 -1381 0
1384 1380 1381 0
-1385 1383 0
-1385 -1384 0
1385 -1383 1384 0
-1386 57 0
-1386 -1381 0
1386 -57 1381 0
-1387 -57 0
-1387 1381 0
1387 57 -1381 0
-1388 -1386 0
-1388 -1387 0
1388 1386 1387 0
-1389 1385 0
-1389 1388 0
1389 -1385 -1388 0
-1390 -321 0
-1390 1389 0
1390 321 -1389 0
-1391 -323 0
-1391 1390 0
1391 323 -1390 0
-1392 39 0
-1392 -320 0
1392 -39 320 0
-1393 -39 0
-1393 320 0
1393 39 -320 0
-1394 -1392 0
-1394 -1393 0
1394 1392 1393 0
1395 -2396 0
-1395 2396 0
-1396 1394 0
-1396 1395 0
1396 -1394 -1395 0
-1397 1391 0
-1397 -1396 0
1397 -1391 1396 0
-1398 -1394 0
-1398 -1395 0
1398 1394 1395 0
-1399 1397 0
-1399 -1398 0
1399 -1397 1398 0
-1400 61 0
-1400 -1395 0
1400 -61 1395 0
-1401 -61 0
-1401 1395 0
1401 61 -1395 0
-1402 -1400 0
-1402 -1401 0
1402 1400 1401 0
-1403 1399 0
-1403 1402 0
1403 -1399 -1402 0
-1404 -269 0
-1404 1403 0
1404 269 -1403 0
-1405 -271 0
-1405 1404 0
1405 271 -1404 0
-1406 38 0
-1406 -268 0
1406 -38 268 0
-1407 -38 0
-1407 268 0
1407 38 -268 0
-1408 -1406 0
-1408 -1407 0
1408 1406 1407 0
1409 -2397 0
-1409 2397 0
-1410 1408 0
-1410 1409 0
1410 -1408 -1409 0
-1411 1405 0
-1411 -1410 0
1411 -1405 1410 0
-1412 -1408 0
-1412 -1409 0
1412 1408 1409 0
-1413 1411 0
-1413 -1412 0
1413 -1411 1412 0
-1414 61 0
-1414 -1409 0
1414 -61 1409 0
-1415 -61 0
-1415 1409 0
1415 61 -1409 0
-1416 -1414 0
-1416 -1415 0
1416 1414 1415 0
-1417 1413 0
-1417 1416 0
1417 -1413 -1416 0
-1418 -372 0
-1418 1417 0
1418 372 -1417 0
-1419 -374 0
-1419 1418 0
1419 374 -1418 0
-1420 37 0
-1420 -371 0
1420 -37 371 0
-1421 -37 0
-1421 371 0
1421 37 -371 0
-1422 -1420 0
-1422 -1421 0
1422 1420 1421 0
1423 -2398 0
-1423 2398 0
-1424 1422 0
-1424 1423 0
1424 -1422 -1423 0
-1425 1419 0
-1425 -1424 0
1425 -1419 1424 0
-1426 -1422 0
-1426 -1423 0
1426 1422 1423 0
-1427 1425 0
-1427 -1426 0
1427 -1425 1426 0
-1428 54 0
-1428 -1423 0
1428 -54 1423 0
-1429 -54 0
-1429 1423 0
1429 54 -1423 0
-1430 -1428 0
-1430 -1429 0
1430 1428 1429 0
-1431 1427 0
-1431 1430 0
1431 -1427 -1430 0
-1432 -389 0
-1432 1431 0
1432 389 -1431 0
-1433 -391 0
-1433 1432 0
1433 391 -1432 0
-1434 36 0
-1434 -388 0
1434 -36 388 0
-1435 -36 0
-1435 388 0
1435 36 -388 0
-1436 -1434 0
-1436 -1435 0
1436 1434 1435 0
1437 -2399 0
-1437 2399 0
-1438 1436 0
-1438 1437 0
1438 -1436 -1437 0
-1439 1433 0
-1439 -1438 0
1439 -1433 1438 0
-1440 -1436 0
-1440 -1437 0
1440 1436 1437 0
-1441 1439 0
-1441 -1440 0
1441 -1439 1440 0
-1442 53 0
-1442 -1437 0
1442 -53 1437 0
-1443 -53 0
-1443 1437 0
1443 53 -1437 0
-1444 -1442 0
-1444 -1443 0
1444 1442 1443 0
-1445 1441 0
-1445 1444 0
1445 -1441 -1444 0
-1446 -406 0
-1446 1445 0
1446 406 -1445 0
-1447 -408 0
-1447 1446 0
1447 408 -1446 0
-1448 35 0
-1448 -405 0
1448 -35 405 0
-1449 -35 0
-1449 405 0
1449 35 -405 0
-1450 -1448 0
-1450 -1449 0
1450 1448 1449 0
1451 -2400 0
-1451 2400 0
-1452 1450 0
-1452 1451 0
1452 -1450 -1451 0
-1453 1447 0
-1453 -1452 0
1453 -1447 1452 0
-1454 -1450 0
-1454 -1451 0
1454 1450 1451 0
-1455 1453 0
-1455 -1454 0
1455 -1453 1454 0
-1456 52 0
-1456 -1451 0
1456 -52 1451 0
-1457 -52 0
-1457 1451 0
1457 52 -1451 0
-1458 -1456 0
-1458 -1457 0
1458 1456 1457 0
-1459 1455 0
-1459 1458 0
1459 -1455 -1458 0
-1460 -423 0
-1460 1459 0
1460 423 -1459 0
-1461 -425 0
-1461 1460 0
1461 425 -1460 0
-1462 34 0
-1462 -422 0
1462 -34 422 0
-1463 -34 0
-1463 422 0
1463 34 -422 0
-1464 -1462 0
-1464 -1463 0
1464 1462 1463 0
1465 -2401 0
-1465 2401 0
-1466 1464 0
-1466 1465 0
1466 -1464 -1465 0
-1467 1461 0
-1467 -1466 0
1467 -1461 1466 0
-1468 -1464 0
-1468 -1465 0
1468 1464 1465 0
-1469 1467 0
-1469 -1468 0
1469 -1467 1468 0
-1470 51 0
-1470 -1465 0
1470 -51 1465 0
-1471 -51 0
-1471 1465 0
1471 51 -1465 0
-1472 -1470 0
-1472 -1471 0
1472 1470 1471 0
-1473 1469 0
-1473 1472 0
1473 -1469 -1472 0
-1474 -423 0
-1474 1473 0
1474 423 -1473 0
-1475 -425 0
-1475 1474 0
1475 425 -1474 0
-1476 33 0
-1476 -422 0
1476 -33 422 0
-1477 -33 0
-1477 422 0
1477 33 -422 0
-1478 -1476 0
-1478 -1477 0
1478 1476 1477 0
1479 -2402 0
-1479 2402 0
-1480 1478 0
-1480 1479 0
1480 -1478 -1479 0
-1481 1475 0
-1481 -1480 0
1481 -1475 1480 0
-1482 -1478 0
-1482 -1479 0
1482 1478 1479 0
-1483 1481 0
-1483 -1482 0
1483 -1481 1482 0
-1484 55 0
-1484 -1479 0
1484 -55 1479 0
-1485 -55 0
-1485 1479 0
1485 55 -1479 0
-1486 -1484 0
-1486 -1485 0
1486 1484 1485 0
-1487 1483 0
-1487 1486 0
1487 -1483 -1486 0
-1488 -355 0
-1488 1487 0
1488 355 -1487 0
-1489 -357 0
-1489 1488 0
1489 357 -1488 0
-1490 32 0
-1490 -354 0
1490 -32 354 0
-1491 -32 0
-1491 354 0
1491 32 -354 0
-1492 -1490 0
-1492 -1491 0
1492 1490 1491 0
1493 -2403 0
-1493 2403 0
-1494 1492 0
-1494 1493 0
1494 -1492 -1493 0
-1495 1489 0
-1495 -1494 0
1495 -1489 1494 0
-1496 -1492 0
-1496 -1493 0
1496 1492 1493 0
-1497 1495 0
-1497 -1496 0
1497 -1495 1496 0
-1498 55 0
-1498 -1493 0
1498 -55 1493 0
-1499 -55 0
-1499 1493 0
1499 55 -1493 0
-1500 -1498 0
-1500 -1499 0
1500 1498 1499 0
-1501 1497 0
-1501 1500 0
1501 -1497 -1500 0
-1502 -474 0
-1502 1501 0
1502 474 -1501 0
-1503 -476 0
-1503 1502 0
1503 476 -1502 0
-1504 31 0
-1504 -473 0
1504 -31 473 0
-1505 -31 0
-1505 473 0
1505 31 -473 0
-1506 -1504 0
-1506 -1505 0
1506 1504 1505 0
1507 -2404 0
-1507 2404 0
-1508 1506 0
-1508 1507 0
1508 -1506 -1507 0
-1509 1503 0
-1509 -1508 0
1509 -1503 1508 0
-1510 -1506 0
-1510 -1507 0
1510 1506 1507 0
-1511 1509 0
-1511 -1510 0
1511 -1509 1510 0
-1512 48 0
-1512 -1507 0
1512 -48 1507 0
-1513 -48 0
-1513 1507 0
1513 48 -1507 0
-1514 -1512 0
-1514 -1513 0
1514 1512 1513 0
-1515 1511 0
-1515 1514 0
1515 -1511 -1514 0
-1516 -491 0
-1516 1515 0
1516 491 -1515 0
-1517 -493 0
-1517 1516 0
1517 493 -1516 0
-1518 30 0
-1518 -490 0
1518 -30 490 0
-1519 -30 0
-1519 490 0
1519 30 -490 0
-1520 -1518 0
-1520 -1519 0
1520 1518 1519 0
1521 -2405 0
-1521 2405 0
-1522 1520 0
-1522 1521 0
1522 -1520 -1521 0
-1523 1517 0
-1523 -1522 0
1523 -1517 1522 0
-1524 -1520 0
-1524 -1521 0
1524 1520 1521 0
-1525 1523 0
-1525 -1524 0
1525 -1523 1524 0
-1526 47 0
-1526 -1521 0
1526 -47 1521 0
-1527 -47 0
-1527 1521 0
1527 47 -1521 0
-1528 -1526 0
-1528 -1527 0
1528 1526 1527 0
-1529 1525 0
-1529 1528 0
1529 -1525 -1528 0
-1530 -508 0
-1530 1529 0
1530 508 -1529 0
-1531 -510 0
-1531 1530 0
1531 510 -1530 0
-1532 29 0
-1532 -507 0
1532 -29 507 0
-1533 -29 0
-1533 507 0
1533 29 -507 0
-1534 -1532 0
-1534 -1533 0
1534 1532 1533 0
1535 -2406 0
-1535 2406 0
-1536 1534 0
-1536 1535 0
1536 -1534 -1535 0
-1537 1531 0
-1537 -1536 0
1537 -1531 1536 0
-1538 -1534 0
-1538 -1535 0
1538 1534 1535 0
-1539 1537 0
-1539 -1538 0
1539 -1537 1538 0
-1540 46 0
-1540 -1535 0
1540 -46 1535 0
-1541 -46 0
-1541 1535 0
1541 46 -1535 0
-1542 -1540 0
-1542 -1541 0
1542 1540 1541 0
-1543 1539 0
-1543 1542 0
1543 -1539 -1542 0
-1544 -525 0
-1544 1543 0
1544 525 -1543 0
-1545 -527 0
-1545 1544 0
1545 527 -1544 0
-1546 28 0
-1546 -524 0
1546 -28 524 0
-1547 -28 0
-1547 524 0
1547 28 -524 0
-1548 -1546 0
-1548 -1547 0
1548 1546 1547 0
1549 -2407 0
-1549 2407 0
-1550 1548 0
-1550 1549 0
1550 -1548 -1549 0
-1551 1545 0
-1551 -1550 0
1551 -1545 1550 0
-1552 -1548 0
-1552 -1549 0
1552 1548 1549 0
-1553 1551 0
-1553 -1552 0
1553 -1551 1552 0
-1554 45 0
-1554 -1549 0
1554 -45 1549 0
-1555 -45 0
-1555 1549 0
1555 45 -1549 0
-1556 -1554 0
-1556 -1555 0
1556 1554 1555 0
-1557 1553 0
-1557 1556 0
1557 -1553 -1556 0
-1558 -525 0
-1558 1557 0
1558 525 -1557 0
-1559 -527 0
-1559 1558 0
1559 527 -1558 0
-1560 27 0
-1560 -524 0
1560 -27 524 0
-1561 -27 0
-1561 524 0
1561 27 -524 0
-1562 -1560 0
-1562 -1561 0
1562 1560 1561 0
1563 -2408 0
-1563 2408 0
-1564 1562 0
-1564 1563 0
1564 -1562 -1563 0
-1565 1559 0
-1565 -1564 0
1565 -1559 1564 0
-1566 -1562 0
-1566 -1563 0
1566 1562 1563 0
-1567 1565 0
-1567 -1566 0
1567 -1565 1566 0
-1568 49 0
-1568 -1563 0
1568 -49 1563 0
-1569 -49 0
-1569 1563 0
1569 49 -1563 0
-1570 -1568 0
-1570 -1569 0
1570 1568 1569 0
-1571 1567 0
-1571 1570 0
1571 -1567 -1570 0
-1572 -457 0
-1572 1571 0
1572 457 -1571 0
-1573 -459 0
-1573 1572 0
1573 459 -1572 0
-1574 26 0
-1574 -456 0
1574 -26 456 0
-1575 -26 0
-1575 456 0
1575 26 -456 0
-1576 -1574 0
-1576 -1575 0
1576 1574 1575 0
1577 -2409 0
-1577 2409 0
-1578 1576 0
-1578 1577 0
1578 -1576 -1577 0
-1579 1573 0
-1579 -1578 0
1579 -1573 1578 0
-1580 -1576 0
-1580 -1577 0
1580 1576 1577 0
-1581 1579 0
-1581 -1580 0
1581 -1579 1580 0
-1582 49 0
-1582 -1577 0
1582 -49 1577 0
-1583 -49 0
-1583 1577 0
1583 49 -1577 0
-1584 -1582 0
-1584 -1583 0
1584 1582 1583 0
-1585 1581 0
-1585 1584 0
1585 -1581 -1584 0
-1586 -576 0
-1586 1585 0
1586 576 -1585 0
-1587 -578 0
-1587 1586 0
1587 578 -1586 0
-1588 25 0
-1588 -575 0
1588 -25 575 0
-1589 -25 0
-1589 575 0
1589 25 -575 0
-1590 -1588 0
-1590 -1589 0
1590 1588 1589 0
1591 -2410 0
-1591 2410 0
-1592 1590 0
-1592 1591 0
1592 -1590 -1591 0
-1593 1587 0
-1593 -1592 0
1593 -1587 1592 0
-1594 -1590 0
-1594 -1591 0
1594 1590 1591 0
-1595 1593 0
-1595 -1594 0
1595 -1593 1594 0
-1596 42 0
-1596 -1591 0
1596 -42 1591 0
-1597 -42 0
-1597 1591 0
1597 42 -1591 0
-1598 -1596 0
-1598 -1597 0
1598 1596 1597 0
-1599 1595 0
-1599 1598 0
1599 -1595 -1598 0
-1600 -593 0
-1600 1599 0
1600 593 -1599 0
-1601 -595 0
-1601 1600 0
1601 595 -1600 0
-1602 24 0
-1602 -592 0
1602 -24 592 0
-1603 -24 0
-1603 592 0
1603 24 -592 0
-1604 -1602 0
-1604 -1603 0
1604 1602 1603 0
1605 -2411 0
-1605 2411 0
-1606 1604 0
-1606 1605 0
1606 -1604 -1605 0
-1607 1601 0
-1607 -1606 0
1607 -1601 1606 0
-1608 -1604 0
-1608 -1605 0
1608 1604 1605 0
-1609 1607 0
-1609 -1608 0
1609 -1607 1608 0
-1610 41 0
-1610 -1605 0
1610 -41 1605 0
-1611 -41 0
-1611 1605 0
1611 41 -1605 0
-1612 -1610 0
-1612 -1611 0
1612 1610 1611 0
-1613 1609 0
-1613 1612 0
1613 -1609 -1612 0
-1614 -610 0
-1614 1613 0
1614 610 -1613 0
-1615 -612 0
-1615 1614 0
1615 612 -1614 0
-1616 23 0
-1616 -609 0
1616 -23 609 0
-1617 -23 0
-1617 609 0
1617 23 -609 0
-1618 -1616 0
-1618 -1617 0
1618 1616 1617 0
1619 -2412 0
-1619 2412 0
-1620 1618 0
-1620 1619 0
1620 -1618 -1619 0
-1621 1615 0
-1621 -1620 0
1621 -1615 1620 0
-1622 -1618 0
-1622 -1619 0
1622 1618 1619 0
-1623 1621 0
-1623 -1622 0
1623 -1621 1622 0
-1624 40 0
-1624 -1619 0
1624 -40 1619 0
-1625 -40 0
-1625 1619 0
1625 40 -1619 0
-1626 -1624 0
-1626 -1625 0
1626 1624 1625 0
-1627 1623 0
-1627 1626 0
1627 -1623 -1626 0
-1628 -627 0
-1628 1627 0
1628 627 -1627 0
-1629 -629 0
-1629 1628 0
1629 629 -1628 0
-1630 22 0
-1630 -626 0
1630 -22 626 0
-1631 -22 0
-1631 626 0
1631 22 -626 0
-1632 -1630 0
-1632 -1631 0
1632 1630 1631 0
1633 -2413 0
-1633 2413 0
-1634 1632 0
-1634 1633 0
1634 -1632 -1633 0
-1635 1629 0
-1635 -1634 0
1635 -1629 1634 0
-1636 -1632 0
-1636 -1633 0
1636 1632 1633 0
-1637 1635 0
-1637 -1636 0
1637 -1635 1636 0
-1638 39 0
-1638 -1633 0
1638 -39 1633 0
-1639 -39 0
-1639 1633 0
1639 39 -1633 0
-1640 -1638 0
-1640 -1639 0
1640 1638 1639 0
-1641 1637 0
-1641 1640 0
1641 -1637 -1640 0
-1642 -627 0
-1642 1641 0
1642 627 -1641 0
-1643 -629 0
-1643 1642 0
1643 629 -1642 0
-1644 21 0
-1644 -626 0
1644 -21 626 0
-1645 -21 0
-1645 626 0
1645 21 -626 0
-1646 -1644 0
-1646 -1645 0
1646 1644 1645 0
1647 -2414 0
-1647 2414 0
-1648 1646 0
-1648 1647 0
1648 -1646 -1647 0
-1649 1643 0
-1649 -1648 0
1649 -1643 1648 0
-1650 -1646 0
-1650 -1647 0
1650 1646 1647 0
-1651 1649 0
-1651 -1650 0
1651 -1649 1650 0
-1652 43 0
-1652 -1647 0
1652 -43 1647 0
-1653 -43 0
-1653 1647 0
1653 43 -1647 0
-1654 -1652 0
-1654 -1653 0
1654 1652 1653 0
-1655 1651 0
-1655 1654 0
1655 -1651 -1654 0
-1656 -559 0
-1656 1655 0
1656 559 -1655 0
-1657 -561 0
-1657 1656 0
1657 561 -1656 0
-1658 20 0
-1658 -558 0
1658 -20 558 0
-1659 -20 0
-1659 558 0
1659 20 -558 0
-1660 -1658 0
-1660 -1659 0
1660 1658 1659 0
1661 -2415 0
-1661 2415 0
-1662 1660 0
-1662 1661 0
1662 -1660 -1661 0
-1663 1657 0
-1663 -1662 0
1663 -1657 1662 0
-1664 -1660 0
-1664 -1661 0
1664 1660 1661 0
-1665 1663 0
-1665 -1664 0
1665 -1663 1664 0
-1666 43 0
-1666 -1661 0
1666 -43 1661 0
-1667 -43 0
-1667 1661 0
1667 43 -1661 0
-1668 -1666 0
-1668 -1667 0
1668 1666 1667 0
-1669 1665 0
-1669 1668 0
1669 -1665 -1668 0
-1670 -678 0
-1670 1669 0
1670 678 -1669 0
-1671 -680 0
-1671 1670 0
1671 680 -1670 0
-1672 19 0
-1672 -677 0
1672 -19 677 0
-1673 -19 0
-1673 677 0
1673 19 -677 0
-1674 -1672 0
-1674 -1673 0
1674 1672 1673 0
1675 -2416 0
-1675 2416 0
-1676 1674 0
-1676 1675 0
1676 -1674 -1675 0
-1677 1671 0
-1677 -1676 0
1677 -1671 1676 0
-1678 -1674 0
-1678 -1675 0
1678 1674 1675 0
-1679 1677 0
-1679 -1678 0
1679 -1677 1678 0
-1680 36 0
-1680 -1675 0
1680 -36 1675 0
-1681 -36 0
-1681 1675 0
1681 36 -1675 0
-1682 -1680 0
-1682 -1681 0
1682 1680 1681 0
-1683 1679 0
-1683 1682 0
1683 -1679 -1682 0
-1684 -695 0
-1684 1683 0
1684 695 -1683 0
-1685 -697 0
-1685 1684 0
1685 697 -1684 0
-1686 18 0
-1686 -694 0
1686 -18 694 0
-1687 -18 0
-1687 694 0
1687 18 -694 0
-1688 -1686 0
-1688 -1687 0
1688 1686 1687 0
1689 -2417 0
-1689 2417 0
-1690 1688 0
-1690 1689 0
1690 -1688 -1689 0
-1691 1685 0
-1691 -1690 0
1691 -1685 1690 0
-1692 -1688 0
-1692 -1689 0
1692 1688 1689 0
-1693 1691 0
-1693 -1692 0
1693 -1691 1692 0
-1694 35 0
-1694 -1689 0
1694 -35 1689 0
-1695 -35 0
-1695 1689 0
1695 35 -1689 0
-1696 -1694 0
-1696 -1695 0
1696 1694 1695 0
-1697 1693 0
-1697 1696 0
1697 -1693 -1696 0
-1698 -712 0
-1698 1697 0
1698 712 -1697 0
-1699 -714 0
-1699 1698 0
1699 714 -1698 0
-1700 17 0
-1700 -711 0
1700 -17 711 0
-1701 -17 0
-1701 711 0
1701 17 -711 0
-1702 -1700 0
-1702 -1701 0
1702 1700 1701 0
1703 -2418 0
-1703 2418 0
-1704 1702 0
-1704 1703 0
1704 -1702 -1703 0
-1705 1699 0
-1705 -1704 0
1705 -1699 1704 0
-1706 -1702 0
-1706 -1703 0
1706 1702 1703 0
-1707 1705 0
-1707 -1706 0
1707 -1705 1706 0
-1708 34 0
-1708 -1703 0
1708 -34 1703 0
-1709 -34 0
-1709 1703 0
1709 34 -1703 0
-1710 -1708 0
-1710 -1709 0
1710 1708 1709 0
-1711 1707 0
-1711 1710 0
1711 -1707 -1710 0
-1712 -729 0
-1712 1711 0
1712 729 -1711 0
-1713 -731 0
-1713 1712 0
1713 731 -1712 0
-1714 16 0
-1714 -728 0
1714 -16 728 0
-1715 -16 0
-1715 728 0
1715 16 -728 0
-1716 -1714 0
-1716 -1715 0
1716 1714 1715 0
1717 -2419 0
-1717 2419 0
-1718 1716 0
-1718 1717 0
1718 -1716 -1717 0
-1719 1713 0
-1719 -1718 0
1719 -1713 1718 0
-1720 -1716 0
-1720 -1717 0
1720 1716 1717 0
-1721 1719 0
-1721 -1720 0
1721 -1719 1720 0
-1722 33 0
-1722 -1717 0
1722 -33 1717 0
-1723 -33 0
-1723 1717 0
1723 33 -1717 0
-1724 -1722 0
-1724 -1723 0
1724 1722 1723 0
-1725 1721 0
-1725 1724 0
1725 -1721 -1724 0
-1726 -729 0
-1726 1725 0
1726 729 -1725 0
-1727 -731 0
-1727 1726 0
1727 731 -1726 0
-1728 15 0
-1728 -728 0
1728 -15 728 0
-1729 -15 0
-1729 728 0
1729 15 -728 0
-1730 -1728 0
-1730 -1729 0
1730 1728 1729 0
1731 -2420 0
-1731 2420 0
-1732 1730 0
-1732 1731 0
1732 -1730 -1731 0
-1733 1727 0
-1733 -1732 0
1733 -1727 1732 0
-1734 -1730 0
-1734 -1731 0
1734 1730 1731 0
-1735 1733 0
-1735 -1734 0
1735 -1733 1734 0
-1736 37 0
-1736 -1731 0
1736 -37 1731 0
-1737 -37 0
-1737 1731 0
1737 37 -1731 0
-1738 -1736 0
-1738 -1737 0
1738 1736 1737 0
-1739 1735 0
-1739 1738 0
1739 -1735 -1738 0
-1740 -661 0
-1740 1739 0
1740 661 -1739 0
-1741 -663 0
-1741 1740 0
1741 663 -1740 0
-1742 14 0
-1742 -660 0
1742 -14 660 0
-1743 -14 0
-1743 660 0
1743 14 -660 0
-1744 -1742 0
-1744 -1743 0
1744 1742 1743 0
1745 -2421 0
-1745 2421 0
-1746 1744 0
-1746 1745 0
1746 -1744 -1745 0
-1747 1741 0
-1747 -1746 0
1747 -1741 1746 0
-1748 -1744 0
-1748 -1745 0
1748 1744 1745 0
-1749 1747 0
-1749 -1748 0
1749 -1747 1748 0
-1750 37 0
-1750 -1745 0
1750 -37 1745 0
-1751 -37 0
-1751 1745 0
1751 37 -1745 0
-1752 -1750 0
-1752 -1751 0
1752 1750 1751 0
-1753 1749 0
-1753 1752 0
1753 -1749 -1752 0
-1754 -780 0
-1754 1753 0
1754 780 -1753 0
-1755 -782 0
-1755 1754 0
1755 782 -1754 0
-1756 13 0
-1756 -779 0
1756 -13 779 0
-1757 -13 0
-1757 779 0
1757 13 -779 0
-1758 -1756 0
-1758 -1757 0
1758 1756 1757 0
1759 -2422 0
-1759 2422 0
-1760 1758 0
-1760 1759 0
1760 -1758 -1759 0
-1761 1755 0
-1761 -1760 0
1761 -1755 1760 0
-1762 -1758 0
-1762 -1759 0
1762 1758 1759 0
-1763 1761 0
-1763 -1762 0
1763 -1761 1762 0
-1764 30 0
-1764 -1759 0
1764 -30 1759 0
-1765 -30 0
-1765 1759 0
1765 30 -1759 0
-1766 -1764 0
-1766 -1765 0
1766 1764 1765 0
-1767 1763 0
-1767 1766 0
1767 -1763 -1766 0
-1768 -797 0
-1768 1767 0
1768 797 -1767 0
-1769 -799 0
-1769 1768 0
1769 799 -1768 0
-1770 12 0
-1770 -796 0
1770 -12 796 0
-1771 -12 0
-1771 796 0
1771 12 -796 0
-1772 -1770 0
-1772 -1771 0
1772 1770 1771 0
1773 -2423 0
-1773 2423 0
-1774 1772 0
-1774 1773 0
1774 -1772 -1773 0
-1775 1769 0
-1775 -1774 0
1775 -1769 1774 0
-1776 -1772 0
-1776 -1773 0
1776 1772 1773 0
-1777 1775 0
-1777 -1776 0
1777 -1775 1776 0
-1778 29 0
-1778 -1773 0
1778 -29 1773 0
-1779 -29 0
-1779 1773 0
1779 29 -1773 0
-1780 -1778 0
-1780 -1779 0
1780 1778 1779 0
-1781 1777 0
-1781 1780 0
1781 -1777 -1780 0
-1782 -814 0
-1782 1781 0
1782 814 -1781 0
-1783 -816 0
-1783 1782 0
1783 816 -1782 0
-1784 11 0
-1784 -813 0
1784 -11 813 0
-1785 -11 0
-1785 813 0
1785 11 -813 0
-1786 -1784 0
-1786 -1785 0
1786 1784 1785 0
1787 -2424 0
-1787 2424 0
-1788 1786 0
-1788 1787 0
1788 -1786 -1787 0
-1789 1783 0
-1789 -1788 0
1789 -1783 1788 0
-1790 -1786 0
-1790 -1787 0
1790 1786 1787 0
-1791 1789 0
-1791 -1790 0
1791 -1789 1790 0
-1792 28 0
-1792 -1787 0
1792 -28 1787 0
-1793 -28 0
-1793 1787 0
1793 28 -1787 0
-1794 -1792 0
-1794 -1793 0
1794 1792 1793 0
-1795 1791 0
-1795 1794 0
1795 -1791 -1794 0
-1796 -831 0
-1796 1795 0
1796 831 -1795 0
-1797 -833 0
-1797 1796 0
1797 833 -1796 0
-1798 10 0
-1798 -830 0
1798 -10 830 0
-1799 -10 0
-1799 830 0
1799 10 -830 0
-1800 -1798 0
-1800 -1799 0
1800 1798 1799 0
1801 -2425 0
-1801 2425 0
-1802 1800 0
-1802 1801 0
1802 -1800 -1801 0
-1803 1797 0
-1803 -1802 0
1803 -1797 1802 0
-1804 -1800 0
-1804 -1801 0
1804 1800 1801 0
-1805 1803 0
-1805 -1804 0
1805 -1803 1804 0
-1806 27 0
-1806 -1801 0
1806 -27 1801 0
-1807 -27 0
-1807 1801 0
1807 27 -1801 0
-1808 -1806 0
-1808 -1807 0
1808 1806 1807 0
-1809 1805 0
-1809 1808 0
1809 -1805 -1808 0
-1810 -831 0
-1810 1809 0
1810 831 -1809 0
-1811 -833 0
-1811 1810 0
1811 833 -1810 0
-1812 9 0
-1812 -830 0
1812 -9 830 0
-1813 -9 0
-1813 830 0
1813 9 -830 0
-1814 -1812 0
-1814 -1813 0
1814 1812 1813 0
1815 -2426 0
-1815 2426 0
-1816 1814 0
-1816 1815 0
1816 -1814 -1815 0
-1817 1811 0
-1817 -1816 0
1817 -1811 1816 0
-1818 -1814 0
-1818 -1815 0
1818 1814 1815 0
-1819 1817 0
-1819 -1818 0
1819 -1817 1818 0
-1820 31 0
-1820 -1815 0
1820 -31 1815 0
-1821 -31 0
-1821 1815 0
1821 31 -1815 0
-1822 -1820 0
-1822 -1821 0
1822 1820 1821 0
-1823 1819 0
-1823 1822 0
1823 -1819 -1822 0
-1824 -763 0
-1824 1823 0
1824 763 -1823 0
-1825 -765 0
-1825 1824 0
1825 765 -1824 0
-1826 8 0
-1826 -762 0
1826 -8 762 0
-1827 -8 0
-1827 762 0
1827 8 -762 0
-1828 -1826 0
-1828 -1827 0
1828 1826 1827 0
1829 -2427 0
-1829 2427 0
-1830 1828 0
-1830 1829 0
1830 -1828 -1829 0
-1831 1825 0
-1831 -1830 0
1831 -1825 1830 0
-1832 -1828 0
-1832 -1829 0
1832 1828 1829 0
-1833 1831 0
-1833 -1832 0
1833 -1831 1832 0
-1834 31 0
-1834 -1829 0
1834 -31 1829 0
-1835 -31 0
-1835 1829 0
1835 31 -1829 0
-1836 -1834 0
-1836 -1835 0
1836 1834 1835 0
-1837 1833 0
-1837 1836 0
1837 -1833 -1836 0
-1838 -882 0
-1838 1837 0
1838 882 -1837 0
-1839 -884 0
-1839 1838 0
1839 884 -1838 0
-1840 7 0
-1840 -881 0
1840 -7 881 0
-1841 -7 0
-1841 881 0
1841 7 -881 0
-1842 -1840 0
-1842 -1841 0
1842 1840 1841 0
1843 -2428 0
-1843 2428 0
-1844 1842 0
-1844 1843 0
1844 -1842 -1843 0
-1845 1839 0
-1845 -1844 0
1845 -1839 1844 0
-1846 -1842 0
-1846 -1843 0
1846 1842 1843 0
-1847 1845 0
-1847 -1846 0
1847 -1845 1846 0
-1848 24 0
-1848 -1843 0
1848 -24 1843 0
-1849 -24 0
-1849 1843 0
1849 24 -1843 0
-1850 -1848 0
-1850 -1849 0
1850 1848 1849 0
-1851 1847 0
-1851 1850 0
1851 -1847 -1850 0
-1852 -899 0
-1852 1851 0
1852 899 -1851 0
-1853 -901 0
-1853 1852 0
1853 901 -1852 0
-1854 6 0
-1854 -898 0
1854 -6 898 0
-1855 -6 0
-1855 898 0
1855 6 -898 0
-1856 -1854 0
-1856 -1855 0
1856 1854 1855 0
1857 -2429 0
-1857 2429 0
-1858 1856 0
-1858 1857 0
1858 -1856 -1857 0
-1859 1853 0
-1859 -1858 0
1859 -1853 1858 0
-1860 -1856 0
-1860 -1857 0
1860 1856 1857 0
-1861 1859 0
-1861 -1860 0
1861 -1859 1860 0
-1862 23 0
-1862 -1857 0
1862 -23 1857 0
-1863 -23 0
-1863 1857 0
1863 23 -1857 0
-1864 -1862 0
-1864 -1863 0
1864 1862 1863 0
-1865 1861 0
-1865 1864 0
1865 -1861 -1864 0
-1866 -916 0
-1866 1865 0
1866 916 -1865 0
-1867 -918 0
-1867 1866 0
1867 918 -1866 0
-1868 5 0
-1868 -915 0
1868 -5 915 0
-1869 -5 0
-1869 915 0
1869 5 -915 0
-1870 -1868 0
-1870 -1869 0
1870 1868 1869 0
1871 -2430 0
-1871 2430 0
-1872 1870 0
-1872 1871 0
1872 -1870 -1871 0
-1873 1867 0
-1873 -1872 0
1873 -1867 1872 0
-1874 -1870 0
-1874 -1871 0
1874 1870 1871 0
-1875 1873 0
-1875 -1874 0
1875 -1873 1874 0
-1876 22 0
-1876 -1871 0
1876 -22 1871 0
-1877 -22 0
-1877 1871 0
1877 22 -1871 0
-1878 -1876 0
-1878 -1877 0
1878 1876 1877 0
-1879 1875 0
-1879 1878 0
1879 -1875 -1878 0
-1880 -933 0
-1880 1879 0
1880 933 -1879 0
-1881 -935 0
-1881 1880 0
1881 935 -1880 0
-1882 4 0
-1882 -932 0
1882 -4 932 0
-1883 -4 0
-1883 932 0
1883 4 -932 0
-1884 -1882 0
-1884 -1883 0
1884 1882 1883 0
1885 -2431 0
-1885 2431 0
-1886 1884 0
-1886 1885 0
1886 -1884 -1885 0
-1887 1881 0
-1887 -1886 0
1887 -1881 1886 0
-1888 -1884 0
-1888 -1885 0
1888 1884 1885 0
-1889 1887 0
-1889 -1888 0
1889 -1887 1888 0
-1890 21 0
-1890 -1885 0
1890 -21 1885 0
-1891 -21 0
-1891 1885 0
1891 21 -1885 0
-1892 -1890 0
-1892 -1891 0
1892 1890 1891 0
-1893 1889 0
-1893 1892 0
1893 -1889 -1892 0
-1894 -933 0
-1894 1893 0
1894 933 -1893 0
-1895 -935 0
-1895 1894 0
1895 935 -1894 0
-1896 3 0
-1896 -932 0
1896 -3 932 0
-1897 -3 0
-1897 932 0
1897 3 -932 0
-1898 -1896 0
-1898 -1897 0
1898 1896 1897 0
1899 -2432 0
-1899 2432 0
-1900 1898 0
-1900 1899 0
1900 -1898 -1899 0
-1901 1895 0
-1901 -1900 0
1901 -1895 1900 0
-1902 -1898 0
-1902 -1899 0
1902 1898 1899 0
-1903 1901 0
-1903 -1902 0
1903 -1901 1902 0
-1904 25 0
-1904 -1899 0
1904 -25 1899 0
-1905 -25 0
-1905 1899 0
1905 25 -1899 0
-1906 -1904 0
-1906 -1905 0
1906 1904 1905 0
-1907 1903 0
-1907 1906 0
1907 -1903 -1906 0
-1908 -865 0
-1908 1907 0
1908 865 -1907 0
-1909 -867 0
-1909 1908 0
1909 867 -1908 0
-1910 2 0
-1910 -864 0
1910 -2 864 0
-1911 -2 0
-1911 864 0
1911 2 -864 0
-1912 -1910 0
-1912 -1911 0
1912 1910 1911 0
1913 -2433 0
-1913 2433 0
-1914 1912 0
-1914 1913 0
1914 -1912 -1913 0
-1915 1909 0
-1915 -1914 0
1915 -1909 1914 0
-1916 -1912 0
-1916 -1913 0
1916 1912 1913 0
-1917 1915 0
-1917 -1916 0
1917 -1915 1916 0
-1918 25 0
-1918 -1913 0
1918 -25 1913 0
-1919 -25 0
-1919 1913 0
1919 25 -1913 0
-1920 -1918 0
-1920 -1919 0
1920 1918 1919 0
-1921 1917 0
-1921 1920 0
1921 -1917 -1920 0
-1922 -967 0
-1922 1921 0
1922 967 -1921 0
-1923 -969 0
-1923 1922 0
1923 969 -1922 0
-1924 17 0
-1924 -966 0
1924 -17 966 0
-1925 -17 0
-1925 966 0
1925 17 -966 0
-1926 -1924 0
-1926 -1925 0
1926 1924 1925 0
-1927 1923 0
-1927 1926 0
1927 -1923 -1926 0
-1928 -984 0
-1928 1927 0
1928 984 -1927 0
-1929 -986 0
-1929 1928 0
1929 986 -1928 0
-1930 16 0
-1930 -983 0
1930 -16 983 0
-1931 -16 0
-1931 983 0
1931 16 -983 0
-1932 -1930 0
-1932 -1931 0
1932 1930 1931 0
-1933 1929 0
-1933 1932 0
1933 -1929 -1932 0
-1934 -1001 0
-1934 1933 0
1934 1001 -1933 0
-1935 -1003 0
-1935 1934 0
1935 1003 -1934 0
-1936 15 0
-1936 -1000 0
1936 -15 1000 0
-1937 -15 0
-1937 1000 0
1937 15 -1000 0
-1938 -1936 0
-1938 -1937 0
1938 1936 1937 0
-1939 1935 0
-1939 1938 0
1939 -1935 -1938 0
-1940 -1018 0
-1940 1939 0
1940 1018 -1939 0
-1941 -1020 0
-1941 1940 0
1941 1020 -1940 0
-1942 14 0
-1942 -1017 0
1942 -14 1017 0
-1943 -14 0
-1943 1017 0
1943 14 -1017 0
-1944 -1942 0
-1944 -1943 0
1944 1942 1943 0
-1945 1941 0
-1945 1944 0
1945 -1941 -1944 0
-1946 -950 0
-1946 1945 0
1946 950 -1945 0
-1947 -952 0
-1947 1946 0
1947 952 -1946 0
-1948 14 0
-1948 -949 0
1948 -14 949 0
-1949 -14 0
-1949 949 0
1949 14 -949 0
-1950 -1948 0
-1950 -1949 0
1950 1948 1949 0
1951 -2434 0
-1951 2434 0
-1952 1950 0
-1952 1951 0
1952 -1950 -1951 0
-1953 1947 0
-1953 -1952 0
1953 -1947 1952 0
-1954 -1950 0
-1954 -1951 0
1954 1950 1951 0
-1955 1953 0
-1955 -1954 0
1955 -1953 1954 0
-1956 67 0
-1956 -1951 0
1956 -67 1951 0
-1957 -67 0
-1957 1951 0
1957 67 -1951 0
-1958 -1956 0
-1958 -1957 0
1958 1956 1957 0
-1959 1955 0
-1959 1958 0
1959 -1955 -1958 0
-1960 -950 0
-1960 1959 0
1960 950 -1959 0
-1961 -952 0
-1961 1960 0
1961 952 -1960 0
-1962 18 0
-1962 -949 0
1962 -18 949 0
-1963 -18 0
-1963 949 0
1963 18 -949 0
-1964 -1962 0
-1964 -1963 0
1964 1962 1963 0
1965 -2435 0
-1965 2435 0
-1966 1964 0
-1966 1965 0
1966 -1964 -1965 0
-1967 1961 0
-1967 -1966 0
1967 -1961 1966 0
-1968 -1964 0
-1968 -1965 0
1968 1964 1965 0
-1969 1967 0
-1969 -1968 0
1969 -1967 1968 0
-1970 66 0
-1970 -1965 0
1970 -66 1965 0
-1971 -66 0
-1971 1965 0
1971 66 -1965 0
-1972 -1970 0
-1972 -1971 0
1972 1970 1971 0
-1973 1969 0
-1973 1972 0
1973 -1969 -1972 0
-1974 -1069 0
-1974 1973 0
1974 1069 -1973 0
-1975 -1071 0
-1975 1974 0
1975 1071 -1974 0
-1976 11 0
-1976 -1068 0
1976 -11 1068 0
-1977 -11 0
-1977 1068 0
1977 11 -1068 0
-1978 -1976 0
-1978 -1977 0
1978 1976 1977 0
-1979 1975 0
-1979 1978 0
1979 -1975 -1978 0
-1980 -1086 0
-1980 1979 0
1980 1086 -1979 0
-1981 -1088 0
-1981 1980 0
1981 1088 -1980 0
-1982 10 0
-1982 -1085 0
1982 -10 1085 0
-1983 -10 0
-1983 1085 0
1983 10 -1085 0
-1984 -1982 0
-1984 -1983 0
1984 1982 1983 0
-1985 1981 0
-1985 1984 0
1985 -1981 -1984 0
-1986 -1103 0
-1986 1985 0
1986 1103 -1985 0
-1987 -1105 0
-1987 1986 0
1987 1105 -1986 0
-1988 9 0
-1988 -1102 0
1988 -9 1102 0
-1989 -9 0
-1989 1102 0
1989 9 -1102 0
-1990 -1988 0
-1990 -1989 0
1990 1988 1989 0
1991 -2436 0
-1991 2436 0
-1992 1990 0
-1992 1991 0
1992 -1990 -1991 0
-1993 1987 0
-1993 -1992 0
1993 -1987 1992 0
-1994 -1990 0
-1994 -1991 0
1994 1990 1991 0
-1995 1993 0
-1995 -1994 0
1995 -1993 1994 0
-1996 65 0
-1996 -1991 0
1996 -65 1991 0
-1997 -65 0
-1997 1991 0
1997 65 -1991 0
-1998 -1996 0
-1998 -1997 0
1998 1996 1997 0
-1999 1995 0
-1999 1998 0
1999 -1995 -1998 0
-2000 -1120 0
-2000 1999 0
2000 1120 -1999 0
-2001 -1122 0
-2001 2000 0
2001 1122 -2000 0
-2002 8 0
-2002 -1119 0
2002 -8 1119 0
-2003 -8 0
-2003 1119 0
2003 8 -1119 0
-2004 -2002 0
-2004 -2003 0
2004 2002 2003 0
2005 -2437 0
-2005 2437 0
-2006 2004 0
-2006 2005 0
2006 -2004 -2005 0
-2007 2001 0
-2007 -2006 0
2007 -2001 2006 0
-2008 -2004 0
-2008 -2005 0
2008 2004 2005 0
-2009 2007 0
-2009 -2008 0
2009 -2007 2008 0
-2010 64 0
-2010 -2005 0
2010 -64 2005 0
-2011 -64 0
-2011 2005 0
2011 64 -2005 0
-2012 -2010 0
-2012 -2011 0
2012 2010 2011 0
-2013 2009 0
-2013 2012 0
2013 -2009 -2012 0
-2014 -1052 0
-2014 2013 0
2014 1052 -2013 0
-2015 -1054 0
-2015 2014 0
2015 1054 -2014 0
-2016 8 0
-2016 -1051 0
2016 -8 1051 0
-2017 -8 0
-2017 1051 0
2017 8 -1051 0
-2018 -2016 0
-2018 -2017 0
2018 2016 2017 0
2019 -2438 0
-2019 2438 0
-2020 2018 0
-2020 2019 0
2020 -2018 -2019 0
-2021 2015 0
-2021 -2020 0
2021 -2015 2020 0
-2022 -2018 0
-2022 -2019 0
2022 2018 2019 0
-2023 2021 0
-2023 -2022 0
2023 -2021 2022 0
-2024 63 0
-2024 -2019 0
2024 -63 2019 0
-2025 -63 0
-2025 2019 0
2025 63 -2019 0
-2026 -2024 0
-2026 -2025 0
2026 2024 2025 0
-2027 2023 0
-2027 2026 0
2027 -2023 -2026 0
-2028 -1052 0
-2028 2027 0
2028 1052 -2027 0
-2029 -1054 0
-2029 2028 0
2029 1054 -2028 0
-2030 12 0
-2030 -1051 0
2030 -12 1051 0
-2031 -12 0
-2031 1051 0
2031 12 -1051 0
-2032 -2030 0
-2032 -2031 0
2032 2030 2031 0
2033 -2439 0
-2033 2439 0
-2034 2032 0
-2034 2033 0
2034 -2032 -2033 0
-2035 2029 0
-2035 -2034 0
2035 -2029 2034 0
-2036 -2032 0
-2036 -2033 0
2036 2032 2033 0
-2037 2035 0
-2037 -2036 0
2037 -2035 2036 0
-2038 62 0
-2038 -2033 0
2038 -62 2033 0
-2039 -62 0
-2039 2033 0
2039 62 -2033 0
-2040 -2038 0
-2040 -2039 0
2040 2038 2039 0
-2041 2037 0
-2041 2040 0
2041 -2037 -2040 0
2042 -2440 0
-2042 2440 0
-2043 6 0
-2043 -2042 0
2043 -6 2042 0
-2044 2041 0
-2044 -2043 0
2044 -2041 2043 0
-2045 -6 0
-2045 2042 0
2045 6 -2042 0
-2046 2044 0
-2046 -2045 0
2046 -2044 2045 0
-2047 5 0
-2047 -2042 0
2047 -5 2042 0
-2048 -5 0
-2048 2042 0
2048 5 -2042 0
-2049 -2047 0
-2049 -2048 0
2049 2047 2048 0
2050 -2441 0
-2050 2441 0
-2051 2049 0
-2051 2050 0
2051 -2049 -2050 0
-2052 2046 0
-2052 -2051 0
2052 -2046 2051 0
-2053 -2049 0
-2053 -2050 0
2053 2049 2050 0
-2054 2052 0
-2054 -2053 0
2054 -2052 2053 0
-2055 61 0
-2055 -2050 0
2055 -61 2050 0
-2056 -61 0
-2056 2050 0
2056 61 -2050 0
-2057 -2055 0
-2057 -2056 0
2057 2055 2056 0
-2058 2054 0
-2058 2057 0
2058 -2054 -2057 0
2059 -2442 0
-2059 2442 0
-2060 5 0
-2060 -2059 0
2060 -5 2059 0
-2061 2058 0
-2061 -2060 0
2061 -2058 2060 0
-2062 -5 0
-2062 2059 0
2062 5 -2059 0
-2063 2061 0
-2063 -2062 0
2063 -2061 2062 0
-2064 4 0
-2064 -2059 0
2064 -4 2059 0
-2065 -4 0
-2065 2059 0
2065 4 -2059 0
-2066 -2064 0
-2066 -2065 0
2066 2064 2065 0
2067 -2443 0
-2067 2443 0
-2068 2066 0
-2068 2067 0
2068 -2066 -2067 0
-2069 2063 0
-2069 -2068 0
2069 -2063 2068 0
-2070 -2066 0
-2070 -2067 0
2070 2066 2067 0
-2071 2069 0
-2071 -2070 0
2071 -2069 2070 0
-2072 60 0
-2072 -2067 0
2072 -60 2067 0
-2073 -60 0
-2073 2067 0
2073 60 -2067 0
-2074 -2072 0
-2074 -2073 0
2074 2072 2073 0
-2075 2071 0
-2075 2074 0
2075 -2071 -2074 0
2076 -2444 0
-2076 2444 0
-2077 4 0
-2077 -2076 0
2077 -4 2076 0
-2078 2075 0
-2078 -2077 0
2078 -2075 2077 0
-2079 -4 0
-2079 2076 0
2079 4 -2076 0
-2080 2078 0
-2080 -2079 0
2080 -2078 2079 0
-2081 3 0
-2081 -2076 0
2081 -3 2076 0
-2082 -3 0
-2082 2076 0
2082 3 -2076 0
-2083 -2081 0
-2083 -2082 0
2083 2081 2082 0
2084 -2445 0
-2084 2445 0
-2085 2083 0
-2085 2084 0
2085 -2083 -2084 0
-2086 2080 0
-2086 -2085 0
2086 -2080 2085 0
-2087 -2083 0
-2087 -2084 0
2087 2083 2084 0
-2088 2086 0
-2088 -2087 0
2088 -2086 2087 0
-2089 59 0
-2089 -2084 0
2089 -59 2084 0
-2090 -59 0
-2090 2084 0
2090 59 -2084 0
-2091 -2089 0
-2091 -2090 0
2091 2089 2090 0
-2092 2088 0
-2092 2091 0
2092 -2088 -2091 0
2093 -2446 0
-2093 2446 0
-2094 3 0
-2094 -2093 0
2094 -3 2093 0
-2095 2092 0
-2095 -2094 0
2095 -2092 2094 0
-2096 -3 0
-2096 2093 0
2096 3 -2093 0
-2097 2095 0
-2097 -2096 0
2097 -2095 2096 0
-2098 2 0
-2098 -2093 0
2098 -2 2093 0
-2099 -2 0
-2099 2093 0
2099 2 -2093 0
-2100 -2098 0
-2100 -2099 0
2100 2098 2099 0
2101 -2447 0
-2101 2447 0
-2102 2100 0
-2102 2101 0
2102 -2100 -2101 0
-2103 2097 0
-2103 -2102 0
2103 -2097 2102 0
-2104 -2100 0
-2104 -2101 0
2104 2100 2101 0
-2105 2103 0
-2105 -2104 0
2105 -2103 2104 0
-2106 58 0
-2106 -2101 0
2106 -58 2101 0
-2107 -58 0
-2107 2101 0
2107 58 -2101 0
-2108 -2106 0
-2108 -2107 0
2108 2106 2107 0
-2109 2105 0
-2109 2108 0
2109 -2105 -2108 0
-2112 2109 0
-2112 -2111 0
2112 -2109 2111 0
-2114 2112 0
-2114 -2113 0
2114 -2112 2113 0
-2115 2 0
-2115 -2110 0
2115 -2 2110 0
-2116 -2 0
-2116 2110 0
2116 2 -2110 0
-2117 -2115 0
-2117 -2116 0
2117 2115 2116 0
2118 -2449 0
-2118 2449 0
-2119 2117 0
-2119 2118 0
2119 -2117 -2118 0
-2120 2114 0
-2120 -2119 0
2120 -2114 2119 0
-2121 -2117 0
-2121 -2118 0
2121 2117 2118 0
-2122 2120 0
-2122 -2121 0
2122 -2120 2121 0
-2123 57 0
-2123 -2118 0
2123 -57 2118 0
-2124 -57 0
-2124 2118 0
2124 57 -2118 0
-2125 -2123 0
-2125 -2124 0
2125 2123 2124 0
-2126 2122 0
-2126 2125 0
2126 -2122 -2125 0
-2127 -2111 0
-2127 2126 0
2127 2111 -2126 0
-2128 -2113 0
-2128 2127 0
2128 2113 -2127 0
-2129 6 0
-2129 -2110 0
2129 -6 2110 0
-2130 -6 0
-2130 2110 0
2130 6 -2110 0
-2131 -2129 0
-2131 -2130 0
2131 2129 2130 0
2132 -2450 0
-2132 2450 0
-2133 2131 0
-2133 2132 0
2133 -2131 -2132 0
-2134 2128 0
-2134 -2133 0
2134 -2128 2133 0
-2135 -2131 0
-2135 -2132 0
2135 2131 2132 0
-2136 2134 0
-2136 -2135 0
2136 -2134 2135 0
-2137 56 0
-2137 -2132 0
2137 -56 2132 0
-2138 -56 0
-2138 2132 0
2138 56 -2132 0
-2139 -2137 0
-2139 -2138 0
2139 2137 2138 0
-2140 2136 0
-2140 2139 0
2140 -2136 -2139 0
2140 0
