p cnf 19023 31695
145 -18935 0
-145 18935 0
233 -19023 0
-233 19023 0
232 -19022 0
-232 19022 0
231 -19021 0
-231 19021 0
230 -19020 0
-230 19020 0
229 -19019 0
-229 19019 0
228 -19018 0
-228 19018 0
226 -19016 0
-226 19016 0
227 -19017 0
-227 19017 0
-237 226 0
-237 227 0
237 -226 -227 0
-245 228 0
-245 237 0
245 -228 -237 0
-261 229 0
-261 245 0
261 -229 -245 0
-277 -230 0
-277 261 0
277 230 -261 0
-309 -231 0
-309 277 0
309 231 -277 0
-373 -232 0
-373 309 0
373 232 -309 0
-629 233 0
-629 373 0
629 -233 -373 0
225 -19015 0
-225 19015 0
224 -19014 0
-224 19014 0
223 -19013 0
-223 19013 0
222 -19012 0
-222 19012 0
221 -19011 0
-221 19011 0
220 -19010 0
-220 19010 0
218 -19008 0
-218 19008 0
219 -19009 0
-219 19009 0
-633 218 0
-633 219 0
633 -218 -219 0
-641 220 0
-641 633 0
641 -220 -633 0
-657 221 0
-657 641 0
657 -221 -641 0
-673 -222 0
-673 657 0
673 222 -657 0
-705 -223 0
-705 673 0
705 223 -673 0
-769 -224 0
-769 705 0
769 224 -705 0
-1025 225 0
-1025 769 0
1025 -225 -769 0
217 -19007 0
-217 19007 0
216 -19006 0
-216 19006 0
215 -19005 0
-215 19005 0
214 -19004 0
-214 19004 0
213 -19003 0
-213 19003 0
212 -19002 0
-212 19002 0
210 -19000 0
-210 19000 0
211 -19001 0
-211 19001 0
-1029 210 0
-1029 211 0
1029 -210 -211 0
-1037 212 0
-1037 1029 0
1037 -212 -1029 0
-1053 213 0
-1053 1037 0
1053 -213 -1037 0
-1069 -214 0
-1069 1053 0
1069 214 -1053 0
-1101 -215 0
-1101 1069 0
1101 215 -1069 0
-1165 -216 0
-1165 1101 0
1165 216 -1101 0
-1421 217 0
-1421 1165 0
1421 -217 -1165 0
209 -18999 0
-209 18999 0
208 -18998 0
-208 18998 0
207 -18997 0
-207 18997 0
206 -18996 0
-206 18996 0
205 -18995 0
-205 18995 0
204 -18994 0
-204 18994 0
202 -18992 0
-202 18992 0
203 -18993 0
-203 18993 0
-1425 202 0
-1425 203 0
1425 -202 -203 0
-1433 204 0
-1433 1425 0
1433 -204 -1425 0
-1449 205 0
-1449 1433 0
1449 -205 -1433 0
-1465 -206 0
-1465 1449 0
1465 206 -1449 0
-1497 -207 0
-1497 1465 0
1497 207 -1465 0
-1561 -208 0
-1561 1497 0
1561 208 -1497 0
-1817 209 0
-1817 1561 0
1817 -209 -1561 0
201 -18991 0
-201 18991 0
200 -18990 0
-200 18990 0
199 -18989 0
-199 18989 0
198 -18988 0
-198 18988 0
197 -18987 0
-197 18987 0
196 -18986 0
-196 18986 0
194 -18984 0
-194 18984 0
195 -18985 0
-195 18985 0
-1821 194 0
-1821 195 0
1821 -194 -195 0
-1829 196 0
-1829 1821 0
1829 -196 -1821 0
-1845 197 0
-1845 1829 0
1845 -197 -1829 0
-1861 -198 0
-1861 1845 0
1861 198 -1845 0
-1893 -199 0
-1893 1861 0
1893 199 -1861 0
-1957 -200 0
-1957 1893 0
1957 200 -1893 0
-2213 201 0
-2213 1957 0
2213 -201 -1957 0
193 -18983 0
-193 18983 0
192 -18982 0
-192 18982 0
191 -18981 0
-191 18981 0
190 -18980 0
-190 18980 0
189 -18979 0
-189 18979 0
188 -18978 0
-188 18978 0
186 -18976 0
-186 18976 0
187 -18977 0
-187 18977 0
-2217 186 0
-2217 187 0
2217 -186 -187 0
-2225 188 0
-2225 2217 0
2225 -188 -2217 0
-2241 189 0
-2241 2225 0
2241 -189 -2225 0
-2257 -190 0
-2257 2241 0
2257 190 -2241 0
-2289 -191 0
-2289 2257 0
2289 191 -2257 0
-2353 -192 0
-2353 2289 0
2353 192 -2289 0
-2609 193 0
-2609 2353 0
2609 -193 -2353 0
185 -18975 0
-185 18975 0
184 -18974 0
-184 18974 0
183 -18973 0
-183 18973 0
182 -18972 0
-182 18972 0
181 -18971 0
-181 18971 0
180 -18970 0
-180 18970 0
178 -18968 0
-178 18968 0
179 -18969 0
-179 18969 0
-2613 178 0
-2613 179 0
2613 -178 -179 0
-2621 180 0
-2621 2613 0
2621 -180 -2613 0
-2637 181 0
-2637 2621 0
2637 -181 -2621 0
-2653 -182 0
-2653 2637 0
2653 182 -2637 0
-2685 -183 0
-2685 2653 0
2685 183 -2653 0
-2749 -184 0
-2749 2685 0
2749 184 -2685 0
-3005 185 0
-3005 2749 0
3005 -185 -2749 0
177 -18967 0
-177 18967 0
176 -18966 0
-176 18966 0
175 -18965 0
-175 18965 0
174 -18964 0
-174 18964 0
173 -18963 0
-173 18963 0
172 -18962 0
-172 18962 0
170 -18960 0
-170 18960 0
171 -18961 0
-171 18961 0
-3009 170 0
-3009 171 0
3009 -170 -171 0
-3017 172 0
-3017 3009 0
3017 -172 -3009 0
-3033 173 0
-3033 3017 0
3033 -173 -3017 0
-3049 -174 0
-3049 3033 0
3049 174 -3033 0
-3081 -175 0
-3081 3049 0
3081 175 -3049 0
-3145 -176 0
-3145 3081 0
3145 176 -3081 0
-3401 177 0
-3401 3145 0
3401 -177 -3145 0
169 -18959 0
-169 18959 0
168 -18958 0
-168 18958 0
167 -18957 0
-167 18957 0
166 -18956 0
-166 18956 0
165 -18955 0
-165 18955 0
164 -18954 0
-164 18954 0
162 -18952 0
-162 18952 0
163 -18953 0
-163 18953 0
-3405 162 0
-3405 163 0
3405 -162 -163 0
-3413 164 0
-3413 3405 0
3413 -164 -3405 0
-3429 165 0
-3429 3413 0
3429 -165 -3413 0
-3445 -166 0
-3445 3429 0
3445 166 -3429 0
-3477 -167 0
-3477 3445 0
3477 167 -3445 0
-3541 -168 0
-3541 3477 0
3541 168 -3477 0
-3797 169 0
-3797 3541 0
3797 -169 -3541 0
161 -18951 0
-161 18951 0
160 -18950 0
-160 18950 0
159 -18949 0
-159 18949 0
158 -18948 0
-158 18948 0
157 -18947 0
-157 18947 0
156 -18946 0
-156 18946 0
154 -18944 0
-154 18944 0
155 -18945 0
-155 18945 0
-3801 154 0
-3801 155 0
3801 -154 -155 0
-3809 156 0
-3809 3801 0
3809 -156 -3801 0
-3825 157 0
-3825 3809 0
3825 -157 -3809 0
-3841 -158 0
-3841 3825 0
3841 158 -3825 0
-3873 -159 0
-3873 3841 0
3873 159 -3841 0
-3937 -160 0
-3937 3873 0
3937 160 -3873 0
-4193 161 0
-4193 3937 0
4193 -161 -3937 0
153 -18943 0
-153 18943 0
152 -18942 0
-152 18942 0
151 -18941 0
-151 18941 0
150 -18940 0
-150 18940 0
149 -18939 0
-149 18939 0
148 -18938 0
-148 18938 0
146 -18936 0
-146 18936 0
147 -18937 0
-147 18937 0
-4197 146 0
-4197 147 0
4197 -146 -147 0
-4205 148 0
-4205 4197 0
4205 -148 -4197 0
-4221 149 0
-4221 4205 0
4221 -149 -4205 0
-4237 -150 0
-4237 4221 0
4237 150 -4221 0
-4269 -151 0
-4269 4237 0
4269 151 -4237 0
-4333 -152 0
-4333 4269 0
4333 152 -4269 0
-4589 153 0
-4589 4333 0
4589 -153 -4333 0
-4733 -4193 0
-4733 -4589 0
4733 4193 4589 0
-4877 -3797 0
-4877 4733 0
4877 3797 -4733 0
-5021 -3401 0
-5021 4877 0
5021 3401 -4877 0
-5165 -3005 0
-5165 5021 0
5165 3005 -5021 0
-5309 -2609 0
-5309 5165 0
5309 2609 -5165 0
-5453 -2213 0
-5453 5309 0
5453 2213 -5309 0
-5597 -1817 0
-5597 5453 0
5597 1817 -5453 0
-5741 -1421 0
-5741 5597 0
5741 1421 -5597 0
-5885 -1025 0
-5885 5741 0
5885 1025 -5741 0
-6029 -629 0
-6029 5885 0
6029 629 -5885 0
-6459 145 0
-6459 6029 0
6459 -145 -6029 0
-6460 -145 0
-6460 -6029 0
6460 145 6029 0
-6461 -6459 0
-6461 -6460 0
6461 6459 6460 0
144 -18934 0
-144 18934 0
-236 -226 0
-236 227 0
236 226 -227 0
-244 228 0
-244 236 0
244 -228 -236 0
-260 229 0
-260 244 0
260 -229 -244 0
-276 -230 0
-276 260 0
276 230 -260 0
-308 -231 0
-308 276 0
308 231 -276 0
-372 -232 0
-372 308 0
372 232 -308 0
-628 233 0
-628 372 0
628 -233 -372 0
-632 -218 0
-632 219 0
632 218 -219 0
-640 220 0
-640 632 0
640 -220 -632 0
-656 221 0
-656 640 0
656 -221 -640 0
-672 -222 0
-672 656 0
672 222 -656 0
-704 -223 0
-704 672 0
704 223 -672 0
-768 -224 0
-768 704 0
768 224 -704 0
-1024 225 0
-1024 768 0
1024 -225 -768 0
-1028 -210 0
-1028 211 0
1028 210 -211 0
-1036 212 0
-1036 1028 0
1036 -212 -1028 0
-1052 213 0
-1052 1036 0
1052 -213 -1036 0
-1068 -214 0
-1068 1052 0
1068 214 -1052 0
-1100 -215 0
-1100 1068 0
1100 215 -1068 0
-1164 -216 0
-1164 1100 0
1164 216 -1100 0
-1420 217 0
-1420 1164 0
1420 -217 -1164 0
-1424 -202 0
-1424 203 0
1424 202 -203 0
-1432 204 0
-1432 1424 0
1432 -204 -1424 0
-1448 205 0
-1448 1432 0
1448 -205 -1432 0
-1464 -206 0
-1464 1448 0
1464 206 -1448 0
-1496 -207 0
-1496 1464 0
1496 207 -1464 0
-1560 -208 0
-1560 1496 0
1560 208 -1496 0
-1816 209 0
-1816 1560 0
1816 -209 -1560 0
-1820 -194 0
-1820 195 0
1820 194 -195 0
-1828 196 0
-1828 1820 0
1828 -196 -1820 0
-1844 197 0
-1844 1828 0
1844 -197 -1828 0
-1860 -198 0
-1860 1844 0
1860 198 -1844 0
-1892 -199 0
-1892 1860 0
1892 199 -1860 0
-1956 -200 0
-1956 1892 0
1956 200 -1892 0
-2212 201 0
-2212 1956 0
2212 -201 -1956 0
-2216 -186 0
-2216 187 0
2216 186 -187 0
-2224 188 0
-2224 2216 0
2224 -188 -2216 0
-2240 189 0
-2240 2224 0
2240 -189 -2224 0
-2256 -190 0
-2256 2240 0
2256 190 -2240 0
-2288 -191 0
-2288 2256 0
2288 191 -2256 0
-2352 -192 0
-2352 2288 0
2352 192 -2288 0
-2608 193 0
-2608 2352 0
2608 -193 -2352 0
-2612 -178 0
-2612 179 0
2612 178 -179 0
-2620 180 0
-2620 2612 0
2620 -180 -2612 0
-2636 181 0
-2636 2620 0
2636 -181 -2620 0
-2652 -182 0
-2652 2636 0
2652 182 -2636 0
-2684 -183 0
-2684 2652 0
2684 183 -2652 0
-2748 -184 0
-2748 2684 0
2748 184 -2684 0
-3004 185 0
-3004 2748 0
3004 -185 -2748 0
-3008 -170 0
-3008 171 0
3008 170 -171 0
-3016 172 0
-3016 3008 0
3016 -172 -3008 0
-3032 173 0
-3032 3016 0
3032 -173 -3016 0
-3048 -174 0
-3048 3032 0
3048 174 -3032 0
-3080 -175 0
-3080 3048 0
3080 175 -3048 0
-3144 -176 0
-3144 3080 0
3144 176 -3080 0
-3400 177 0
-3400 3144 0
3400 -177 -3144 0
-3404 -162 0
-3404 163 0
3404 162 -163 0
-3412 164 0
-3412 3404 0
3412 -164 -3404 0
-3428 165 0
-3428 3412 0
3428 -165 -3412 0
-3444 -166 0
-3444 3428 0
3444 166 -3428 0
-3476 -167 0
-3476 3444 0
3476 167 -3444 0
-3540 -168 0
-3540 3476 0
3540 168 -3476 0
-3796 169 0
-3796 3540 0
3796 -169 -3540 0
-3800 -154 0
-3800 155 0
3800 154 -155 0
-3808 156 0
-3808 3800 0
3808 -156 -3800 0
-3824 157 0
-3824 3808 0
3824 -157 -3808 0
-3840 -158 0
-3840 3824 0
3840 158 -3824 0
-3872 -159 0
-3872 3840 0
3872 159 -3840 0
-3936 -160 0
-3936 3872 0
3936 160 -3872 0
-4192 161 0
-4192 3936 0
4192 -161 -3936 0
-4196 -146 0
-4196 147 0
4196 146 -147 0
-4204 148 0
-4204 4196 0
4204 -148 -4196 0
-4220 149 0
-4220 4204 0
4220 -149 -4204 0
-4236 -150 0
-4236 4220 0
4236 150 -4220 0
-4268 -151 0
-4268 4236 0
4268 151 -4236 0
-4332 -152 0
-4332 4268 0
4332 152 -4268 0
-4588 153 0
-4588 4332 0
4588 -153 -4332 0
-4732 -4192 0
-4732 -4588 0
4732 4192 4588 0
-4876 -3796 0
-4876 4732 0
4876 3796 -4732 0
-5020 -3400 0
-5020 4876 0
5020 3400 -4876 0
-5164 -3004 0
-5164 5020 0
5164 3004 -5020 0
-5308 -2608 0
-5308 5164 0
5308 2608 -5164 0
-5452 -2212 0
-5452 5308 0
5452 2212 -5308 0
-5596 -1816 0
-5596 5452 0
5596 1816 -5452 0
-5740 -1420 0
-5740 5596 0
5740 1420 -5596 0
-5884 -1024 0
-5884 5740 0
5884 1024 -5740 0
-6028 -628 0
-6028 5884 0
6028 628 -5884 0
-6456 144 0
-6456 6028 0
6456 -144 -6028 0
-6457 -144 0
-6457 -6028 0
6457 144 6028 0
-6458 -6456 0
-6458 -6457 0
6458 6456 6457 0
143 -18933 0
-143 18933 0
-235 226 0
-235 -227 0
235 -226 227 0
-243 228 0
-243 235 0
243 -228 -235 0
-259 229 0
-259 243 0
259 -229 -243 0
-275 -230 0
-275 259 0
275 230 -259 0
-307 -231 0
-307 275 0
307 231 -275 0
-371 -232 0
-371 307 0
371 232 -307 0
-627 233 0
-627 371 0
627 -233 -371 0
-631 218 0
-631 -219 0
631 -218 219 0
-639 220 0
-639 631 0
639 -220 -631 0
-655 221 0
-655 639 0
655 -221 -639 0
-671 -222 0
-671 655 0
671 222 -655 0
-703 -223 0
-703 671 0
703 223 -671 0
-767 -224 0
-767 703 0
767 224 -703 0
-1023 225 0
-1023 767 0
1023 -225 -767 0
-1027 210 0
-1027 -211 0
1027 -210 211 0
-1035 212 0
-1035 1027 0
1035 -212 -1027 0
-1051 213 0
-1051 1035 0
1051 -213 -1035 0
-1067 -214 0
-1067 1051 0
1067 214 -1051 0
-1099 -215 0
-1099 1067 0
1099 215 -1067 0
-1163 -216 0
-1163 1099 0
1163 216 -1099 0
-1419 217 0
-1419 1163 0
1419 -217 -1163 0
-1423 202 0
-1423 -203 0
1423 -202 203 0
-1431 204 0
-1431 1423 0
1431 -204 -1423 0
-1447 205 0
-1447 1431 0
1447 -205 -1431 0
-1463 -206 0
-1463 1447 0
1463 206 -1447 0
-1495 -207 0
-1495 1463 0
1495 207 -1463 0
-1559 -208 0
-1559 1495 0
1559 208 -1495 0
-1815 209 0
-1815 1559 0
1815 -209 -1559 0
-1819 194 0
-1819 -195 0
1819 -194 195 0
-1827 196 0
-1827 1819 0
1827 -196 -1819 0
-1843 197 0
-1843 1827 0
1843 -197 -1827 0
-1859 -198 0
-1859 1843 0
1859 198 -1843 0
-1891 -199 0
-1891 1859 0
1891 199 -1859 0
-1955 -200 0
-1955 1891 0
1955 200 -1891 0
-2211 201 0
-2211 1955 0
2211 -201 -1955 0
-2215 186 0
-2215 -187 0
2215 -186 187 0
-2223 188 0
-2223 2215 0
2223 -188 -2215 0
-2239 189 0
-2239 2223 0
2239 -189 -2223 0
-2255 -190 0
-2255 2239 0
2255 190 -2239 0
-2287 -191 0
-2287 2255 0
2287 191 -2255 0
-2351 -192 0
-2351 2287 0
2351 192 -2287 0
-2607 193 0
-2607 2351 0
2607 -193 -2351 0
-2611 178 0
-2611 -179 0
2611 -178 179 0
-2619 180 0
-2619 2611 0
2619 -180 -2611 0
-2635 181 0
-2635 2619 0
2635 -181 -2619 0
-2651 -182 0
-2651 2635 0
2651 182 -2635 0
-2683 -183 0
-2683 2651 0
2683 183 -2651 0
-2747 -184 0
-2747 2683 0
2747 184 -2683 0
-3003 185 0
-3003 2747 0
3003 -185 -2747 0
-3007 170 0
-3007 -171 0
3007 -170 171 0
-3015 172 0
-3015 3007 0
3015 -172 -3007 0
-3031 173 0
-3031 3015 0
3031 -173 -3015 0
-3047 -174 0
-3047 3031 0
3047 174 -3031 0
-3079 -175 0
-3079 3047 0
3079 175 -3047 0
-3143 -176 0
-3143 3079 0
3143 176 -3079 0
-3399 177 0
-3399 3143 0
3399 -177 -3143 0
-3403 162 0
-3403 -163 0
3403 -162 163 0
-3411 164 0
-3411 3403 0
3411 -164 -3403 0
-3427 165 0
-3427 3411 0
3427 -165 -3411 0
-3443 -166 0
-3443 3427 0
3443 166 -3427 0
-3475 -167 0
-3475 3443 0
3475 167 -3443 0
-3539 -168 0
-3539 3475 0
3539 168 -3475 0
-3795 169 0
-3795 3539 0
3795 -169 -3539 0
-3799 154 0
-3799 -155 0
3799 -154 155 0
-3807 156 0
-3807 3799 0
3807 -156 -3799 0
-3823 157 0
-3823 3807 0
3823 -157 -3807 0
-3839 -158 0
-3839 3823 0
3839 158 -3823 0
-3871 -159 0
-3871 3839 0
3871 159 -3839 0
-3935 -160 0
-3935 3871 0
3935 160 -3871 0
-4191 161 0
-4191 3935 0
4191 -161 -3935 0
-4195 146 0
-4195 -147 0
4195 -146 147 0
-4203 148 0
-4203 4195 0
4203 -148 -4195 0
-4219 149 0
-4219 4203 0
4219 -149 -4203 0
-4235 -150 0
-4235 4219 0
4235 150 -4219 0
-4267 -151 0
-4267 4235 0
4267 151 -4235 0
-4331 -152 0
-4331 4267 0
4331 152 -4267 0
-4587 153 0
-4587 4331 0
4587 -153 -4331 0
-4731 -4191 0
-4731 -4587 0
4731 4191 4587 0
-4875 -3795 0
-4875 4731 0
4875 3795 -4731 0
-5019 -3399 0
-5019 4875 0
5019 3399 -4875 0
-5163 -3003 0
-5163 5019 0
5163 3003 -5019 0
-5307 -2607 0
-5307 5163 0
5307 2607 -5163 0
-5451 -2211 0
-5451 5307 0
5451 2211 -5307 0
-5595 -1815 0
-5595 5451 0
5595 1815 -5451 0
-5739 -1419 0
-5739 5595 0
5739 1419 -5595 0
-5883 -1023 0
-5883 5739 0
5883 1023 -5739 0
-6027 -627 0
-6027 5883 0
6027 627 -5883 0
-6453 143 0
-6453 6027 0
6453 -143 -6027 0
-6454 -143 0
-6454 -6027 0
6454 143 6027 0
-6455 -6453 0
-6455 -6454 0
6455 6453 6454 0
142 -18932 0
-142 18932 0
-234 -226 0
-234 -227 0
234 226 227 0
-242 228 0
-242 234 0
242 -228 -234 0
-258 229 0
-258 242 0
258 -229 -242 0
-274 -230 0
-274 258 0
274 230 -258 0
-306 -231 0
-306 274 0
306 231 -274 0
-370 -232 0
-370 306 0
370 232 -306 0
-626 233 0
-626 370 0
626 -233 -370 0
-630 -218 0
-630 -219 0
630 218 219 0
-638 220 0
-638 630 0
638 -220 -630 0
-654 221 0
-654 638 0
654 -221 -638 0
-670 -222 0
-670 654 0
670 222 -654 0
-702 -223 0
-702 670 0
702 223 -670 0
-766 -224 0
-766 702 0
766 224 -702 0
-1022 225 0
-1022 766 0
1022 -225 -766 0
-1026 -210 0
-1026 -211 0
1026 210 211 0
-1034 212 0
-1034 1026 0
1034 -212 -1026 0
-1050 213 0
-1050 1034 0
1050 -213 -1034 0
-1066 -214 0
-1066 1050 0
1066 214 -1050 0
-1098 -215 0
-1098 1066 0
1098 215 -1066 0
-1162 -216 0
-1162 1098 0
1162 216 -1098 0
-1418 217 0
-1418 1162 0
1418 -217 -1162 0
-1422 -202 0
-1422 -203 0
1422 202 203 0
-1430 204 0
-1430 1422 0
1430 -204 -1422 0
-1446 205 0
-1446 1430 0
1446 -205 -1430 0
-1462 -206 0
-1462 1446 0
1462 206 -1446 0
-1494 -207 0
-1494 1462 0
1494 207 -1462 0
-1558 -208 0
-1558 1494 0
1558 208 -1494 0
-1814 209 0
-1814 1558 0
1814 -209 -1558 0
-1818 -194 0
-1818 -195 0
1818 194 195 0
-1826 196 0
-1826 1818 0
1826 -196 -1818 0
-1842 197 0
-1842 1826 0
1842 -197 -1826 0
-1858 -198 0
-1858 1842 0
1858 198 -1842 0
-1890 -199 0
-1890 1858 0
1890 199 -1858 0
-1954 -200 0
-1954 1890 0
1954 200 -1890 0
-2210 201 0
-2210 1954 0
2210 -201 -1954 0
-2214 -186 0
-2214 -187 0
2214 186 187 0
-2222 188 0
-2222 2214 0
2222 -188 -2214 0
-2238 189 0
-2238 2222 0
2238 -189 -2222 0
-2254 -190 0
-2254 2238 0
2254 190 -2238 0
-2286 -191 0
-2286 2254 0
2286 191 -2254 0
-2350 -192 0
-2350 2286 0
2350 192 -2286 0
-2606 193 0
-2606 2350 0
2606 -193 -2350 0
-2610 -178 0
-2610 -179 0
2610 178 179 0
-2618 180 0
-2618 2610 0
2618 -180 -2610 0
-2634 181 0
-2634 2618 0
2634 -181 -2618 0
-2650 -182 0
-2650 2634 0
2650 182 -2634 0
-2682 -183 0
-2682 2650 0
2682 183 -2650 0
-2746 -184 0
-2746 2682 0
2746 184 -2682 0
-3002 185 0
-3002 2746 0
3002 -185 -2746 0
-3006 -170 0
-3006 -171 0
3006 170 171 0
-3014 172 0
-3014 3006 0
3014 -172 -3006 0
-3030 173 0
-3030 3014 0
3030 -173 -3014 0
-3046 -174 0
-3046 3030 0
3046 174 -3030 0
-3078 -175 0
-3078 3046 0
3078 175 -3046 0
-3142 -176 0
-3142 3078 0
3142 176 -3078 0
-3398 177 0
-3398 3142 0
3398 -177 -3142 0
-3402 -162 0
-3402 -163 0
3402 162 163 0
-3410 164 0
-3410 3402 0
3410 -164 -3402 0
-3426 165 0
-3426 3410 0
3426 -165 -3410 0
-3442 -166 0
-3442 3426 0
3442 166 -3426 0
-3474 -167 0
-3474 3442 0
3474 167 -3442 0
-3538 -168 0
-3538 3474 0
3538 168 -3474 0
-3794 169 0
-3794 3538 0
3794 -169 -3538 0
-3798 -154 0
-3798 -155 0
3798 154 155 0
-3806 156 0
-3806 3798 0
3806 -156 -3798 0
-3822 157 0
-3822 3806 0
3822 -157 -3806 0
-3838 -158 0
-3838 3822 0
3838 158 -3822 0
-3870 -159 0
-3870 3838 0
3870 159 -3838 0
-3934 -160 0
-3934 3870 0
3934 160 -3870 0
-4190 161 0
-4190 3934 0
4190 -161 -3934 0
-4194 -146 0
-4194 -147 0
4194 146 147 0
-4202 148 0
-4202 4194 0
4202 -148 -4194 0
-4218 149 0
-4218 4202 0
4218 -149 -4202 0
-4234 -150 0
-4234 4218 0
4234 150 -4218 0
-4266 -151 0
-4266 4234 0
4266 151 -4234 0
-4330 -152 0
-4330 4266 0
4330 152 -4266 0
-4586 153 0
-4586 4330 0
4586 -153 -4330 0
-4730 -4190 0
-4730 -4586 0
4730 4190 4586 0
-4874 -3794 0
-4874 4730 0
4874 3794 -4730 0
-5018 -3398 0
-5018 4874 0
5018 3398 -4874 0
-5162 -3002 0
-5162 5018 0
5162 3002 -5018 0
-5306 -2606 0
-5306 5162 0
5306 2606 -5162 0
-5450 -2210 0
-5450 5306 0
5450 2210 -5306 0
-5594 -1814 0
-5594 5450 0
5594 1814 -5450 0
-5738 -1418 0
-5738 5594 0
5738 1418 -5594 0
-5882 -1022 0
-5882 5738 0
5882 1022 -5738 0
-6026 -626 0
-6026 5882 0
6026 626 -5882 0
-6450 142 0
-6450 6026 0
6450 -142 -6026 0
-6451 -142 0
-6451 -6026 0
6451 142 6026 0
-6452 -6450 0
-6452 -6451 0
6452 6450 6451 0
141 -18931 0
-141 18931 0
-241 -228 0
-241 237 0
241 228 -237 0
-257 229 0
-257 241 0
257 -229 -241 0
-273 -230 0
-273 257 0
273 230 -257 0
-305 -231 0
-305 273 0
305 231 -273 0
-369 -232 0
-369 305 0
369 232 -305 0
-625 233 0
-625 369 0
625 -233 -369 0
-637 -220 0
-637 633 0
637 220 -633 0
-653 221 0
-653 637 0
653 -221 -637 0
-669 -222 0
-669 653 0
669 222 -653 0
-701 -223 0
-701 669 0
701 223 -669 0
-765 -224 0
-765 701 0
765 224 -701 0
-1021 225 0
-1021 765 0
1021 -225 -765 0
-1033 -212 0
-1033 1029 0
1033 212 -1029 0
-1049 213 0
-1049 1033 0
1049 -213 -1033 0
-1065 -214 0
-1065 1049 0
1065 214 -1049 0
-1097 -215 0
-1097 1065 0
1097 215 -1065 0
-1161 -216 0
-1161 1097 0
1161 216 -1097 0
-1417 217 0
-1417 1161 0
1417 -217 -1161 0
-1429 -204 0
-1429 1425 0
1429 204 -1425 0
-1445 205 0
-1445 1429 0
1445 -205 -1429 0
-1461 -206 0
-1461 1445 0
1461 206 -1445 0
-1493 -207 0
-1493 1461 0
1493 207 -1461 0
-1557 -208 0
-1557 1493 0
1557 208 -1493 0
-1813 209 0
-1813 1557 0
1813 -209 -1557 0
-1825 -196 0
-1825 1821 0
1825 196 -1821 0
-1841 197 0
-1841 1825 0
1841 -197 -1825 0
-1857 -198 0
-1857 1841 0
1857 198 -1841 0
-1889 -199 0
-1889 1857 0
1889 199 -1857 0
-1953 -200 0
-1953 1889 0
1953 200 -1889 0
-2209 201 0
-2209 1953 0
2209 -201 -1953 0
-2221 -188 0
-2221 2217 0
2221 188 -2217 0
-2237 189 0
-2237 2221 0
2237 -189 -2221 0
-2253 -190 0
-2253 2237 0
2253 190 -2237 0
-2285 -191 0
-2285 2253 0
2285 191 -2253 0
-2349 -192 0
-2349 2285 0
2349 192 -2285 0
-2605 193 0
-2605 2349 0
2605 -193 -2349 0
-2617 -180 0
-2617 2613 0
2617 180 -2613 0
-2633 181 0
-2633 2617 0
2633 -181 -2617 0
-2649 -182 0
-2649 2633 0
2649 182 -2633 0
-2681 -183 0
-2681 2649 0
2681 183 -2649 0
-2745 -184 0
-2745 2681 0
2745 184 -2681 0
-3001 185 0
-3001 2745 0
3001 -185 -2745 0
-3013 -172 0
-3013 3009 0
3013 172 -3009 0
-3029 173 0
-3029 3013 0
3029 -173 -3013 0
-3045 -174 0
-3045 3029 0
3045 174 -3029 0
-3077 -175 0
-3077 3045 0
3077 175 -3045 0
-3141 -176 0
-3141 3077 0
3141 176 -3077 0
-3397 177 0
-3397 3141 0
3397 -177 -3141 0
-3409 -164 0
-3409 3405 0
3409 164 -3405 0
-3425 165 0
-3425 3409 0
3425 -165 -3409 0
-3441 -166 0
-3441 3425 0
3441 166 -3425 0
-3473 -167 0
-3473 3441 0
3473 167 -3441 0
-3537 -168 0
-3537 3473 0
3537 168 -3473 0
-3793 169 0
-3793 3537 0
3793 -169 -3537 0
-3805 -156 0
-3805 3801 0
3805 156 -3801 0
-3821 157 0
-3821 3805 0
3821 -157 -3805 0
-3837 -158 0
-3837 3821 0
3837 158 -3821 0
-3869 -159 0
-3869 3837 0
3869 159 -3837 0
-3933 -160 0
-3933 3869 0
3933 160 -3869 0
-4189 161 0
-4189 3933 0
4189 -161 -3933 0
-4201 -148 0
-4201 4197 0
4201 148 -4197 0
-4217 149 0
-4217 4201 0
4217 -149 -4201 0
-4233 -150 0
-4233 4217 0
4233 150 -4217 0
-4265 -151 0
-4265 4233 0
4265 151 -4233 0
-4329 -152 0
-4329 4265 0
4329 152 -4265 0
-4585 153 0
-4585 4329 0
4585 -153 -4329 0
-4729 -4189 0
-4729 -4585 0
4729 4189 4585 0
-4873 -3793 0
-4873 4729 0
4873 3793 -4729 0
-5017 -3397 0
-5017 4873 0
5017 3397 -4873 0
-5161 -3001 0
-5161 5017 0
5161 3001 -5017 0
-5305 -2605 0
-5305 5161 0
5305 2605 -5161 0
-5449 -2209 0
-5449 5305 0
5449 2209 -5305 0
-5593 -1813 0
-5593 5449 0
5593 1813 -5449 0
-5737 -1417 0
-5737 5593 0
5737 1417 -5593 0
-5881 -1021 0
-5881 5737 0
5881 1021 -5737 0
-6025 -625 0
-6025 5881 0
6025 625 -5881 0
-6447 141 0
-6447 6025 0
6447 -141 -6025 0
-6448 -141 0
-6448 -6025 0
6448 141 6025 0
-6449 -6447 0
-6449 -6448 0
6449 6447 6448 0
140 -18930 0
-140 18930 0
-240 -228 0
-240 236 0
240 228 -236 0
-256 229 0
-256 240 0
256 -229 -240 0
-272 -230 0
-272 256 0
272 230 -256 0
-304 -231 0
-304 272 0
304 231 -272 0
-368 -232 0
-368 304 0
368 232 -304 0
-624 233 0
-624 368 0
624 -233 -368 0
-636 -220 0
-636 632 0
636 220 -632 0
-652 221 0
-652 636 0
652 -221 -636 0
-668 -222 0
-668 652 0
668 222 -652 0
-700 -223 0
-700 668 0
700 223 -668 0
-764 -224 0
-764 700 0
764 224 -700 0
-1020 225 0
-1020 764 0
1020 -225 -764 0
-1032 -212 0
-1032 1028 0
1032 212 -1028 0
-1048 213 0
-1048 1032 0
1048 -213 -1032 0
-1064 -214 0
-1064 1048 0
1064 214 -1048 0
-1096 -215 0
-1096 1064 0
1096 215 -1064 0
-1160 -216 0
-1160 1096 0
1160 216 -1096 0
-1416 217 0
-1416 1160 0
1416 -217 -1160 0
-1428 -204 0
-1428 1424 0
1428 204 -1424 0
-1444 205 0
-1444 1428 0
1444 -205 -1428 0
-1460 -206 0
-1460 1444 0
1460 206 -1444 0
-1492 -207 0
-1492 1460 0
1492 207 -1460 0
-1556 -208 0
-1556 1492 0
1556 208 -1492 0
-1812 209 0
-1812 1556 0
1812 -209 -1556 0
-1824 -196 0
-1824 1820 0
1824 196 -1820 0
-1840 197 0
-1840 1824 0
1840 -197 -1824 0
-1856 -198 0
-1856 1840 0
1856 198 -1840 0
-1888 -199 0
-1888 1856 0
1888 199 -1856 0
-1952 -200 0
-1952 1888 0
1952 200 -1888 0
-2208 201 0
-2208 1952 0
2208 -201 -1952 0
-2220 -188 0
-2220 2216 0
2220 188 -2216 0
-2236 189 0
-2236 2220 0
2236 -189 -2220 0
-2252 -190 0
-2252 2236 0
2252 190 -2236 0
-2284 -191 0
-2284 2252 0
2284 191 -2252 0
-2348 -192 0
-2348 2284 0
2348 192 -2284 0
-2604 193 0
-2604 2348 0
2604 -193 -2348 0
-2616 -180 0
-2616 2612 0
2616 180 -2612 0
-2632 181 0
-2632 2616 0
2632 -181 -2616 0
-2648 -182 0
-2648 2632 0
2648 182 -2632 0
-2680 -183 0
-2680 2648 0
2680 183 -2648 0
-2744 -184 0
-2744 2680 0
2744 184 -2680 0
-3000 185 0
-3000 2744 0
3000 -185 -2744 0
-3012 -172 0
-3012 3008 0
3012 172 -3008 0
-3028 173 0
-3028 3012 0
3028 -173 -3012 0
-3044 -174 0
-3044 3028 0
3044 174 -3028 0
-3076 -175 0
-3076 3044 0
3076 175 -3044 0
-3140 -176 0
-3140 3076 0
3140 176 -3076 0
-3396 177 0
-3396 3140 0
3396 -177 -3140 0
-3408 -164 0
-3408 3404 0
3408 164 -3404 0
-3424 165 0
-3424 3408 0
3424 -165 -3408 0
-3440 -166 0
-3440 3424 0
3440 166 -3424 0
-3472 -167 0
-3472 3440 0
3472 167 -3440 0
-3536 -168 0
-3536 3472 0
3536 168 -3472 0
-3792 169 0
-3792 3536 0
3792 -169 -3536 0
-3804 -156 0
-3804 3800 0
3804 156 -3800 0
-3820 157 0
-3820 3804 0
3820 -157 -3804 0
-3836 -158 0
-3836 3820 0
3836 158 -3820 0
-3868 -159 0
-3868 3836 0
3868 159 -3836 0
-3932 -160 0
-3932 3868 0
3932 160 -3868 0
-4188 161 0
-4188 3932 0
4188 -161 -3932 0
-4200 -148 0
-4200 4196 0
4200 148 -4196 0
-4216 149 0
-4216 4200 0
4216 -149 -4200 0
-4232 -150 0
-4232 4216 0
4232 150 -4216 0
-4264 -151 0
-4264 4232 0
4264 151 -4232 0
-4328 -152 0
-4328 4264 0
4328 152 -4264 0
-4584 153 0
-4584 4328 0
4584 -153 -4328 0
-4728 -4188 0
-4728 -4584 0
4728 4188 4584 0
-4872 -3792 0
-4872 4728 0
4872 3792 -4728 0
-5016 -3396 0
-5016 4872 0
5016 3396 -4872 0
-5160 -3000 0
-5160 5016 0
5160 3000 -5016 0
-5304 -2604 0
-5304 5160 0
5304 2604 -5160 0
-5448 -2208 0
-5448 5304 0
5448 2208 -5304 0
-5592 -1812 0
-5592 5448 0
5592 1812 -5448 0
-5736 -1416 0
-5736 5592 0
5736 1416 -5592 0
-5880 -1020 0
-5880 5736 0
5880 1020 -5736 0
-6024 -624 0
-6024 5880 0
6024 624 -5880 0
-6444 140 0
-6444 6024 0
6444 -140 -6024 0
-6445 -140 0
-6445 -6024 0
6445 140 6024 0
-6446 -6444 0
-6446 -6445 0
6446 6444 6445 0
139 -18929 0
-139 18929 0
-239 -228 0
-239 235 0
239 228 -235 0
-255 229 0
-255 239 0
255 -229 -239 0
-271 -230 0
-271 255 0
271 230 -255 0
-303 -231 0
-303 271 0
303 231 -271 0
-367 -232 0
-367 303 0
367 232 -303 0
-623 233 0
-623 367 0
623 -233 -367 0
-635 -220 0
-635 631 0
635 220 -631 0
-651 221 0
-651 635 0
651 -221 -635 0
-667 -222 0
-667 651 0
667 222 -651 0
-699 -223 0
-699 667 0
699 223 -667 0
-763 -224 0
-763 699 0
763 224 -699 0
-1019 225 0
-1019 763 0
1019 -225 -763 0
-1031 -212 0
-1031 1027 0
1031 212 -1027 0
-1047 213 0
-1047 1031 0
1047 -213 -1031 0
-1063 -214 0
-1063 1047 0
1063 214 -1047 0
-1095 -215 0
-1095 1063 0
1095 215 -1063 0
-1159 -216 0
-1159 1095 0
1159 216 -1095 0
-1415 217 0
-1415 1159 0
1415 -217 -1159 0
-1427 -204 0
-1427 1423 0
1427 204 -1423 0
-1443 205 0
-1443 1427 0
1443 -205 -1427 0
-1459 -206 0
-1459 1443 0
1459 206 -1443 0
-1491 -207 0
-1491 1459 0
1491 207 -1459 0
-1555 -208 0
-1555 1491 0
1555 208 -1491 0
-1811 209 0
-1811 1555 0
1811 -209 -1555 0
-1823 -196 0
-1823 1819 0
1823 196 -1819 0
-1839 197 0
-1839 1823 0
1839 -197 -1823 0
-1855 -198 0
-1855 1839 0
1855 198 -1839 0
-1887 -199 0
-1887 1855 0
1887 199 -1855 0
-1951 -200 0
-1951 1887 0
1951 200 -1887 0
-2207 201 0
-2207 1951 0
2207 -201 -1951 0
-2219 -188 0
-2219 2215 0
2219 188 -2215 0
-2235 189 0
-2235 2219 0
2235 -189 -2219 0
-2251 -190 0
-2251 2235 0
2251 190 -2235 0
-2283 -191 0
-2283 2251 0
2283 191 -2251 0
-2347 -192 0
-2347 2283 0
2347 192 -2283 0
-2603 193 0
-2603 2347 0
2603 -193 -2347 0
-2615 -180 0
-2615 2611 0
2615 180 -2611 0
-2631 181 0
-2631 2615 0
2631 -181 -2615 0
-2647 -182 0
-2647 2631 0
2647 182 -2631 0
-2679 -183 0
-2679 2647 0
2679 183 -2647 0
-2743 -184 0
-2743 2679 0
2743 184 -2679 0
-2999 185 0
-2999 2743 0
2999 -185 -2743 0
-3011 -172 0
-3011 3007 0
3011 172 -3007 0
-3027 173 0
-3027 3011 0
3027 -173 -3011 0
-3043 -174 0
-3043 3027 0
3043 174 -3027 0
-3075 -175 0
-3075 3043 0
3075 175 -3043 0
-3139 -176 0
-3139 3075 0
3139 176 -3075 0
-3395 177 0
-3395 3139 0
3395 -177 -3139 0
-3407 -164 0
-3407 3403 0
3407 164 -3403 0
-3423 165 0
-3423 3407 0
3423 -165 -3407 0
-3439 -166 0
-3439 3423 0
3439 166 -3423 0
-3471 -167 0
-3471 3439 0
3471 167 -3439 0
-3535 -168 0
-3535 3471 0
3535 168 -3471 0
-3791 169 0
-3791 3535 0
3791 -169 -3535 0
-3803 -156 0
-3803 3799 0
3803 156 -3799 0
-3819 157 0
-3819 3803 0
3819 -157 -3803 0
-3835 -158 0
-3835 3819 0
3835 158 -3819 0
-3867 -159 0
-3867 3835 0
3867 159 -3835 0
-3931 -160 0
-3931 3867 0
3931 160 -3867 0
-4187 161 0
-4187 3931 0
4187 -161 -3931 0
-4199 -148 0
-4199 4195 0
4199 148 -4195 0
-4215 149 0
-4215 4199 0
4215 -149 -4199 0
-4231 -150 0
-4231 4215 0
4231 150 -4215 0
-4263 -151 0
-4263 4231 0
4263 151 -4231 0
-4327 -152 0
-4327 4263 0
4327 152 -4263 0
-4583 153 0
-4583 4327 0
4583 -153 -4327 0
-4727 -4187 0
-4727 -4583 0
4727 4187 4583 0
-4871 -3791 0
-4871 4727 0
4871 3791 -4727 0
-5015 -3395 0
-5015 4871 0
5015 3395 -4871 0
-5159 -2999 0
-5159 5015 0
5159 2999 -5015 0
-5303 -2603 0
-5303 5159 0
5303 2603 -5159 0
-5447 -2207 0
-5447 5303 0
5447 2207 -5303 0
-5591 -1811 0
-5591 5447 0
5591 1811 -5447 0
-5735 -1415 0
-5735 5591 0
5735 1415 -5591 0
-5879 -1019 0
-5879 5735 0
5879 1019 -5735 0
-6023 -623 0
-6023 5879 0
6023 623 -5879 0
-6441 139 0
-6441 6023 0
6441 -139 -6023 0
-6442 -139 0
-6442 -6023 0
6442 139 6023 0
-6443 -6441 0
-6443 -6442 0
6443 6441 6442 0
138 -18928 0
-138 18928 0
-238 -228 0
-238 234 0
238 228 -234 0
-254 229 0
-254 238 0
254 -229 -238 0
-270 -230 0
-270 254 0
270 230 -254 0
-302 -231 0
-302 270 0
302 231 -270 0
-366 -232 0
-366 302 0
366 232 -302 0
-622 233 0
-622 366 0
622 -233 -366 0
-634 -220 0
-634 630 0
634 220 -630 0
-650 221 0
-650 634 0
650 -221 -634 0
-666 -222 0
-666 650 0
666 222 -650 0
-698 -223 0
-698 666 0
698 223 -666 0
-762 -224 0
-762 698 0
762 224 -698 0
-1018 225 0
-1018 762 0
1018 -225 -762 0
-1030 -212 0
-1030 1026 0
1030 212 -1026 0
-1046 213 0
-1046 1030 0
1046 -213 -1030 0
-1062 -214 0
-1062 1046 0
1062 214 -1046 0
-1094 -215 0
-1094 1062 0
1094 215 -1062 0
-1158 -216 0
-1158 1094 0
1158 216 -1094 0
-1414 217 0
-1414 1158 0
1414 -217 -1158 0
-1426 -204 0
-1426 1422 0
1426 204 -1422 0
-1442 205 0
-1442 1426 0
1442 -205 -1426 0
-1458 -206 0
-1458 1442 0
1458 206 -1442 0
-1490 -207 0
-1490 1458 0
1490 207 -1458 0
-1554 -208 0
-1554 1490 0
1554 208 -1490 0
-1810 209 0
-1810 1554 0
1810 -209 -1554 0
-1822 -196 0
-1822 1818 0
1822 196 -1818 0
-1838 197 0
-1838 1822 0
1838 -197 -1822 0
-1854 -198 0
-1854 1838 0
1854 198 -1838 0
-1886 -199 0
-1886 1854 0
1886 199 -1854 0
-1950 -200 0
-1950 1886 0
1950 200 -1886 0
-2206 201 0
-2206 1950 0
2206 -201 -1950 0
-2218 -188 0
-2218 2214 0
2218 188 -2214 0
-2234 189 0
-2234 2218 0
2234 -189 -2218 0
-2250 -190 0
-2250 2234 0
2250 190 -2234 0
-2282 -191 0
-2282 2250 0
2282 191 -2250 0
-2346 -192 0
-2346 2282 0
2346 192 -2282 0
-2602 193 0
-2602 2346 0
2602 -193 -2346 0
-2614 -180 0
-2614 2610 0
2614 180 -2610 0
-2630 181 0
-2630 2614 0
2630 -181 -2614 0
-2646 -182 0
-2646 2630 0
2646 182 -2630 0
-2678 -183 0
-2678 2646 0
2678 183 -2646 0
-2742 -184 0
-2742 2678 0
2742 184 -2678 0
-2998 185 0
-2998 2742 0
2998 -185 -2742 0
-3010 -172 0
-3010 3006 0
3010 172 -3006 0
-3026 173 0
-3026 3010 0
3026 -173 -3010 0
-3042 -174 0
-3042 3026 0
3042 174 -3026 0
-3074 -175 0
-3074 3042 0
3074 175 -3042 0
-3138 -176 0
-3138 3074 0
3138 176 -3074 0
-3394 177 0
-3394 3138 0
3394 -177 -3138 0
-3406 -164 0
-3406 3402 0
3406 164 -3402 0
-3422 165 0
-3422 3406 0
3422 -165 -3406 0
-3438 -166 0
-3438 3422 0
3438 166 -3422 0
-3470 -167 0
-3470 3438 0
3470 167 -3438 0
-3534 -168 0
-3534 3470 0
3534 168 -3470 0
-3790 169 0
-3790 3534 0
3790 -169 -3534 0
-3802 -156 0
-3802 3798 0
3802 156 -3798 0
-3818 157 0
-3818 3802 0
3818 -157 -3802 0
-3834 -158 0
-3834 3818 0
3834 158 -3818 0
-3866 -159 0
-3866 3834 0
3866 159 -3834 0
-3930 -160 0
-3930 3866 0
3930 160 -3866 0
-4186 161 0
-4186 3930 0
4186 -161 -3930 0
-4198 -148 0
-4198 4194 0
4198 148 -4194 0
-4214 149 0
-4214 4198 0
4214 -149 -4198 0
-4230 -150 0
-4230 4214 0
4230 150 -4214 0
-4262 -151 0
-4262 4230 0
4262 151 -4230 0
-4326 -152 0
-4326 4262 0
4326 152 -4262 0
-4582 153 0
-4582 4326 0
4582 -153 -4326 0
-4726 -4186 0
-4726 -4582 0
4726 4186 4582 0
-4870 -3790 0
-4870 4726 0
4870 3790 -4726 0
-5014 -3394 0
-5014 4870 0
5014 3394 -4870 0
-5158 -2998 0
-5158 5014 0
5158 2998 -5014 0
-5302 -2602 0
-5302 5158 0
5302 2602 -5158 0
-5446 -2206 0
-5446 5302 0
5446 2206 -5302 0
-5590 -1810 0
-5590 5446 0
5590 1810 -5446 0
-5734 -1414 0
-5734 5590 0
5734 1414 -5590 0
-5878 -1018 0
-5878 5734 0
5878 1018 -5734 0
-6022 -622 0
-6022 5878 0
6022 622 -5878 0
-6438 138 0
-6438 6022 0
6438 -138 -6022 0
-6439 -138 0
-6439 -6022 0
6439 138 6022 0
-6440 -6438 0
-6440 -6439 0
6440 6438 6439 0
137 -18927 0
-137 18927 0
-253 -229 0
-253 245 0
253 229 -245 0
-269 -230 0
-269 253 0
269 230 -253 0
-301 -231 0
-301 269 0
301 231 -269 0
-365 -232 0
-365 301 0
365 232 -301 0
-621 233 0
-621 365 0
621 -233 -365 0
-649 -221 0
-649 641 0
649 221 -641 0
-665 -222 0
-665 649 0
665 222 -649 0
-697 -223 0
-697 665 0
697 223 -665 0
-761 -224 0
-761 697 0
761 224 -697 0
-1017 225 0
-1017 761 0
1017 -225 -761 0
-1045 -213 0
-1045 1037 0
1045 213 -1037 0
-1061 -214 0
-1061 1045 0
1061 214 -1045 0
-1093 -215 0
-1093 1061 0
1093 215 -1061 0
-1157 -216 0
-1157 1093 0
1157 216 -1093 0
-1413 217 0
-1413 1157 0
1413 -217 -1157 0
-1441 -205 0
-1441 1433 0
1441 205 -1433 0
-1457 -206 0
-1457 1441 0
1457 206 -1441 0
-1489 -207 0
-1489 1457 0
1489 207 -1457 0
-1553 -208 0
-1553 1489 0
1553 208 -1489 0
-1809 209 0
-1809 1553 0
1809 -209 -1553 0
-1837 -197 0
-1837 1829 0
1837 197 -1829 0
-1853 -198 0
-1853 1837 0
1853 198 -1837 0
-1885 -199 0
-1885 1853 0
1885 199 -1853 0
-1949 -200 0
-1949 1885 0
1949 200 -1885 0
-2205 201 0
-2205 1949 0
2205 -201 -1949 0
-2233 -189 0
-2233 2225 0
2233 189 -2225 0
-2249 -190 0
-2249 2233 0
2249 190 -2233 0
-2281 -191 0
-2281 2249 0
2281 191 -2249 0
-2345 -192 0
-2345 2281 0
2345 192 -2281 0
-2601 193 0
-2601 2345 0
2601 -193 -2345 0
-2629 -181 0
-2629 2621 0
2629 181 -2621 0
-2645 -182 0
-2645 2629 0
2645 182 -2629 0
-2677 -183 0
-2677 2645 0
2677 183 -2645 0
-2741 -184 0
-2741 2677 0
2741 184 -2677 0
-2997 185 0
-2997 2741 0
2997 -185 -2741 0
-3025 -173 0
-3025 3017 0
3025 173 -3017 0
-3041 -174 0
-3041 3025 0
3041 174 -3025 0
-3073 -175 0
-3073 3041 0
3073 175 -3041 0
-3137 -176 0
-3137 3073 0
3137 176 -3073 0
-3393 177 0
-3393 3137 0
3393 -177 -3137 0
-3421 -165 0
-3421 3413 0
3421 165 -3413 0
-3437 -166 0
-3437 3421 0
3437 166 -3421 0
-3469 -167 0
-3469 3437 0
3469 167 -3437 0
-3533 -168 0
-3533 3469 0
3533 168 -3469 0
-3789 169 0
-3789 3533 0
3789 -169 -3533 0
-3817 -157 0
-3817 3809 0
3817 157 -3809 0
-3833 -158 0
-3833 3817 0
3833 158 -3817 0
-3865 -159 0
-3865 3833 0
3865 159 -3833 0
-3929 -160 0
-3929 3865 0
3929 160 -3865 0
-4185 161 0
-4185 3929 0
4185 -161 -3929 0
-4213 -149 0
-4213 4205 0
4213 149 -4205 0
-4229 -150 0
-4229 4213 0
4229 150 -4213 0
-4261 -151 0
-4261 4229 0
4261 151 -4229 0
-4325 -152 0
-4325 4261 0
4325 152 -4261 0
-4581 153 0
-4581 4325 0
4581 -153 -4325 0
-4725 -4185 0
-4725 -4581 0
4725 4185 4581 0
-4869 -3789 0
-4869 4725 0
4869 3789 -4725 0
-5013 -3393 0
-5013 4869 0
5013 3393 -4869 0
-5157 -2997 0
-5157 5013 0
5157 2997 -5013 0
-5301 -2601 0
-5301 5157 0
5301 2601 -5157 0
-5445 -2205 0
-5445 5301 0
5445 2205 -5301 0
-5589 -1809 0
-5589 5445 0
5589 1809 -5445 0
-5733 -1413 0
-5733 5589 0
5733 1413 -5589 0
-5877 -1017 0
-5877 5733 0
5877 1017 -5733 0
-6021 -621 0
-6021 5877 0
6021 621 -5877 0
-6435 137 0
-6435 6021 0
6435 -137 -6021 0
-6436 -137 0
-6436 -6021 0
6436 137 6021 0
-6437 -6435 0
-6437 -6436 0
6437 6435 6436 0
136 -18926 0
-136 18926 0
-252 -229 0
-252 244 0
252 229 -244 0
-268 -230 0
-268 252 0
268 230 -252 0
-300 -231 0
-300 268 0
300 231 -268 0
-364 -232 0
-364 300 0
364 232 -300 0
-620 233 0
-620 364 0
620 -233 -364 0
-648 -221 0
-648 640 0
648 221 -640 0
-664 -222 0
-664 648 0
664 222 -648 0
-696 -223 0
-696 664 0
696 223 -664 0
-760 -224 0
-760 696 0
760 224 -696 0
-1016 225 0
-1016 760 0
1016 -225 -760 0
-1044 -213 0
-1044 1036 0
1044 213 -1036 0
-1060 -214 0
-1060 1044 0
1060 214 -1044 0
-1092 -215 0
-1092 1060 0
1092 215 -1060 0
-1156 -216 0
-1156 1092 0
1156 216 -1092 0
-1412 217 0
-1412 1156 0
1412 -217 -1156 0
-1440 -205 0
-1440 1432 0
1440 205 -1432 0
-1456 -206 0
-1456 1440 0
1456 206 -1440 0
-1488 -207 0
-1488 1456 0
1488 207 -1456 0
-1552 -208 0
-1552 1488 0
1552 208 -1488 0
-1808 209 0
-1808 1552 0
1808 -209 -1552 0
-1836 -197 0
-1836 1828 0
1836 197 -1828 0
-1852 -198 0
-1852 1836 0
1852 198 -1836 0
-1884 -199 0
-1884 1852 0
1884 199 -1852 0
-1948 -200 0
-1948 1884 0
1948 200 -1884 0
-2204 201 0
-2204 1948 0
2204 -201 -1948 0
-2232 -189 0
-2232 2224 0
2232 189 -2224 0
-2248 -190 0
-2248 2232 0
2248 190 -2232 0
-2280 -191 0
-2280 2248 0
2280 191 -2248 0
-2344 -192 0
-2344 2280 0
2344 192 -2280 0
-2600 193 0
-2600 2344 0
2600 -193 -2344 0
-2628 -181 0
-2628 2620 0
2628 181 -2620 0
-2644 -182 0
-2644 2628 0
2644 182 -2628 0
-2676 -183 0
-2676 2644 0
2676 183 -2644 0
-2740 -184 0
-2740 2676 0
2740 184 -2676 0
-2996 185 0
-2996 2740 0
2996 -185 -2740 0
-3024 -173 0
-3024 3016 0
3024 173 -3016 0
-3040 -174 0
-3040 3024 0
3040 174 -3024 0
-3072 -175 0
-3072 3040 0
3072 175 -3040 0
-3136 -176 0
-3136 3072 0
3136 176 -3072 0
-3392 177 0
-3392 3136 0
3392 -177 -3136 0
-3420 -165 0
-3420 3412 0
3420 165 -3412 0
-3436 -166 0
-3436 3420 0
3436 166 -3420 0
-3468 -167 0
-3468 3436 0
3468 167 -3436 0
-3532 -168 0
-3532 3468 0
3532 168 -3468 0
-3788 169 0
-3788 3532 0
3788 -169 -3532 0
-3816 -157 0
-3816 3808 0
3816 157 -3808 0
-3832 -158 0
-3832 3816 0
3832 158 -3816 0
-3864 -159 0
-3864 3832 0
3864 159 -3832 0
-3928 -160 0
-3928 3864 0
3928 160 -3864 0
-4184 161 0
-4184 3928 0
4184 -161 -3928 0
-4212 -149 0
-4212 4204 0
4212 149 -4204 0
-4228 -150 0
-4228 4212 0
4228 150 -4212 0
-4260 -151 0
-4260 4228 0
4260 151 -4228 0
-4324 -152 0
-4324 4260 0
4324 152 -4260 0
-4580 153 0
-4580 4324 0
4580 -153 -4324 0
-4724 -4184 0
-4724 -4580 0
4724 4184 4580 0
-4868 -3788 0
-4868 4724 0
4868 3788 -4724 0
-5012 -3392 0
-5012 4868 0
5012 3392 -4868 0
-5156 -2996 0
-5156 5012 0
5156 2996 -5012 0
-5300 -2600 0
-5300 5156 0
5300 2600 -5156 0
-5444 -2204 0
-5444 5300 0
5444 2204 -5300 0
-5588 -1808 0
-5588 5444 0
5588 1808 -5444 0
-5732 -1412 0
-5732 5588 0
5732 1412 -5588 0
-5876 -1016 0
-5876 5732 0
5876 1016 -5732 0
-6020 -620 0
-6020 5876 0
6020 620 -5876 0
-6432 136 0
-6432 6020 0
6432 -136 -6020 0
-6433 -136 0
-6433 -6020 0
6433 136 6020 0
-6434 -6432 0
-6434 -6433 0
6434 6432 6433 0
135 -18925 0
-135 18925 0
-251 -229 0
-251 243 0
251 229 -243 0
-267 -230 0
-267 251 0
267 230 -251 0
-299 -231 0
-299 267 0
299 231 -267 0
-363 -232 0
-363 299 0
363 232 -299 0
-619 233 0
-619 363 0
619 -233 -363 0
-647 -221 0
-647 639 0
647 221 -639 0
-663 -222 0
-663 647 0
663 222 -647 0
-695 -223 0
-695 663 0
695 223 -663 0
-759 -224 0
-759 695 0
759 224 -695 0
-1015 225 0
-1015 759 0
1015 -225 -759 0
-1043 -213 0
-1043 1035 0
1043 213 -1035 0
-1059 -214 0
-1059 1043 0
1059 214 -1043 0
-1091 -215 0
-1091 1059 0
1091 215 -1059 0
-1155 -216 0
-1155 1091 0
1155 216 -1091 0
-1411 217 0
-1411 1155 0
1411 -217 -1155 0
-1439 -205 0
-1439 1431 0
1439 205 -1431 0
-1455 -206 0
-1455 1439 0
1455 206 -1439 0
-1487 -207 0
-1487 1455 0
1487 207 -1455 0
-1551 -208 0
-1551 1487 0
1551 208 -1487 0
-1807 209 0
-1807 1551 0
1807 -209 -1551 0
-1835 -197 0
-1835 1827 0
1835 197 -1827 0
-1851 -198 0
-1851 1835 0
1851 198 -1835 0
-1883 -199 0
-1883 1851 0
1883 199 -1851 0
-1947 -200 0
-1947 1883 0
1947 200 -1883 0
-2203 201 0
-2203 1947 0
2203 -201 -1947 0
-2231 -189 0
-2231 2223 0
2231 189 -2223 0
-2247 -190 0
-2247 2231 0
2247 190 -2231 0
-2279 -191 0
-2279 2247 0
2279 191 -2247 0
-2343 -192 0
-2343 2279 0
2343 192 -2279 0
-2599 193 0
-2599 2343 0
2599 -193 -2343 0
-2627 -181 0
-2627 2619 0
2627 181 -2619 0
-2643 -182 0
-2643 2627 0
2643 182 -2627 0
-2675 -183 0
-2675 2643 0
2675 183 -2643 0
-2739 -184 0
-2739 2675 0
2739 184 -2675 0
-2995 185 0
-2995 2739 0
2995 -185 -2739 0
-3023 -173 0
-3023 3015 0
3023 173 -3015 0
-3039 -174 0
-3039 3023 0
3039 174 -3023 0
-3071 -175 0
-3071 3039 0
3071 175 -3039 0
-3135 -176 0
-3135 3071 0
3135 176 -3071 0
-3391 177 0
-3391 3135 0
3391 -177 -3135 0
-3419 -165 0
-3419 3411 0
3419 165 -3411 0
-3435 -166 0
-3435 3419 0
3435 166 -3419 0
-3467 -167 0
-3467 3435 0
3467 167 -3435 0
-3531 -168 0
-3531 3467 0
3531 168 -3467 0
-3787 169 0
-3787 3531 0
3787 -169 -3531 0
-3815 -157 0
-3815 3807 0
3815 157 -3807 0
-3831 -158 0
-3831 3815 0
3831 158 -3815 0
-3863 -159 0
-3863 3831 0
3863 159 -3831 0
-3927 -160 0
-3927 3863 0
3927 160 -3863 0
-4183 161 0
-4183 3927 0
4183 -161 -3927 0
-4211 -149 0
-4211 4203 0
4211 149 -4203 0
-4227 -150 0
-4227 4211 0
4227 150 -4211 0
-4259 -151 0
-4259 4227 0
4259 151 -4227 0
-4323 -152 0
-4323 4259 0
4323 152 -4259 0
-4579 153 0
-4579 4323 0
4579 -153 -4323 0
-4723 -4183 0
-4723 -4579 0
4723 4183 4579 0
-4867 -3787 0
-4867 4723 0
4867 3787 -4723 0
-5011 -3391 0
-5011 4867 0
5011 3391 -4867 0
-5155 -2995 0
-5155 5011 0
5155 2995 -5011 0
-5299 -2599 0
-5299 5155 0
5299 2599 -5155 0
-5443 -2203 0
-5443 5299 0
5443 2203 -5299 0
-5587 -1807 0
-5587 5443 0
5587 1807 -5443 0
-5731 -1411 0
-5731 5587 0
5731 1411 -5587 0
-5875 -1015 0
-5875 5731 0
5875 1015 -5731 0
-6019 -619 0
-6019 5875 0
6019 619 -5875 0
-6429 135 0
-6429 6019 0
6429 -135 -6019 0
-6430 -135 0
-6430 -6019 0
6430 135 6019 0
-6431 -6429 0
-6431 -6430 0
6431 6429 6430 0
134 -18924 0
-134 18924 0
-250 -229 0
-250 242 0
250 229 -242 0
-266 -230 0
-266 250 0
266 230 -250 0
-298 -231 0
-298 266 0
298 231 -266 0
-362 -232 0
-362 298 0
362 232 -298 0
-618 233 0
-618 362 0
618 -233 -362 0
-646 -221 0
-646 638 0
646 221 -638 0
-662 -222 0
-662 646 0
662 222 -646 0
-694 -223 0
-694 662 0
694 223 -662 0
-758 -224 0
-758 694 0
758 224 -694 0
-1014 225 0
-1014 758 0
1014 -225 -758 0
-1042 -213 0
-1042 1034 0
1042 213 -1034 0
-1058 -214 0
-1058 1042 0
1058 214 -1042 0
-1090 -215 0
-1090 1058 0
1090 215 -1058 0
-1154 -216 0
-1154 1090 0
1154 216 -1090 0
-1410 217 0
-1410 1154 0
1410 -217 -1154 0
-1438 -205 0
-1438 1430 0
1438 205 -1430 0
-1454 -206 0
-1454 1438 0
1454 206 -1438 0
-1486 -207 0
-1486 1454 0
1486 207 -1454 0
-1550 -208 0
-1550 1486 0
1550 208 -1486 0
-1806 209 0
-1806 1550 0
1806 -209 -1550 0
-1834 -197 0
-1834 1826 0
1834 197 -1826 0
-1850 -198 0
-1850 1834 0
1850 198 -1834 0
-1882 -199 0
-1882 1850 0
1882 199 -1850 0
-1946 -200 0
-1946 1882 0
1946 200 -1882 0
-2202 201 0
-2202 1946 0
2202 -201 -1946 0
-2230 -189 0
-2230 2222 0
2230 189 -2222 0
-2246 -190 0
-2246 2230 0
2246 190 -2230 0
-2278 -191 0
-2278 2246 0
2278 191 -2246 0
-2342 -192 0
-2342 2278 0
2342 192 -2278 0
-2598 193 0
-2598 2342 0
2598 -193 -2342 0
-2626 -181 0
-2626 2618 0
2626 181 -2618 0
-2642 -182 0
-2642 2626 0
2642 182 -2626 0
-2674 -183 0
-2674 2642 0
2674 183 -2642 0
-2738 -184 0
-2738 2674 0
2738 184 -2674 0
-2994 185 0
-2994 2738 0
2994 -185 -2738 0
-3022 -173 0
-3022 3014 0
3022 173 -3014 0
-3038 -174 0
-3038 3022 0
3038 174 -3022 0
-3070 -175 0
-3070 3038 0
3070 175 -3038 0
-3134 -176 0
-3134 3070 0
3134 176 -3070 0
-3390 177 0
-3390 3134 0
3390 -177 -3134 0
-3418 -165 0
-3418 3410 0
3418 165 -3410 0
-3434 -166 0
-3434 3418 0
3434 166 -3418 0
-3466 -167 0
-3466 3434 0
3466 167 -3434 0
-3530 -168 0
-3530 3466 0
3530 168 -3466 0
-3786 169 0
-3786 3530 0
3786 -169 -3530 0
-3814 -157 0
-3814 3806 0
3814 157 -3806 0
-3830 -158 0
-3830 3814 0
3830 158 -3814 0
-3862 -159 0
-3862 3830 0
3862 159 -3830 0
-3926 -160 0
-3926 3862 0
3926 160 -3862 0
-4182 161 0
-4182 3926 0
4182 -161 -3926 0
-4210 -149 0
-4210 4202 0
4210 149 -4202 0
-4226 -150 0
-4226 4210 0
4226 150 -4210 0
-4258 -151 0
-4258 4226 0
4258 151 -4226 0
-4322 -152 0
-4322 4258 0
4322 152 -4258 0
-4578 153 0
-4578 4322 0
4578 -153 -4322 0
-4722 -4182 0
-4722 -4578 0
4722 4182 4578 0
-4866 -3786 0
-4866 4722 0
4866 3786 -4722 0
-5010 -3390 0
-5010 4866 0
5010 3390 -4866 0
-5154 -2994 0
-5154 5010 0
5154 2994 -5010 0
-5298 -2598 0
-5298 5154 0
5298 2598 -5154 0
-5442 -2202 0
-5442 5298 0
5442 2202 -5298 0
-5586 -1806 0
-5586 5442 0
5586 1806 -5442 0
-5730 -1410 0
-5730 5586 0
5730 1410 -5586 0
-5874 -1014 0
-5874 5730 0
5874 1014 -5730 0
-6018 -618 0
-6018 5874 0
6018 618 -5874 0
-6426 134 0
-6426 6018 0
6426 -134 -6018 0
-6427 -134 0
-6427 -6018 0
6427 134 6018 0
-6428 -6426 0
-6428 -6427 0
6428 6426 6427 0
133 -18923 0
-133 18923 0
-249 -229 0
-249 241 0
249 229 -241 0
-265 -230 0
-265 249 0
265 230 -249 0
-297 -231 0
-297 265 0
297 231 -265 0
-361 -232 0
-361 297 0
361 232 -297 0
-617 233 0
-617 361 0
617 -233 -361 0
-645 -221 0
-645 637 0
645 221 -637 0
-661 -222 0
-661 645 0
661 222 -645 0
-693 -223 0
-693 661 0
693 223 -661 0
-757 -224 0
-757 693 0
757 224 -693 0
-1013 225 0
-1013 757 0
1013 -225 -757 0
-1041 -213 0
-1041 1033 0
1041 213 -1033 0
-1057 -214 0
-1057 1041 0
1057 214 -1041 0
-1089 -215 0
-1089 1057 0
1089 215 -1057 0
-1153 -216 0
-1153 1089 0
1153 216 -1089 0
-1409 217 0
-1409 1153 0
1409 -217 -1153 0
-1437 -205 0
-1437 1429 0
1437 205 -1429 0
-1453 -206 0
-1453 1437 0
1453 206 -1437 0
-1485 -207 0
-1485 1453 0
1485 207 -1453 0
-1549 -208 0
-1549 1485 0
1549 208 -1485 0
-1805 209 0
-1805 1549 0
1805 -209 -1549 0
-1833 -197 0
-1833 1825 0
1833 197 -1825 0
-1849 -198 0
-1849 1833 0
1849 198 -1833 0
-1881 -199 0
-1881 1849 0
1881 199 -1849 0
-1945 -200 0
-1945 1881 0
1945 200 -1881 0
-2201 201 0
-2201 1945 0
2201 -201 -1945 0
-2229 -189 0
-2229 2221 0
2229 189 -2221 0
-2245 -190 0
-2245 2229 0
2245 190 -2229 0
-2277 -191 0
-2277 2245 0
2277 191 -2245 0
-2341 -192 0
-2341 2277 0
2341 192 -2277 0
-2597 193 0
-2597 2341 0
2597 -193 -2341 0
-2625 -181 0
-2625 2617 0
2625 181 -2617 0
-2641 -182 0
-2641 2625 0
2641 182 -2625 0
-2673 -183 0
-2673 2641 0
2673 183 -2641 0
-2737 -184 0
-2737 2673 0
2737 184 -2673 0
-2993 185 0
-2993 2737 0
2993 -185 -2737 0
-3021 -173 0
-3021 3013 0
3021 173 -3013 0
-3037 -174 0
-3037 3021 0
3037 174 -3021 0
-3069 -175 0
-3069 3037 0
3069 175 -3037 0
-3133 -176 0
-3133 3069 0
3133 176 -3069 0
-3389 177 0
-3389 3133 0
3389 -177 -3133 0
-3417 -165 0
-3417 3409 0
3417 165 -3409 0
-3433 -166 0
-3433 3417 0
3433 166 -3417 0
-3465 -167 0
-3465 3433 0
3465 167 -3433 0
-3529 -168 0
-3529 3465 0
3529 168 -3465 0
-3785 169 0
-3785 3529 0
3785 -169 -3529 0
-3813 -157 0
-3813 3805 0
3813 157 -3805 0
-3829 -158 0
-3829 3813 0
3829 158 -3813 0
-3861 -159 0
-3861 3829 0
3861 159 -3829 0
-3925 -160 0
-3925 3861 0
3925 160 -3861 0
-4181 161 0
-4181 3925 0
4181 -161 -3925 0
-4209 -149 0
-4209 4201 0
4209 149 -4201 0
-4225 -150 0
-4225 4209 0
4225 150 -4209 0
-4257 -151 0
-4257 4225 0
4257 151 -4225 0
-4321 -152 0
-4321 4257 0
4321 152 -4257 0
-4577 153 0
-4577 4321 0
4577 -153 -4321 0
-4721 -4181 0
-4721 -4577 0
4721 4181 4577 0
-4865 -3785 0
-4865 4721 0
4865 3785 -4721 0
-5009 -3389 0
-5009 4865 0
5009 3389 -4865 0
-5153 -2993 0
-5153 5009 0
5153 2993 -5009 0
-5297 -2597 0
-5297 5153 0
5297 2597 -5153 0
-5441 -2201 0
-5441 5297 0
5441 2201 -5297 0
-5585 -1805 0
-5585 5441 0
5585 1805 -5441 0
-5729 -1409 0
-5729 5585 0
5729 1409 -5585 0
-5873 -1013 0
-5873 5729 0
5873 1013 -5729 0
-6017 -617 0
-6017 5873 0
6017 617 -5873 0
-6423 133 0
-6423 6017 0
6423 -133 -6017 0
-6424 -133 0
-6424 -6017 0
6424 133 6017 0
-6425 -6423 0
-6425 -6424 0
6425 6423 6424 0
132 -18922 0
-132 18922 0
-248 -229 0
-248 240 0
248 229 -240 0
-264 -230 0
-264 248 0
264 230 -248 0
-296 -231 0
-296 264 0
296 231 -264 0
-360 -232 0
-360 296 0
360 232 -296 0
-616 233 0
-616 360 0
616 -233 -360 0
-644 -221 0
-644 636 0
644 221 -636 0
-660 -222 0
-660 644 0
660 222 -644 0
-692 -223 0
-692 660 0
692 223 -660 0
-756 -224 0
-756 692 0
756 224 -692 0
-1012 225 0
-1012 756 0
1012 -225 -756 0
-1040 -213 0
-1040 1032 0
1040 213 -1032 0
-1056 -214 0
-1056 1040 0
1056 214 -1040 0
-1088 -215 0
-1088 1056 0
1088 215 -1056 0
-1152 -216 0
-1152 1088 0
1152 216 -1088 0
-1408 217 0
-1408 1152 0
1408 -217 -1152 0
-1436 -205 0
-1436 1428 0
1436 205 -1428 0
-1452 -206 0
-1452 1436 0
1452 206 -1436 0
-1484 -207 0
-1484 1452 0
1484 207 -1452 0
-1548 -208 0
-1548 1484 0
1548 208 -1484 0
-1804 209 0
-1804 1548 0
1804 -209 -1548 0
-1832 -197 0
-1832 1824 0
1832 197 -1824 0
-1848 -198 0
-1848 1832 0
1848 198 -1832 0
-1880 -199 0
-1880 1848 0
1880 199 -1848 0
-1944 -200 0
-1944 1880 0
1944 200 -1880 0
-2200 201 0
-2200 1944 0
2200 -201 -1944 0
-2228 -189 0
-2228 2220 0
2228 189 -2220 0
-2244 -190 0
-2244 2228 0
2244 190 -2228 0
-2276 -191 0
-2276 2244 0
2276 191 -2244 0
-2340 -192 0
-2340 2276 0
2340 192 -2276 0
-2596 193 0
-2596 2340 0
2596 -193 -2340 0
-2624 -181 0
-2624 2616 0
2624 181 -2616 0
-2640 -182 0
-2640 2624 0
2640 182 -2624 0
-2672 -183 0
-2672 2640 0
2672 183 -2640 0
-2736 -184 0
-2736 2672 0
2736 184 -2672 0
-2992 185 0
-2992 2736 0
2992 -185 -2736 0
-3020 -173 0
-3020 3012 0
3020 173 -3012 0
-3036 -174 0
-3036 3020 0
3036 174 -3020 0
-3068 -175 0
-3068 3036 0
3068 175 -3036 0
-3132 -176 0
-3132 3068 0
3132 176 -3068 0
-3388 177 0
-3388 3132 0
3388 -177 -3132 0
-3416 -165 0
-3416 3408 0
3416 165 -3408 0
-3432 -166 0
-3432 3416 0
3432 166 -3416 0
-3464 -167 0
-3464 3432 0
3464 167 -3432 0
-3528 -168 0
-3528 3464 0
3528 168 -3464 0
-3784 169 0
-3784 3528 0
3784 -169 -3528 0
-3812 -157 0
-3812 3804 0
3812 157 -3804 0
-3828 -158 0
-3828 3812 0
3828 158 -3812 0
-3860 -159 0
-3860 3828 0
3860 159 -3828 0
-3924 -160 0
-3924 3860 0
3924 160 -3860 0
-4180 161 0
-4180 3924 0
4180 -161 -3924 0
-4208 -149 0
-4208 4200 0
4208 149 -4200 0
-4224 -150 0
-4224 4208 0
4224 150 -4208 0
-4256 -151 0
-4256 4224 0
4256 151 -4224 0
-4320 -152 0
-4320 4256 0
4320 152 -4256 0
-4576 153 0
-4576 4320 0
4576 -153 -4320 0
-4720 -4180 0
-4720 -4576 0
4720 4180 4576 0
-4864 -3784 0
-4864 4720 0
4864 3784 -4720 0
-5008 -3388 0
-5008 4864 0
5008 3388 -4864 0
-5152 -2992 0
-5152 5008 0
5152 2992 -5008 0
-5296 -2596 0
-5296 5152 0
5296 2596 -5152 0
-5440 -2200 0
-5440 5296 0
5440 2200 -5296 0
-5584 -1804 0
-5584 5440 0
5584 1804 -5440 0
-5728 -1408 0
-5728 5584 0
5728 1408 -5584 0
-5872 -1012 0
-5872 5728 0
5872 1012 -5728 0
-6016 -616 0
-6016 5872 0
6016 616 -5872 0
-6420 132 0
-6420 6016 0
6420 -132 -6016 0
-6421 -132 0
-6421 -6016 0
6421 132 6016 0
-6422 -6420 0
-6422 -6421 0
6422 6420 6421 0
131 -18921 0
-131 18921 0
-247 -229 0
-247 239 0
247 229 -239 0
-263 -230 0
-263 247 0
263 230 -247 0
-295 -231 0
-295 263 0
295 231 -263 0
-359 -232 0
-359 295 0
359 232 -295 0
-615 233 0
-615 359 0
615 -233 -359 0
-643 -221 0
-643 635 0
643 221 -635 0
-659 -222 0
-659 643 0
659 222 -643 0
-691 -223 0
-691 659 0
691 223 -659 0
-755 -224 0
-755 691 0
755 224 -691 0
-1011 225 0
-1011 755 0
1011 -225 -755 0
-1039 -213 0
-1039 1031 0
1039 213 -1031 0
-1055 -214 0
-1055 1039 0
1055 214 -1039 0
-1087 -215 0
-1087 1055 0
1087 215 -1055 0
-1151 -216 0
-1151 1087 0
1151 216 -1087 0
-1407 217 0
-1407 1151 0
1407 -217 -1151 0
-1435 -205 0
-1435 1427 0
1435 205 -1427 0
-1451 -206 0
-1451 1435 0
1451 206 -1435 0
-1483 -207 0
-1483 1451 0
1483 207 -1451 0
-1547 -208 0
-1547 1483 0
1547 208 -1483 0
-1803 209 0
-1803 1547 0
1803 -209 -1547 0
-1831 -197 0
-1831 1823 0
1831 197 -1823 0
-1847 -198 0
-1847 1831 0
1847 198 -1831 0
-1879 -199 0
-1879 1847 0
1879 199 -1847 0
-1943 -200 0
-1943 1879 0
1943 200 -1879 0
-2199 201 0
-2199 1943 0
2199 -201 -1943 0
-2227 -189 0
-2227 2219 0
2227 189 -2219 0
-2243 -190 0
-2243 2227 0
2243 190 -2227 0
-2275 -191 0
-2275 2243 0
2275 191 -2243 0
-2339 -192 0
-2339 2275 0
2339 192 -2275 0
-2595 193 0
-2595 2339 0
2595 -193 -2339 0
-2623 -181 0
-2623 2615 0
2623 181 -2615 0
-2639 -182 0
-2639 2623 0
2639 182 -2623 0
-2671 -183 0
-2671 2639 0
2671 183 -2639 0
-2735 -184 0
-2735 2671 0
2735 184 -2671 0
-2991 185 0
-2991 2735 0
2991 -185 -2735 0
-3019 -173 0
-3019 3011 0
3019 173 -3011 0
-3035 -174 0
-3035 3019 0
3035 174 -3019 0
-3067 -175 0
-3067 3035 0
3067 175 -3035 0
-3131 -176 0
-3131 3067 0
3131 176 -3067 0
-3387 177 0
-3387 3131 0
3387 -177 -3131 0
-3415 -165 0
-3415 3407 0
3415 165 -3407 0
-3431 -166 0
-3431 3415 0
3431 166 -3415 0
-3463 -167 0
-3463 3431 0
3463 167 -3431 0
-3527 -168 0
-3527 3463 0
3527 168 -3463 0
-3783 169 0
-3783 3527 0
3783 -169 -3527 0
-3811 -157 0
-3811 3803 0
3811 157 -3803 0
-3827 -158 0
-3827 3811 0
3827 158 -3811 0
-3859 -159 0
-3859 3827 0
3859 159 -3827 0
-3923 -160 0
-3923 3859 0
3923 160 -3859 0
-4179 161 0
-4179 3923 0
4179 -161 -3923 0
-4207 -149 0
-4207 4199 0
4207 149 -4199 0
-4223 -150 0
-4223 4207 0
4223 150 -4207 0
-4255 -151 0
-4255 4223 0
4255 151 -4223 0
-4319 -152 0
-4319 4255 0
4319 152 -4255 0
-4575 153 0
-4575 4319 0
4575 -153 -4319 0
-4719 -4179 0
-4719 -4575 0
4719 4179 4575 0
-4863 -3783 0
-4863 4719 0
4863 3783 -4719 0
-5007 -3387 0
-5007 4863 0
5007 3387 -4863 0
-5151 -2991 0
-5151 5007 0
5151 2991 -5007 0
-5295 -2595 0
-5295 5151 0
5295 2595 -5151 0
-5439 -2199 0
-5439 5295 0
5439 2199 -5295 0
-5583 -1803 0
-5583 5439 0
5583 1803 -5439 0
-5727 -1407 0
-5727 5583 0
5727 1407 -5583 0
-5871 -1011 0
-5871 5727 0
5871 1011 -5727 0
-6015 -615 0
-6015 5871 0
6015 615 -5871 0
-6417 131 0
-6417 6015 0
6417 -131 -6015 0
-6418 -131 0
-6418 -6015 0
6418 131 6015 0
-6419 -6417 0
-6419 -6418 0
6419 6417 6418 0
130 -18920 0
-130 18920 0
-246 -229 0
-246 238 0
246 229 -238 0
-262 -230 0
-262 246 0
262 230 -246 0
-294 -231 0
-294 262 0
294 231 -262 0
-358 -232 0
-358 294 0
358 232 -294 0
-614 233 0
-614 358 0
614 -233 -358 0
-642 -221 0
-642 634 0
642 221 -634 0
-658 -222 0
-658 642 0
658 222 -642 0
-690 -223 0
-690 658 0
690 223 -658 0
-754 -224 0
-754 690 0
754 224 -690 0
-1010 225 0
-1010 754 0
1010 -225 -754 0
-1038 -213 0
-1038 1030 0
1038 213 -1030 0
-1054 -214 0
-1054 1038 0
1054 214 -1038 0
-1086 -215 0
-1086 1054 0
1086 215 -1054 0
-1150 -216 0
-1150 1086 0
1150 216 -1086 0
-1406 217 0
-1406 1150 0
1406 -217 -1150 0
-1434 -205 0
-1434 1426 0
1434 205 -1426 0
-1450 -206 0
-1450 1434 0
1450 206 -1434 0
-1482 -207 0
-1482 1450 0
1482 207 -1450 0
-1546 -208 0
-1546 1482 0
1546 208 -1482 0
-1802 209 0
-1802 1546 0
1802 -209 -1546 0
-1830 -197 0
-1830 1822 0
1830 197 -1822 0
-1846 -198 0
-1846 1830 0
1846 198 -1830 0
-1878 -199 0
-1878 1846 0
1878 199 -1846 0
-1942 -200 0
-1942 1878 0
1942 200 -1878 0
-2198 201 0
-2198 1942 0
2198 -201 -1942 0
-2226 -189 0
-2226 2218 0
2226 189 -2218 0
-2242 -190 0
-2242 2226 0
2242 190 -2226 0
-2274 -191 0
-2274 2242 0
2274 191 -2242 0
-2338 -192 0
-2338 2274 0
2338 192 -2274 0
-2594 193 0
-2594 2338 0
2594 -193 -2338 0
-2622 -181 0
-2622 2614 0
2622 181 -2614 0
-2638 -182 0
-2638 2622 0
2638 182 -2622 0
-2670 -183 0
-2670 2638 0
2670 183 -2638 0
-2734 -184 0
-2734 2670 0
2734 184 -2670 0
-2990 185 0
-2990 2734 0
2990 -185 -2734 0
-3018 -173 0
-3018 3010 0
3018 173 -3010 0
-3034 -174 0
-3034 3018 0
3034 174 -3018 0
-3066 -175 0
-3066 3034 0
3066 175 -3034 0
-3130 -176 0
-3130 3066 0
3130 176 -3066 0
-3386 177 0
-3386 3130 0
3386 -177 -3130 0
-3414 -165 0
-3414 3406 0
3414 165 -3406 0
-3430 -166 0
-3430 3414 0
3430 166 -3414 0
-3462 -167 0
-3462 3430 0
3462 167 -3430 0
-3526 -168 0
-3526 3462 0
3526 168 -3462 0
-3782 169 0
-3782 3526 0
3782 -169 -3526 0
-3810 -157 0
-3810 3802 0
3810 157 -3802 0
-3826 -158 0
-3826 3810 0
3826 158 -3810 0
-3858 -159 0
-3858 3826 0
3858 159 -3826 0
-3922 -160 0
-3922 3858 0
3922 160 -3858 0
-4178 161 0
-4178 3922 0
4178 -161 -3922 0
-4206 -149 0
-4206 4198 0
4206 149 -4198 0
-4222 -150 0
-4222 4206 0
4222 150 -4206 0
-4254 -151 0
-4254 4222 0
4254 151 -4222 0
-4318 -152 0
-4318 4254 0
4318 152 -4254 0
-4574 153 0
-4574 4318 0
4574 -153 -4318 0
-4718 -4178 0
-4718 -4574 0
4718 4178 4574 0
-4862 -3782 0
-4862 4718 0
4862 3782 -4718 0
-5006 -3386 0
-5006 4862 0
5006 3386 -4862 0
-5150 -2990 0
-5150 5006 0
5150 2990 -5006 0
-5294 -2594 0
-5294 5150 0
5294 2594 -5150 0
-5438 -2198 0
-5438 5294 0
5438 2198 -5294 0
-5582 -1802 0
-5582 5438 0
5582 1802 -5438 0
-5726 -1406 0
-5726 5582 0
5726 1406 -5582 0
-5870 -1010 0
-5870 5726 0
5870 1010 -5726 0
-6014 -614 0
-6014 5870 0
6014 614 -5870 0
-6414 130 0
-6414 6014 0
6414 -130 -6014 0
-6415 -130 0
-6415 -6014 0
6415 130 6014 0
-6416 -6414 0
-6416 -6415 0
6416 6414 6415 0
129 -18919 0
-129 18919 0
-293 230 0
-293 261 0
293 -230 -261 0
-357 231 0
-357 293 0
357 -231 -293 0
-485 232 0
-485 357 0
485 -232 -357 0
-613 -233 0
-613 485 0
613 233 -485 0
-689 222 0
-689 657 0
689 -222 -657 0
-753 223 0
-753 689 0
753 -223 -689 0
-881 224 0
-881 753 0
881 -224 -753 0
-1009 -225 0
-1009 881 0
1009 225 -881 0
-1085 214 0
-1085 1053 0
1085 -214 -1053 0
-1149 215 0
-1149 1085 0
1149 -215 -1085 0
-1277 216 0
-1277 1149 0
1277 -216 -1149 0
-1405 -217 0
-1405 1277 0
1405 217 -1277 0
-1481 206 0
-1481 1449 0
1481 -206 -1449 0
-1545 207 0
-1545 1481 0
1545 -207 -1481 0
-1673 208 0
-1673 1545 0
1673 -208 -1545 0
-1801 -209 0
-1801 1673 0
1801 209 -1673 0
-1877 198 0
-1877 1845 0
1877 -198 -1845 0
-1941 199 0
-1941 1877 0
1941 -199 -1877 0
-2069 200 0
-2069 1941 0
2069 -200 -1941 0
-2197 -201 0
-2197 2069 0
2197 201 -2069 0
-2273 190 0
-2273 2241 0
2273 -190 -2241 0
-2337 191 0
-2337 2273 0
2337 -191 -2273 0
-2465 192 0
-2465 2337 0
2465 -192 -2337 0
-2593 -193 0
-2593 2465 0
2593 193 -2465 0
-2669 182 0
-2669 2637 0
2669 -182 -2637 0
-2733 183 0
-2733 2669 0
2733 -183 -2669 0
-2861 184 0
-2861 2733 0
2861 -184 -2733 0
-2989 -185 0
-2989 2861 0
2989 185 -2861 0
-3065 174 0
-3065 3033 0
3065 -174 -3033 0
-3129 175 0
-3129 3065 0
3129 -175 -3065 0
-3257 176 0
-3257 3129 0
3257 -176 -3129 0
-3385 -177 0
-3385 3257 0
3385 177 -3257 0
-3461 166 0
-3461 3429 0
3461 -166 -3429 0
-3525 167 0
-3525 3461 0
3525 -167 -3461 0
-3653 168 0
-3653 3525 0
3653 -168 -3525 0
-3781 -169 0
-3781 3653 0
3781 169 -3653 0
-3857 158 0
-3857 3825 0
3857 -158 -3825 0
-3921 159 0
-3921 3857 0
3921 -159 -3857 0
-4049 160 0
-4049 3921 0
4049 -160 -3921 0
-4177 -161 0
-4177 4049 0
4177 161 -4049 0
-4253 150 0
-4253 4221 0
4253 -150 -4221 0
-4317 151 0
-4317 4253 0
4317 -151 -4253 0
-4445 152 0
-4445 4317 0
4445 -152 -4317 0
-4573 -153 0
-4573 4445 0
4573 153 -4445 0
-4717 -4177 0
-4717 -4573 0
4717 4177 4573 0
-4861 -3781 0
-4861 4717 0
4861 3781 -4717 0
-5005 -3385 0
-5005 4861 0
5005 3385 -4861 0
-5149 -2989 0
-5149 5005 0
5149 2989 -5005 0
-5293 -2593 0
-5293 5149 0
5293 2593 -5149 0
-5437 -2197 0
-5437 5293 0
5437 2197 -5293 0
-5581 -1801 0
-5581 5437 0
5581 1801 -5437 0
-5725 -1405 0
-5725 5581 0
5725 1405 -5581 0
-5869 -1009 0
-5869 5725 0
5869 1009 -5725 0
-6013 -613 0
-6013 5869 0
6013 613 -5869 0
-6411 129 0
-6411 6013 0
6411 -129 -6013 0
-6412 -129 0
-6412 -6013 0
6412 129 6013 0
-6413 -6411 0
-6413 -6412 0
6413 6411 6412 0
128 -18918 0
-128 18918 0
-292 230 0
-292 260 0
292 -230 -260 0
-356 231 0
-356 292 0
356 -231 -292 0
-484 232 0
-484 356 0
484 -232 -356 0
-612 -233 0
-612 484 0
612 233 -484 0
-688 222 0
-688 656 0
688 -222 -656 0
-752 223 0
-752 688 0
752 -223 -688 0
-880 224 0
-880 752 0
880 -224 -752 0
-1008 -225 0
-1008 880 0
1008 225 -880 0
-1084 214 0
-1084 1052 0
1084 -214 -1052 0
-1148 215 0
-1148 1084 0
1148 -215 -1084 0
-1276 216 0
-1276 1148 0
1276 -216 -1148 0
-1404 -217 0
-1404 1276 0
1404 217 -1276 0
-1480 206 0
-1480 1448 0
1480 -206 -1448 0
-1544 207 0
-1544 1480 0
1544 -207 -1480 0
-1672 208 0
-1672 1544 0
1672 -208 -1544 0
-1800 -209 0
-1800 1672 0
1800 209 -1672 0
-1876 198 0
-1876 1844 0
1876 -198 -1844 0
-1940 199 0
-1940 1876 0
1940 -199 -1876 0
-2068 200 0
-2068 1940 0
2068 -200 -1940 0
-2196 -201 0
-2196 2068 0
2196 201 -2068 0
-2272 190 0
-2272 2240 0
2272 -190 -2240 0
-2336 191 0
-2336 2272 0
2336 -191 -2272 0
-2464 192 0
-2464 2336 0
2464 -192 -2336 0
-2592 -193 0
-2592 2464 0
2592 193 -2464 0
-2668 182 0
-2668 2636 0
2668 -182 -2636 0
-2732 183 0
-2732 2668 0
2732 -183 -2668 0
-2860 184 0
-2860 2732 0
2860 -184 -2732 0
-2988 -185 0
-2988 2860 0
2988 185 -2860 0
-3064 174 0
-3064 3032 0
3064 -174 -3032 0
-3128 175 0
-3128 3064 0
3128 -175 -3064 0
-3256 176 0
-3256 3128 0
3256 -176 -3128 0
-3384 -177 0
-3384 3256 0
3384 177 -3256 0
-3460 166 0
-3460 3428 0
3460 -166 -3428 0
-3524 167 0
-3524 3460 0
3524 -167 -3460 0
-3652 168 0
-3652 3524 0
3652 -168 -3524 0
-3780 -169 0
-3780 3652 0
3780 169 -3652 0
-3856 158 0
-3856 3824 0
3856 -158 -3824 0
-3920 159 0
-3920 3856 0
3920 -159 -3856 0
-4048 160 0
-4048 3920 0
4048 -160 -3920 0
-4176 -161 0
-4176 4048 0
4176 161 -4048 0
-4252 150 0
-4252 4220 0
4252 -150 -4220 0
-4316 151 0
-4316 4252 0
4316 -151 -4252 0
-4444 152 0
-4444 4316 0
4444 -152 -4316 0
-4572 -153 0
-4572 4444 0
4572 153 -4444 0
-4716 -4176 0
-4716 -4572 0
4716 4176 4572 0
-4860 -3780 0
-4860 4716 0
4860 3780 -4716 0
-5004 -3384 0
-5004 4860 0
5004 3384 -4860 0
-5148 -2988 0
-5148 5004 0
5148 2988 -5004 0
-5292 -2592 0
-5292 5148 0
5292 2592 -5148 0
-5436 -2196 0
-5436 5292 0
5436 2196 -5292 0
-5580 -1800 0
-5580 5436 0
5580 1800 -5436 0
-5724 -1404 0
-5724 5580 0
5724 1404 -5580 0
-5868 -1008 0
-5868 5724 0
5868 1008 -5724 0
-6012 -612 0
-6012 5868 0
6012 612 -5868 0
-6408 128 0
-6408 6012 0
6408 -128 -6012 0
-6409 -128 0
-6409 -6012 0
6409 128 6012 0
-6410 -6408 0
-6410 -6409 0
6410 6408 6409 0
127 -18917 0
-127 18917 0
-291 230 0
-291 259 0
291 -230 -259 0
-355 231 0
-355 291 0
355 -231 -291 0
-483 232 0
-483 355 0
483 -232 -355 0
-611 -233 0
-611 483 0
611 233 -483 0
-687 222 0
-687 655 0
687 -222 -655 0
-751 223 0
-751 687 0
751 -223 -687 0
-879 224 0
-879 751 0
879 -224 -751 0
-1007 -225 0
-1007 879 0
1007 225 -879 0
-1083 214 0
-1083 1051 0
1083 -214 -1051 0
-1147 215 0
-1147 1083 0
1147 -215 -1083 0
-1275 216 0
-1275 1147 0
1275 -216 -1147 0
-1403 -217 0
-1403 1275 0
1403 217 -1275 0
-1479 206 0
-1479 1447 0
1479 -206 -1447 0
-1543 207 0
-1543 1479 0
1543 -207 -1479 0
-1671 208 0
-1671 1543 0
1671 -208 -1543 0
-1799 -209 0
-1799 1671 0
1799 209 -1671 0
-1875 198 0
-1875 1843 0
1875 -198 -1843 0
-1939 199 0
-1939 1875 0
1939 -199 -1875 0
-2067 200 0
-2067 1939 0
2067 -200 -1939 0
-2195 -201 0
-2195 2067 0
2195 201 -2067 0
-2271 190 0
-2271 2239 0
2271 -190 -2239 0
-2335 191 0
-2335 2271 0
2335 -191 -2271 0
-2463 192 0
-2463 2335 0
2463 -192 -2335 0
-2591 -193 0
-2591 2463 0
2591 193 -2463 0
-2667 182 0
-2667 2635 0
2667 -182 -2635 0
-2731 183 0
-2731 2667 0
2731 -183 -2667 0
-2859 184 0
-2859 2731 0
2859 -184 -2731 0
-2987 -185 0
-2987 2859 0
2987 185 -2859 0
-3063 174 0
-3063 3031 0
3063 -174 -3031 0
-3127 175 0
-3127 3063 0
3127 -175 -3063 0
-3255 176 0
-3255 3127 0
3255 -176 -3127 0
-3383 -177 0
-3383 3255 0
3383 177 -3255 0
-3459 166 0
-3459 3427 0
3459 -166 -3427 0
-3523 167 0
-3523 3459 0
3523 -167 -3459 0
-3651 168 0
-3651 3523 0
3651 -168 -3523 0
-3779 -169 0
-3779 3651 0
3779 169 -3651 0
-3855 158 0
-3855 3823 0
3855 -158 -3823 0
-3919 159 0
-3919 3855 0
3919 -159 -3855 0
-4047 160 0
-4047 3919 0
4047 -160 -3919 0
-4175 -161 0
-4175 4047 0
4175 161 -4047 0
-4251 150 0
-4251 4219 0
4251 -150 -4219 0
-4315 151 0
-4315 4251 0
4315 -151 -4251 0
-4443 152 0
-4443 4315 0
4443 -152 -4315 0
-4571 -153 0
-4571 4443 0
4571 153 -4443 0
-4715 -4175 0
-4715 -4571 0
4715 4175 4571 0
-4859 -3779 0
-4859 4715 0
4859 3779 -4715 0
-5003 -3383 0
-5003 4859 0
5003 3383 -4859 0
-5147 -2987 0
-5147 5003 0
5147 2987 -5003 0
-5291 -2591 0
-5291 5147 0
5291 2591 -5147 0
-5435 -2195 0
-5435 5291 0
5435 2195 -5291 0
-5579 -1799 0
-5579 5435 0
5579 1799 -5435 0
-5723 -1403 0
-5723 5579 0
5723 1403 -5579 0
-5867 -1007 0
-5867 5723 0
5867 1007 -5723 0
-6011 -611 0
-6011 5867 0
6011 611 -5867 0
-6405 127 0
-6405 6011 0
6405 -127 -6011 0
-6406 -127 0
-6406 -6011 0
6406 127 6011 0
-6407 -6405 0
-6407 -6406 0
6407 6405 6406 0
126 -18916 0
-126 18916 0
-290 230 0
-290 258 0
290 -230 -258 0
-354 231 0
-354 290 0
354 -231 -290 0
-482 232 0
-482 354 0
482 -232 -354 0
-610 -233 0
-610 482 0
610 233 -482 0
-686 222 0
-686 654 0
686 -222 -654 0
-750 223 0
-750 686 0
750 -223 -686 0
-878 224 0
-878 750 0
878 -224 -750 0
-1006 -225 0
-1006 878 0
1006 225 -878 0
-1082 214 0
-1082 1050 0
1082 -214 -1050 0
-1146 215 0
-1146 1082 0
1146 -215 -1082 0
-1274 216 0
-1274 1146 0
1274 -216 -1146 0
-1402 -217 0
-1402 1274 0
1402 217 -1274 0
-1478 206 0
-1478 1446 0
1478 -206 -1446 0
-1542 207 0
-1542 1478 0
1542 -207 -1478 0
-1670 208 0
-1670 1542 0
1670 -208 -1542 0
-1798 -209 0
-1798 1670 0
1798 209 -1670 0
-1874 198 0
-1874 1842 0
1874 -198 -1842 0
-1938 199 0
-1938 1874 0
1938 -199 -1874 0
-2066 200 0
-2066 1938 0
2066 -200 -1938 0
-2194 -201 0
-2194 2066 0
2194 201 -2066 0
-2270 190 0
-2270 2238 0
2270 -190 -2238 0
-2334 191 0
-2334 2270 0
2334 -191 -2270 0
-2462 192 0
-2462 2334 0
2462 -192 -2334 0
-2590 -193 0
-2590 2462 0
2590 193 -2462 0
-2666 182 0
-2666 2634 0
2666 -182 -2634 0
-2730 183 0
-2730 2666 0
2730 -183 -2666 0
-2858 184 0
-2858 2730 0
2858 -184 -2730 0
-2986 -185 0
-2986 2858 0
2986 185 -2858 0
-3062 174 0
-3062 3030 0
3062 -174 -3030 0
-3126 175 0
-3126 3062 0
3126 -175 -3062 0
-3254 176 0
-3254 3126 0
3254 -176 -3126 0
-3382 -177 0
-3382 3254 0
3382 177 -3254 0
-3458 166 0
-3458 3426 0
3458 -166 -3426 0
-3522 167 0
-3522 3458 0
3522 -167 -3458 0
-3650 168 0
-3650 3522 0
3650 -168 -3522 0
-3778 -169 0
-3778 3650 0
3778 169 -3650 0
-3854 158 0
-3854 3822 0
3854 -158 -3822 0
-3918 159 0
-3918 3854 0
3918 -159 -3854 0
-4046 160 0
-4046 3918 0
4046 -160 -3918 0
-4174 -161 0
-4174 4046 0
4174 161 -4046 0
-4250 150 0
-4250 4218 0
4250 -150 -4218 0
-4314 151 0
-4314 4250 0
4314 -151 -4250 0
-4442 152 0
-4442 4314 0
4442 -152 -4314 0
-4570 -153 0
-4570 4442 0
4570 153 -4442 0
-4714 -4174 0
-4714 -4570 0
4714 4174 4570 0
-4858 -3778 0
-4858 4714 0
4858 3778 -4714 0
-5002 -3382 0
-5002 4858 0
5002 3382 -4858 0
-5146 -2986 0
-5146 5002 0
5146 2986 -5002 0
-5290 -2590 0
-5290 5146 0
5290 2590 -5146 0
-5434 -2194 0
-5434 5290 0
5434 2194 -5290 0
-5578 -1798 0
-5578 5434 0
5578 1798 -5434 0
-5722 -1402 0
-5722 5578 0
5722 1402 -5578 0
-5866 -1006 0
-5866 5722 0
5866 1006 -5722 0
-6010 -610 0
-6010 5866 0
6010 610 -5866 0
-6402 126 0
-6402 6010 0
6402 -126 -6010 0
-6403 -126 0
-6403 -6010 0
6403 126 6010 0
-6404 -6402 0
-6404 -6403 0
6404 6402 6403 0
125 -18915 0
-125 18915 0
-289 230 0
-289 257 0
289 -230 -257 0
-353 231 0
-353 289 0
353 -231 -289 0
-481 232 0
-481 353 0
481 -232 -353 0
-609 -233 0
-609 481 0
609 233 -481 0
-685 222 0
-685 653 0
685 -222 -653 0
-749 223 0
-749 685 0
749 -223 -685 0
-877 224 0
-877 749 0
877 -224 -749 0
-1005 -225 0
-1005 877 0
1005 225 -877 0
-1081 214 0
-1081 1049 0
1081 -214 -1049 0
-1145 215 0
-1145 1081 0
1145 -215 -1081 0
-1273 216 0
-1273 1145 0
1273 -216 -1145 0
-1401 -217 0
-1401 1273 0
1401 217 -1273 0
-1477 206 0
-1477 1445 0
1477 -206 -1445 0
-1541 207 0
-1541 1477 0
1541 -207 -1477 0
-1669 208 0
-1669 1541 0
1669 -208 -1541 0
-1797 -209 0
-1797 1669 0
1797 209 -1669 0
-1873 198 0
-1873 1841 0
1873 -198 -1841 0
-1937 199 0
-1937 1873 0
1937 -199 -1873 0
-2065 200 0
-2065 1937 0
2065 -200 -1937 0
-2193 -201 0
-2193 2065 0
2193 201 -2065 0
-2269 190 0
-2269 2237 0
2269 -190 -2237 0
-2333 191 0
-2333 2269 0
2333 -191 -2269 0
-2461 192 0
-2461 2333 0
2461 -192 -2333 0
-2589 -193 0
-2589 2461 0
2589 193 -2461 0
-2665 182 0
-2665 2633 0
2665 -182 -2633 0
-2729 183 0
-2729 2665 0
2729 -183 -2665 0
-2857 184 0
-2857 2729 0
2857 -184 -2729 0
-2985 -185 0
-2985 2857 0
2985 185 -2857 0
-3061 174 0
-3061 3029 0
3061 -174 -3029 0
-3125 175 0
-3125 3061 0
3125 -175 -3061 0
-3253 176 0
-3253 3125 0
3253 -176 -3125 0
-3381 -177 0
-3381 3253 0
3381 177 -3253 0
-3457 166 0
-3457 3425 0
3457 -166 -3425 0
-3521 167 0
-3521 3457 0
3521 -167 -3457 0
-3649 168 0
-3649 3521 0
3649 -168 -3521 0
-3777 -169 0
-3777 3649 0
3777 169 -3649 0
-3853 158 0
-3853 3821 0
3853 -158 -3821 0
-3917 159 0
-3917 3853 0
3917 -159 -3853 0
-4045 160 0
-4045 3917 0
4045 -160 -3917 0
-4173 -161 0
-4173 4045 0
4173 161 -4045 0
-4249 150 0
-4249 4217 0
4249 -150 -4217 0
-4313 151 0
-4313 4249 0
4313 -151 -4249 0
-4441 152 0
-4441 4313 0
4441 -152 -4313 0
-4569 -153 0
-4569 4441 0
4569 153 -4441 0
-4713 -4173 0
-4713 -4569 0
4713 4173 4569 0
-4857 -3777 0
-4857 4713 0
4857 3777 -4713 0
-5001 -3381 0
-5001 4857 0
5001 3381 -4857 0
-5145 -2985 0
-5145 5001 0
5145 2985 -5001 0
-5289 -2589 0
-5289 5145 0
5289 2589 -5145 0
-5433 -2193 0
-5433 5289 0
5433 2193 -5289 0
-5577 -1797 0
-5577 5433 0
5577 1797 -5433 0
-5721 -1401 0
-5721 5577 0
5721 1401 -5577 0
-5865 -1005 0
-5865 5721 0
5865 1005 -5721 0
-6009 -609 0
-6009 5865 0
6009 609 -5865 0
-6399 125 0
-6399 6009 0
6399 -125 -6009 0
-6400 -125 0
-6400 -6009 0
6400 125 6009 0
-6401 -6399 0
-6401 -6400 0
6401 6399 6400 0
124 -18914 0
-124 18914 0
-288 230 0
-288 256 0
288 -230 -256 0
-352 231 0
-352 288 0
352 -231 -288 0
-480 232 0
-480 352 0
480 -232 -352 0
-608 -233 0
-608 480 0
608 233 -480 0
-684 222 0
-684 652 0
684 -222 -652 0
-748 223 0
-748 684 0
748 -223 -684 0
-876 224 0
-876 748 0
876 -224 -748 0
-1004 -225 0
-1004 876 0
1004 225 -876 0
-1080 214 0
-1080 1048 0
1080 -214 -1048 0
-1144 215 0
-1144 1080 0
1144 -215 -1080 0
-1272 216 0
-1272 1144 0
1272 -216 -1144 0
-1400 -217 0
-1400 1272 0
1400 217 -1272 0
-1476 206 0
-1476 1444 0
1476 -206 -1444 0
-1540 207 0
-1540 1476 0
1540 -207 -1476 0
-1668 208 0
-1668 1540 0
1668 -208 -1540 0
-1796 -209 0
-1796 1668 0
1796 209 -1668 0
-1872 198 0
-1872 1840 0
1872 -198 -1840 0
-1936 199 0
-1936 1872 0
1936 -199 -1872 0
-2064 200 0
-2064 1936 0
2064 -200 -1936 0
-2192 -201 0
-2192 2064 0
2192 201 -2064 0
-2268 190 0
-2268 2236 0
2268 -190 -2236 0
-2332 191 0
-2332 2268 0
2332 -191 -2268 0
-2460 192 0
-2460 2332 0
2460 -192 -2332 0
-2588 -193 0
-2588 2460 0
2588 193 -2460 0
-2664 182 0
-2664 2632 0
2664 -182 -2632 0
-2728 183 0
-2728 2664 0
2728 -183 -2664 0
-2856 184 0
-2856 2728 0
2856 -184 -2728 0
-2984 -185 0
-2984 2856 0
2984 185 -2856 0
-3060 174 0
-3060 3028 0
3060 -174 -3028 0
-3124 175 0
-3124 3060 0
3124 -175 -3060 0
-3252 176 0
-3252 3124 0
3252 -176 -3124 0
-3380 -177 0
-3380 3252 0
3380 177 -3252 0
-3456 166 0
-3456 3424 0
3456 -166 -3424 0
-3520 167 0
-3520 3456 0
3520 -167 -3456 0
-3648 168 0
-3648 3520 0
3648 -168 -3520 0
-3776 -169 0
-3776 3648 0
3776 169 -3648 0
-3852 158 0
-3852 3820 0
3852 -158 -3820 0
-3916 159 0
-3916 3852 0
3916 -159 -3852 0
-4044 160 0
-4044 3916 0
4044 -160 -3916 0
-4172 -161 0
-4172 4044 0
4172 161 -4044 0
-4248 150 0
-4248 4216 0
4248 -150 -4216 0
-4312 151 0
-4312 4248 0
4312 -151 -4248 0
-4440 152 0
-4440 4312 0
4440 -152 -4312 0
-4568 -153 0
-4568 4440 0
4568 153 -4440 0
-4712 -4172 0
-4712 -4568 0
4712 4172 4568 0
-4856 -3776 0
-4856 4712 0
4856 3776 -4712 0
-5000 -3380 0
-5000 4856 0
5000 3380 -4856 0
-5144 -2984 0
-5144 5000 0
5144 2984 -5000 0
-5288 -2588 0
-5288 5144 0
5288 2588 -5144 0
-5432 -2192 0
-5432 5288 0
5432 2192 -5288 0
-5576 -1796 0
-5576 5432 0
5576 1796 -5432 0
-5720 -1400 0
-5720 5576 0
5720 1400 -5576 0
-5864 -1004 0
-5864 5720 0
5864 1004 -5720 0
-6008 -608 0
-6008 5864 0
6008 608 -5864 0
-6396 124 0
-6396 6008 0
6396 -124 -6008 0
-6397 -124 0
-6397 -6008 0
6397 124 6008 0
-6398 -6396 0
-6398 -6397 0
6398 6396 6397 0
123 -18913 0
-123 18913 0
-287 230 0
-287 255 0
287 -230 -255 0
-351 231 0
-351 287 0
351 -231 -287 0
-479 232 0
-479 351 0
479 -232 -351 0
-607 -233 0
-607 479 0
607 233 -479 0
-683 222 0
-683 651 0
683 -222 -651 0
-747 223 0
-747 683 0
747 -223 -683 0
-875 224 0
-875 747 0
875 -224 -747 0
-1003 -225 0
-1003 875 0
1003 225 -875 0
-1079 214 0
-1079 1047 0
1079 -214 -1047 0
-1143 215 0
-1143 1079 0
1143 -215 -1079 0
-1271 216 0
-1271 1143 0
1271 -216 -1143 0
-1399 -217 0
-1399 1271 0
1399 217 -1271 0
-1475 206 0
-1475 1443 0
1475 -206 -1443 0
-1539 207 0
-1539 1475 0
1539 -207 -1475 0
-1667 208 0
-1667 1539 0
1667 -208 -1539 0
-1795 -209 0
-1795 1667 0
1795 209 -1667 0
-1871 198 0
-1871 1839 0
1871 -198 -1839 0
-1935 199 0
-1935 1871 0
1935 -199 -1871 0
-2063 200 0
-2063 1935 0
2063 -200 -1935 0
-2191 -201 0
-2191 2063 0
2191 201 -2063 0
-2267 190 0
-2267 2235 0
2267 -190 -2235 0
-2331 191 0
-2331 2267 0
2331 -191 -2267 0
-2459 192 0
-2459 2331 0
2459 -192 -2331 0
-2587 -193 0
-2587 2459 0
2587 193 -2459 0
-2663 182 0
-2663 2631 0
2663 -182 -2631 0
-2727 183 0
-2727 2663 0
2727 -183 -2663 0
-2855 184 0
-2855 2727 0
2855 -184 -2727 0
-2983 -185 0
-2983 2855 0
2983 185 -2855 0
-3059 174 0
-3059 3027 0
3059 -174 -3027 0
-3123 175 0
-3123 3059 0
3123 -175 -3059 0
-3251 176 0
-3251 3123 0
3251 -176 -3123 0
-3379 -177 0
-3379 3251 0
3379 177 -3251 0
-3455 166 0
-3455 3423 0
3455 -166 -3423 0
-3519 167 0
-3519 3455 0
3519 -167 -3455 0
-3647 168 0
-3647 3519 0
3647 -168 -3519 0
-3775 -169 0
-3775 3647 0
3775 169 -3647 0
-3851 158 0
-3851 3819 0
3851 -158 -3819 0
-3915 159 0
-3915 3851 0
3915 -159 -3851 0
-4043 160 0
-4043 3915 0
4043 -160 -3915 0
-4171 -161 0
-4171 4043 0
4171 161 -4043 0
-4247 150 0
-4247 4215 0
4247 -150 -4215 0
-4311 151 0
-4311 4247 0
4311 -151 -4247 0
-4439 152 0
-4439 4311 0
4439 -152 -4311 0
-4567 -153 0
-4567 4439 0
4567 153 -4439 0
-4711 -4171 0
-4711 -4567 0
4711 4171 4567 0
-4855 -3775 0
-4855 4711 0
4855 3775 -4711 0
-4999 -3379 0
-4999 4855 0
4999 3379 -4855 0
-5143 -2983 0
-5143 4999 0
5143 2983 -4999 0
-5287 -2587 0
-5287 5143 0
5287 2587 -5143 0
-5431 -2191 0
-5431 5287 0
5431 2191 -5287 0
-5575 -1795 0
-5575 5431 0
5575 1795 -5431 0
-5719 -1399 0
-5719 5575 0
5719 1399 -5575 0
-5863 -1003 0
-5863 5719 0
5863 1003 -5719 0
-6007 -607 0
-6007 5863 0
6007 607 -5863 0
-6393 123 0
-6393 6007 0
6393 -123 -6007 0
-6394 -123 0
-6394 -6007 0
6394 123 6007 0
-6395 -6393 0
-6395 -6394 0
6395 6393 6394 0
122 -18912 0
-122 18912 0
-286 230 0
-286 254 0
286 -230 -254 0
-350 231 0
-350 286 0
350 -231 -286 0
-478 232 0
-478 350 0
478 -232 -350 0
-606 -233 0
-606 478 0
606 233 -478 0
-682 222 0
-682 650 0
682 -222 -650 0
-746 223 0
-746 682 0
746 -223 -682 0
-874 224 0
-874 746 0
874 -224 -746 0
-1002 -225 0
-1002 874 0
1002 225 -874 0
-1078 214 0
-1078 1046 0
1078 -214 -1046 0
-1142 215 0
-1142 1078 0
1142 -215 -1078 0
-1270 216 0
-1270 1142 0
1270 -216 -1142 0
-1398 -217 0
-1398 1270 0
1398 217 -1270 0
-1474 206 0
-1474 1442 0
1474 -206 -1442 0
-1538 207 0
-1538 1474 0
1538 -207 -1474 0
-1666 208 0
-1666 1538 0
1666 -208 -1538 0
-1794 -209 0
-1794 1666 0
1794 209 -1666 0
-1870 198 0
-1870 1838 0
1870 -198 -1838 0
-1934 199 0
-1934 1870 0
1934 -199 -1870 0
-2062 200 0
-2062 1934 0
2062 -200 -1934 0
-2190 -201 0
-2190 2062 0
2190 201 -2062 0
-2266 190 0
-2266 2234 0
2266 -190 -2234 0
-2330 191 0
-2330 2266 0
2330 -191 -2266 0
-2458 192 0
-2458 2330 0
2458 -192 -2330 0
-2586 -193 0
-2586 2458 0
2586 193 -2458 0
-2662 182 0
-2662 2630 0
2662 -182 -2630 0
-2726 183 0
-2726 2662 0
2726 -183 -2662 0
-2854 184 0
-2854 2726 0
2854 -184 -2726 0
-2982 -185 0
-2982 2854 0
2982 185 -2854 0
-3058 174 0
-3058 3026 0
3058 -174 -3026 0
-3122 175 0
-3122 3058 0
3122 -175 -3058 0
-3250 176 0
-3250 3122 0
3250 -176 -3122 0
-3378 -177 0
-3378 3250 0
3378 177 -3250 0
-3454 166 0
-3454 3422 0
3454 -166 -3422 0
-3518 167 0
-3518 3454 0
3518 -167 -3454 0
-3646 168 0
-3646 3518 0
3646 -168 -3518 0
-3774 -169 0
-3774 3646 0
3774 169 -3646 0
-3850 158 0
-3850 3818 0
3850 -158 -3818 0
-3914 159 0
-3914 3850 0
3914 -159 -3850 0
-4042 160 0
-4042 3914 0
4042 -160 -3914 0
-4170 -161 0
-4170 4042 0
4170 161 -4042 0
-4246 150 0
-4246 4214 0
4246 -150 -4214 0
-4310 151 0
-4310 4246 0
4310 -151 -4246 0
-4438 152 0
-4438 4310 0
4438 -152 -4310 0
-4566 -153 0
-4566 4438 0
4566 153 -4438 0
-4710 -4170 0
-4710 -4566 0
4710 4170 4566 0
-4854 -3774 0
-4854 4710 0
4854 3774 -4710 0
-4998 -3378 0
-4998 4854 0
4998 3378 -4854 0
-5142 -2982 0
-5142 4998 0
5142 2982 -4998 0
-5286 -2586 0
-5286 5142 0
5286 2586 -5142 0
-5430 -2190 0
-5430 5286 0
5430 2190 -5286 0
-5574 -1794 0
-5574 5430 0
5574 1794 -5430 0
-5718 -1398 0
-5718 5574 0
5718 1398 -5574 0
-5862 -1002 0
-5862 5718 0
5862 1002 -5718 0
-6006 -606 0
-6006 5862 0
6006 606 -5862 0
-6390 122 0
-6390 6006 0
6390 -122 -6006 0
-6391 -122 0
-6391 -6006 0
6391 122 6006 0
-6392 -6390 0
-6392 -6391 0
6392 6390 6391 0
121 -18911 0
-121 18911 0
-285 230 0
-285 253 0
285 -230 -253 0
-349 231 0
-349 285 0
349 -231 -285 0
-477 232 0
-477 349 0
477 -232 -349 0
-605 -233 0
-605 477 0
605 233 -477 0
-681 222 0
-681 649 0
681 -222 -649 0
-745 223 0
-745 681 0
745 -223 -681 0
-873 224 0
-873 745 0
873 -224 -745 0
-1001 -225 0
-1001 873 0
1001 225 -873 0
-1077 214 0
-1077 1045 0
1077 -214 -1045 0
-1141 215 0
-1141 1077 0
1141 -215 -1077 0
-1269 216 0
-1269 1141 0
1269 -216 -1141 0
-1397 -217 0
-1397 1269 0
1397 217 -1269 0
-1473 206 0
-1473 1441 0
1473 -206 -1441 0
-1537 207 0
-1537 1473 0
1537 -207 -1473 0
-1665 208 0
-1665 1537 0
1665 -208 -1537 0
-1793 -209 0
-1793 1665 0
1793 209 -1665 0
-1869 198 0
-1869 1837 0
1869 -198 -1837 0
-1933 199 0
-1933 1869 0
1933 -199 -1869 0
-2061 200 0
-2061 1933 0
2061 -200 -1933 0
-2189 -201 0
-2189 2061 0
2189 201 -2061 0
-2265 190 0
-2265 2233 0
2265 -190 -2233 0
-2329 191 0
-2329 2265 0
2329 -191 -2265 0
-2457 192 0
-2457 2329 0
2457 -192 -2329 0
-2585 -193 0
-2585 2457 0
2585 193 -2457 0
-2661 182 0
-2661 2629 0
2661 -182 -2629 0
-2725 183 0
-2725 2661 0
2725 -183 -2661 0
-2853 184 0
-2853 2725 0
2853 -184 -2725 0
-2981 -185 0
-2981 2853 0
2981 185 -2853 0
-3057 174 0
-3057 3025 0
3057 -174 -3025 0
-3121 175 0
-3121 3057 0
3121 -175 -3057 0
-3249 176 0
-3249 3121 0
3249 -176 -3121 0
-3377 -177 0
-3377 3249 0
3377 177 -3249 0
-3453 166 0
-3453 3421 0
3453 -166 -3421 0
-3517 167 0
-3517 3453 0
3517 -167 -3453 0
-3645 168 0
-3645 3517 0
3645 -168 -3517 0
-3773 -169 0
-3773 3645 0
3773 169 -3645 0
-3849 158 0
-3849 3817 0
3849 -158 -3817 0
-3913 159 0
-3913 3849 0
3913 -159 -3849 0
-4041 160 0
-4041 3913 0
4041 -160 -3913 0
-4169 -161 0
-4169 4041 0
4169 161 -4041 0
-4245 150 0
-4245 4213 0
4245 -150 -4213 0
-4309 151 0
-4309 4245 0
4309 -151 -4245 0
-4437 152 0
-4437 4309 0
4437 -152 -4309 0
-4565 -153 0
-4565 4437 0
4565 153 -4437 0
-4709 -4169 0
-4709 -4565 0
4709 4169 4565 0
-4853 -3773 0
-4853 4709 0
4853 3773 -4709 0
-4997 -3377 0
-4997 4853 0
4997 3377 -4853 0
-5141 -2981 0
-5141 4997 0
5141 2981 -4997 0
-5285 -2585 0
-5285 5141 0
5285 2585 -5141 0
-5429 -2189 0
-5429 5285 0
5429 2189 -5285 0
-5573 -1793 0
-5573 5429 0
5573 1793 -5429 0
-5717 -1397 0
-5717 5573 0
5717 1397 -5573 0
-5861 -1001 0
-5861 5717 0
5861 1001 -5717 0
-6005 -605 0
-6005 5861 0
6005 605 -5861 0
-6387 121 0
-6387 6005 0
6387 -121 -6005 0
-6388 -121 0
-6388 -6005 0
6388 121 6005 0
-6389 -6387 0
-6389 -6388 0
6389 6387 6388 0
120 -18910 0
-120 18910 0
-284 230 0
-284 252 0
284 -230 -252 0
-348 231 0
-348 284 0
348 -231 -284 0
-476 232 0
-476 348 0
476 -232 -348 0
-604 -233 0
-604 476 0
604 233 -476 0
-680 222 0
-680 648 0
680 -222 -648 0
-744 223 0
-744 680 0
744 -223 -680 0
-872 224 0
-872 744 0
872 -224 -744 0
-1000 -225 0
-1000 872 0
1000 225 -872 0
-1076 214 0
-1076 1044 0
1076 -214 -1044 0
-1140 215 0
-1140 1076 0
1140 -215 -1076 0
-1268 216 0
-1268 1140 0
1268 -216 -1140 0
-1396 -217 0
-1396 1268 0
1396 217 -1268 0
-1472 206 0
-1472 1440 0
1472 -206 -1440 0
-1536 207 0
-1536 1472 0
1536 -207 -1472 0
-1664 208 0
-1664 1536 0
1664 -208 -1536 0
-1792 -209 0
-1792 1664 0
1792 209 -1664 0
-1868 198 0
-1868 1836 0
1868 -198 -1836 0
-1932 199 0
-1932 1868 0
1932 -199 -1868 0
-2060 200 0
-2060 1932 0
2060 -200 -1932 0
-2188 -201 0
-2188 2060 0
2188 201 -2060 0
-2264 190 0
-2264 2232 0
2264 -190 -2232 0
-2328 191 0
-2328 2264 0
2328 -191 -2264 0
-2456 192 0
-2456 2328 0
2456 -192 -2328 0
-2584 -193 0
-2584 2456 0
2584 193 -2456 0
-2660 182 0
-2660 2628 0
2660 -182 -2628 0
-2724 183 0
-2724 2660 0
2724 -183 -2660 0
-2852 184 0
-2852 2724 0
2852 -184 -2724 0
-2980 -185 0
-2980 2852 0
2980 185 -2852 0
-3056 174 0
-3056 3024 0
3056 -174 -3024 0
-3120 175 0
-3120 3056 0
3120 -175 -3056 0
-3248 176 0
-3248 3120 0
3248 -176 -3120 0
-3376 -177 0
-3376 3248 0
3376 177 -3248 0
-3452 166 0
-3452 3420 0
3452 -166 -3420 0
-3516 167 0
-3516 3452 0
3516 -167 -3452 0
-3644 168 0
-3644 3516 0
3644 -168 -3516 0
-3772 -169 0
-3772 3644 0
3772 169 -3644 0
-3848 158 0
-3848 3816 0
3848 -158 -3816 0
-3912 159 0
-3912 3848 0
3912 -159 -3848 0
-4040 160 0
-4040 3912 0
4040 -160 -3912 0
-4168 -161 0
-4168 4040 0
4168 161 -4040 0
-4244 150 0
-4244 4212 0
4244 -150 -4212 0
-4308 151 0
-4308 4244 0
4308 -151 -4244 0
-4436 152 0
-4436 4308 0
4436 -152 -4308 0
-4564 -153 0
-4564 4436 0
4564 153 -4436 0
-4708 -4168 0
-4708 -4564 0
4708 4168 4564 0
-4852 -3772 0
-4852 4708 0
4852 3772 -4708 0
-4996 -3376 0
-4996 4852 0
4996 3376 -4852 0
-5140 -2980 0
-5140 4996 0
5140 2980 -4996 0
-5284 -2584 0
-5284 5140 0
5284 2584 -5140 0
-5428 -2188 0
-5428 5284 0
5428 2188 -5284 0
-5572 -1792 0
-5572 5428 0
5572 1792 -5428 0
-5716 -1396 0
-5716 5572 0
5716 1396 -5572 0
-5860 -1000 0
-5860 5716 0
5860 1000 -5716 0
-6004 -604 0
-6004 5860 0
6004 604 -5860 0
-6384 120 0
-6384 6004 0
6384 -120 -6004 0
-6385 -120 0
-6385 -6004 0
6385 120 6004 0
-6386 -6384 0
-6386 -6385 0
6386 6384 6385 0
119 -18909 0
-119 18909 0
-283 230 0
-283 251 0
283 -230 -251 0
-347 231 0
-347 283 0
347 -231 -283 0
-475 232 0
-475 347 0
475 -232 -347 0
-603 -233 0
-603 475 0
603 233 -475 0
-679 222 0
-679 647 0
679 -222 -647 0
-743 223 0
-743 679 0
743 -223 -679 0
-871 224 0
-871 743 0
871 -224 -743 0
-999 -225 0
-999 871 0
999 225 -871 0
-1075 214 0
-1075 1043 0
1075 -214 -1043 0
-1139 215 0
-1139 1075 0
1139 -215 -1075 0
-1267 216 0
-1267 1139 0
1267 -216 -1139 0
-1395 -217 0
-1395 1267 0
1395 217 -1267 0
-1471 206 0
-1471 1439 0
1471 -206 -1439 0
-1535 207 0
-1535 1471 0
1535 -207 -1471 0
-1663 208 0
-1663 1535 0
1663 -208 -1535 0
-1791 -209 0
-1791 1663 0
1791 209 -1663 0
-1867 198 0
-1867 1835 0
1867 -198 -1835 0
-1931 199 0
-1931 1867 0
1931 -199 -1867 0
-2059 200 0
-2059 1931 0
2059 -200 -1931 0
-2187 -201 0
-2187 2059 0
2187 201 -2059 0
-2263 190 0
-2263 2231 0
2263 -190 -2231 0
-2327 191 0
-2327 2263 0
2327 -191 -2263 0
-2455 192 0
-2455 2327 0
2455 -192 -2327 0
-2583 -193 0
-2583 2455 0
2583 193 -2455 0
-2659 182 0
-2659 2627 0
2659 -182 -2627 0
-2723 183 0
-2723 2659 0
2723 -183 -2659 0
-2851 184 0
-2851 2723 0
2851 -184 -2723 0
-2979 -185 0
-2979 2851 0
2979 185 -2851 0
-3055 174 0
-3055 3023 0
3055 -174 -3023 0
-3119 175 0
-3119 3055 0
3119 -175 -3055 0
-3247 176 0
-3247 3119 0
3247 -176 -3119 0
-3375 -177 0
-3375 3247 0
3375 177 -3247 0
-3451 166 0
-3451 3419 0
3451 -166 -3419 0
-3515 167 0
-3515 3451 0
3515 -167 -3451 0
-3643 168 0
-3643 3515 0
3643 -168 -3515 0
-3771 -169 0
-3771 3643 0
3771 169 -3643 0
-3847 158 0
-3847 3815 0
3847 -158 -3815 0
-3911 159 0
-3911 3847 0
3911 -159 -3847 0
-4039 160 0
-4039 3911 0
4039 -160 -3911 0
-4167 -161 0
-4167 4039 0
4167 161 -4039 0
-4243 150 0
-4243 4211 0
4243 -150 -4211 0
-4307 151 0
-4307 4243 0
4307 -151 -4243 0
-4435 152 0
-4435 4307 0
4435 -152 -4307 0
-4563 -153 0
-4563 4435 0
4563 153 -4435 0
-4707 -4167 0
-4707 -4563 0
4707 4167 4563 0
-4851 -3771 0
-4851 4707 0
4851 3771 -4707 0
-4995 -3375 0
-4995 4851 0
4995 3375 -4851 0
-5139 -2979 0
-5139 4995 0
5139 2979 -4995 0
-5283 -2583 0
-5283 5139 0
5283 2583 -5139 0
-5427 -2187 0
-5427 5283 0
5427 2187 -5283 0
-5571 -1791 0
-5571 5427 0
5571 1791 -5427 0
-5715 -1395 0
-5715 5571 0
5715 1395 -5571 0
-5859 -999 0
-5859 5715 0
5859 999 -5715 0
-6003 -603 0
-6003 5859 0
6003 603 -5859 0
-6381 119 0
-6381 6003 0
6381 -119 -6003 0
-6382 -119 0
-6382 -6003 0
6382 119 6003 0
-6383 -6381 0
-6383 -6382 0
6383 6381 6382 0
118 -18908 0
-118 18908 0
-282 230 0
-282 250 0
282 -230 -250 0
-346 231 0
-346 282 0
346 -231 -282 0
-474 232 0
-474 346 0
474 -232 -346 0
-602 -233 0
-602 474 0
602 233 -474 0
-678 222 0
-678 646 0
678 -222 -646 0
-742 223 0
-742 678 0
742 -223 -678 0
-870 224 0
-870 742 0
870 -224 -742 0
-998 -225 0
-998 870 0
998 225 -870 0
-1074 214 0
-1074 1042 0
1074 -214 -1042 0
-1138 215 0
-1138 1074 0
1138 -215 -1074 0
-1266 216 0
-1266 1138 0
1266 -216 -1138 0
-1394 -217 0
-1394 1266 0
1394 217 -1266 0
-1470 206 0
-1470 1438 0
1470 -206 -1438 0
-1534 207 0
-1534 1470 0
1534 -207 -1470 0
-1662 208 0
-1662 1534 0
1662 -208 -1534 0
-1790 -209 0
-1790 1662 0
1790 209 -1662 0
-1866 198 0
-1866 1834 0
1866 -198 -1834 0
-1930 199 0
-1930 1866 0
1930 -199 -1866 0
-2058 200 0
-2058 1930 0
2058 -200 -1930 0
-2186 -201 0
-2186 2058 0
2186 201 -2058 0
-2262 190 0
-2262 2230 0
2262 -190 -2230 0
-2326 191 0
-2326 2262 0
2326 -191 -2262 0
-2454 192 0
-2454 2326 0
2454 -192 -2326 0
-2582 -193 0
-2582 2454 0
2582 193 -2454 0
-2658 182 0
-2658 2626 0
2658 -182 -2626 0
-2722 183 0
-2722 2658 0
2722 -183 -2658 0
-2850 184 0
-2850 2722 0
2850 -184 -2722 0
-2978 -185 0
-2978 2850 0
2978 185 -2850 0
-3054 174 0
-3054 3022 0
3054 -174 -3022 0
-3118 175 0
-3118 3054 0
3118 -175 -3054 0
-3246 176 0
-3246 3118 0
3246 -176 -3118 0
-3374 -177 0
-3374 3246 0
3374 177 -3246 0
-3450 166 0
-3450 3418 0
3450 -166 -3418 0
-3514 167 0
-3514 3450 0
3514 -167 -3450 0
-3642 168 0
-3642 3514 0
3642 -168 -3514 0
-3770 -169 0
-3770 3642 0
3770 169 -3642 0
-3846 158 0
-3846 3814 0
3846 -158 -3814 0
-3910 159 0
-3910 3846 0
3910 -159 -3846 0
-4038 160 0
-4038 3910 0
4038 -160 -3910 0
-4166 -161 0
-4166 4038 0
4166 161 -4038 0
-4242 150 0
-4242 4210 0
4242 -150 -4210 0
-4306 151 0
-4306 4242 0
4306 -151 -4242 0
-4434 152 0
-4434 4306 0
4434 -152 -4306 0
-4562 -153 0
-4562 4434 0
4562 153 -4434 0
-4706 -4166 0
-4706 -4562 0
4706 4166 4562 0
-4850 -3770 0
-4850 4706 0
4850 3770 -4706 0
-4994 -3374 0
-4994 4850 0
4994 3374 -4850 0
-5138 -2978 0
-5138 4994 0
5138 2978 -4994 0
-5282 -2582 0
-5282 5138 0
5282 2582 -5138 0
-5426 -2186 0
-5426 5282 0
5426 2186 -5282 0
-5570 -1790 0
-5570 5426 0
5570 1790 -5426 0
-5714 -1394 0
-5714 5570 0
5714 1394 -5570 0
-5858 -998 0
-5858 5714 0
5858 998 -5714 0
-6002 -602 0
-6002 5858 0
6002 602 -5858 0
-6378 118 0
-6378 6002 0
6378 -118 -6002 0
-6379 -118 0
-6379 -6002 0
6379 118 6002 0
-6380 -6378 0
-6380 -6379 0
6380 6378 6379 0
117 -18907 0
-117 18907 0
-281 230 0
-281 249 0
281 -230 -249 0
-345 231 0
-345 281 0
345 -231 -281 0
-473 232 0
-473 345 0
473 -232 -345 0
-601 -233 0
-601 473 0
601 233 -473 0
-677 222 0
-677 645 0
677 -222 -645 0
-741 223 0
-741 677 0
741 -223 -677 0
-869 224 0
-869 741 0
869 -224 -741 0
-997 -225 0
-997 869 0
997 225 -869 0
-1073 214 0
-1073 1041 0
1073 -214 -1041 0
-1137 215 0
-1137 1073 0
1137 -215 -1073 0
-1265 216 0
-1265 1137 0
1265 -216 -1137 0
-1393 -217 0
-1393 1265 0
1393 217 -1265 0
-1469 206 0
-1469 1437 0
1469 -206 -1437 0
-1533 207 0
-1533 1469 0
1533 -207 -1469 0
-1661 208 0
-1661 1533 0
1661 -208 -1533 0
-1789 -209 0
-1789 1661 0
1789 209 -1661 0
-1865 198 0
-1865 1833 0
1865 -198 -1833 0
-1929 199 0
-1929 1865 0
1929 -199 -1865 0
-2057 200 0
-2057 1929 0
2057 -200 -1929 0
-2185 -201 0
-2185 2057 0
2185 201 -2057 0
-2261 190 0
-2261 2229 0
2261 -190 -2229 0
-2325 191 0
-2325 2261 0
2325 -191 -2261 0
-2453 192 0
-2453 2325 0
2453 -192 -2325 0
-2581 -193 0
-2581 2453 0
2581 193 -2453 0
-2657 182 0
-2657 2625 0
2657 -182 -2625 0
-2721 183 0
-2721 2657 0
2721 -183 -2657 0
-2849 184 0
-2849 2721 0
2849 -184 -2721 0
-2977 -185 0
-2977 2849 0
2977 185 -2849 0
-3053 174 0
-3053 3021 0
3053 -174 -3021 0
-3117 175 0
-3117 3053 0
3117 -175 -3053 0
-3245 176 0
-3245 3117 0
3245 -176 -3117 0
-3373 -177 0
-3373 3245 0
3373 177 -3245 0
-3449 166 0
-3449 3417 0
3449 -166 -3417 0
-3513 167 0
-3513 3449 0
3513 -167 -3449 0
-3641 168 0
-3641 3513 0
3641 -168 -3513 0
-3769 -169 0
-3769 3641 0
3769 169 -3641 0
-3845 158 0
-3845 3813 0
3845 -158 -3813 0
-3909 159 0
-3909 3845 0
3909 -159 -3845 0
-4037 160 0
-4037 3909 0
4037 -160 -3909 0
-4165 -161 0
-4165 4037 0
4165 161 -4037 0
-4241 150 0
-4241 4209 0
4241 -150 -4209 0
-4305 151 0
-4305 4241 0
4305 -151 -4241 0
-4433 152 0
-4433 4305 0
4433 -152 -4305 0
-4561 -153 0
-4561 4433 0
4561 153 -4433 0
-4705 -4165 0
-4705 -4561 0
4705 4165 4561 0
-4849 -3769 0
-4849 4705 0
4849 3769 -4705 0
-4993 -3373 0
-4993 4849 0
4993 3373 -4849 0
-5137 -2977 0
-5137 4993 0
5137 2977 -4993 0
-5281 -2581 0
-5281 5137 0
5281 2581 -5137 0
-5425 -2185 0
-5425 5281 0
5425 2185 -5281 0
-5569 -1789 0
-5569 5425 0
5569 1789 -5425 0
-5713 -1393 0
-5713 5569 0
5713 1393 -5569 0
-5857 -997 0
-5857 5713 0
5857 997 -5713 0
-6001 -601 0
-6001 5857 0
6001 601 -5857 0
-6375 117 0
-6375 6001 0
6375 -117 -6001 0
-6376 -117 0
-6376 -6001 0
6376 117 6001 0
-6377 -6375 0
-6377 -6376 0
6377 6375 6376 0
116 -18906 0
-116 18906 0
-280 230 0
-280 248 0
280 -230 -248 0
-344 231 0
-344 280 0
344 -231 -280 0
-472 232 0
-472 344 0
472 -232 -344 0
-600 -233 0
-600 472 0
600 233 -472 0
-676 222 0
-676 644 0
676 -222 -644 0
-740 223 0
-740 676 0
740 -223 -676 0
-868 224 0
-868 740 0
868 -224 -740 0
-996 -225 0
-996 868 0
996 225 -868 0
-1072 214 0
-1072 1040 0
1072 -214 -1040 0
-1136 215 0
-1136 1072 0
1136 -215 -1072 0
-1264 216 0
-1264 1136 0
1264 -216 -1136 0
-1392 -217 0
-1392 1264 0
1392 217 -1264 0
-1468 206 0
-1468 1436 0
1468 -206 -1436 0
-1532 207 0
-1532 1468 0
1532 -207 -1468 0
-1660 208 0
-1660 1532 0
1660 -208 -1532 0
-1788 -209 0
-1788 1660 0
1788 209 -1660 0
-1864 198 0
-1864 1832 0
1864 -198 -1832 0
-1928 199 0
-1928 1864 0
1928 -199 -1864 0
-2056 200 0
-2056 1928 0
2056 -200 -1928 0
-2184 -201 0
-2184 2056 0
2184 201 -2056 0
-2260 190 0
-2260 2228 0
2260 -190 -2228 0
-2324 191 0
-2324 2260 0
2324 -191 -2260 0
-2452 192 0
-2452 2324 0
2452 -192 -2324 0
-2580 -193 0
-2580 2452 0
2580 193 -2452 0
-2656 182 0
-2656 2624 0
2656 -182 -2624 0
-2720 183 0
-2720 2656 0
2720 -183 -2656 0
-2848 184 0
-2848 2720 0
2848 -184 -2720 0
-2976 -185 0
-2976 2848 0
2976 185 -2848 0
-3052 174 0
-3052 3020 0
3052 -174 -3020 0
-3116 175 0
-3116 3052 0
3116 -175 -3052 0
-3244 176 0
-3244 3116 0
3244 -176 -3116 0
-3372 -177 0
-3372 3244 0
3372 177 -3244 0
-3448 166 0
-3448 3416 0
3448 -166 -3416 0
-3512 167 0
-3512 3448 0
3512 -167 -3448 0
-3640 168 0
-3640 3512 0
3640 -168 -3512 0
-3768 -169 0
-3768 3640 0
3768 169 -3640 0
-3844 158 0
-3844 3812 0
3844 -158 -3812 0
-3908 159 0
-3908 3844 0
3908 -159 -3844 0
-4036 160 0
-4036 3908 0
4036 -160 -3908 0
-4164 -161 0
-4164 4036 0
4164 161 -4036 0
-4240 150 0
-4240 4208 0
4240 -150 -4208 0
-4304 151 0
-4304 4240 0
4304 -151 -4240 0
-4432 152 0
-4432 4304 0
4432 -152 -4304 0
-4560 -153 0
-4560 4432 0
4560 153 -4432 0
-4704 -4164 0
-4704 -4560 0
4704 4164 4560 0
-4848 -3768 0
-4848 4704 0
4848 3768 -4704 0
-4992 -3372 0
-4992 4848 0
4992 3372 -4848 0
-5136 -2976 0
-5136 4992 0
5136 2976 -4992 0
-5280 -2580 0
-5280 5136 0
5280 2580 -5136 0
-5424 -2184 0
-5424 5280 0
5424 2184 -5280 0
-5568 -1788 0
-5568 5424 0
5568 1788 -5424 0
-5712 -1392 0
-5712 5568 0
5712 1392 -5568 0
-5856 -996 0
-5856 5712 0
5856 996 -5712 0
-6000 -600 0
-6000 5856 0
6000 600 -5856 0
-6372 116 0
-6372 6000 0
6372 -116 -6000 0
-6373 -116 0
-6373 -6000 0
6373 116 6000 0
-6374 -6372 0
-6374 -6373 0
6374 6372 6373 0
115 -18905 0
-115 18905 0
-279 230 0
-279 247 0
279 -230 -247 0
-343 231 0
-343 279 0
343 -231 -279 0
-471 232 0
-471 343 0
471 -232 -343 0
-599 -233 0
-599 471 0
599 233 -471 0
-675 222 0
-675 643 0
675 -222 -643 0
-739 223 0
-739 675 0
739 -223 -675 0
-867 224 0
-867 739 0
867 -224 -739 0
-995 -225 0
-995 867 0
995 225 -867 0
-1071 214 0
-1071 1039 0
1071 -214 -1039 0
-1135 215 0
-1135 1071 0
1135 -215 -1071 0
-1263 216 0
-1263 1135 0
1263 -216 -1135 0
-1391 -217 0
-1391 1263 0
1391 217 -1263 0
-1467 206 0
-1467 1435 0
1467 -206 -1435 0
-1531 207 0
-1531 1467 0
1531 -207 -1467 0
-1659 208 0
-1659 1531 0
1659 -208 -1531 0
-1787 -209 0
-1787 1659 0
1787 209 -1659 0
-1863 198 0
-1863 1831 0
1863 -198 -1831 0
-1927 199 0
-1927 1863 0
1927 -199 -1863 0
-2055 200 0
-2055 1927 0
2055 -200 -1927 0
-2183 -201 0
-2183 2055 0
2183 201 -2055 0
-2259 190 0
-2259 2227 0
2259 -190 -2227 0
-2323 191 0
-2323 2259 0
2323 -191 -2259 0
-2451 192 0
-2451 2323 0
2451 -192 -2323 0
-2579 -193 0
-2579 2451 0
2579 193 -2451 0
-2655 182 0
-2655 2623 0
2655 -182 -2623 0
-2719 183 0
-2719 2655 0
2719 -183 -2655 0
-2847 184 0
-2847 2719 0
2847 -184 -2719 0
-2975 -185 0
-2975 2847 0
2975 185 -2847 0
-3051 174 0
-3051 3019 0
3051 -174 -3019 0
-3115 175 0
-3115 3051 0
3115 -175 -3051 0
-3243 176 0
-3243 3115 0
3243 -176 -3115 0
-3371 -177 0
-3371 3243 0
3371 177 -3243 0
-3447 166 0
-3447 3415 0
3447 -166 -3415 0
-3511 167 0
-3511 3447 0
3511 -167 -3447 0
-3639 168 0
-3639 3511 0
3639 -168 -3511 0
-3767 -169 0
-3767 3639 0
3767 169 -3639 0
-3843 158 0
-3843 3811 0
3843 -158 -3811 0
-3907 159 0
-3907 3843 0
3907 -159 -3843 0
-4035 160 0
-4035 3907 0
4035 -160 -3907 0
-4163 -161 0
-4163 4035 0
4163 161 -4035 0
-4239 150 0
-4239 4207 0
4239 -150 -4207 0
-4303 151 0
-4303 4239 0
4303 -151 -4239 0
-4431 152 0
-4431 4303 0
4431 -152 -4303 0
-4559 -153 0
-4559 4431 0
4559 153 -4431 0
-4703 -4163 0
-4703 -4559 0
4703 4163 4559 0
-4847 -3767 0
-4847 4703 0
4847 3767 -4703 0
-4991 -3371 0
-4991 4847 0
4991 3371 -4847 0
-5135 -2975 0
-5135 4991 0
5135 2975 -4991 0
-5279 -2579 0
-5279 5135 0
5279 2579 -5135 0
-5423 -2183 0
-5423 5279 0
5423 2183 -5279 0
-5567 -1787 0
-5567 5423 0
5567 1787 -5423 0
-5711 -1391 0
-5711 5567 0
5711 1391 -5567 0
-5855 -995 0
-5855 5711 0
5855 995 -5711 0
-5999 -599 0
-5999 5855 0
5999 599 -5855 0
-6369 115 0
-6369 5999 0
6369 -115 -5999 0
-6370 -115 0
-6370 -5999 0
6370 115 5999 0
-6371 -6369 0
-6371 -6370 0
6371 6369 6370 0
114 -18904 0
-114 18904 0
-278 230 0
-278 246 0
278 -230 -246 0
-342 231 0
-342 278 0
342 -231 -278 0
-470 232 0
-470 342 0
470 -232 -342 0
-598 -233 0
-598 470 0
598 233 -470 0
-674 222 0
-674 642 0
674 -222 -642 0
-738 223 0
-738 674 0
738 -223 -674 0
-866 224 0
-866 738 0
866 -224 -738 0
-994 -225 0
-994 866 0
994 225 -866 0
-1070 214 0
-1070 1038 0
1070 -214 -1038 0
-1134 215 0
-1134 1070 0
1134 -215 -1070 0
-1262 216 0
-1262 1134 0
1262 -216 -1134 0
-1390 -217 0
-1390 1262 0
1390 217 -1262 0
-1466 206 0
-1466 1434 0
1466 -206 -1434 0
-1530 207 0
-1530 1466 0
1530 -207 -1466 0
-1658 208 0
-1658 1530 0
1658 -208 -1530 0
-1786 -209 0
-1786 1658 0
1786 209 -1658 0
-1862 198 0
-1862 1830 0
1862 -198 -1830 0
-1926 199 0
-1926 1862 0
1926 -199 -1862 0
-2054 200 0
-2054 1926 0
2054 -200 -1926 0
-2182 -201 0
-2182 2054 0
2182 201 -2054 0
-2258 190 0
-2258 2226 0
2258 -190 -2226 0
-2322 191 0
-2322 2258 0
2322 -191 -2258 0
-2450 192 0
-2450 2322 0
2450 -192 -2322 0
-2578 -193 0
-2578 2450 0
2578 193 -2450 0
-2654 182 0
-2654 2622 0
2654 -182 -2622 0
-2718 183 0
-2718 2654 0
2718 -183 -2654 0
-2846 184 0
-2846 2718 0
2846 -184 -2718 0
-2974 -185 0
-2974 2846 0
2974 185 -2846 0
-3050 174 0
-3050 3018 0
3050 -174 -3018 0
-3114 175 0
-3114 3050 0
3114 -175 -3050 0
-3242 176 0
-3242 3114 0
3242 -176 -3114 0
-3370 -177 0
-3370 3242 0
3370 177 -3242 0
-3446 166 0
-3446 3414 0
3446 -166 -3414 0
-3510 167 0
-3510 3446 0
3510 -167 -3446 0
-3638 168 0
-3638 3510 0
3638 -168 -3510 0
-3766 -169 0
-3766 3638 0
3766 169 -3638 0
-3842 158 0
-3842 3810 0
3842 -158 -3810 0
-3906 159 0
-3906 3842 0
3906 -159 -3842 0
-4034 160 0
-4034 3906 0
4034 -160 -3906 0
-4162 -161 0
-4162 4034 0
4162 161 -4034 0
-4238 150 0
-4238 4206 0
4238 -150 -4206 0
-4302 151 0
-4302 4238 0
4302 -151 -4238 0
-4430 152 0
-4430 4302 0
4430 -152 -4302 0
-4558 -153 0
-4558 4430 0
4558 153 -4430 0
-4702 -4162 0
-4702 -4558 0
4702 4162 4558 0
-4846 -3766 0
-4846 4702 0
4846 3766 -4702 0
-4990 -3370 0
-4990 4846 0
4990 3370 -4846 0
-5134 -2974 0
-5134 4990 0
5134 2974 -4990 0
-5278 -2578 0
-5278 5134 0
5278 2578 -5134 0
-5422 -2182 0
-5422 5278 0
5422 2182 -5278 0
-5566 -1786 0
-5566 5422 0
5566 1786 -5422 0
-5710 -1390 0
-5710 5566 0
5710 1390 -5566 0
-5854 -994 0
-5854 5710 0
5854 994 -5710 0
-5998 -598 0
-5998 5854 0
5998 598 -5854 0
-6366 114 0
-6366 5998 0
6366 -114 -5998 0
-6367 -114 0
-6367 -5998 0
6367 114 5998 0
-6368 -6366 0
-6368 -6367 0
6368 6366 6367 0
113 -18903 0
-113 18903 0
-341 231 0
-341 277 0
341 -231 -277 0
-469 232 0
-469 341 0
469 -232 -341 0
-597 -233 0
-597 469 0
597 233 -469 0
-737 223 0
-737 673 0
737 -223 -673 0
-865 224 0
-865 737 0
865 -224 -737 0
-993 -225 0
-993 865 0
993 225 -865 0
-1133 215 0
-1133 1069 0
1133 -215 -1069 0
-1261 216 0
-1261 1133 0
1261 -216 -1133 0
-1389 -217 0
-1389 1261 0
1389 217 -1261 0
-1529 207 0
-1529 1465 0
1529 -207 -1465 0
-1657 208 0
-1657 1529 0
1657 -208 -1529 0
-1785 -209 0
-1785 1657 0
1785 209 -1657 0
-1925 199 0
-1925 1861 0
1925 -199 -1861 0
-2053 200 0
-2053 1925 0
2053 -200 -1925 0
-2181 -201 0
-2181 2053 0
2181 201 -2053 0
-2321 191 0
-2321 2257 0
2321 -191 -2257 0
-2449 192 0
-2449 2321 0
2449 -192 -2321 0
-2577 -193 0
-2577 2449 0
2577 193 -2449 0
-2717 183 0
-2717 2653 0
2717 -183 -2653 0
-2845 184 0
-2845 2717 0
2845 -184 -2717 0
-2973 -185 0
-2973 2845 0
2973 185 -2845 0
-3113 175 0
-3113 3049 0
3113 -175 -3049 0
-3241 176 0
-3241 3113 0
3241 -176 -3113 0
-3369 -177 0
-3369 3241 0
3369 177 -3241 0
-3509 167 0
-3509 3445 0
3509 -167 -3445 0
-3637 168 0
-3637 3509 0
3637 -168 -3509 0
-3765 -169 0
-3765 3637 0
3765 169 -3637 0
-3905 159 0
-3905 3841 0
3905 -159 -3841 0
-4033 160 0
-4033 3905 0
4033 -160 -3905 0
-4161 -161 0
-4161 4033 0
4161 161 -4033 0
-4301 151 0
-4301 4237 0
4301 -151 -4237 0
-4429 152 0
-4429 4301 0
4429 -152 -4301 0
-4557 -153 0
-4557 4429 0
4557 153 -4429 0
-4701 -4161 0
-4701 -4557 0
4701 4161 4557 0
-4845 -3765 0
-4845 4701 0
4845 3765 -4701 0
-4989 -3369 0
-4989 4845 0
4989 3369 -4845 0
-5133 -2973 0
-5133 4989 0
5133 2973 -4989 0
-5277 -2577 0
-5277 5133 0
5277 2577 -5133 0
-5421 -2181 0
-5421 5277 0
5421 2181 -5277 0
-5565 -1785 0
-5565 5421 0
5565 1785 -5421 0
-5709 -1389 0
-5709 5565 0
5709 1389 -5565 0
-5853 -993 0
-5853 5709 0
5853 993 -5709 0
-5997 -597 0
-5997 5853 0
5997 597 -5853 0
-6363 113 0
-6363 5997 0
6363 -113 -5997 0
-6364 -113 0
-6364 -5997 0
6364 113 5997 0
-6365 -6363 0
-6365 -6364 0
6365 6363 6364 0
112 -18902 0
-112 18902 0
-340 231 0
-340 276 0
340 -231 -276 0
-468 232 0
-468 340 0
468 -232 -340 0
-596 -233 0
-596 468 0
596 233 -468 0
-736 223 0
-736 672 0
736 -223 -672 0
-864 224 0
-864 736 0
864 -224 -736 0
-992 -225 0
-992 864 0
992 225 -864 0
-1132 215 0
-1132 1068 0
1132 -215 -1068 0
-1260 216 0
-1260 1132 0
1260 -216 -1132 0
-1388 -217 0
-1388 1260 0
1388 217 -1260 0
-1528 207 0
-1528 1464 0
1528 -207 -1464 0
-1656 208 0
-1656 1528 0
1656 -208 -1528 0
-1784 -209 0
-1784 1656 0
1784 209 -1656 0
-1924 199 0
-1924 1860 0
1924 -199 -1860 0
-2052 200 0
-2052 1924 0
2052 -200 -1924 0
-2180 -201 0
-2180 2052 0
2180 201 -2052 0
-2320 191 0
-2320 2256 0
2320 -191 -2256 0
-2448 192 0
-2448 2320 0
2448 -192 -2320 0
-2576 -193 0
-2576 2448 0
2576 193 -2448 0
-2716 183 0
-2716 2652 0
2716 -183 -2652 0
-2844 184 0
-2844 2716 0
2844 -184 -2716 0
-2972 -185 0
-2972 2844 0
2972 185 -2844 0
-3112 175 0
-3112 3048 0
3112 -175 -3048 0
-3240 176 0
-3240 3112 0
3240 -176 -3112 0
-3368 -177 0
-3368 3240 0
3368 177 -3240 0
-3508 167 0
-3508 3444 0
3508 -167 -3444 0
-3636 168 0
-3636 3508 0
3636 -168 -3508 0
-3764 -169 0
-3764 3636 0
3764 169 -3636 0
-3904 159 0
-3904 3840 0
3904 -159 -3840 0
-4032 160 0
-4032 3904 0
4032 -160 -3904 0
-4160 -161 0
-4160 4032 0
4160 161 -4032 0
-4300 151 0
-4300 4236 0
4300 -151 -4236 0
-4428 152 0
-4428 4300 0
4428 -152 -4300 0
-4556 -153 0
-4556 4428 0
4556 153 -4428 0
-4700 -4160 0
-4700 -4556 0
4700 4160 4556 0
-4844 -3764 0
-4844 4700 0
4844 3764 -4700 0
-4988 -3368 0
-4988 4844 0
4988 3368 -4844 0
-5132 -2972 0
-5132 4988 0
5132 2972 -4988 0
-5276 -2576 0
-5276 5132 0
5276 2576 -5132 0
-5420 -2180 0
-5420 5276 0
5420 2180 -5276 0
-5564 -1784 0
-5564 5420 0
5564 1784 -5420 0
-5708 -1388 0
-5708 5564 0
5708 1388 -5564 0
-5852 -992 0
-5852 5708 0
5852 992 -5708 0
-5996 -596 0
-5996 5852 0
5996 596 -5852 0
-6360 112 0
-6360 5996 0
6360 -112 -5996 0
-6361 -112 0
-6361 -5996 0
6361 112 5996 0
-6362 -6360 0
-6362 -6361 0
6362 6360 6361 0
111 -18901 0
-111 18901 0
-339 231 0
-339 275 0
339 -231 -275 0
-467 232 0
-467 339 0
467 -232 -339 0
-595 -233 0
-595 467 0
595 233 -467 0
-735 223 0
-735 671 0
735 -223 -671 0
-863 224 0
-863 735 0
863 -224 -735 0
-991 -225 0
-991 863 0
991 225 -863 0
-1131 215 0
-1131 1067 0
1131 -215 -1067 0
-1259 216 0
-1259 1131 0
1259 -216 -1131 0
-1387 -217 0
-1387 1259 0
1387 217 -1259 0
-1527 207 0
-1527 1463 0
1527 -207 -1463 0
-1655 208 0
-1655 1527 0
1655 -208 -1527 0
-1783 -209 0
-1783 1655 0
1783 209 -1655 0
-1923 199 0
-1923 1859 0
1923 -199 -1859 0
-2051 200 0
-2051 1923 0
2051 -200 -1923 0
-2179 -201 0
-2179 2051 0
2179 201 -2051 0
-2319 191 0
-2319 2255 0
2319 -191 -2255 0
-2447 192 0
-2447 2319 0
2447 -192 -2319 0
-2575 -193 0
-2575 2447 0
2575 193 -2447 0
-2715 183 0
-2715 2651 0
2715 -183 -2651 0
-2843 184 0
-2843 2715 0
2843 -184 -2715 0
-2971 -185 0
-2971 2843 0
2971 185 -2843 0
-3111 175 0
-3111 3047 0
3111 -175 -3047 0
-3239 176 0
-3239 3111 0
3239 -176 -3111 0
-3367 -177 0
-3367 3239 0
3367 177 -3239 0
-3507 167 0
-3507 3443 0
3507 -167 -3443 0
-3635 168 0
-3635 3507 0
3635 -168 -3507 0
-3763 -169 0
-3763 3635 0
3763 169 -3635 0
-3903 159 0
-3903 3839 0
3903 -159 -3839 0
-4031 160 0
-4031 3903 0
4031 -160 -3903 0
-4159 -161 0
-4159 4031 0
4159 161 -4031 0
-4299 151 0
-4299 4235 0
4299 -151 -4235 0
-4427 152 0
-4427 4299 0
4427 -152 -4299 0
-4555 -153 0
-4555 4427 0
4555 153 -4427 0
-4699 -4159 0
-4699 -4555 0
4699 4159 4555 0
-4843 -3763 0
-4843 4699 0
4843 3763 -4699 0
-4987 -3367 0
-4987 4843 0
4987 3367 -4843 0
-5131 -2971 0
-5131 4987 0
5131 2971 -4987 0
-5275 -2575 0
-5275 5131 0
5275 2575 -5131 0
-5419 -2179 0
-5419 5275 0
5419 2179 -5275 0
-5563 -1783 0
-5563 5419 0
5563 1783 -5419 0
-5707 -1387 0
-5707 5563 0
5707 1387 -5563 0
-5851 -991 0
-5851 5707 0
5851 991 -5707 0
-5995 -595 0
-5995 5851 0
5995 595 -5851 0
-6357 111 0
-6357 5995 0
6357 -111 -5995 0
-6358 -111 0
-6358 -5995 0
6358 111 5995 0
-6359 -6357 0
-6359 -6358 0
6359 6357 6358 0
110 -18900 0
-110 18900 0
-338 231 0
-338 274 0
338 -231 -274 0
-466 232 0
-466 338 0
466 -232 -338 0
-594 -233 0
-594 466 0
594 233 -466 0
-734 223 0
-734 670 0
734 -223 -670 0
-862 224 0
-862 734 0
862 -224 -734 0
-990 -225 0
-990 862 0
990 225 -862 0
-1130 215 0
-1130 1066 0
1130 -215 -1066 0
-1258 216 0
-1258 1130 0
1258 -216 -1130 0
-1386 -217 0
-1386 1258 0
1386 217 -1258 0
-1526 207 0
-1526 1462 0
1526 -207 -1462 0
-1654 208 0
-1654 1526 0
1654 -208 -1526 0
-1782 -209 0
-1782 1654 0
1782 209 -1654 0
-1922 199 0
-1922 1858 0
1922 -199 -1858 0
-2050 200 0
-2050 1922 0
2050 -200 -1922 0
-2178 -201 0
-2178 2050 0
2178 201 -2050 0
-2318 191 0
-2318 2254 0
2318 -191 -2254 0
-2446 192 0
-2446 2318 0
2446 -192 -2318 0
-2574 -193 0
-2574 2446 0
2574 193 -2446 0
-2714 183 0
-2714 2650 0
2714 -183 -2650 0
-2842 184 0
-2842 2714 0
2842 -184 -2714 0
-2970 -185 0
-2970 2842 0
2970 185 -2842 0
-3110 175 0
-3110 3046 0
3110 -175 -3046 0
-3238 176 0
-3238 3110 0
3238 -176 -3110 0
-3366 -177 0
-3366 3238 0
3366 177 -3238 0
-3506 167 0
-3506 3442 0
3506 -167 -3442 0
-3634 168 0
-3634 3506 0
3634 -168 -3506 0
-3762 -169 0
-3762 3634 0
3762 169 -3634 0
-3902 159 0
-3902 3838 0
3902 -159 -3838 0
-4030 160 0
-4030 3902 0
4030 -160 -3902 0
-4158 -161 0
-4158 4030 0
4158 161 -4030 0
-4298 151 0
-4298 4234 0
4298 -151 -4234 0
-4426 152 0
-4426 4298 0
4426 -152 -4298 0
-4554 -153 0
-4554 4426 0
4554 153 -4426 0
-4698 -4158 0
-4698 -4554 0
4698 4158 4554 0
-4842 -3762 0
-4842 4698 0
4842 3762 -4698 0
-4986 -3366 0
-4986 4842 0
4986 3366 -4842 0
-5130 -2970 0
-5130 4986 0
5130 2970 -4986 0
-5274 -2574 0
-5274 5130 0
5274 2574 -5130 0
-5418 -2178 0
-5418 5274 0
5418 2178 -5274 0
-5562 -1782 0
-5562 5418 0
5562 1782 -5418 0
-5706 -1386 0
-5706 5562 0
5706 1386 -5562 0
-5850 -990 0
-5850 5706 0
5850 990 -5706 0
-5994 -594 0
-5994 5850 0
5994 594 -5850 0
-6354 110 0
-6354 5994 0
6354 -110 -5994 0
-6355 -110 0
-6355 -5994 0
6355 110 5994 0
-6356 -6354 0
-6356 -6355 0
6356 6354 6355 0
109 -18899 0
-109 18899 0
-337 231 0
-337 273 0
337 -231 -273 0
-465 232 0
-465 337 0
465 -232 -337 0
-593 -233 0
-593 465 0
593 233 -465 0
-733 223 0
-733 669 0
733 -223 -669 0
-861 224 0
-861 733 0
861 -224 -733 0
-989 -225 0
-989 861 0
989 225 -861 0
-1129 215 0
-1129 1065 0
1129 -215 -1065 0
-1257 216 0
-1257 1129 0
1257 -216 -1129 0
-1385 -217 0
-1385 1257 0
1385 217 -1257 0
-1525 207 0
-1525 1461 0
1525 -207 -1461 0
-1653 208 0
-1653 1525 0
1653 -208 -1525 0
-1781 -209 0
-1781 1653 0
1781 209 -1653 0
-1921 199 0
-1921 1857 0
1921 -199 -1857 0
-2049 200 0
-2049 1921 0
2049 -200 -1921 0
-2177 -201 0
-2177 2049 0
2177 201 -2049 0
-2317 191 0
-2317 2253 0
2317 -191 -2253 0
-2445 192 0
-2445 2317 0
2445 -192 -2317 0
-2573 -193 0
-2573 2445 0
2573 193 -2445 0
-2713 183 0
-2713 2649 0
2713 -183 -2649 0
-2841 184 0
-2841 2713 0
2841 -184 -2713 0
-2969 -185 0
-2969 2841 0
2969 185 -2841 0
-3109 175 0
-3109 3045 0
3109 -175 -3045 0
-3237 176 0
-3237 3109 0
3237 -176 -3109 0
-3365 -177 0
-3365 3237 0
3365 177 -3237 0
-3505 167 0
-3505 3441 0
3505 -167 -3441 0
-3633 168 0
-3633 3505 0
3633 -168 -3505 0
-3761 -169 0
-3761 3633 0
3761 169 -3633 0
-3901 159 0
-3901 3837 0
3901 -159 -3837 0
-4029 160 0
-4029 3901 0
4029 -160 -3901 0
-4157 -161 0
-4157 4029 0
4157 161 -4029 0
-4297 151 0
-4297 4233 0
4297 -151 -4233 0
-4425 152 0
-4425 4297 0
4425 -152 -4297 0
-4553 -153 0
-4553 4425 0
4553 153 -4425 0
-4697 -4157 0
-4697 -4553 0
4697 4157 4553 0
-4841 -3761 0
-4841 4697 0
4841 3761 -4697 0
-4985 -3365 0
-4985 4841 0
4985 3365 -4841 0
-5129 -2969 0
-5129 4985 0
5129 2969 -4985 0
-5273 -2573 0
-5273 5129 0
5273 2573 -5129 0
-5417 -2177 0
-5417 5273 0
5417 2177 -5273 0
-5561 -1781 0
-5561 5417 0
5561 1781 -5417 0
-5705 -1385 0
-5705 5561 0
5705 1385 -5561 0
-5849 -989 0
-5849 5705 0
5849 989 -5705 0
-5993 -593 0
-5993 5849 0
5993 593 -5849 0
-6351 109 0
-6351 5993 0
6351 -109 -5993 0
-6352 -109 0
-6352 -5993 0
6352 109 5993 0
-6353 -6351 0
-6353 -6352 0
6353 6351 6352 0
108 -18898 0
-108 18898 0
-336 231 0
-336 272 0
336 -231 -272 0
-464 232 0
-464 336 0
464 -232 -336 0
-592 -233 0
-592 464 0
592 233 -464 0
-732 223 0
-732 668 0
732 -223 -668 0
-860 224 0
-860 732 0
860 -224 -732 0
-988 -225 0
-988 860 0
988 225 -860 0
-1128 215 0
-1128 1064 0
1128 -215 -1064 0
-1256 216 0
-1256 1128 0
1256 -216 -1128 0
-1384 -217 0
-1384 1256 0
1384 217 -1256 0
-1524 207 0
-1524 1460 0
1524 -207 -1460 0
-1652 208 0
-1652 1524 0
1652 -208 -1524 0
-1780 -209 0
-1780 1652 0
1780 209 -1652 0
-1920 199 0
-1920 1856 0
1920 -199 -1856 0
-2048 200 0
-2048 1920 0
2048 -200 -1920 0
-2176 -201 0
-2176 2048 0
2176 201 -2048 0
-2316 191 0
-2316 2252 0
2316 -191 -2252 0
-2444 192 0
-2444 2316 0
2444 -192 -2316 0
-2572 -193 0
-2572 2444 0
2572 193 -2444 0
-2712 183 0
-2712 2648 0
2712 -183 -2648 0
-2840 184 0
-2840 2712 0
2840 -184 -2712 0
-2968 -185 0
-2968 2840 0
2968 185 -2840 0
-3108 175 0
-3108 3044 0
3108 -175 -3044 0
-3236 176 0
-3236 3108 0
3236 -176 -3108 0
-3364 -177 0
-3364 3236 0
3364 177 -3236 0
-3504 167 0
-3504 3440 0
3504 -167 -3440 0
-3632 168 0
-3632 3504 0
3632 -168 -3504 0
-3760 -169 0
-3760 3632 0
3760 169 -3632 0
-3900 159 0
-3900 3836 0
3900 -159 -3836 0
-4028 160 0
-4028 3900 0
4028 -160 -3900 0
-4156 -161 0
-4156 4028 0
4156 161 -4028 0
-4296 151 0
-4296 4232 0
4296 -151 -4232 0
-4424 152 0
-4424 4296 0
4424 -152 -4296 0
-4552 -153 0
-4552 4424 0
4552 153 -4424 0
-4696 -4156 0
-4696 -4552 0
4696 4156 4552 0
-4840 -3760 0
-4840 4696 0
4840 3760 -4696 0
-4984 -3364 0
-4984 4840 0
4984 3364 -4840 0
-5128 -2968 0
-5128 4984 0
5128 2968 -4984 0
-5272 -2572 0
-5272 5128 0
5272 2572 -5128 0
-5416 -2176 0
-5416 5272 0
5416 2176 -5272 0
-5560 -1780 0
-5560 5416 0
5560 1780 -5416 0
-5704 -1384 0
-5704 5560 0
5704 1384 -5560 0
-5848 -988 0
-5848 5704 0
5848 988 -5704 0
-5992 -592 0
-5992 5848 0
5992 592 -5848 0
-6348 108 0
-6348 5992 0
6348 -108 -5992 0
-6349 -108 0
-6349 -5992 0
6349 108 5992 0
-6350 -6348 0
-6350 -6349 0
6350 6348 6349 0
107 -18897 0
-107 18897 0
-335 231 0
-335 271 0
335 -231 -271 0
-463 232 0
-463 335 0
463 -232 -335 0
-591 -233 0
-591 463 0
591 233 -463 0
-731 223 0
-731 667 0
731 -223 -667 0
-859 224 0
-859 731 0
859 -224 -731 0
-987 -225 0
-987 859 0
987 225 -859 0
-1127 215 0
-1127 1063 0
1127 -215 -1063 0
-1255 216 0
-1255 1127 0
1255 -216 -1127 0
-1383 -217 0
-1383 1255 0
1383 217 -1255 0
-1523 207 0
-1523 1459 0
1523 -207 -1459 0
-1651 208 0
-1651 1523 0
1651 -208 -1523 0
-1779 -209 0
-1779 1651 0
1779 209 -1651 0
-1919 199 0
-1919 1855 0
1919 -199 -1855 0
-2047 200 0
-2047 1919 0
2047 -200 -1919 0
-2175 -201 0
-2175 2047 0
2175 201 -2047 0
-2315 191 0
-2315 2251 0
2315 -191 -2251 0
-2443 192 0
-2443 2315 0
2443 -192 -2315 0
-2571 -193 0
-2571 2443 0
2571 193 -2443 0
-2711 183 0
-2711 2647 0
2711 -183 -2647 0
-2839 184 0
-2839 2711 0
2839 -184 -2711 0
-2967 -185 0
-2967 2839 0
2967 185 -2839 0
-3107 175 0
-3107 3043 0
3107 -175 -3043 0
-3235 176 0
-3235 3107 0
3235 -176 -3107 0
-3363 -177 0
-3363 3235 0
3363 177 -3235 0
-3503 167 0
-3503 3439 0
3503 -167 -3439 0
-3631 168 0
-3631 3503 0
3631 -168 -3503 0
-3759 -169 0
-3759 3631 0
3759 169 -3631 0
-3899 159 0
-3899 3835 0
3899 -159 -3835 0
-4027 160 0
-4027 3899 0
4027 -160 -3899 0
-4155 -161 0
-4155 4027 0
4155 161 -4027 0
-4295 151 0
-4295 4231 0
4295 -151 -4231 0
-4423 152 0
-4423 4295 0
4423 -152 -4295 0
-4551 -153 0
-4551 4423 0
4551 153 -4423 0
-4695 -4155 0
-4695 -4551 0
4695 4155 4551 0
-4839 -3759 0
-4839 4695 0
4839 3759 -4695 0
-4983 -3363 0
-4983 4839 0
4983 3363 -4839 0
-5127 -2967 0
-5127 4983 0
5127 2967 -4983 0
-5271 -2571 0
-5271 5127 0
5271 2571 -5127 0
-5415 -2175 0
-5415 5271 0
5415 2175 -5271 0
-5559 -1779 0
-5559 5415 0
5559 1779 -5415 0
-5703 -1383 0
-5703 5559 0
5703 1383 -5559 0
-5847 -987 0
-5847 5703 0
5847 987 -5703 0
-5991 -591 0
-5991 5847 0
5991 591 -5847 0
-6345 107 0
-6345 5991 0
6345 -107 -5991 0
-6346 -107 0
-6346 -5991 0
6346 107 5991 0
-6347 -6345 0
-6347 -6346 0
6347 6345 6346 0
106 -18896 0
-106 18896 0
-334 231 0
-334 270 0
334 -231 -270 0
-462 232 0
-462 334 0
462 -232 -334 0
-590 -233 0
-590 462 0
590 233 -462 0
-730 223 0
-730 666 0
730 -223 -666 0
-858 224 0
-858 730 0
858 -224 -730 0
-986 -225 0
-986 858 0
986 225 -858 0
-1126 215 0
-1126 1062 0
1126 -215 -1062 0
-1254 216 0
-1254 1126 0
1254 -216 -1126 0
-1382 -217 0
-1382 1254 0
1382 217 -1254 0
-1522 207 0
-1522 1458 0
1522 -207 -1458 0
-1650 208 0
-1650 1522 0
1650 -208 -1522 0
-1778 -209 0
-1778 1650 0
1778 209 -1650 0
-1918 199 0
-1918 1854 0
1918 -199 -1854 0
-2046 200 0
-2046 1918 0
2046 -200 -1918 0
-2174 -201 0
-2174 2046 0
2174 201 -2046 0
-2314 191 0
-2314 2250 0
2314 -191 -2250 0
-2442 192 0
-2442 2314 0
2442 -192 -2314 0
-2570 -193 0
-2570 2442 0
2570 193 -2442 0
-2710 183 0
-2710 2646 0
2710 -183 -2646 0
-2838 184 0
-2838 2710 0
2838 -184 -2710 0
-2966 -185 0
-2966 2838 0
2966 185 -2838 0
-3106 175 0
-3106 3042 0
3106 -175 -3042 0
-3234 176 0
-3234 3106 0
3234 -176 -3106 0
-3362 -177 0
-3362 3234 0
3362 177 -3234 0
-3502 167 0
-3502 3438 0
3502 -167 -3438 0
-3630 168 0
-3630 3502 0
3630 -168 -3502 0
-3758 -169 0
-3758 3630 0
3758 169 -3630 0
-3898 159 0
-3898 3834 0
3898 -159 -3834 0
-4026 160 0
-4026 3898 0
4026 -160 -3898 0
-4154 -161 0
-4154 4026 0
4154 161 -4026 0
-4294 151 0
-4294 4230 0
4294 -151 -4230 0
-4422 152 0
-4422 4294 0
4422 -152 -4294 0
-4550 -153 0
-4550 4422 0
4550 153 -4422 0
-4694 -4154 0
-4694 -4550 0
4694 4154 4550 0
-4838 -3758 0
-4838 4694 0
4838 3758 -4694 0
-4982 -3362 0
-4982 4838 0
4982 3362 -4838 0
-5126 -2966 0
-5126 4982 0
5126 2966 -4982 0
-5270 -2570 0
-5270 5126 0
5270 2570 -5126 0
-5414 -2174 0
-5414 5270 0
5414 2174 -5270 0
-5558 -1778 0
-5558 5414 0
5558 1778 -5414 0
-5702 -1382 0
-5702 5558 0
5702 1382 -5558 0
-5846 -986 0
-5846 5702 0
5846 986 -5702 0
-5990 -590 0
-5990 5846 0
5990 590 -5846 0
-6342 106 0
-6342 5990 0
6342 -106 -5990 0
-6343 -106 0
-6343 -5990 0
6343 106 5990 0
-6344 -6342 0
-6344 -6343 0
6344 6342 6343 0
105 -18895 0
-105 18895 0
-333 231 0
-333 269 0
333 -231 -269 0
-461 232 0
-461 333 0
461 -232 -333 0
-589 -233 0
-589 461 0
589 233 -461 0
-729 223 0
-729 665 0
729 -223 -665 0
-857 224 0
-857 729 0
857 -224 -729 0
-985 -225 0
-985 857 0
985 225 -857 0
-1125 215 0
-1125 1061 0
1125 -215 -1061 0
-1253 216 0
-1253 1125 0
1253 -216 -1125 0
-1381 -217 0
-1381 1253 0
1381 217 -1253 0
-1521 207 0
-1521 1457 0
1521 -207 -1457 0
-1649 208 0
-1649 1521 0
1649 -208 -1521 0
-1777 -209 0
-1777 1649 0
1777 209 -1649 0
-1917 199 0
-1917 1853 0
1917 -199 -1853 0
-2045 200 0
-2045 1917 0
2045 -200 -1917 0
-2173 -201 0
-2173 2045 0
2173 201 -2045 0
-2313 191 0
-2313 2249 0
2313 -191 -2249 0
-2441 192 0
-2441 2313 0
2441 -192 -2313 0
-2569 -193 0
-2569 2441 0
2569 193 -2441 0
-2709 183 0
-2709 2645 0
2709 -183 -2645 0
-2837 184 0
-2837 2709 0
2837 -184 -2709 0
-2965 -185 0
-2965 2837 0
2965 185 -2837 0
-3105 175 0
-3105 3041 0
3105 -175 -3041 0
-3233 176 0
-3233 3105 0
3233 -176 -3105 0
-3361 -177 0
-3361 3233 0
3361 177 -3233 0
-3501 167 0
-3501 3437 0
3501 -167 -3437 0
-3629 168 0
-3629 3501 0
3629 -168 -3501 0
-3757 -169 0
-3757 3629 0
3757 169 -3629 0
-3897 159 0
-3897 3833 0
3897 -159 -3833 0
-4025 160 0
-4025 3897 0
4025 -160 -3897 0
-4153 -161 0
-4153 4025 0
4153 161 -4025 0
-4293 151 0
-4293 4229 0
4293 -151 -4229 0
-4421 152 0
-4421 4293 0
4421 -152 -4293 0
-4549 -153 0
-4549 4421 0
4549 153 -4421 0
-4693 -4153 0
-4693 -4549 0
4693 4153 4549 0
-4837 -3757 0
-4837 4693 0
4837 3757 -4693 0
-4981 -3361 0
-4981 4837 0
4981 3361 -4837 0
-5125 -2965 0
-5125 4981 0
5125 2965 -4981 0
-5269 -2569 0
-5269 5125 0
5269 2569 -5125 0
-5413 -2173 0
-5413 5269 0
5413 2173 -5269 0
-5557 -1777 0
-5557 5413 0
5557 1777 -5413 0
-5701 -1381 0
-5701 5557 0
5701 1381 -5557 0
-5845 -985 0
-5845 5701 0
5845 985 -5701 0
-5989 -589 0
-5989 5845 0
5989 589 -5845 0
-6339 105 0
-6339 5989 0
6339 -105 -5989 0
-6340 -105 0
-6340 -5989 0
6340 105 5989 0
-6341 -6339 0
-6341 -6340 0
6341 6339 6340 0
104 -18894 0
-104 18894 0
-332 231 0
-332 268 0
332 -231 -268 0
-460 232 0
-460 332 0
460 -232 -332 0
-588 -233 0
-588 460 0
588 233 -460 0
-728 223 0
-728 664 0
728 -223 -664 0
-856 224 0
-856 728 0
856 -224 -728 0
-984 -225 0
-984 856 0
984 225 -856 0
-1124 215 0
-1124 1060 0
1124 -215 -1060 0
-1252 216 0
-1252 1124 0
1252 -216 -1124 0
-1380 -217 0
-1380 1252 0
1380 217 -1252 0
-1520 207 0
-1520 1456 0
1520 -207 -1456 0
-1648 208 0
-1648 1520 0
1648 -208 -1520 0
-1776 -209 0
-1776 1648 0
1776 209 -1648 0
-1916 199 0
-1916 1852 0
1916 -199 -1852 0
-2044 200 0
-2044 1916 0
2044 -200 -1916 0
-2172 -201 0
-2172 2044 0
2172 201 -2044 0
-2312 191 0
-2312 2248 0
2312 -191 -2248 0
-2440 192 0
-2440 2312 0
2440 -192 -2312 0
-2568 -193 0
-2568 2440 0
2568 193 -2440 0
-2708 183 0
-2708 2644 0
2708 -183 -2644 0
-2836 184 0
-2836 2708 0
2836 -184 -2708 0
-2964 -185 0
-2964 2836 0
2964 185 -2836 0
-3104 175 0
-3104 3040 0
3104 -175 -3040 0
-3232 176 0
-3232 3104 0
3232 -176 -3104 0
-3360 -177 0
-3360 3232 0
3360 177 -3232 0
-3500 167 0
-3500 3436 0
3500 -167 -3436 0
-3628 168 0
-3628 3500 0
3628 -168 -3500 0
-3756 -169 0
-3756 3628 0
3756 169 -3628 0
-3896 159 0
-3896 3832 0
3896 -159 -3832 0
-4024 160 0
-4024 3896 0
4024 -160 -3896 0
-4152 -161 0
-4152 4024 0
4152 161 -4024 0
-4292 151 0
-4292 4228 0
4292 -151 -4228 0
-4420 152 0
-4420 4292 0
4420 -152 -4292 0
-4548 -153 0
-4548 4420 0
4548 153 -4420 0
-4692 -4152 0
-4692 -4548 0
4692 4152 4548 0
-4836 -3756 0
-4836 4692 0
4836 3756 -4692 0
-4980 -3360 0
-4980 4836 0
4980 3360 -4836 0
-5124 -2964 0
-5124 4980 0
5124 2964 -4980 0
-5268 -2568 0
-5268 5124 0
5268 2568 -5124 0
-5412 -2172 0
-5412 5268 0
5412 2172 -5268 0
-5556 -1776 0
-5556 5412 0
5556 1776 -5412 0
-5700 -1380 0
-5700 5556 0
5700 1380 -5556 0
-5844 -984 0
-5844 5700 0
5844 984 -5700 0
-5988 -588 0
-5988 5844 0
5988 588 -5844 0
-6336 104 0
-6336 5988 0
6336 -104 -5988 0
-6337 -104 0
-6337 -5988 0
6337 104 5988 0
-6338 -6336 0
-6338 -6337 0
6338 6336 6337 0
103 -18893 0
-103 18893 0
-331 231 0
-331 267 0
331 -231 -267 0
-459 232 0
-459 331 0
459 -232 -331 0
-587 -233 0
-587 459 0
587 233 -459 0
-727 223 0
-727 663 0
727 -223 -663 0
-855 224 0
-855 727 0
855 -224 -727 0
-983 -225 0
-983 855 0
983 225 -855 0
-1123 215 0
-1123 1059 0
1123 -215 -1059 0
-1251 216 0
-1251 1123 0
1251 -216 -1123 0
-1379 -217 0
-1379 1251 0
1379 217 -1251 0
-1519 207 0
-1519 1455 0
1519 -207 -1455 0
-1647 208 0
-1647 1519 0
1647 -208 -1519 0
-1775 -209 0
-1775 1647 0
1775 209 -1647 0
-1915 199 0
-1915 1851 0
1915 -199 -1851 0
-2043 200 0
-2043 1915 0
2043 -200 -1915 0
-2171 -201 0
-2171 2043 0
2171 201 -2043 0
-2311 191 0
-2311 2247 0
2311 -191 -2247 0
-2439 192 0
-2439 2311 0
2439 -192 -2311 0
-2567 -193 0
-2567 2439 0
2567 193 -2439 0
-2707 183 0
-2707 2643 0
2707 -183 -2643 0
-2835 184 0
-2835 2707 0
2835 -184 -2707 0
-2963 -185 0
-2963 2835 0
2963 185 -2835 0
-3103 175 0
-3103 3039 0
3103 -175 -3039 0
-3231 176 0
-3231 3103 0
3231 -176 -3103 0
-3359 -177 0
-3359 3231 0
3359 177 -3231 0
-3499 167 0
-3499 3435 0
3499 -167 -3435 0
-3627 168 0
-3627 3499 0
3627 -168 -3499 0
-3755 -169 0
-3755 3627 0
3755 169 -3627 0
-3895 159 0
-3895 3831 0
3895 -159 -3831 0
-4023 160 0
-4023 3895 0
4023 -160 -3895 0
-4151 -161 0
-4151 4023 0
4151 161 -4023 0
-4291 151 0
-4291 4227 0
4291 -151 -4227 0
-4419 152 0
-4419 4291 0
4419 -152 -4291 0
-4547 -153 0
-4547 4419 0
4547 153 -4419 0
-4691 -4151 0
-4691 -4547 0
4691 4151 4547 0
-4835 -3755 0
-4835 4691 0
4835 3755 -4691 0
-4979 -3359 0
-4979 4835 0
4979 3359 -4835 0
-5123 -2963 0
-5123 4979 0
5123 2963 -4979 0
-5267 -2567 0
-5267 5123 0
5267 2567 -5123 0
-5411 -2171 0
-5411 5267 0
5411 2171 -5267 0
-5555 -1775 0
-5555 5411 0
5555 1775 -5411 0
-5699 -1379 0
-5699 5555 0
5699 1379 -5555 0
-5843 -983 0
-5843 5699 0
5843 983 -5699 0
-5987 -587 0
-5987 5843 0
5987 587 -5843 0
-6333 103 0
-6333 5987 0
6333 -103 -5987 0
-6334 -103 0
-6334 -5987 0
6334 103 5987 0
-6335 -6333 0
-6335 -6334 0
6335 6333 6334 0
102 -18892 0
-102 18892 0
-330 231 0
-330 266 0
330 -231 -266 0
-458 232 0
-458 330 0
458 -232 -330 0
-586 -233 0
-586 458 0
586 233 -458 0
-726 223 0
-726 662 0
726 -223 -662 0
-854 224 0
-854 726 0
854 -224 -726 0
-982 -225 0
-982 854 0
982 225 -854 0
-1122 215 0
-1122 1058 0
1122 -215 -1058 0
-1250 216 0
-1250 1122 0
1250 -216 -1122 0
-1378 -217 0
-1378 1250 0
1378 217 -1250 0
-1518 207 0
-1518 1454 0
1518 -207 -1454 0
-1646 208 0
-1646 1518 0
1646 -208 -1518 0
-1774 -209 0
-1774 1646 0
1774 209 -1646 0
-1914 199 0
-1914 1850 0
1914 -199 -1850 0
-2042 200 0
-2042 1914 0
2042 -200 -1914 0
-2170 -201 0
-2170 2042 0
2170 201 -2042 0
-2310 191 0
-2310 2246 0
2310 -191 -2246 0
-2438 192 0
-2438 2310 0
2438 -192 -2310 0
-2566 -193 0
-2566 2438 0
2566 193 -2438 0
-2706 183 0
-2706 2642 0
2706 -183 -2642 0
-2834 184 0
-2834 2706 0
2834 -184 -2706 0
-2962 -185 0
-2962 2834 0
2962 185 -2834 0
-3102 175 0
-3102 3038 0
3102 -175 -3038 0
-3230 176 0
-3230 3102 0
3230 -176 -3102 0
-3358 -177 0
-3358 3230 0
3358 177 -3230 0
-3498 167 0
-3498 3434 0
3498 -167 -3434 0
-3626 168 0
-3626 3498 0
3626 -168 -3498 0
-3754 -169 0
-3754 3626 0
3754 169 -3626 0
-3894 159 0
-3894 3830 0
3894 -159 -3830 0
-4022 160 0
-4022 3894 0
4022 -160 -3894 0
-4150 -161 0
-4150 4022 0
4150 161 -4022 0
-4290 151 0
-4290 4226 0
4290 -151 -4226 0
-4418 152 0
-4418 4290 0
4418 -152 -4290 0
-4546 -153 0
-4546 4418 0
4546 153 -4418 0
-4690 -4150 0
-4690 -4546 0
4690 4150 4546 0
-4834 -3754 0
-4834 4690 0
4834 3754 -4690 0
-4978 -3358 0
-4978 4834 0
4978 3358 -4834 0
-5122 -2962 0
-5122 4978 0
5122 2962 -4978 0
-5266 -2566 0
-5266 5122 0
5266 2566 -5122 0
-5410 -2170 0
-5410 5266 0
5410 2170 -5266 0
-5554 -1774 0
-5554 5410 0
5554 1774 -5410 0
-5698 -1378 0
-5698 5554 0
5698 1378 -5554 0
-5842 -982 0
-5842 5698 0
5842 982 -5698 0
-5986 -586 0
-5986 5842 0
5986 586 -5842 0
-6330 102 0
-6330 5986 0
6330 -102 -5986 0
-6331 -102 0
-6331 -5986 0
6331 102 5986 0
-6332 -6330 0
-6332 -6331 0
6332 6330 6331 0
101 -18891 0
-101 18891 0
-329 231 0
-329 265 0
329 -231 -265 0
-457 232 0
-457 329 0
457 -232 -329 0
-585 -233 0
-585 457 0
585 233 -457 0
-725 223 0
-725 661 0
725 -223 -661 0
-853 224 0
-853 725 0
853 -224 -725 0
-981 -225 0
-981 853 0
981 225 -853 0
-1121 215 0
-1121 1057 0
1121 -215 -1057 0
-1249 216 0
-1249 1121 0
1249 -216 -1121 0
-1377 -217 0
-1377 1249 0
1377 217 -1249 0
-1517 207 0
-1517 1453 0
1517 -207 -1453 0
-1645 208 0
-1645 1517 0
1645 -208 -1517 0
-1773 -209 0
-1773 1645 0
1773 209 -1645 0
-1913 199 0
-1913 1849 0
1913 -199 -1849 0
-2041 200 0
-2041 1913 0
2041 -200 -1913 0
-2169 -201 0
-2169 2041 0
2169 201 -2041 0
-2309 191 0
-2309 2245 0
2309 -191 -2245 0
-2437 192 0
-2437 2309 0
2437 -192 -2309 0
-2565 -193 0
-2565 2437 0
2565 193 -2437 0
-2705 183 0
-2705 2641 0
2705 -183 -2641 0
-2833 184 0
-2833 2705 0
2833 -184 -2705 0
-2961 -185 0
-2961 2833 0
2961 185 -2833 0
-3101 175 0
-3101 3037 0
3101 -175 -3037 0
-3229 176 0
-3229 3101 0
3229 -176 -3101 0
-3357 -177 0
-3357 3229 0
3357 177 -3229 0
-3497 167 0
-3497 3433 0
3497 -167 -3433 0
-3625 168 0
-3625 3497 0
3625 -168 -3497 0
-3753 -169 0
-3753 3625 0
3753 169 -3625 0
-3893 159 0
-3893 3829 0
3893 -159 -3829 0
-4021 160 0
-4021 3893 0
4021 -160 -3893 0
-4149 -161 0
-4149 4021 0
4149 161 -4021 0
-4289 151 0
-4289 4225 0
4289 -151 -4225 0
-4417 152 0
-4417 4289 0
4417 -152 -4289 0
-4545 -153 0
-4545 4417 0
4545 153 -4417 0
-4689 -4149 0
-4689 -4545 0
4689 4149 4545 0
-4833 -3753 0
-4833 4689 0
4833 3753 -4689 0
-4977 -3357 0
-4977 4833 0
4977 3357 -4833 0
-5121 -2961 0
-5121 4977 0
5121 2961 -4977 0
-5265 -2565 0
-5265 5121 0
5265 2565 -5121 0
-5409 -2169 0
-5409 5265 0
5409 2169 -5265 0
-5553 -1773 0
-5553 5409 0
5553 1773 -5409 0
-5697 -1377 0
-5697 5553 0
5697 1377 -5553 0
-5841 -981 0
-5841 5697 0
5841 981 -5697 0
-5985 -585 0
-5985 5841 0
5985 585 -5841 0
-6327 101 0
-6327 5985 0
6327 -101 -5985 0
-6328 -101 0
-6328 -5985 0
6328 101 5985 0
-6329 -6327 0
-6329 -6328 0
6329 6327 6328 0
100 -18890 0
-100 18890 0
-328 231 0
-328 264 0
328 -231 -264 0
-456 232 0
-456 328 0
456 -232 -328 0
-584 -233 0
-584 456 0
584 233 -456 0
-724 223 0
-724 660 0
724 -223 -660 0
-852 224 0
-852 724 0
852 -224 -724 0
-980 -225 0
-980 852 0
980 225 -852 0
-1120 215 0
-1120 1056 0
1120 -215 -1056 0
-1248 216 0
-1248 1120 0
1248 -216 -1120 0
-1376 -217 0
-1376 1248 0
1376 217 -1248 0
-1516 207 0
-1516 1452 0
1516 -207 -1452 0
-1644 208 0
-1644 1516 0
1644 -208 -1516 0
-1772 -209 0
-1772 1644 0
1772 209 -1644 0
-1912 199 0
-1912 1848 0
1912 -199 -1848 0
-2040 200 0
-2040 1912 0
2040 -200 -1912 0
-2168 -201 0
-2168 2040 0
2168 201 -2040 0
-2308 191 0
-2308 2244 0
2308 -191 -2244 0
-2436 192 0
-2436 2308 0
2436 -192 -2308 0
-2564 -193 0
-2564 2436 0
2564 193 -2436 0
-2704 183 0
-2704 2640 0
2704 -183 -2640 0
-2832 184 0
-2832 2704 0
2832 -184 -2704 0
-2960 -185 0
-2960 2832 0
2960 185 -2832 0
-3100 175 0
-3100 3036 0
3100 -175 -3036 0
-3228 176 0
-3228 3100 0
3228 -176 -3100 0
-3356 -177 0
-3356 3228 0
3356 177 -3228 0
-3496 167 0
-3496 3432 0
3496 -167 -3432 0
-3624 168 0
-3624 3496 0
3624 -168 -3496 0
-3752 -169 0
-3752 3624 0
3752 169 -3624 0
-3892 159 0
-3892 3828 0
3892 -159 -3828 0
-4020 160 0
-4020 3892 0
4020 -160 -3892 0
-4148 -161 0
-4148 4020 0
4148 161 -4020 0
-4288 151 0
-4288 4224 0
4288 -151 -4224 0
-4416 152 0
-4416 4288 0
4416 -152 -4288 0
-4544 -153 0
-4544 4416 0
4544 153 -4416 0
-4688 -4148 0
-4688 -4544 0
4688 4148 4544 0
-4832 -3752 0
-4832 4688 0
4832 3752 -4688 0
-4976 -3356 0
-4976 4832 0
4976 3356 -4832 0
-5120 -2960 0
-5120 4976 0
5120 2960 -4976 0
-5264 -2564 0
-5264 5120 0
5264 2564 -5120 0
-5408 -2168 0
-5408 5264 0
5408 2168 -5264 0
-5552 -1772 0
-5552 5408 0
5552 1772 -5408 0
-5696 -1376 0
-5696 5552 0
5696 1376 -5552 0
-5840 -980 0
-5840 5696 0
5840 980 -5696 0
-5984 -584 0
-5984 5840 0
5984 584 -5840 0
-6324 100 0
-6324 5984 0
6324 -100 -5984 0
-6325 -100 0
-6325 -5984 0
6325 100 5984 0
-6326 -6324 0
-6326 -6325 0
6326 6324 6325 0
99 -18889 0
-99 18889 0
-327 231 0
-327 263 0
327 -231 -263 0
-455 232 0
-455 327 0
455 -232 -327 0
-583 -233 0
-583 455 0
583 233 -455 0
-723 223 0
-723 659 0
723 -223 -659 0
-851 224 0
-851 723 0
851 -224 -723 0
-979 -225 0
-979 851 0
979 225 -851 0
-1119 215 0
-1119 1055 0
1119 -215 -1055 0
-1247 216 0
-1247 1119 0
1247 -216 -1119 0
-1375 -217 0
-1375 1247 0
1375 217 -1247 0
-1515 207 0
-1515 1451 0
1515 -207 -1451 0
-1643 208 0
-1643 1515 0
1643 -208 -1515 0
-1771 -209 0
-1771 1643 0
1771 209 -1643 0
-1911 199 0
-1911 1847 0
1911 -199 -1847 0
-2039 200 0
-2039 1911 0
2039 -200 -1911 0
-2167 -201 0
-2167 2039 0
2167 201 -2039 0
-2307 191 0
-2307 2243 0
2307 -191 -2243 0
-2435 192 0
-2435 2307 0
2435 -192 -2307 0
-2563 -193 0
-2563 2435 0
2563 193 -2435 0
-2703 183 0
-2703 2639 0
2703 -183 -2639 0
-2831 184 0
-2831 2703 0
2831 -184 -2703 0
-2959 -185 0
-2959 2831 0
2959 185 -2831 0
-3099 175 0
-3099 3035 0
3099 -175 -3035 0
-3227 176 0
-3227 3099 0
3227 -176 -3099 0
-3355 -177 0
-3355 3227 0
3355 177 -3227 0
-3495 167 0
-3495 3431 0
3495 -167 -3431 0
-3623 168 0
-3623 3495 0
3623 -168 -3495 0
-3751 -169 0
-3751 3623 0
3751 169 -3623 0
-3891 159 0
-3891 3827 0
3891 -159 -3827 0
-4019 160 0
-4019 3891 0
4019 -160 -3891 0
-4147 -161 0
-4147 4019 0
4147 161 -4019 0
-4287 151 0
-4287 4223 0
4287 -151 -4223 0
-4415 152 0
-4415 4287 0
4415 -152 -4287 0
-4543 -153 0
-4543 4415 0
4543 153 -4415 0
-4687 -4147 0
-4687 -4543 0
4687 4147 4543 0
-4831 -3751 0
-4831 4687 0
4831 3751 -4687 0
-4975 -3355 0
-4975 4831 0
4975 3355 -4831 0
-5119 -2959 0
-5119 4975 0
5119 2959 -4975 0
-5263 -2563 0
-5263 5119 0
5263 2563 -5119 0
-5407 -2167 0
-5407 5263 0
5407 2167 -5263 0
-5551 -1771 0
-5551 5407 0
5551 1771 -5407 0
-5695 -1375 0
-5695 5551 0
5695 1375 -5551 0
-5839 -979 0
-5839 5695 0
5839 979 -5695 0
-5983 -583 0
-5983 5839 0
5983 583 -5839 0
-6321 99 0
-6321 5983 0
6321 -99 -5983 0
-6322 -99 0
-6322 -5983 0
6322 99 5983 0
-6323 -6321 0
-6323 -6322 0
6323 6321 6322 0
98 -18888 0
-98 18888 0
-326 231 0
-326 262 0
326 -231 -262 0
-454 232 0
-454 326 0
454 -232 -326 0
-582 -233 0
-582 454 0
582 233 -454 0
-722 223 0
-722 658 0
722 -223 -658 0
-850 224 0
-850 722 0
850 -224 -722 0
-978 -225 0
-978 850 0
978 225 -850 0
-1118 215 0
-1118 1054 0
1118 -215 -1054 0
-1246 216 0
-1246 1118 0
1246 -216 -1118 0
-1374 -217 0
-1374 1246 0
1374 217 -1246 0
-1514 207 0
-1514 1450 0
1514 -207 -1450 0
-1642 208 0
-1642 1514 0
1642 -208 -1514 0
-1770 -209 0
-1770 1642 0
1770 209 -1642 0
-1910 199 0
-1910 1846 0
1910 -199 -1846 0
-2038 200 0
-2038 1910 0
2038 -200 -1910 0
-2166 -201 0
-2166 2038 0
2166 201 -2038 0
-2306 191 0
-2306 2242 0
2306 -191 -2242 0
-2434 192 0
-2434 2306 0
2434 -192 -2306 0
-2562 -193 0
-2562 2434 0
2562 193 -2434 0
-2702 183 0
-2702 2638 0
2702 -183 -2638 0
-2830 184 0
-2830 2702 0
2830 -184 -2702 0
-2958 -185 0
-2958 2830 0
2958 185 -2830 0
-3098 175 0
-3098 3034 0
3098 -175 -3034 0
-3226 176 0
-3226 3098 0
3226 -176 -3098 0
-3354 -177 0
-3354 3226 0
3354 177 -3226 0
-3494 167 0
-3494 3430 0
3494 -167 -3430 0
-3622 168 0
-3622 3494 0
3622 -168 -3494 0
-3750 -169 0
-3750 3622 0
3750 169 -3622 0
-3890 159 0
-3890 3826 0
3890 -159 -3826 0
-4018 160 0
-4018 3890 0
4018 -160 -3890 0
-4146 -161 0
-4146 4018 0
4146 161 -4018 0
-4286 151 0
-4286 4222 0
4286 -151 -4222 0
-4414 152 0
-4414 4286 0
4414 -152 -4286 0
-4542 -153 0
-4542 4414 0
4542 153 -4414 0
-4686 -4146 0
-4686 -4542 0
4686 4146 4542 0
-4830 -3750 0
-4830 4686 0
4830 3750 -4686 0
-4974 -3354 0
-4974 4830 0
4974 3354 -4830 0
-5118 -2958 0
-5118 4974 0
5118 2958 -4974 0
-5262 -2562 0
-5262 5118 0
5262 2562 -5118 0
-5406 -2166 0
-5406 5262 0
5406 2166 -5262 0
-5550 -1770 0
-5550 5406 0
5550 1770 -5406 0
-5694 -1374 0
-5694 5550 0
5694 1374 -5550 0
-5838 -978 0
-5838 5694 0
5838 978 -5694 0
-5982 -582 0
-5982 5838 0
5982 582 -5838 0
-6318 98 0
-6318 5982 0
6318 -98 -5982 0
-6319 -98 0
-6319 -5982 0
6319 98 5982 0
-6320 -6318 0
-6320 -6319 0
6320 6318 6319 0
97 -18887 0
-97 18887 0
-325 -231 0
-325 293 0
325 231 -293 0
-453 232 0
-453 325 0
453 -232 -325 0
-581 -233 0
-581 453 0
581 233 -453 0
-721 -223 0
-721 689 0
721 223 -689 0
-849 224 0
-849 721 0
849 -224 -721 0
-977 -225 0
-977 849 0
977 225 -849 0
-1117 -215 0
-1117 1085 0
1117 215 -1085 0
-1245 216 0
-1245 1117 0
1245 -216 -1117 0
-1373 -217 0
-1373 1245 0
1373 217 -1245 0
-1513 -207 0
-1513 1481 0
1513 207 -1481 0
-1641 208 0
-1641 1513 0
1641 -208 -1513 0
-1769 -209 0
-1769 1641 0
1769 209 -1641 0
-1909 -199 0
-1909 1877 0
1909 199 -1877 0
-2037 200 0
-2037 1909 0
2037 -200 -1909 0
-2165 -201 0
-2165 2037 0
2165 201 -2037 0
-2305 -191 0
-2305 2273 0
2305 191 -2273 0
-2433 192 0
-2433 2305 0
2433 -192 -2305 0
-2561 -193 0
-2561 2433 0
2561 193 -2433 0
-2701 -183 0
-2701 2669 0
2701 183 -2669 0
-2829 184 0
-2829 2701 0
2829 -184 -2701 0
-2957 -185 0
-2957 2829 0
2957 185 -2829 0
-3097 -175 0
-3097 3065 0
3097 175 -3065 0
-3225 176 0
-3225 3097 0
3225 -176 -3097 0
-3353 -177 0
-3353 3225 0
3353 177 -3225 0
-3493 -167 0
-3493 3461 0
3493 167 -3461 0
-3621 168 0
-3621 3493 0
3621 -168 -3493 0
-3749 -169 0
-3749 3621 0
3749 169 -3621 0
-3889 -159 0
-3889 3857 0
3889 159 -3857 0
-4017 160 0
-4017 3889 0
4017 -160 -3889 0
-4145 -161 0
-4145 4017 0
4145 161 -4017 0
-4285 -151 0
-4285 4253 0
4285 151 -4253 0
-4413 152 0
-4413 4285 0
4413 -152 -4285 0
-4541 -153 0
-4541 4413 0
4541 153 -4413 0
-4685 -4145 0
-4685 -4541 0
4685 4145 4541 0
-4829 -3749 0
-4829 4685 0
4829 3749 -4685 0
-4973 -3353 0
-4973 4829 0
4973 3353 -4829 0
-5117 -2957 0
-5117 4973 0
5117 2957 -4973 0
-5261 -2561 0
-5261 5117 0
5261 2561 -5117 0
-5405 -2165 0
-5405 5261 0
5405 2165 -5261 0
-5549 -1769 0
-5549 5405 0
5549 1769 -5405 0
-5693 -1373 0
-5693 5549 0
5693 1373 -5549 0
-5837 -977 0
-5837 5693 0
5837 977 -5693 0
-5981 -581 0
-5981 5837 0
5981 581 -5837 0
-6315 97 0
-6315 5981 0
6315 -97 -5981 0
-6316 -97 0
-6316 -5981 0
6316 97 5981 0
-6317 -6315 0
-6317 -6316 0
6317 6315 6316 0
96 -18886 0
-96 18886 0
-324 -231 0
-324 292 0
324 231 -292 0
-452 232 0
-452 324 0
452 -232 -324 0
-580 -233 0
-580 452 0
580 233 -452 0
-720 -223 0
-720 688 0
720 223 -688 0
-848 224 0
-848 720 0
848 -224 -720 0
-976 -225 0
-976 848 0
976 225 -848 0
-1116 -215 0
-1116 1084 0
1116 215 -1084 0
-1244 216 0
-1244 1116 0
1244 -216 -1116 0
-1372 -217 0
-1372 1244 0
1372 217 -1244 0
-1512 -207 0
-1512 1480 0
1512 207 -1480 0
-1640 208 0
-1640 1512 0
1640 -208 -1512 0
-1768 -209 0
-1768 1640 0
1768 209 -1640 0
-1908 -199 0
-1908 1876 0
1908 199 -1876 0
-2036 200 0
-2036 1908 0
2036 -200 -1908 0
-2164 -201 0
-2164 2036 0
2164 201 -2036 0
-2304 -191 0
-2304 2272 0
2304 191 -2272 0
-2432 192 0
-2432 2304 0
2432 -192 -2304 0
-2560 -193 0
-2560 2432 0
2560 193 -2432 0
-2700 -183 0
-2700 2668 0
2700 183 -2668 0
-2828 184 0
-2828 2700 0
2828 -184 -2700 0
-2956 -185 0
-2956 2828 0
2956 185 -2828 0
-3096 -175 0
-3096 3064 0
3096 175 -3064 0
-3224 176 0
-3224 3096 0
3224 -176 -3096 0
-3352 -177 0
-3352 3224 0
3352 177 -3224 0
-3492 -167 0
-3492 3460 0
3492 167 -3460 0
-3620 168 0
-3620 3492 0
3620 -168 -3492 0
-3748 -169 0
-3748 3620 0
3748 169 -3620 0
-3888 -159 0
-3888 3856 0
3888 159 -3856 0
-4016 160 0
-4016 3888 0
4016 -160 -3888 0
-4144 -161 0
-4144 4016 0
4144 161 -4016 0
-4284 -151 0
-4284 4252 0
4284 151 -4252 0
-4412 152 0
-4412 4284 0
4412 -152 -4284 0
-4540 -153 0
-4540 4412 0
4540 153 -4412 0
-4684 -4144 0
-4684 -4540 0
4684 4144 4540 0
-4828 -3748 0
-4828 4684 0
4828 3748 -4684 0
-4972 -3352 0
-4972 4828 0
4972 3352 -4828 0
-5116 -2956 0
-5116 4972 0
5116 2956 -4972 0
-5260 -2560 0
-5260 5116 0
5260 2560 -5116 0
-5404 -2164 0
-5404 5260 0
5404 2164 -5260 0
-5548 -1768 0
-5548 5404 0
5548 1768 -5404 0
-5692 -1372 0
-5692 5548 0
5692 1372 -5548 0
-5836 -976 0
-5836 5692 0
5836 976 -5692 0
-5980 -580 0
-5980 5836 0
5980 580 -5836 0
-6312 96 0
-6312 5980 0
6312 -96 -5980 0
-6313 -96 0
-6313 -5980 0
6313 96 5980 0
-6314 -6312 0
-6314 -6313 0
6314 6312 6313 0
95 -18885 0
-95 18885 0
-323 -231 0
-323 291 0
323 231 -291 0
-451 232 0
-451 323 0
451 -232 -323 0
-579 -233 0
-579 451 0
579 233 -451 0
-719 -223 0
-719 687 0
719 223 -687 0
-847 224 0
-847 719 0
847 -224 -719 0
-975 -225 0
-975 847 0
975 225 -847 0
-1115 -215 0
-1115 1083 0
1115 215 -1083 0
-1243 216 0
-1243 1115 0
1243 -216 -1115 0
-1371 -217 0
-1371 1243 0
1371 217 -1243 0
-1511 -207 0
-1511 1479 0
1511 207 -1479 0
-1639 208 0
-1639 1511 0
1639 -208 -1511 0
-1767 -209 0
-1767 1639 0
1767 209 -1639 0
-1907 -199 0
-1907 1875 0
1907 199 -1875 0
-2035 200 0
-2035 1907 0
2035 -200 -1907 0
-2163 -201 0
-2163 2035 0
2163 201 -2035 0
-2303 -191 0
-2303 2271 0
2303 191 -2271 0
-2431 192 0
-2431 2303 0
2431 -192 -2303 0
-2559 -193 0
-2559 2431 0
2559 193 -2431 0
-2699 -183 0
-2699 2667 0
2699 183 -2667 0
-2827 184 0
-2827 2699 0
2827 -184 -2699 0
-2955 -185 0
-2955 2827 0
2955 185 -2827 0
-3095 -175 0
-3095 3063 0
3095 175 -3063 0
-3223 176 0
-3223 3095 0
3223 -176 -3095 0
-3351 -177 0
-3351 3223 0
3351 177 -3223 0
-3491 -167 0
-3491 3459 0
3491 167 -3459 0
-3619 168 0
-3619 3491 0
3619 -168 -3491 0
-3747 -169 0
-3747 3619 0
3747 169 -3619 0
-3887 -159 0
-3887 3855 0
3887 159 -3855 0
-4015 160 0
-4015 3887 0
4015 -160 -3887 0
-4143 -161 0
-4143 4015 0
4143 161 -4015 0
-4283 -151 0
-4283 4251 0
4283 151 -4251 0
-4411 152 0
-4411 4283 0
4411 -152 -4283 0
-4539 -153 0
-4539 4411 0
4539 153 -4411 0
-4683 -4143 0
-4683 -4539 0
4683 4143 4539 0
-4827 -3747 0
-4827 4683 0
4827 3747 -4683 0
-4971 -3351 0
-4971 4827 0
4971 3351 -4827 0
-5115 -2955 0
-5115 4971 0
5115 2955 -4971 0
-5259 -2559 0
-5259 5115 0
5259 2559 -5115 0
-5403 -2163 0
-5403 5259 0
5403 2163 -5259 0
-5547 -1767 0
-5547 5403 0
5547 1767 -5403 0
-5691 -1371 0
-5691 5547 0
5691 1371 -5547 0
-5835 -975 0
-5835 5691 0
5835 975 -5691 0
-5979 -579 0
-5979 5835 0
5979 579 -5835 0
-6309 95 0
-6309 5979 0
6309 -95 -5979 0
-6310 -95 0
-6310 -5979 0
6310 95 5979 0
-6311 -6309 0
-6311 -6310 0
6311 6309 6310 0
94 -18884 0
-94 18884 0
-322 -231 0
-322 290 0
322 231 -290 0
-450 232 0
-450 322 0
450 -232 -322 0
-578 -233 0
-578 450 0
578 233 -450 0
-718 -223 0
-718 686 0
718 223 -686 0
-846 224 0
-846 718 0
846 -224 -718 0
-974 -225 0
-974 846 0
974 225 -846 0
-1114 -215 0
-1114 1082 0
1114 215 -1082 0
-1242 216 0
-1242 1114 0
1242 -216 -1114 0
-1370 -217 0
-1370 1242 0
1370 217 -1242 0
-1510 -207 0
-1510 1478 0
1510 207 -1478 0
-1638 208 0
-1638 1510 0
1638 -208 -1510 0
-1766 -209 0
-1766 1638 0
1766 209 -1638 0
-1906 -199 0
-1906 1874 0
1906 199 -1874 0
-2034 200 0
-2034 1906 0
2034 -200 -1906 0
-2162 -201 0
-2162 2034 0
2162 201 -2034 0
-2302 -191 0
-2302 2270 0
2302 191 -2270 0
-2430 192 0
-2430 2302 0
2430 -192 -2302 0
-2558 -193 0
-2558 2430 0
2558 193 -2430 0
-2698 -183 0
-2698 2666 0
2698 183 -2666 0
-2826 184 0
-2826 2698 0
2826 -184 -2698 0
-2954 -185 0
-2954 2826 0
2954 185 -2826 0
-3094 -175 0
-3094 3062 0
3094 175 -3062 0
-3222 176 0
-3222 3094 0
3222 -176 -3094 0
-3350 -177 0
-3350 3222 0
3350 177 -3222 0
-3490 -167 0
-3490 3458 0
3490 167 -3458 0
-3618 168 0
-3618 3490 0
3618 -168 -3490 0
-3746 -169 0
-3746 3618 0
3746 169 -3618 0
-3886 -159 0
-3886 3854 0
3886 159 -3854 0
-4014 160 0
-4014 3886 0
4014 -160 -3886 0
-4142 -161 0
-4142 4014 0
4142 161 -4014 0
-4282 -151 0
-4282 4250 0
4282 151 -4250 0
-4410 152 0
-4410 4282 0
4410 -152 -4282 0
-4538 -153 0
-4538 4410 0
4538 153 -4410 0
-4682 -4142 0
-4682 -4538 0
4682 4142 4538 0
-4826 -3746 0
-4826 4682 0
4826 3746 -4682 0
-4970 -3350 0
-4970 4826 0
4970 3350 -4826 0
-5114 -2954 0
-5114 4970 0
5114 2954 -4970 0
-5258 -2558 0
-5258 5114 0
5258 2558 -5114 0
-5402 -2162 0
-5402 5258 0
5402 2162 -5258 0
-5546 -1766 0
-5546 5402 0
5546 1766 -5402 0
-5690 -1370 0
-5690 5546 0
5690 1370 -5546 0
-5834 -974 0
-5834 5690 0
5834 974 -5690 0
-5978 -578 0
-5978 5834 0
5978 578 -5834 0
-6306 94 0
-6306 5978 0
6306 -94 -5978 0
-6307 -94 0
-6307 -5978 0
6307 94 5978 0
-6308 -6306 0
-6308 -6307 0
6308 6306 6307 0
93 -18883 0
-93 18883 0
-321 -231 0
-321 289 0
321 231 -289 0
-449 232 0
-449 321 0
449 -232 -321 0
-577 -233 0
-577 449 0
577 233 -449 0
-717 -223 0
-717 685 0
717 223 -685 0
-845 224 0
-845 717 0
845 -224 -717 0
-973 -225 0
-973 845 0
973 225 -845 0
-1113 -215 0
-1113 1081 0
1113 215 -1081 0
-1241 216 0
-1241 1113 0
1241 -216 -1113 0
-1369 -217 0
-1369 1241 0
1369 217 -1241 0
-1509 -207 0
-1509 1477 0
1509 207 -1477 0
-1637 208 0
-1637 1509 0
1637 -208 -1509 0
-1765 -209 0
-1765 1637 0
1765 209 -1637 0
-1905 -199 0
-1905 1873 0
1905 199 -1873 0
-2033 200 0
-2033 1905 0
2033 -200 -1905 0
-2161 -201 0
-2161 2033 0
2161 201 -2033 0
-2301 -191 0
-2301 2269 0
2301 191 -2269 0
-2429 192 0
-2429 2301 0
2429 -192 -2301 0
-2557 -193 0
-2557 2429 0
2557 193 -2429 0
-2697 -183 0
-2697 2665 0
2697 183 -2665 0
-2825 184 0
-2825 2697 0
2825 -184 -2697 0
-2953 -185 0
-2953 2825 0
2953 185 -2825 0
-3093 -175 0
-3093 3061 0
3093 175 -3061 0
-3221 176 0
-3221 3093 0
3221 -176 -3093 0
-3349 -177 0
-3349 3221 0
3349 177 -3221 0
-3489 -167 0
-3489 3457 0
3489 167 -3457 0
-3617 168 0
-3617 3489 0
3617 -168 -3489 0
-3745 -169 0
-3745 3617 0
3745 169 -3617 0
-3885 -159 0
-3885 3853 0
3885 159 -3853 0
-4013 160 0
-4013 3885 0
4013 -160 -3885 0
-4141 -161 0
-4141 4013 0
4141 161 -4013 0
-4281 -151 0
-4281 4249 0
4281 151 -4249 0
-4409 152 0
-4409 4281 0
4409 -152 -4281 0
-4537 -153 0
-4537 4409 0
4537 153 -4409 0
-4681 -4141 0
-4681 -4537 0
4681 4141 4537 0
-4825 -3745 0
-4825 4681 0
4825 3745 -4681 0
-4969 -3349 0
-4969 4825 0
4969 3349 -4825 0
-5113 -2953 0
-5113 4969 0
5113 2953 -4969 0
-5257 -2557 0
-5257 5113 0
5257 2557 -5113 0
-5401 -2161 0
-5401 5257 0
5401 2161 -5257 0
-5545 -1765 0
-5545 5401 0
5545 1765 -5401 0
-5689 -1369 0
-5689 5545 0
5689 1369 -5545 0
-5833 -973 0
-5833 5689 0
5833 973 -5689 0
-5977 -577 0
-5977 5833 0
5977 577 -5833 0
-6303 93 0
-6303 5977 0
6303 -93 -5977 0
-6304 -93 0
-6304 -5977 0
6304 93 5977 0
-6305 -6303 0
-6305 -6304 0
6305 6303 6304 0
92 -18882 0
-92 18882 0
-320 -231 0
-320 288 0
320 231 -288 0
-448 232 0
-448 320 0
448 -232 -320 0
-576 -233 0
-576 448 0
576 233 -448 0
-716 -223 0
-716 684 0
716 223 -684 0
-844 224 0
-844 716 0
844 -224 -716 0
-972 -225 0
-972 844 0
972 225 -844 0
-1112 -215 0
-1112 1080 0
1112 215 -1080 0
-1240 216 0
-1240 1112 0
1240 -216 -1112 0
-1368 -217 0
-1368 1240 0
1368 217 -1240 0
-1508 -207 0
-1508 1476 0
1508 207 -1476 0
-1636 208 0
-1636 1508 0
1636 -208 -1508 0
-1764 -209 0
-1764 1636 0
1764 209 -1636 0
-1904 -199 0
-1904 1872 0
1904 199 -1872 0
-2032 200 0
-2032 1904 0
2032 -200 -1904 0
-2160 -201 0
-2160 2032 0
2160 201 -2032 0
-2300 -191 0
-2300 2268 0
2300 191 -2268 0
-2428 192 0
-2428 2300 0
2428 -192 -2300 0
-2556 -193 0
-2556 2428 0
2556 193 -2428 0
-2696 -183 0
-2696 2664 0
2696 183 -2664 0
-2824 184 0
-2824 2696 0
2824 -184 -2696 0
-2952 -185 0
-2952 2824 0
2952 185 -2824 0
-3092 -175 0
-3092 3060 0
3092 175 -3060 0
-3220 176 0
-3220 3092 0
3220 -176 -3092 0
-3348 -177 0
-3348 3220 0
3348 177 -3220 0
-3488 -167 0
-3488 3456 0
3488 167 -3456 0
-3616 168 0
-3616 3488 0
3616 -168 -3488 0
-3744 -169 0
-3744 3616 0
3744 169 -3616 0
-3884 -159 0
-3884 3852 0
3884 159 -3852 0
-4012 160 0
-4012 3884 0
4012 -160 -3884 0
-4140 -161 0
-4140 4012 0
4140 161 -4012 0
-4280 -151 0
-4280 4248 0
4280 151 -4248 0
-4408 152 0
-4408 4280 0
4408 -152 -4280 0
-4536 -153 0
-4536 4408 0
4536 153 -4408 0
-4680 -4140 0
-4680 -4536 0
4680 4140 4536 0
-4824 -3744 0
-4824 4680 0
4824 3744 -4680 0
-4968 -3348 0
-4968 4824 0
4968 3348 -4824 0
-5112 -2952 0
-5112 4968 0
5112 2952 -4968 0
-5256 -2556 0
-5256 5112 0
5256 2556 -5112 0
-5400 -2160 0
-5400 5256 0
5400 2160 -5256 0
-5544 -1764 0
-5544 5400 0
5544 1764 -5400 0
-5688 -1368 0
-5688 5544 0
5688 1368 -5544 0
-5832 -972 0
-5832 5688 0
5832 972 -5688 0
-5976 -576 0
-5976 5832 0
5976 576 -5832 0
-6300 92 0
-6300 5976 0
6300 -92 -5976 0
-6301 -92 0
-6301 -5976 0
6301 92 5976 0
-6302 -6300 0
-6302 -6301 0
6302 6300 6301 0
91 -18881 0
-91 18881 0
-319 -231 0
-319 287 0
319 231 -287 0
-447 232 0
-447 319 0
447 -232 -319 0
-575 -233 0
-575 447 0
575 233 -447 0
-715 -223 0
-715 683 0
715 223 -683 0
-843 224 0
-843 715 0
843 -224 -715 0
-971 -225 0
-971 843 0
971 225 -843 0
-1111 -215 0
-1111 1079 0
1111 215 -1079 0
-1239 216 0
-1239 1111 0
1239 -216 -1111 0
-1367 -217 0
-1367 1239 0
1367 217 -1239 0
-1507 -207 0
-1507 1475 0
1507 207 -1475 0
-1635 208 0
-1635 1507 0
1635 -208 -1507 0
-1763 -209 0
-1763 1635 0
1763 209 -1635 0
-1903 -199 0
-1903 1871 0
1903 199 -1871 0
-2031 200 0
-2031 1903 0
2031 -200 -1903 0
-2159 -201 0
-2159 2031 0
2159 201 -2031 0
-2299 -191 0
-2299 2267 0
2299 191 -2267 0
-2427 192 0
-2427 2299 0
2427 -192 -2299 0
-2555 -193 0
-2555 2427 0
2555 193 -2427 0
-2695 -183 0
-2695 2663 0
2695 183 -2663 0
-2823 184 0
-2823 2695 0
2823 -184 -2695 0
-2951 -185 0
-2951 2823 0
2951 185 -2823 0
-3091 -175 0
-3091 3059 0
3091 175 -3059 0
-3219 176 0
-3219 3091 0
3219 -176 -3091 0
-3347 -177 0
-3347 3219 0
3347 177 -3219 0
-3487 -167 0
-3487 3455 0
3487 167 -3455 0
-3615 168 0
-3615 3487 0
3615 -168 -3487 0
-3743 -169 0
-3743 3615 0
3743 169 -3615 0
-3883 -159 0
-3883 3851 0
3883 159 -3851 0
-4011 160 0
-4011 3883 0
4011 -160 -3883 0
-4139 -161 0
-4139 4011 0
4139 161 -4011 0
-4279 -151 0
-4279 4247 0
4279 151 -4247 0
-4407 152 0
-4407 4279 0
4407 -152 -4279 0
-4535 -153 0
-4535 4407 0
4535 153 -4407 0
-4679 -4139 0
-4679 -4535 0
4679 4139 4535 0
-4823 -3743 0
-4823 4679 0
4823 3743 -4679 0
-4967 -3347 0
-4967 4823 0
4967 3347 -4823 0
-5111 -2951 0
-5111 4967 0
5111 2951 -4967 0
-5255 -2555 0
-5255 5111 0
5255 2555 -5111 0
-5399 -2159 0
-5399 5255 0
5399 2159 -5255 0
-5543 -1763 0
-5543 5399 0
5543 1763 -5399 0
-5687 -1367 0
-5687 5543 0
5687 1367 -5543 0
-5831 -971 0
-5831 5687 0
5831 971 -5687 0
-5975 -575 0
-5975 5831 0
5975 575 -5831 0
-6297 91 0
-6297 5975 0
6297 -91 -5975 0
-6298 -91 0
-6298 -5975 0
6298 91 5975 0
-6299 -6297 0
-6299 -6298 0
6299 6297 6298 0
90 -18880 0
-90 18880 0
-318 -231 0
-318 286 0
318 231 -286 0
-446 232 0
-446 318 0
446 -232 -318 0
-574 -233 0
-574 446 0
574 233 -446 0
-714 -223 0
-714 682 0
714 223 -682 0
-842 224 0
-842 714 0
842 -224 -714 0
-970 -225 0
-970 842 0
970 225 -842 0
-1110 -215 0
-1110 1078 0
1110 215 -1078 0
-1238 216 0
-1238 1110 0
1238 -216 -1110 0
-1366 -217 0
-1366 1238 0
1366 217 -1238 0
-1506 -207 0
-1506 1474 0
1506 207 -1474 0
-1634 208 0
-1634 1506 0
1634 -208 -1506 0
-1762 -209 0
-1762 1634 0
1762 209 -1634 0
-1902 -199 0
-1902 1870 0
1902 199 -1870 0
-2030 200 0
-2030 1902 0
2030 -200 -1902 0
-2158 -201 0
-2158 2030 0
2158 201 -2030 0
-2298 -191 0
-2298 2266 0
2298 191 -2266 0
-2426 192 0
-2426 2298 0
2426 -192 -2298 0
-2554 -193 0
-2554 2426 0
2554 193 -2426 0
-2694 -183 0
-2694 2662 0
2694 183 -2662 0
-2822 184 0
-2822 2694 0
2822 -184 -2694 0
-2950 -185 0
-2950 2822 0
2950 185 -2822 0
-3090 -175 0
-3090 3058 0
3090 175 -3058 0
-3218 176 0
-3218 3090 0
3218 -176 -3090 0
-3346 -177 0
-3346 3218 0
3346 177 -3218 0
-3486 -167 0
-3486 3454 0
3486 167 -3454 0
-3614 168 0
-3614 3486 0
3614 -168 -3486 0
-3742 -169 0
-3742 3614 0
3742 169 -3614 0
-3882 -159 0
-3882 3850 0
3882 159 -3850 0
-4010 160 0
-4010 3882 0
4010 -160 -3882 0
-4138 -161 0
-4138 4010 0
4138 161 -4010 0
-4278 -151 0
-4278 4246 0
4278 151 -4246 0
-4406 152 0
-4406 4278 0
4406 -152 -4278 0
-4534 -153 0
-4534 4406 0
4534 153 -4406 0
-4678 -4138 0
-4678 -4534 0
4678 4138 4534 0
-4822 -3742 0
-4822 4678 0
4822 3742 -4678 0
-4966 -3346 0
-4966 4822 0
4966 3346 -4822 0
-5110 -2950 0
-5110 4966 0
5110 2950 -4966 0
-5254 -2554 0
-5254 5110 0
5254 2554 -5110 0
-5398 -2158 0
-5398 5254 0
5398 2158 -5254 0
-5542 -1762 0
-5542 5398 0
5542 1762 -5398 0
-5686 -1366 0
-5686 5542 0
5686 1366 -5542 0
-5830 -970 0
-5830 5686 0
5830 970 -5686 0
-5974 -574 0
-5974 5830 0
5974 574 -5830 0
-6294 90 0
-6294 5974 0
6294 -90 -5974 0
-6295 -90 0
-6295 -5974 0
6295 90 5974 0
-6296 -6294 0
-6296 -6295 0
6296 6294 6295 0
89 -18879 0
-89 18879 0
-317 -231 0
-317 285 0
317 231 -285 0
-445 232 0
-445 317 0
445 -232 -317 0
-573 -233 0
-573 445 0
573 233 -445 0
-713 -223 0
-713 681 0
713 223 -681 0
-841 224 0
-841 713 0
841 -224 -713 0
-969 -225 0
-969 841 0
969 225 -841 0
-1109 -215 0
-1109 1077 0
1109 215 -1077 0
-1237 216 0
-1237 1109 0
1237 -216 -1109 0
-1365 -217 0
-1365 1237 0
1365 217 -1237 0
-1505 -207 0
-1505 1473 0
1505 207 -1473 0
-1633 208 0
-1633 1505 0
1633 -208 -1505 0
-1761 -209 0
-1761 1633 0
1761 209 -1633 0
-1901 -199 0
-1901 1869 0
1901 199 -1869 0
-2029 200 0
-2029 1901 0
2029 -200 -1901 0
-2157 -201 0
-2157 2029 0
2157 201 -2029 0
-2297 -191 0
-2297 2265 0
2297 191 -2265 0
-2425 192 0
-2425 2297 0
2425 -192 -2297 0
-2553 -193 0
-2553 2425 0
2553 193 -2425 0
-2693 -183 0
-2693 2661 0
2693 183 -2661 0
-2821 184 0
-2821 2693 0
2821 -184 -2693 0
-2949 -185 0
-2949 2821 0
2949 185 -2821 0
-3089 -175 0
-3089 3057 0
3089 175 -3057 0
-3217 176 0
-3217 3089 0
3217 -176 -3089 0
-3345 -177 0
-3345 3217 0
3345 177 -3217 0
-3485 -167 0
-3485 3453 0
3485 167 -3453 0
-3613 168 0
-3613 3485 0
3613 -168 -3485 0
-3741 -169 0
-3741 3613 0
3741 169 -3613 0
-3881 -159 0
-3881 3849 0
3881 159 -3849 0
-4009 160 0
-4009 3881 0
4009 -160 -3881 0
-4137 -161 0
-4137 4009 0
4137 161 -4009 0
-4277 -151 0
-4277 4245 0
4277 151 -4245 0
-4405 152 0
-4405 4277 0
4405 -152 -4277 0
-4533 -153 0
-4533 4405 0
4533 153 -4405 0
-4677 -4137 0
-4677 -4533 0
4677 4137 4533 0
-4821 -3741 0
-4821 4677 0
4821 3741 -4677 0
-4965 -3345 0
-4965 4821 0
4965 3345 -4821 0
-5109 -2949 0
-5109 4965 0
5109 2949 -4965 0
-5253 -2553 0
-5253 5109 0
5253 2553 -5109 0
-5397 -2157 0
-5397 5253 0
5397 2157 -5253 0
-5541 -1761 0
-5541 5397 0
5541 1761 -5397 0
-5685 -1365 0
-5685 5541 0
5685 1365 -5541 0
-5829 -969 0
-5829 5685 0
5829 969 -5685 0
-5973 -573 0
-5973 5829 0
5973 573 -5829 0
-6291 89 0
-6291 5973 0
6291 -89 -5973 0
-6292 -89 0
-6292 -5973 0
6292 89 5973 0
-6293 -6291 0
-6293 -6292 0
6293 6291 6292 0
88 -18878 0
-88 18878 0
-316 -231 0
-316 284 0
316 231 -284 0
-444 232 0
-444 316 0
444 -232 -316 0
-572 -233 0
-572 444 0
572 233 -444 0
-712 -223 0
-712 680 0
712 223 -680 0
-840 224 0
-840 712 0
840 -224 -712 0
-968 -225 0
-968 840 0
968 225 -840 0
-1108 -215 0
-1108 1076 0
1108 215 -1076 0
-1236 216 0
-1236 1108 0
1236 -216 -1108 0
-1364 -217 0
-1364 1236 0
1364 217 -1236 0
-1504 -207 0
-1504 1472 0
1504 207 -1472 0
-1632 208 0
-1632 1504 0
1632 -208 -1504 0
-1760 -209 0
-1760 1632 0
1760 209 -1632 0
-1900 -199 0
-1900 1868 0
1900 199 -1868 0
-2028 200 0
-2028 1900 0
2028 -200 -1900 0
-2156 -201 0
-2156 2028 0
2156 201 -2028 0
-2296 -191 0
-2296 2264 0
2296 191 -2264 0
-2424 192 0
-2424 2296 0
2424 -192 -2296 0
-2552 -193 0
-2552 2424 0
2552 193 -2424 0
-2692 -183 0
-2692 2660 0
2692 183 -2660 0
-2820 184 0
-2820 2692 0
2820 -184 -2692 0
-2948 -185 0
-2948 2820 0
2948 185 -2820 0
-3088 -175 0
-3088 3056 0
3088 175 -3056 0
-3216 176 0
-3216 3088 0
3216 -176 -3088 0
-3344 -177 0
-3344 3216 0
3344 177 -3216 0
-3484 -167 0
-3484 3452 0
3484 167 -3452 0
-3612 168 0
-3612 3484 0
3612 -168 -3484 0
-3740 -169 0
-3740 3612 0
3740 169 -3612 0
-3880 -159 0
-3880 3848 0
3880 159 -3848 0
-4008 160 0
-4008 3880 0
4008 -160 -3880 0
-4136 -161 0
-4136 4008 0
4136 161 -4008 0
-4276 -151 0
-4276 4244 0
4276 151 -4244 0
-4404 152 0
-4404 4276 0
4404 -152 -4276 0
-4532 -153 0
-4532 4404 0
4532 153 -4404 0
-4676 -4136 0
-4676 -4532 0
4676 4136 4532 0
-4820 -3740 0
-4820 4676 0
4820 3740 -4676 0
-4964 -3344 0
-4964 4820 0
4964 3344 -4820 0
-5108 -2948 0
-5108 4964 0
5108 2948 -4964 0
-5252 -2552 0
-5252 5108 0
5252 2552 -5108 0
-5396 -2156 0
-5396 5252 0
5396 2156 -5252 0
-5540 -1760 0
-5540 5396 0
5540 1760 -5396 0
-5684 -1364 0
-5684 5540 0
5684 1364 -5540 0
-5828 -968 0
-5828 5684 0
5828 968 -5684 0
-5972 -572 0
-5972 5828 0
5972 572 -5828 0
-6288 88 0
-6288 5972 0
6288 -88 -5972 0
-6289 -88 0
-6289 -5972 0
6289 88 5972 0
-6290 -6288 0
-6290 -6289 0
6290 6288 6289 0
87 -18877 0
-87 18877 0
-315 -231 0
-315 283 0
315 231 -283 0
-443 232 0
-443 315 0
443 -232 -315 0
-571 -233 0
-571 443 0
571 233 -443 0
-711 -223 0
-711 679 0
711 223 -679 0
-839 224 0
-839 711 0
839 -224 -711 0
-967 -225 0
-967 839 0
967 225 -839 0
-1107 -215 0
-1107 1075 0
1107 215 -1075 0
-1235 216 0
-1235 1107 0
1235 -216 -1107 0
-1363 -217 0
-1363 1235 0
1363 217 -1235 0
-1503 -207 0
-1503 1471 0
1503 207 -1471 0
-1631 208 0
-1631 1503 0
1631 -208 -1503 0
-1759 -209 0
-1759 1631 0
1759 209 -1631 0
-1899 -199 0
-1899 1867 0
1899 199 -1867 0
-2027 200 0
-2027 1899 0
2027 -200 -1899 0
-2155 -201 0
-2155 2027 0
2155 201 -2027 0
-2295 -191 0
-2295 2263 0
2295 191 -2263 0
-2423 192 0
-2423 2295 0
2423 -192 -2295 0
-2551 -193 0
-2551 2423 0
2551 193 -2423 0
-2691 -183 0
-2691 2659 0
2691 183 -2659 0
-2819 184 0
-2819 2691 0
2819 -184 -2691 0
-2947 -185 0
-2947 2819 0
2947 185 -2819 0
-3087 -175 0
-3087 3055 0
3087 175 -3055 0
-3215 176 0
-3215 3087 0
3215 -176 -3087 0
-3343 -177 0
-3343 3215 0
3343 177 -3215 0
-3483 -167 0
-3483 3451 0
3483 167 -3451 0
-3611 168 0
-3611 3483 0
3611 -168 -3483 0
-3739 -169 0
-3739 3611 0
3739 169 -3611 0
-3879 -159 0
-3879 3847 0
3879 159 -3847 0
-4007 160 0
-4007 3879 0
4007 -160 -3879 0
-4135 -161 0
-4135 4007 0
4135 161 -4007 0
-4275 -151 0
-4275 4243 0
4275 151 -4243 0
-4403 152 0
-4403 4275 0
4403 -152 -4275 0
-4531 -153 0
-4531 4403 0
4531 153 -4403 0
-4675 -4135 0
-4675 -4531 0
4675 4135 4531 0
-4819 -3739 0
-4819 4675 0
4819 3739 -4675 0
-4963 -3343 0
-4963 4819 0
4963 3343 -4819 0
-5107 -2947 0
-5107 4963 0
5107 2947 -4963 0
-5251 -2551 0
-5251 5107 0
5251 2551 -5107 0
-5395 -2155 0
-5395 5251 0
5395 2155 -5251 0
-5539 -1759 0
-5539 5395 0
5539 1759 -5395 0
-5683 -1363 0
-5683 5539 0
5683 1363 -5539 0
-5827 -967 0
-5827 5683 0
5827 967 -5683 0
-5971 -571 0
-5971 5827 0
5971 571 -5827 0
-6285 87 0
-6285 5971 0
6285 -87 -5971 0
-6286 -87 0
-6286 -5971 0
6286 87 5971 0
-6287 -6285 0
-6287 -6286 0
6287 6285 6286 0
86 -18876 0
-86 18876 0
-314 -231 0
-314 282 0
314 231 -282 0
-442 232 0
-442 314 0
442 -232 -314 0
-570 -233 0
-570 442 0
570 233 -442 0
-710 -223 0
-710 678 0
710 223 -678 0
-838 224 0
-838 710 0
838 -224 -710 0
-966 -225 0
-966 838 0
966 225 -838 0
-1106 -215 0
-1106 1074 0
1106 215 -1074 0
-1234 216 0
-1234 1106 0
1234 -216 -1106 0
-1362 -217 0
-1362 1234 0
1362 217 -1234 0
-1502 -207 0
-1502 1470 0
1502 207 -1470 0
-1630 208 0
-1630 1502 0
1630 -208 -1502 0
-1758 -209 0
-1758 1630 0
1758 209 -1630 0
-1898 -199 0
-1898 1866 0
1898 199 -1866 0
-2026 200 0
-2026 1898 0
2026 -200 -1898 0
-2154 -201 0
-2154 2026 0
2154 201 -2026 0
-2294 -191 0
-2294 2262 0
2294 191 -2262 0
-2422 192 0
-2422 2294 0
2422 -192 -2294 0
-2550 -193 0
-2550 2422 0
2550 193 -2422 0
-2690 -183 0
-2690 2658 0
2690 183 -2658 0
-2818 184 0
-2818 2690 0
2818 -184 -2690 0
-2946 -185 0
-2946 2818 0
2946 185 -2818 0
-3086 -175 0
-3086 3054 0
3086 175 -3054 0
-3214 176 0
-3214 3086 0
3214 -176 -3086 0
-3342 -177 0
-3342 3214 0
3342 177 -3214 0
-3482 -167 0
-3482 3450 0
3482 167 -3450 0
-3610 168 0
-3610 3482 0
3610 -168 -3482 0
-3738 -169 0
-3738 3610 0
3738 169 -3610 0
-3878 -159 0
-3878 3846 0
3878 159 -3846 0
-4006 160 0
-4006 3878 0
4006 -160 -3878 0
-4134 -161 0
-4134 4006 0
4134 161 -4006 0
-4274 -151 0
-4274 4242 0
4274 151 -4242 0
-4402 152 0
-4402 4274 0
4402 -152 -4274 0
-4530 -153 0
-4530 4402 0
4530 153 -4402 0
-4674 -4134 0
-4674 -4530 0
4674 4134 4530 0
-4818 -3738 0
-4818 4674 0
4818 3738 -4674 0
-4962 -3342 0
-4962 4818 0
4962 3342 -4818 0
-5106 -2946 0
-5106 4962 0
5106 2946 -4962 0
-5250 -2550 0
-5250 5106 0
5250 2550 -5106 0
-5394 -2154 0
-5394 5250 0
5394 2154 -5250 0
-5538 -1758 0
-5538 5394 0
5538 1758 -5394 0
-5682 -1362 0
-5682 5538 0
5682 1362 -5538 0
-5826 -966 0
-5826 5682 0
5826 966 -5682 0
-5970 -570 0
-5970 5826 0
5970 570 -5826 0
-6282 86 0
-6282 5970 0
6282 -86 -5970 0
-6283 -86 0
-6283 -5970 0
6283 86 5970 0
-6284 -6282 0
-6284 -6283 0
6284 6282 6283 0
85 -18875 0
-85 18875 0
-313 -231 0
-313 281 0
313 231 -281 0
-441 232 0
-441 313 0
441 -232 -313 0
-569 -233 0
-569 441 0
569 233 -441 0
-709 -223 0
-709 677 0
709 223 -677 0
-837 224 0
-837 709 0
837 -224 -709 0
-965 -225 0
-965 837 0
965 225 -837 0
-1105 -215 0
-1105 1073 0
1105 215 -1073 0
-1233 216 0
-1233 1105 0
1233 -216 -1105 0
-1361 -217 0
-1361 1233 0
1361 217 -1233 0
-1501 -207 0
-1501 1469 0
1501 207 -1469 0
-1629 208 0
-1629 1501 0
1629 -208 -1501 0
-1757 -209 0
-1757 1629 0
1757 209 -1629 0
-1897 -199 0
-1897 1865 0
1897 199 -1865 0
-2025 200 0
-2025 1897 0
2025 -200 -1897 0
-2153 -201 0
-2153 2025 0
2153 201 -2025 0
-2293 -191 0
-2293 2261 0
2293 191 -2261 0
-2421 192 0
-2421 2293 0
2421 -192 -2293 0
-2549 -193 0
-2549 2421 0
2549 193 -2421 0
-2689 -183 0
-2689 2657 0
2689 183 -2657 0
-2817 184 0
-2817 2689 0
2817 -184 -2689 0
-2945 -185 0
-2945 2817 0
2945 185 -2817 0
-3085 -175 0
-3085 3053 0
3085 175 -3053 0
-3213 176 0
-3213 3085 0
3213 -176 -3085 0
-3341 -177 0
-3341 3213 0
3341 177 -3213 0
-3481 -167 0
-3481 3449 0
3481 167 -3449 0
-3609 168 0
-3609 3481 0
3609 -168 -3481 0
-3737 -169 0
-3737 3609 0
3737 169 -3609 0
-3877 -159 0
-3877 3845 0
3877 159 -3845 0
-4005 160 0
-4005 3877 0
4005 -160 -3877 0
-4133 -161 0
-4133 4005 0
4133 161 -4005 0
-4273 -151 0
-4273 4241 0
4273 151 -4241 0
-4401 152 0
-4401 4273 0
4401 -152 -4273 0
-4529 -153 0
-4529 4401 0
4529 153 -4401 0
-4673 -4133 0
-4673 -4529 0
4673 4133 4529 0
-4817 -3737 0
-4817 4673 0
4817 3737 -4673 0
-4961 -3341 0
-4961 4817 0
4961 3341 -4817 0
-5105 -2945 0
-5105 4961 0
5105 2945 -4961 0
-5249 -2549 0
-5249 5105 0
5249 2549 -5105 0
-5393 -2153 0
-5393 5249 0
5393 2153 -5249 0
-5537 -1757 0
-5537 5393 0
5537 1757 -5393 0
-5681 -1361 0
-5681 5537 0
5681 1361 -5537 0
-5825 -965 0
-5825 5681 0
5825 965 -5681 0
-5969 -569 0
-5969 5825 0
5969 569 -5825 0
-6279 85 0
-6279 5969 0
6279 -85 -5969 0
-6280 -85 0
-6280 -5969 0
6280 85 5969 0
-6281 -6279 0
-6281 -6280 0
6281 6279 6280 0
84 -18874 0
-84 18874 0
-312 -231 0
-312 280 0
312 231 -280 0
-440 232 0
-440 312 0
440 -232 -312 0
-568 -233 0
-568 440 0
568 233 -440 0
-708 -223 0
-708 676 0
708 223 -676 0
-836 224 0
-836 708 0
836 -224 -708 0
-964 -225 0
-964 836 0
964 225 -836 0
-1104 -215 0
-1104 1072 0
1104 215 -1072 0
-1232 216 0
-1232 1104 0
1232 -216 -1104 0
-1360 -217 0
-1360 1232 0
1360 217 -1232 0
-1500 -207 0
-1500 1468 0
1500 207 -1468 0
-1628 208 0
-1628 1500 0
1628 -208 -1500 0
-1756 -209 0
-1756 1628 0
1756 209 -1628 0
-1896 -199 0
-1896 1864 0
1896 199 -1864 0
-2024 200 0
-2024 1896 0
2024 -200 -1896 0
-2152 -201 0
-2152 2024 0
2152 201 -2024 0
-2292 -191 0
-2292 2260 0
2292 191 -2260 0
-2420 192 0
-2420 2292 0
2420 -192 -2292 0
-2548 -193 0
-2548 2420 0
2548 193 -2420 0
-2688 -183 0
-2688 2656 0
2688 183 -2656 0
-2816 184 0
-2816 2688 0
2816 -184 -2688 0
-2944 -185 0
-2944 2816 0
2944 185 -2816 0
-3084 -175 0
-3084 3052 0
3084 175 -3052 0
-3212 176 0
-3212 3084 0
3212 -176 -3084 0
-3340 -177 0
-3340 3212 0
3340 177 -3212 0
-3480 -167 0
-3480 3448 0
3480 167 -3448 0
-3608 168 0
-3608 3480 0
3608 -168 -3480 0
-3736 -169 0
-3736 3608 0
3736 169 -3608 0
-3876 -159 0
-3876 3844 0
3876 159 -3844 0
-4004 160 0
-4004 3876 0
4004 -160 -3876 0
-4132 -161 0
-4132 4004 0
4132 161 -4004 0
-4272 -151 0
-4272 4240 0
4272 151 -4240 0
-4400 152 0
-4400 4272 0
4400 -152 -4272 0
-4528 -153 0
-4528 4400 0
4528 153 -4400 0
-4672 -4132 0
-4672 -4528 0
4672 4132 4528 0
-4816 -3736 0
-4816 4672 0
4816 3736 -4672 0
-4960 -3340 0
-4960 4816 0
4960 3340 -4816 0
-5104 -2944 0
-5104 4960 0
5104 2944 -4960 0
-5248 -2548 0
-5248 5104 0
5248 2548 -5104 0
-5392 -2152 0
-5392 5248 0
5392 2152 -5248 0
-5536 -1756 0
-5536 5392 0
5536 1756 -5392 0
-5680 -1360 0
-5680 5536 0
5680 1360 -5536 0
-5824 -964 0
-5824 5680 0
5824 964 -5680 0
-5968 -568 0
-5968 5824 0
5968 568 -5824 0
-6276 84 0
-6276 5968 0
6276 -84 -5968 0
-6277 -84 0
-6277 -5968 0
6277 84 5968 0
-6278 -6276 0
-6278 -6277 0
6278 6276 6277 0
83 -18873 0
-83 18873 0
-311 -231 0
-311 279 0
311 231 -279 0
-439 232 0
-439 311 0
439 -232 -311 0
-567 -233 0
-567 439 0
567 233 -439 0
-707 -223 0
-707 675 0
707 223 -675 0
-835 224 0
-835 707 0
835 -224 -707 0
-963 -225 0
-963 835 0
963 225 -835 0
-1103 -215 0
-1103 1071 0
1103 215 -1071 0
-1231 216 0
-1231 1103 0
1231 -216 -1103 0
-1359 -217 0
-1359 1231 0
1359 217 -1231 0
-1499 -207 0
-1499 1467 0
1499 207 -1467 0
-1627 208 0
-1627 1499 0
1627 -208 -1499 0
-1755 -209 0
-1755 1627 0
1755 209 -1627 0
-1895 -199 0
-1895 1863 0
1895 199 -1863 0
-2023 200 0
-2023 1895 0
2023 -200 -1895 0
-2151 -201 0
-2151 2023 0
2151 201 -2023 0
-2291 -191 0
-2291 2259 0
2291 191 -2259 0
-2419 192 0
-2419 2291 0
2419 -192 -2291 0
-2547 -193 0
-2547 2419 0
2547 193 -2419 0
-2687 -183 0
-2687 2655 0
2687 183 -2655 0
-2815 184 0
-2815 2687 0
2815 -184 -2687 0
-2943 -185 0
-2943 2815 0
2943 185 -2815 0
-3083 -175 0
-3083 3051 0
3083 175 -3051 0
-3211 176 0
-3211 3083 0
3211 -176 -3083 0
-3339 -177 0
-3339 3211 0
3339 177 -3211 0
-3479 -167 0
-3479 3447 0
3479 167 -3447 0
-3607 168 0
-3607 3479 0
3607 -168 -3479 0
-3735 -169 0
-3735 3607 0
3735 169 -3607 0
-3875 -159 0
-3875 3843 0
3875 159 -3843 0
-4003 160 0
-4003 3875 0
4003 -160 -3875 0
-4131 -161 0
-4131 4003 0
4131 161 -4003 0
-4271 -151 0
-4271 4239 0
4271 151 -4239 0
-4399 152 0
-4399 4271 0
4399 -152 -4271 0
-4527 -153 0
-4527 4399 0
4527 153 -4399 0
-4671 -4131 0
-4671 -4527 0
4671 4131 4527 0
-4815 -3735 0
-4815 4671 0
4815 3735 -4671 0
-4959 -3339 0
-4959 4815 0
4959 3339 -4815 0
-5103 -2943 0
-5103 4959 0
5103 2943 -4959 0
-5247 -2547 0
-5247 5103 0
5247 2547 -5103 0
-5391 -2151 0
-5391 5247 0
5391 2151 -5247 0
-5535 -1755 0
-5535 5391 0
5535 1755 -5391 0
-5679 -1359 0
-5679 5535 0
5679 1359 -5535 0
-5823 -963 0
-5823 5679 0
5823 963 -5679 0
-5967 -567 0
-5967 5823 0
5967 567 -5823 0
-6273 83 0
-6273 5967 0
6273 -83 -5967 0
-6274 -83 0
-6274 -5967 0
6274 83 5967 0
-6275 -6273 0
-6275 -6274 0
6275 6273 6274 0
82 -18872 0
-82 18872 0
-310 -231 0
-310 278 0
310 231 -278 0
-438 232 0
-438 310 0
438 -232 -310 0
-566 -233 0
-566 438 0
566 233 -438 0
-706 -223 0
-706 674 0
706 223 -674 0
-834 224 0
-834 706 0
834 -224 -706 0
-962 -225 0
-962 834 0
962 225 -834 0
-1102 -215 0
-1102 1070 0
1102 215 -1070 0
-1230 216 0
-1230 1102 0
1230 -216 -1102 0
-1358 -217 0
-1358 1230 0
1358 217 -1230 0
-1498 -207 0
-1498 1466 0
1498 207 -1466 0
-1626 208 0
-1626 1498 0
1626 -208 -1498 0
-1754 -209 0
-1754 1626 0
1754 209 -1626 0
-1894 -199 0
-1894 1862 0
1894 199 -1862 0
-2022 200 0
-2022 1894 0
2022 -200 -1894 0
-2150 -201 0
-2150 2022 0
2150 201 -2022 0
-2290 -191 0
-2290 2258 0
2290 191 -2258 0
-2418 192 0
-2418 2290 0
2418 -192 -2290 0
-2546 -193 0
-2546 2418 0
2546 193 -2418 0
-2686 -183 0
-2686 2654 0
2686 183 -2654 0
-2814 184 0
-2814 2686 0
2814 -184 -2686 0
-2942 -185 0
-2942 2814 0
2942 185 -2814 0
-3082 -175 0
-3082 3050 0
3082 175 -3050 0
-3210 176 0
-3210 3082 0
3210 -176 -3082 0
-3338 -177 0
-3338 3210 0
3338 177 -3210 0
-3478 -167 0
-3478 3446 0
3478 167 -3446 0
-3606 168 0
-3606 3478 0
3606 -168 -3478 0
-3734 -169 0
-3734 3606 0
3734 169 -3606 0
-3874 -159 0
-3874 3842 0
3874 159 -3842 0
-4002 160 0
-4002 3874 0
4002 -160 -3874 0
-4130 -161 0
-4130 4002 0
4130 161 -4002 0
-4270 -151 0
-4270 4238 0
4270 151 -4238 0
-4398 152 0
-4398 4270 0
4398 -152 -4270 0
-4526 -153 0
-4526 4398 0
4526 153 -4398 0
-4670 -4130 0
-4670 -4526 0
4670 4130 4526 0
-4814 -3734 0
-4814 4670 0
4814 3734 -4670 0
-4958 -3338 0
-4958 4814 0
4958 3338 -4814 0
-5102 -2942 0
-5102 4958 0
5102 2942 -4958 0
-5246 -2546 0
-5246 5102 0
5246 2546 -5102 0
-5390 -2150 0
-5390 5246 0
5390 2150 -5246 0
-5534 -1754 0
-5534 5390 0
5534 1754 -5390 0
-5678 -1358 0
-5678 5534 0
5678 1358 -5534 0
-5822 -962 0
-5822 5678 0
5822 962 -5678 0
-5966 -566 0
-5966 5822 0
5966 566 -5822 0
-6270 82 0
-6270 5966 0
6270 -82 -5966 0
-6271 -82 0
-6271 -5966 0
6271 82 5966 0
-6272 -6270 0
-6272 -6271 0
6272 6270 6271 0
81 -18871 0
-81 18871 0
-437 232 0
-437 309 0
437 -232 -309 0
-565 -233 0
-565 437 0
565 233 -437 0
-833 224 0
-833 705 0
833 -224 -705 0
-961 -225 0
-961 833 0
961 225 -833 0
-1229 216 0
-1229 1101 0
1229 -216 -1101 0
-1357 -217 0
-1357 1229 0
1357 217 -1229 0
-1625 208 0
-1625 1497 0
1625 -208 -1497 0
-1753 -209 0
-1753 1625 0
1753 209 -1625 0
-2021 200 0
-2021 1893 0
2021 -200 -1893 0
-2149 -201 0
-2149 2021 0
2149 201 -2021 0
-2417 192 0
-2417 2289 0
2417 -192 -2289 0
-2545 -193 0
-2545 2417 0
2545 193 -2417 0
-2813 184 0
-2813 2685 0
2813 -184 -2685 0
-2941 -185 0
-2941 2813 0
2941 185 -2813 0
-3209 176 0
-3209 3081 0
3209 -176 -3081 0
-3337 -177 0
-3337 3209 0
3337 177 -3209 0
-3605 168 0
-3605 3477 0
3605 -168 -3477 0
-3733 -169 0
-3733 3605 0
3733 169 -3605 0
-4001 160 0
-4001 3873 0
4001 -160 -3873 0
-4129 -161 0
-4129 4001 0
4129 161 -4001 0
-4397 152 0
-4397 4269 0
4397 -152 -4269 0
-4525 -153 0
-4525 4397 0
4525 153 -4397 0
-4669 -4129 0
-4669 -4525 0
4669 4129 4525 0
-4813 -3733 0
-4813 4669 0
4813 3733 -4669 0
-4957 -3337 0
-4957 4813 0
4957 3337 -4813 0
-5101 -2941 0
-5101 4957 0
5101 2941 -4957 0
-5245 -2545 0
-5245 5101 0
5245 2545 -5101 0
-5389 -2149 0
-5389 5245 0
5389 2149 -5245 0
-5533 -1753 0
-5533 5389 0
5533 1753 -5389 0
-5677 -1357 0
-5677 5533 0
5677 1357 -5533 0
-5821 -961 0
-5821 5677 0
5821 961 -5677 0
-5965 -565 0
-5965 5821 0
5965 565 -5821 0
-6267 81 0
-6267 5965 0
6267 -81 -5965 0
-6268 -81 0
-6268 -5965 0
6268 81 5965 0
-6269 -6267 0
-6269 -6268 0
6269 6267 6268 0
80 -18870 0
-80 18870 0
-436 232 0
-436 308 0
436 -232 -308 0
-564 -233 0
-564 436 0
564 233 -436 0
-832 224 0
-832 704 0
832 -224 -704 0
-960 -225 0
-960 832 0
960 225 -832 0
-1228 216 0
-1228 1100 0
1228 -216 -1100 0
-1356 -217 0
-1356 1228 0
1356 217 -1228 0
-1624 208 0
-1624 1496 0
1624 -208 -1496 0
-1752 -209 0
-1752 1624 0
1752 209 -1624 0
-2020 200 0
-2020 1892 0
2020 -200 -1892 0
-2148 -201 0
-2148 2020 0
2148 201 -2020 0
-2416 192 0
-2416 2288 0
2416 -192 -2288 0
-2544 -193 0
-2544 2416 0
2544 193 -2416 0
-2812 184 0
-2812 2684 0
2812 -184 -2684 0
-2940 -185 0
-2940 2812 0
2940 185 -2812 0
-3208 176 0
-3208 3080 0
3208 -176 -3080 0
-3336 -177 0
-3336 3208 0
3336 177 -3208 0
-3604 168 0
-3604 3476 0
3604 -168 -3476 0
-3732 -169 0
-3732 3604 0
3732 169 -3604 0
-4000 160 0
-4000 3872 0
4000 -160 -3872 0
-4128 -161 0
-4128 4000 0
4128 161 -4000 0
-4396 152 0
-4396 4268 0
4396 -152 -4268 0
-4524 -153 0
-4524 4396 0
4524 153 -4396 0
-4668 -4128 0
-4668 -4524 0
4668 4128 4524 0
-4812 -3732 0
-4812 4668 0
4812 3732 -4668 0
-4956 -3336 0
-4956 4812 0
4956 3336 -4812 0
-5100 -2940 0
-5100 4956 0
5100 2940 -4956 0
-5244 -2544 0
-5244 5100 0
5244 2544 -5100 0
-5388 -2148 0
-5388 5244 0
5388 2148 -5244 0
-5532 -1752 0
-5532 5388 0
5532 1752 -5388 0
-5676 -1356 0
-5676 5532 0
5676 1356 -5532 0
-5820 -960 0
-5820 5676 0
5820 960 -5676 0
-5964 -564 0
-5964 5820 0
5964 564 -5820 0
-6264 80 0
-6264 5964 0
6264 -80 -5964 0
-6265 -80 0
-6265 -5964 0
6265 80 5964 0
-6266 -6264 0
-6266 -6265 0
6266 6264 6265 0
79 -18869 0
-79 18869 0
-435 232 0
-435 307 0
435 -232 -307 0
-563 -233 0
-563 435 0
563 233 -435 0
-831 224 0
-831 703 0
831 -224 -703 0
-959 -225 0
-959 831 0
959 225 -831 0
-1227 216 0
-1227 1099 0
1227 -216 -1099 0
-1355 -217 0
-1355 1227 0
1355 217 -1227 0
-1623 208 0
-1623 1495 0
1623 -208 -1495 0
-1751 -209 0
-1751 1623 0
1751 209 -1623 0
-2019 200 0
-2019 1891 0
2019 -200 -1891 0
-2147 -201 0
-2147 2019 0
2147 201 -2019 0
-2415 192 0
-2415 2287 0
2415 -192 -2287 0
-2543 -193 0
-2543 2415 0
2543 193 -2415 0
-2811 184 0
-2811 2683 0
2811 -184 -2683 0
-2939 -185 0
-2939 2811 0
2939 185 -2811 0
-3207 176 0
-3207 3079 0
3207 -176 -3079 0
-3335 -177 0
-3335 3207 0
3335 177 -3207 0
-3603 168 0
-3603 3475 0
3603 -168 -3475 0
-3731 -169 0
-3731 3603 0
3731 169 -3603 0
-3999 160 0
-3999 3871 0
3999 -160 -3871 0
-4127 -161 0
-4127 3999 0
4127 161 -3999 0
-4395 152 0
-4395 4267 0
4395 -152 -4267 0
-4523 -153 0
-4523 4395 0
4523 153 -4395 0
-4667 -4127 0
-4667 -4523 0
4667 4127 4523 0
-4811 -3731 0
-4811 4667 0
4811 3731 -4667 0
-4955 -3335 0
-4955 4811 0
4955 3335 -4811 0
-5099 -2939 0
-5099 4955 0
5099 2939 -4955 0
-5243 -2543 0
-5243 5099 0
5243 2543 -5099 0
-5387 -2147 0
-5387 5243 0
5387 2147 -5243 0
-5531 -1751 0
-5531 5387 0
5531 1751 -5387 0
-5675 -1355 0
-5675 5531 0
5675 1355 -5531 0
-5819 -959 0
-5819 5675 0
5819 959 -5675 0
-5963 -563 0
-5963 5819 0
5963 563 -5819 0
-6261 79 0
-6261 5963 0
6261 -79 -5963 0
-6262 -79 0
-6262 -5963 0
6262 79 5963 0
-6263 -6261 0
-6263 -6262 0
6263 6261 6262 0
78 -18868 0
-78 18868 0
-434 232 0
-434 306 0
434 -232 -306 0
-562 -233 0
-562 434 0
562 233 -434 0
-830 224 0
-830 702 0
830 -224 -702 0
-958 -225 0
-958 830 0
958 225 -830 0
-1226 216 0
-1226 1098 0
1226 -216 -1098 0
-1354 -217 0
-1354 1226 0
1354 217 -1226 0
-1622 208 0
-1622 1494 0
1622 -208 -1494 0
-1750 -209 0
-1750 1622 0
1750 209 -1622 0
-2018 200 0
-2018 1890 0
2018 -200 -1890 0
-2146 -201 0
-2146 2018 0
2146 201 -2018 0
-2414 192 0
-2414 2286 0
2414 -192 -2286 0
-2542 -193 0
-2542 2414 0
2542 193 -2414 0
-2810 184 0
-2810 2682 0
2810 -184 -2682 0
-2938 -185 0
-2938 2810 0
2938 185 -2810 0
-3206 176 0
-3206 3078 0
3206 -176 -3078 0
-3334 -177 0
-3334 3206 0
3334 177 -3206 0
-3602 168 0
-3602 3474 0
3602 -168 -3474 0
-3730 -169 0
-3730 3602 0
3730 169 -3602 0
-3998 160 0
-3998 3870 0
3998 -160 -3870 0
-4126 -161 0
-4126 3998 0
4126 161 -3998 0
-4394 152 0
-4394 4266 0
4394 -152 -4266 0
-4522 -153 0
-4522 4394 0
4522 153 -4394 0
-4666 -4126 0
-4666 -4522 0
4666 4126 4522 0
-4810 -3730 0
-4810 4666 0
4810 3730 -4666 0
-4954 -3334 0
-4954 4810 0
4954 3334 -4810 0
-5098 -2938 0
-5098 4954 0
5098 2938 -4954 0
-5242 -2542 0
-5242 5098 0
5242 2542 -5098 0
-5386 -2146 0
-5386 5242 0
5386 2146 -5242 0
-5530 -1750 0
-5530 5386 0
5530 1750 -5386 0
-5674 -1354 0
-5674 5530 0
5674 1354 -5530 0
-5818 -958 0
-5818 5674 0
5818 958 -5674 0
-5962 -562 0
-5962 5818 0
5962 562 -5818 0
-6258 78 0
-6258 5962 0
6258 -78 -5962 0
-6259 -78 0
-6259 -5962 0
6259 78 5962 0
-6260 -6258 0
-6260 -6259 0
6260 6258 6259 0
77 -18867 0
-77 18867 0
-433 232 0
-433 305 0
433 -232 -305 0
-561 -233 0
-561 433 0
561 233 -433 0
-829 224 0
-829 701 0
829 -224 -701 0
-957 -225 0
-957 829 0
957 225 -829 0
-1225 216 0
-1225 1097 0
1225 -216 -1097 0
-1353 -217 0
-1353 1225 0
1353 217 -1225 0
-1621 208 0
-1621 1493 0
1621 -208 -1493 0
-1749 -209 0
-1749 1621 0
1749 209 -1621 0
-2017 200 0
-2017 1889 0
2017 -200 -1889 0
-2145 -201 0
-2145 2017 0
2145 201 -2017 0
-2413 192 0
-2413 2285 0
2413 -192 -2285 0
-2541 -193 0
-2541 2413 0
2541 193 -2413 0
-2809 184 0
-2809 2681 0
2809 -184 -2681 0
-2937 -185 0
-2937 2809 0
2937 185 -2809 0
-3205 176 0
-3205 3077 0
3205 -176 -3077 0
-3333 -177 0
-3333 3205 0
3333 177 -3205 0
-3601 168 0
-3601 3473 0
3601 -168 -3473 0
-3729 -169 0
-3729 3601 0
3729 169 -3601 0
-3997 160 0
-3997 3869 0
3997 -160 -3869 0
-4125 -161 0
-4125 3997 0
4125 161 -3997 0
-4393 152 0
-4393 4265 0
4393 -152 -4265 0
-4521 -153 0
-4521 4393 0
4521 153 -4393 0
-4665 -4125 0
-4665 -4521 0
4665 4125 4521 0
-4809 -3729 0
-4809 4665 0
4809 3729 -4665 0
-4953 -3333 0
-4953 4809 0
4953 3333 -4809 0
-5097 -2937 0
-5097 4953 0
5097 2937 -4953 0
-5241 -2541 0
-5241 5097 0
5241 2541 -5097 0
-5385 -2145 0
-5385 5241 0
5385 2145 -5241 0
-5529 -1749 0
-5529 5385 0
5529 1749 -5385 0
-5673 -1353 0
-5673 5529 0
5673 1353 -5529 0
-5817 -957 0
-5817 5673 0
5817 957 -5673 0
-5961 -561 0
-5961 5817 0
5961 561 -5817 0
-6255 77 0
-6255 5961 0
6255 -77 -5961 0
-6256 -77 0
-6256 -5961 0
6256 77 5961 0
-6257 -6255 0
-6257 -6256 0
6257 6255 6256 0
76 -18866 0
-76 18866 0
-432 232 0
-432 304 0
432 -232 -304 0
-560 -233 0
-560 432 0
560 233 -432 0
-828 224 0
-828 700 0
828 -224 -700 0
-956 -225 0
-956 828 0
956 225 -828 0
-1224 216 0
-1224 1096 0
1224 -216 -1096 0
-1352 -217 0
-1352 1224 0
1352 217 -1224 0
-1620 208 0
-1620 1492 0
1620 -208 -1492 0
-1748 -209 0
-1748 1620 0
1748 209 -1620 0
-2016 200 0
-2016 1888 0
2016 -200 -1888 0
-2144 -201 0
-2144 2016 0
2144 201 -2016 0
-2412 192 0
-2412 2284 0
2412 -192 -2284 0
-2540 -193 0
-2540 2412 0
2540 193 -2412 0
-2808 184 0
-2808 2680 0
2808 -184 -2680 0
-2936 -185 0
-2936 2808 0
2936 185 -2808 0
-3204 176 0
-3204 3076 0
3204 -176 -3076 0
-3332 -177 0
-3332 3204 0
3332 177 -3204 0
-3600 168 0
-3600 3472 0
3600 -168 -3472 0
-3728 -169 0
-3728 3600 0
3728 169 -3600 0
-3996 160 0
-3996 3868 0
3996 -160 -3868 0
-4124 -161 0
-4124 3996 0
4124 161 -3996 0
-4392 152 0
-4392 4264 0
4392 -152 -4264 0
-4520 -153 0
-4520 4392 0
4520 153 -4392 0
-4664 -4124 0
-4664 -4520 0
4664 4124 4520 0
-4808 -3728 0
-4808 4664 0
4808 3728 -4664 0
-4952 -3332 0
-4952 4808 0
4952 3332 -4808 0
-5096 -2936 0
-5096 4952 0
5096 2936 -4952 0
-5240 -2540 0
-5240 5096 0
5240 2540 -5096 0
-5384 -2144 0
-5384 5240 0
5384 2144 -5240 0
-5528 -1748 0
-5528 5384 0
5528 1748 -5384 0
-5672 -1352 0
-5672 5528 0
5672 1352 -5528 0
-5816 -956 0
-5816 5672 0
5816 956 -5672 0
-5960 -560 0
-5960 5816 0
5960 560 -5816 0
-6252 76 0
-6252 5960 0
6252 -76 -5960 0
-6253 -76 0
-6253 -5960 0
6253 76 5960 0
-6254 -6252 0
-6254 -6253 0
6254 6252 6253 0
75 -18865 0
-75 18865 0
-431 232 0
-431 303 0
431 -232 -303 0
-559 -233 0
-559 431 0
559 233 -431 0
-827 224 0
-827 699 0
827 -224 -699 0
-955 -225 0
-955 827 0
955 225 -827 0
-1223 216 0
-1223 1095 0
1223 -216 -1095 0
-1351 -217 0
-1351 1223 0
1351 217 -1223 0
-1619 208 0
-1619 1491 0
1619 -208 -1491 0
-1747 -209 0
-1747 1619 0
1747 209 -1619 0
-2015 200 0
-2015 1887 0
2015 -200 -1887 0
-2143 -201 0
-2143 2015 0
2143 201 -2015 0
-2411 192 0
-2411 2283 0
2411 -192 -2283 0
-2539 -193 0
-2539 2411 0
2539 193 -2411 0
-2807 184 0
-2807 2679 0
2807 -184 -2679 0
-2935 -185 0
-2935 2807 0
2935 185 -2807 0
-3203 176 0
-3203 3075 0
3203 -176 -3075 0
-3331 -177 0
-3331 3203 0
3331 177 -3203 0
-3599 168 0
-3599 3471 0
3599 -168 -3471 0
-3727 -169 0
-3727 3599 0
3727 169 -3599 0
-3995 160 0
-3995 3867 0
3995 -160 -3867 0
-4123 -161 0
-4123 3995 0
4123 161 -3995 0
-4391 152 0
-4391 4263 0
4391 -152 -4263 0
-4519 -153 0
-4519 4391 0
4519 153 -4391 0
-4663 -4123 0
-4663 -4519 0
4663 4123 4519 0
-4807 -3727 0
-4807 4663 0
4807 3727 -4663 0
-4951 -3331 0
-4951 4807 0
4951 3331 -4807 0
-5095 -2935 0
-5095 4951 0
5095 2935 -4951 0
-5239 -2539 0
-5239 5095 0
5239 2539 -5095 0
-5383 -2143 0
-5383 5239 0
5383 2143 -5239 0
-5527 -1747 0
-5527 5383 0
5527 1747 -5383 0
-5671 -1351 0
-5671 5527 0
5671 1351 -5527 0
-5815 -955 0
-5815 5671 0
5815 955 -5671 0
-5959 -559 0
-5959 5815 0
5959 559 -5815 0
-6249 75 0
-6249 5959 0
6249 -75 -5959 0
-6250 -75 0
-6250 -5959 0
6250 75 5959 0
-6251 -6249 0
-6251 -6250 0
6251 6249 6250 0
74 -18864 0
-74 18864 0
-430 232 0
-430 302 0
430 -232 -302 0
-558 -233 0
-558 430 0
558 233 -430 0
-826 224 0
-826 698 0
826 -224 -698 0
-954 -225 0
-954 826 0
954 225 -826 0
-1222 216 0
-1222 1094 0
1222 -216 -1094 0
-1350 -217 0
-1350 1222 0
1350 217 -1222 0
-1618 208 0
-1618 1490 0
1618 -208 -1490 0
-1746 -209 0
-1746 1618 0
1746 209 -1618 0
-2014 200 0
-2014 1886 0
2014 -200 -1886 0
-2142 -201 0
-2142 2014 0
2142 201 -2014 0
-2410 192 0
-2410 2282 0
2410 -192 -2282 0
-2538 -193 0
-2538 2410 0
2538 193 -2410 0
-2806 184 0
-2806 2678 0
2806 -184 -2678 0
-2934 -185 0
-2934 2806 0
2934 185 -2806 0
-3202 176 0
-3202 3074 0
3202 -176 -3074 0
-3330 -177 0
-3330 3202 0
3330 177 -3202 0
-3598 168 0
-3598 3470 0
3598 -168 -3470 0
-3726 -169 0
-3726 3598 0
3726 169 -3598 0
-3994 160 0
-3994 3866 0
3994 -160 -3866 0
-4122 -161 0
-4122 3994 0
4122 161 -3994 0
-4390 152 0
-4390 4262 0
4390 -152 -4262 0
-4518 -153 0
-4518 4390 0
4518 153 -4390 0
-4662 -4122 0
-4662 -4518 0
4662 4122 4518 0
-4806 -3726 0
-4806 4662 0
4806 3726 -4662 0
-4950 -3330 0
-4950 4806 0
4950 3330 -4806 0
-5094 -2934 0
-5094 4950 0
5094 2934 -4950 0
-5238 -2538 0
-5238 5094 0
5238 2538 -5094 0
-5382 -2142 0
-5382 5238 0
5382 2142 -5238 0
-5526 -1746 0
-5526 5382 0
5526 1746 -5382 0
-5670 -1350 0
-5670 5526 0
5670 1350 -5526 0
-5814 -954 0
-5814 5670 0
5814 954 -5670 0
-5958 -558 0
-5958 5814 0
5958 558 -5814 0
-6246 74 0
-6246 5958 0
6246 -74 -5958 0
-6247 -74 0
-6247 -5958 0
6247 74 5958 0
-6248 -6246 0
-6248 -6247 0
6248 6246 6247 0
73 -18863 0
-73 18863 0
-429 232 0
-429 301 0
429 -232 -301 0
-557 -233 0
-557 429 0
557 233 -429 0
-825 224 0
-825 697 0
825 -224 -697 0
-953 -225 0
-953 825 0
953 225 -825 0
-1221 216 0
-1221 1093 0
1221 -216 -1093 0
-1349 -217 0
-1349 1221 0
1349 217 -1221 0
-1617 208 0
-1617 1489 0
1617 -208 -1489 0
-1745 -209 0
-1745 1617 0
1745 209 -1617 0
-2013 200 0
-2013 1885 0
2013 -200 -1885 0
-2141 -201 0
-2141 2013 0
2141 201 -2013 0
-2409 192 0
-2409 2281 0
2409 -192 -2281 0
-2537 -193 0
-2537 2409 0
2537 193 -2409 0
-2805 184 0
-2805 2677 0
2805 -184 -2677 0
-2933 -185 0
-2933 2805 0
2933 185 -2805 0
-3201 176 0
-3201 3073 0
3201 -176 -3073 0
-3329 -177 0
-3329 3201 0
3329 177 -3201 0
-3597 168 0
-3597 3469 0
3597 -168 -3469 0
-3725 -169 0
-3725 3597 0
3725 169 -3597 0
-3993 160 0
-3993 3865 0
3993 -160 -3865 0
-4121 -161 0
-4121 3993 0
4121 161 -3993 0
-4389 152 0
-4389 4261 0
4389 -152 -4261 0
-4517 -153 0
-4517 4389 0
4517 153 -4389 0
-4661 -4121 0
-4661 -4517 0
4661 4121 4517 0
-4805 -3725 0
-4805 4661 0
4805 3725 -4661 0
-4949 -3329 0
-4949 4805 0
4949 3329 -4805 0
-5093 -2933 0
-5093 4949 0
5093 2933 -4949 0
-5237 -2537 0
-5237 5093 0
5237 2537 -5093 0
-5381 -2141 0
-5381 5237 0
5381 2141 -5237 0
-5525 -1745 0
-5525 5381 0
5525 1745 -5381 0
-5669 -1349 0
-5669 5525 0
5669 1349 -5525 0
-5813 -953 0
-5813 5669 0
5813 953 -5669 0
-5957 -557 0
-5957 5813 0
5957 557 -5813 0
-6243 73 0
-6243 5957 0
6243 -73 -5957 0
-6244 -73 0
-6244 -5957 0
6244 73 5957 0
-6245 -6243 0
-6245 -6244 0
6245 6243 6244 0
72 -18862 0
-72 18862 0
-428 232 0
-428 300 0
428 -232 -300 0
-556 -233 0
-556 428 0
556 233 -428 0
-824 224 0
-824 696 0
824 -224 -696 0
-952 -225 0
-952 824 0
952 225 -824 0
-1220 216 0
-1220 1092 0
1220 -216 -1092 0
-1348 -217 0
-1348 1220 0
1348 217 -1220 0
-1616 208 0
-1616 1488 0
1616 -208 -1488 0
-1744 -209 0
-1744 1616 0
1744 209 -1616 0
-2012 200 0
-2012 1884 0
2012 -200 -1884 0
-2140 -201 0
-2140 2012 0
2140 201 -2012 0
-2408 192 0
-2408 2280 0
2408 -192 -2280 0
-2536 -193 0
-2536 2408 0
2536 193 -2408 0
-2804 184 0
-2804 2676 0
2804 -184 -2676 0
-2932 -185 0
-2932 2804 0
2932 185 -2804 0
-3200 176 0
-3200 3072 0
3200 -176 -3072 0
-3328 -177 0
-3328 3200 0
3328 177 -3200 0
-3596 168 0
-3596 3468 0
3596 -168 -3468 0
-3724 -169 0
-3724 3596 0
3724 169 -3596 0
-3992 160 0
-3992 3864 0
3992 -160 -3864 0
-4120 -161 0
-4120 3992 0
4120 161 -3992 0
-4388 152 0
-4388 4260 0
4388 -152 -4260 0
-4516 -153 0
-4516 4388 0
4516 153 -4388 0
-4660 -4120 0
-4660 -4516 0
4660 4120 4516 0
-4804 -3724 0
-4804 4660 0
4804 3724 -4660 0
-4948 -3328 0
-4948 4804 0
4948 3328 -4804 0
-5092 -2932 0
-5092 4948 0
5092 2932 -4948 0
-5236 -2536 0
-5236 5092 0
5236 2536 -5092 0
-5380 -2140 0
-5380 5236 0
5380 2140 -5236 0
-5524 -1744 0
-5524 5380 0
5524 1744 -5380 0
-5668 -1348 0
-5668 5524 0
5668 1348 -5524 0
-5812 -952 0
-5812 5668 0
5812 952 -5668 0
-5956 -556 0
-5956 5812 0
5956 556 -5812 0
-6240 72 0
-6240 5956 0
6240 -72 -5956 0
-6241 -72 0
-6241 -5956 0
6241 72 5956 0
-6242 -6240 0
-6242 -6241 0
6242 6240 6241 0
71 -18861 0
-71 18861 0
-427 232 0
-427 299 0
427 -232 -299 0
-555 -233 0
-555 427 0
555 233 -427 0
-823 224 0
-823 695 0
823 -224 -695 0
-951 -225 0
-951 823 0
951 225 -823 0
-1219 216 0
-1219 1091 0
1219 -216 -1091 0
-1347 -217 0
-1347 1219 0
1347 217 -1219 0
-1615 208 0
-1615 1487 0
1615 -208 -1487 0
-1743 -209 0
-1743 1615 0
1743 209 -1615 0
-2011 200 0
-2011 1883 0
2011 -200 -1883 0
-2139 -201 0
-2139 2011 0
2139 201 -2011 0
-2407 192 0
-2407 2279 0
2407 -192 -2279 0
-2535 -193 0
-2535 2407 0
2535 193 -2407 0
-2803 184 0
-2803 2675 0
2803 -184 -2675 0
-2931 -185 0
-2931 2803 0
2931 185 -2803 0
-3199 176 0
-3199 3071 0
3199 -176 -3071 0
-3327 -177 0
-3327 3199 0
3327 177 -3199 0
-3595 168 0
-3595 3467 0
3595 -168 -3467 0
-3723 -169 0
-3723 3595 0
3723 169 -3595 0
-3991 160 0
-3991 3863 0
3991 -160 -3863 0
-4119 -161 0
-4119 3991 0
4119 161 -3991 0
-4387 152 0
-4387 4259 0
4387 -152 -4259 0
-4515 -153 0
-4515 4387 0
4515 153 -4387 0
-4659 -4119 0
-4659 -4515 0
4659 4119 4515 0
-4803 -3723 0
-4803 4659 0
4803 3723 -4659 0
-4947 -3327 0
-4947 4803 0
4947 3327 -4803 0
-5091 -2931 0
-5091 4947 0
5091 2931 -4947 0
-5235 -2535 0
-5235 5091 0
5235 2535 -5091 0
-5379 -2139 0
-5379 5235 0
5379 2139 -5235 0
-5523 -1743 0
-5523 5379 0
5523 1743 -5379 0
-5667 -1347 0
-5667 5523 0
5667 1347 -5523 0
-5811 -951 0
-5811 5667 0
5811 951 -5667 0
-5955 -555 0
-5955 5811 0
5955 555 -5811 0
-6237 71 0
-6237 5955 0
6237 -71 -5955 0
-6238 -71 0
-6238 -5955 0
6238 71 5955 0
-6239 -6237 0
-6239 -6238 0
6239 6237 6238 0
70 -18860 0
-70 18860 0
-426 232 0
-426 298 0
426 -232 -298 0
-554 -233 0
-554 426 0
554 233 -426 0
-822 224 0
-822 694 0
822 -224 -694 0
-950 -225 0
-950 822 0
950 225 -822 0
-1218 216 0
-1218 1090 0
1218 -216 -1090 0
-1346 -217 0
-1346 1218 0
1346 217 -1218 0
-1614 208 0
-1614 1486 0
1614 -208 -1486 0
-1742 -209 0
-1742 1614 0
1742 209 -1614 0
-2010 200 0
-2010 1882 0
2010 -200 -1882 0
-2138 -201 0
-2138 2010 0
2138 201 -2010 0
-2406 192 0
-2406 2278 0
2406 -192 -2278 0
-2534 -193 0
-2534 2406 0
2534 193 -2406 0
-2802 184 0
-2802 2674 0
2802 -184 -2674 0
-2930 -185 0
-2930 2802 0
2930 185 -2802 0
-3198 176 0
-3198 3070 0
3198 -176 -3070 0
-3326 -177 0
-3326 3198 0
3326 177 -3198 0
-3594 168 0
-3594 3466 0
3594 -168 -3466 0
-3722 -169 0
-3722 3594 0
3722 169 -3594 0
-3990 160 0
-3990 3862 0
3990 -160 -3862 0
-4118 -161 0
-4118 3990 0
4118 161 -3990 0
-4386 152 0
-4386 4258 0
4386 -152 -4258 0
-4514 -153 0
-4514 4386 0
4514 153 -4386 0
-4658 -4118 0
-4658 -4514 0
4658 4118 4514 0
-4802 -3722 0
-4802 4658 0
4802 3722 -4658 0
-4946 -3326 0
-4946 4802 0
4946 3326 -4802 0
-5090 -2930 0
-5090 4946 0
5090 2930 -4946 0
-5234 -2534 0
-5234 5090 0
5234 2534 -5090 0
-5378 -2138 0
-5378 5234 0
5378 2138 -5234 0
-5522 -1742 0
-5522 5378 0
5522 1742 -5378 0
-5666 -1346 0
-5666 5522 0
5666 1346 -5522 0
-5810 -950 0
-5810 5666 0
5810 950 -5666 0
-5954 -554 0
-5954 5810 0
5954 554 -5810 0
-6234 70 0
-6234 5954 0
6234 -70 -5954 0
-6235 -70 0
-6235 -5954 0
6235 70 5954 0
-6236 -6234 0
-6236 -6235 0
6236 6234 6235 0
69 -18859 0
-69 18859 0
-425 232 0
-425 297 0
425 -232 -297 0
-553 -233 0
-553 425 0
553 233 -425 0
-821 224 0
-821 693 0
821 -224 -693 0
-949 -225 0
-949 821 0
949 225 -821 0
-1217 216 0
-1217 1089 0
1217 -216 -1089 0
-1345 -217 0
-1345 1217 0
1345 217 -1217 0
-1613 208 0
-1613 1485 0
1613 -208 -1485 0
-1741 -209 0
-1741 1613 0
1741 209 -1613 0
-2009 200 0
-2009 1881 0
2009 -200 -1881 0
-2137 -201 0
-2137 2009 0
2137 201 -2009 0
-2405 192 0
-2405 2277 0
2405 -192 -2277 0
-2533 -193 0
-2533 2405 0
2533 193 -2405 0
-2801 184 0
-2801 2673 0
2801 -184 -2673 0
-2929 -185 0
-2929 2801 0
2929 185 -2801 0
-3197 176 0
-3197 3069 0
3197 -176 -3069 0
-3325 -177 0
-3325 3197 0
3325 177 -3197 0
-3593 168 0
-3593 3465 0
3593 -168 -3465 0
-3721 -169 0
-3721 3593 0
3721 169 -3593 0
-3989 160 0
-3989 3861 0
3989 -160 -3861 0
-4117 -161 0
-4117 3989 0
4117 161 -3989 0
-4385 152 0
-4385 4257 0
4385 -152 -4257 0
-4513 -153 0
-4513 4385 0
4513 153 -4385 0
-4657 -4117 0
-4657 -4513 0
4657 4117 4513 0
-4801 -3721 0
-4801 4657 0
4801 3721 -4657 0
-4945 -3325 0
-4945 4801 0
4945 3325 -4801 0
-5089 -2929 0
-5089 4945 0
5089 2929 -4945 0
-5233 -2533 0
-5233 5089 0
5233 2533 -5089 0
-5377 -2137 0
-5377 5233 0
5377 2137 -5233 0
-5521 -1741 0
-5521 5377 0
5521 1741 -5377 0
-5665 -1345 0
-5665 5521 0
5665 1345 -5521 0
-5809 -949 0
-5809 5665 0
5809 949 -5665 0
-5953 -553 0
-5953 5809 0
5953 553 -5809 0
-6231 69 0
-6231 5953 0
6231 -69 -5953 0
-6232 -69 0
-6232 -5953 0
6232 69 5953 0
-6233 -6231 0
-6233 -6232 0
6233 6231 6232 0
68 -18858 0
-68 18858 0
-424 232 0
-424 296 0
424 -232 -296 0
-552 -233 0
-552 424 0
552 233 -424 0
-820 224 0
-820 692 0
820 -224 -692 0
-948 -225 0
-948 820 0
948 225 -820 0
-1216 216 0
-1216 1088 0
1216 -216 -1088 0
-1344 -217 0
-1344 1216 0
1344 217 -1216 0
-1612 208 0
-1612 1484 0
1612 -208 -1484 0
-1740 -209 0
-1740 1612 0
1740 209 -1612 0
-2008 200 0
-2008 1880 0
2008 -200 -1880 0
-2136 -201 0
-2136 2008 0
2136 201 -2008 0
-2404 192 0
-2404 2276 0
2404 -192 -2276 0
-2532 -193 0
-2532 2404 0
2532 193 -2404 0
-2800 184 0
-2800 2672 0
2800 -184 -2672 0
-2928 -185 0
-2928 2800 0
2928 185 -2800 0
-3196 176 0
-3196 3068 0
3196 -176 -3068 0
-3324 -177 0
-3324 3196 0
3324 177 -3196 0
-3592 168 0
-3592 3464 0
3592 -168 -3464 0
-3720 -169 0
-3720 3592 0
3720 169 -3592 0
-3988 160 0
-3988 3860 0
3988 -160 -3860 0
-4116 -161 0
-4116 3988 0
4116 161 -3988 0
-4384 152 0
-4384 4256 0
4384 -152 -4256 0
-4512 -153 0
-4512 4384 0
4512 153 -4384 0
-4656 -4116 0
-4656 -4512 0
4656 4116 4512 0
-4800 -3720 0
-4800 4656 0
4800 3720 -4656 0
-4944 -3324 0
-4944 4800 0
4944 3324 -4800 0
-5088 -2928 0
-5088 4944 0
5088 2928 -4944 0
-5232 -2532 0
-5232 5088 0
5232 2532 -5088 0
-5376 -2136 0
-5376 5232 0
5376 2136 -5232 0
-5520 -1740 0
-5520 5376 0
5520 1740 -5376 0
-5664 -1344 0
-5664 5520 0
5664 1344 -5520 0
-5808 -948 0
-5808 5664 0
5808 948 -5664 0
-5952 -552 0
-5952 5808 0
5952 552 -5808 0
-6228 68 0
-6228 5952 0
6228 -68 -5952 0
-6229 -68 0
-6229 -5952 0
6229 68 5952 0
-6230 -6228 0
-6230 -6229 0
6230 6228 6229 0
67 -18857 0
-67 18857 0
-423 232 0
-423 295 0
423 -232 -295 0
-551 -233 0
-551 423 0
551 233 -423 0
-819 224 0
-819 691 0
819 -224 -691 0
-947 -225 0
-947 819 0
947 225 -819 0
-1215 216 0
-1215 1087 0
1215 -216 -1087 0
-1343 -217 0
-1343 1215 0
1343 217 -1215 0
-1611 208 0
-1611 1483 0
1611 -208 -1483 0
-1739 -209 0
-1739 1611 0
1739 209 -1611 0
-2007 200 0
-2007 1879 0
2007 -200 -1879 0
-2135 -201 0
-2135 2007 0
2135 201 -2007 0
-2403 192 0
-2403 2275 0
2403 -192 -2275 0
-2531 -193 0
-2531 2403 0
2531 193 -2403 0
-2799 184 0
-2799 2671 0
2799 -184 -2671 0
-2927 -185 0
-2927 2799 0
2927 185 -2799 0
-3195 176 0
-3195 3067 0
3195 -176 -3067 0
-3323 -177 0
-3323 3195 0
3323 177 -3195 0
-3591 168 0
-3591 3463 0
3591 -168 -3463 0
-3719 -169 0
-3719 3591 0
3719 169 -3591 0
-3987 160 0
-3987 3859 0
3987 -160 -3859 0
-4115 -161 0
-4115 3987 0
4115 161 -3987 0
-4383 152 0
-4383 4255 0
4383 -152 -4255 0
-4511 -153 0
-4511 4383 0
4511 153 -4383 0
-4655 -4115 0
-4655 -4511 0
4655 4115 4511 0
-4799 -3719 0
-4799 4655 0
4799 3719 -4655 0
-4943 -3323 0
-4943 4799 0
4943 3323 -4799 0
-5087 -2927 0
-5087 4943 0
5087 2927 -4943 0
-5231 -2531 0
-5231 5087 0
5231 2531 -5087 0
-5375 -2135 0
-5375 5231 0
5375 2135 -5231 0
-5519 -1739 0
-5519 5375 0
5519 1739 -5375 0
-5663 -1343 0
-5663 5519 0
5663 1343 -5519 0
-5807 -947 0
-5807 5663 0
5807 947 -5663 0
-5951 -551 0
-5951 5807 0
5951 551 -5807 0
-6225 67 0
-6225 5951 0
6225 -67 -5951 0
-6226 -67 0
-6226 -5951 0
6226 67 5951 0
-6227 -6225 0
-6227 -6226 0
6227 6225 6226 0
66 -18856 0
-66 18856 0
-422 232 0
-422 294 0
422 -232 -294 0
-550 -233 0
-550 422 0
550 233 -422 0
-818 224 0
-818 690 0
818 -224 -690 0
-946 -225 0
-946 818 0
946 225 -818 0
-1214 216 0
-1214 1086 0
1214 -216 -1086 0
-1342 -217 0
-1342 1214 0
1342 217 -1214 0
-1610 208 0
-1610 1482 0
1610 -208 -1482 0
-1738 -209 0
-1738 1610 0
1738 209 -1610 0
-2006 200 0
-2006 1878 0
2006 -200 -1878 0
-2134 -201 0
-2134 2006 0
2134 201 -2006 0
-2402 192 0
-2402 2274 0
2402 -192 -2274 0
-2530 -193 0
-2530 2402 0
2530 193 -2402 0
-2798 184 0
-2798 2670 0
2798 -184 -2670 0
-2926 -185 0
-2926 2798 0
2926 185 -2798 0
-3194 176 0
-3194 3066 0
3194 -176 -3066 0
-3322 -177 0
-3322 3194 0
3322 177 -3194 0
-3590 168 0
-3590 3462 0
3590 -168 -3462 0
-3718 -169 0
-3718 3590 0
3718 169 -3590 0
-3986 160 0
-3986 3858 0
3986 -160 -3858 0
-4114 -161 0
-4114 3986 0
4114 161 -3986 0
-4382 152 0
-4382 4254 0
4382 -152 -4254 0
-4510 -153 0
-4510 4382 0
4510 153 -4382 0
-4654 -4114 0
-4654 -4510 0
4654 4114 4510 0
-4798 -3718 0
-4798 4654 0
4798 3718 -4654 0
-4942 -3322 0
-4942 4798 0
4942 3322 -4798 0
-5086 -2926 0
-5086 4942 0
5086 2926 -4942 0
-5230 -2530 0
-5230 5086 0
5230 2530 -5086 0
-5374 -2134 0
-5374 5230 0
5374 2134 -5230 0
-5518 -1738 0
-5518 5374 0
5518 1738 -5374 0
-5662 -1342 0
-5662 5518 0
5662 1342 -5518 0
-5806 -946 0
-5806 5662 0
5806 946 -5662 0
-5950 -550 0
-5950 5806 0
5950 550 -5806 0
-6222 66 0
-6222 5950 0
6222 -66 -5950 0
-6223 -66 0
-6223 -5950 0
6223 66 5950 0
-6224 -6222 0
-6224 -6223 0
6224 6222 6223 0
65 -18855 0
-65 18855 0
-421 -232 0
-421 357 0
421 232 -357 0
-549 -233 0
-549 421 0
549 233 -421 0
-817 -224 0
-817 753 0
817 224 -753 0
-945 -225 0
-945 817 0
945 225 -817 0
-1213 -216 0
-1213 1149 0
1213 216 -1149 0
-1341 -217 0
-1341 1213 0
1341 217 -1213 0
-1609 -208 0
-1609 1545 0
1609 208 -1545 0
-1737 -209 0
-1737 1609 0
1737 209 -1609 0
-2005 -200 0
-2005 1941 0
2005 200 -1941 0
-2133 -201 0
-2133 2005 0
2133 201 -2005 0
-2401 -192 0
-2401 2337 0
2401 192 -2337 0
-2529 -193 0
-2529 2401 0
2529 193 -2401 0
-2797 -184 0
-2797 2733 0
2797 184 -2733 0
-2925 -185 0
-2925 2797 0
2925 185 -2797 0
-3193 -176 0
-3193 3129 0
3193 176 -3129 0
-3321 -177 0
-3321 3193 0
3321 177 -3193 0
-3589 -168 0
-3589 3525 0
3589 168 -3525 0
-3717 -169 0
-3717 3589 0
3717 169 -3589 0
-3985 -160 0
-3985 3921 0
3985 160 -3921 0
-4113 -161 0
-4113 3985 0
4113 161 -3985 0
-4381 -152 0
-4381 4317 0
4381 152 -4317 0
-4509 -153 0
-4509 4381 0
4509 153 -4381 0
-4653 -4113 0
-4653 -4509 0
4653 4113 4509 0
-4797 -3717 0
-4797 4653 0
4797 3717 -4653 0
-4941 -3321 0
-4941 4797 0
4941 3321 -4797 0
-5085 -2925 0
-5085 4941 0
5085 2925 -4941 0
-5229 -2529 0
-5229 5085 0
5229 2529 -5085 0
-5373 -2133 0
-5373 5229 0
5373 2133 -5229 0
-5517 -1737 0
-5517 5373 0
5517 1737 -5373 0
-5661 -1341 0
-5661 5517 0
5661 1341 -5517 0
-5805 -945 0
-5805 5661 0
5805 945 -5661 0
-5949 -549 0
-5949 5805 0
5949 549 -5805 0
-6219 65 0
-6219 5949 0
6219 -65 -5949 0
-6220 -65 0
-6220 -5949 0
6220 65 5949 0
-6221 -6219 0
-6221 -6220 0
6221 6219 6220 0
64 -18854 0
-64 18854 0
-420 -232 0
-420 356 0
420 232 -356 0
-548 -233 0
-548 420 0
548 233 -420 0
-816 -224 0
-816 752 0
816 224 -752 0
-944 -225 0
-944 816 0
944 225 -816 0
-1212 -216 0
-1212 1148 0
1212 216 -1148 0
-1340 -217 0
-1340 1212 0
1340 217 -1212 0
-1608 -208 0
-1608 1544 0
1608 208 -1544 0
-1736 -209 0
-1736 1608 0
1736 209 -1608 0
-2004 -200 0
-2004 1940 0
2004 200 -1940 0
-2132 -201 0
-2132 2004 0
2132 201 -2004 0
-2400 -192 0
-2400 2336 0
2400 192 -2336 0
-2528 -193 0
-2528 2400 0
2528 193 -2400 0
-2796 -184 0
-2796 2732 0
2796 184 -2732 0
-2924 -185 0
-2924 2796 0
2924 185 -2796 0
-3192 -176 0
-3192 3128 0
3192 176 -3128 0
-3320 -177 0
-3320 3192 0
3320 177 -3192 0
-3588 -168 0
-3588 3524 0
3588 168 -3524 0
-3716 -169 0
-3716 3588 0
3716 169 -3588 0
-3984 -160 0
-3984 3920 0
3984 160 -3920 0
-4112 -161 0
-4112 3984 0
4112 161 -3984 0
-4380 -152 0
-4380 4316 0
4380 152 -4316 0
-4508 -153 0
-4508 4380 0
4508 153 -4380 0
-4652 -4112 0
-4652 -4508 0
4652 4112 4508 0
-4796 -3716 0
-4796 4652 0
4796 3716 -4652 0
-4940 -3320 0
-4940 4796 0
4940 3320 -4796 0
-5084 -2924 0
-5084 4940 0
5084 2924 -4940 0
-5228 -2528 0
-5228 5084 0
5228 2528 -5084 0
-5372 -2132 0
-5372 5228 0
5372 2132 -5228 0
-5516 -1736 0
-5516 5372 0
5516 1736 -5372 0
-5660 -1340 0
-5660 5516 0
5660 1340 -5516 0
-5804 -944 0
-5804 5660 0
5804 944 -5660 0
-5948 -548 0
-5948 5804 0
5948 548 -5804 0
-6216 64 0
-6216 5948 0
6216 -64 -5948 0
-6217 -64 0
-6217 -5948 0
6217 64 5948 0
-6218 -6216 0
-6218 -6217 0
6218 6216 6217 0
63 -18853 0
-63 18853 0
-419 -232 0
-419 355 0
419 232 -355 0
-547 -233 0
-547 419 0
547 233 -419 0
-815 -224 0
-815 751 0
815 224 -751 0
-943 -225 0
-943 815 0
943 225 -815 0
-1211 -216 0
-1211 1147 0
1211 216 -1147 0
-1339 -217 0
-1339 1211 0
1339 217 -1211 0
-1607 -208 0
-1607 1543 0
1607 208 -1543 0
-1735 -209 0
-1735 1607 0
1735 209 -1607 0
-2003 -200 0
-2003 1939 0
2003 200 -1939 0
-2131 -201 0
-2131 2003 0
2131 201 -2003 0
-2399 -192 0
-2399 2335 0
2399 192 -2335 0
-2527 -193 0
-2527 2399 0
2527 193 -2399 0
-2795 -184 0
-2795 2731 0
2795 184 -2731 0
-2923 -185 0
-2923 2795 0
2923 185 -2795 0
-3191 -176 0
-3191 3127 0
3191 176 -3127 0
-3319 -177 0
-3319 3191 0
3319 177 -3191 0
-3587 -168 0
-3587 3523 0
3587 168 -3523 0
-3715 -169 0
-3715 3587 0
3715 169 -3587 0
-3983 -160 0
-3983 3919 0
3983 160 -3919 0
-4111 -161 0
-4111 3983 0
4111 161 -3983 0
-4379 -152 0
-4379 4315 0
4379 152 -4315 0
-4507 -153 0
-4507 4379 0
4507 153 -4379 0
-4651 -4111 0
-4651 -4507 0
4651 4111 4507 0
-4795 -3715 0
-4795 4651 0
4795 3715 -4651 0
-4939 -3319 0
-4939 4795 0
4939 3319 -4795 0
-5083 -2923 0
-5083 4939 0
5083 2923 -4939 0
-5227 -2527 0
-5227 5083 0
5227 2527 -5083 0
-5371 -2131 0
-5371 5227 0
5371 2131 -5227 0
-5515 -1735 0
-5515 5371 0
5515 1735 -5371 0
-5659 -1339 0
-5659 5515 0
5659 1339 -5515 0
-5803 -943 0
-5803 5659 0
5803 943 -5659 0
-5947 -547 0
-5947 5803 0
5947 547 -5803 0
-6213 63 0
-6213 5947 0
6213 -63 -5947 0
-6214 -63 0
-6214 -5947 0
6214 63 5947 0
-6215 -6213 0
-6215 -6214 0
6215 6213 6214 0
62 -18852 0
-62 18852 0
-418 -232 0
-418 354 0
418 232 -354 0
-546 -233 0
-546 418 0
546 233 -418 0
-814 -224 0
-814 750 0
814 224 -750 0
-942 -225 0
-942 814 0
942 225 -814 0
-1210 -216 0
-1210 1146 0
1210 216 -1146 0
-1338 -217 0
-1338 1210 0
1338 217 -1210 0
-1606 -208 0
-1606 1542 0
1606 208 -1542 0
-1734 -209 0
-1734 1606 0
1734 209 -1606 0
-2002 -200 0
-2002 1938 0
2002 200 -1938 0
-2130 -201 0
-2130 2002 0
2130 201 -2002 0
-2398 -192 0
-2398 2334 0
2398 192 -2334 0
-2526 -193 0
-2526 2398 0
2526 193 -2398 0
-2794 -184 0
-2794 2730 0
2794 184 -2730 0
-2922 -185 0
-2922 2794 0
2922 185 -2794 0
-3190 -176 0
-3190 3126 0
3190 176 -3126 0
-3318 -177 0
-3318 3190 0
3318 177 -3190 0
-3586 -168 0
-3586 3522 0
3586 168 -3522 0
-3714 -169 0
-3714 3586 0
3714 169 -3586 0
-3982 -160 0
-3982 3918 0
3982 160 -3918 0
-4110 -161 0
-4110 3982 0
4110 161 -3982 0
-4378 -152 0
-4378 4314 0
4378 152 -4314 0
-4506 -153 0
-4506 4378 0
4506 153 -4378 0
-4650 -4110 0
-4650 -4506 0
4650 4110 4506 0
-4794 -3714 0
-4794 4650 0
4794 3714 -4650 0
-4938 -3318 0
-4938 4794 0
4938 3318 -4794 0
-5082 -2922 0
-5082 4938 0
5082 2922 -4938 0
-5226 -2526 0
-5226 5082 0
5226 2526 -5082 0
-5370 -2130 0
-5370 5226 0
5370 2130 -5226 0
-5514 -1734 0
-5514 5370 0
5514 1734 -5370 0
-5658 -1338 0
-5658 5514 0
5658 1338 -5514 0
-5802 -942 0
-5802 5658 0
5802 942 -5658 0
-5946 -546 0
-5946 5802 0
5946 546 -5802 0
-6210 62 0
-6210 5946 0
6210 -62 -5946 0
-6211 -62 0
-6211 -5946 0
6211 62 5946 0
-6212 -6210 0
-6212 -6211 0
6212 6210 6211 0
61 -18851 0
-61 18851 0
-417 -232 0
-417 353 0
417 232 -353 0
-545 -233 0
-545 417 0
545 233 -417 0
-813 -224 0
-813 749 0
813 224 -749 0
-941 -225 0
-941 813 0
941 225 -813 0
-1209 -216 0
-1209 1145 0
1209 216 -1145 0
-1337 -217 0
-1337 1209 0
1337 217 -1209 0
-1605 -208 0
-1605 1541 0
1605 208 -1541 0
-1733 -209 0
-1733 1605 0
1733 209 -1605 0
-2001 -200 0
-2001 1937 0
2001 200 -1937 0
-2129 -201 0
-2129 2001 0
2129 201 -2001 0
-2397 -192 0
-2397 2333 0
2397 192 -2333 0
-2525 -193 0
-2525 2397 0
2525 193 -2397 0
-2793 -184 0
-2793 2729 0
2793 184 -2729 0
-2921 -185 0
-2921 2793 0
2921 185 -2793 0
-3189 -176 0
-3189 3125 0
3189 176 -3125 0
-3317 -177 0
-3317 3189 0
3317 177 -3189 0
-3585 -168 0
-3585 3521 0
3585 168 -3521 0
-3713 -169 0
-3713 3585 0
3713 169 -3585 0
-3981 -160 0
-3981 3917 0
3981 160 -3917 0
-4109 -161 0
-4109 3981 0
4109 161 -3981 0
-4377 -152 0
-4377 4313 0
4377 152 -4313 0
-4505 -153 0
-4505 4377 0
4505 153 -4377 0
-4649 -4109 0
-4649 -4505 0
4649 4109 4505 0
-4793 -3713 0
-4793 4649 0
4793 3713 -4649 0
-4937 -3317 0
-4937 4793 0
4937 3317 -4793 0
-5081 -2921 0
-5081 4937 0
5081 2921 -4937 0
-5225 -2525 0
-5225 5081 0
5225 2525 -5081 0
-5369 -2129 0
-5369 5225 0
5369 2129 -5225 0
-5513 -1733 0
-5513 5369 0
5513 1733 -5369 0
-5657 -1337 0
-5657 5513 0
5657 1337 -5513 0
-5801 -941 0
-5801 5657 0
5801 941 -5657 0
-5945 -545 0
-5945 5801 0
5945 545 -5801 0
-6207 61 0
-6207 5945 0
6207 -61 -5945 0
-6208 -61 0
-6208 -5945 0
6208 61 5945 0
-6209 -6207 0
-6209 -6208 0
6209 6207 6208 0
60 -18850 0
-60 18850 0
-416 -232 0
-416 352 0
416 232 -352 0
-544 -233 0
-544 416 0
544 233 -416 0
-812 -224 0
-812 748 0
812 224 -748 0
-940 -225 0
-940 812 0
940 225 -812 0
-1208 -216 0
-1208 1144 0
1208 216 -1144 0
-1336 -217 0
-1336 1208 0
1336 217 -1208 0
-1604 -208 0
-1604 1540 0
1604 208 -1540 0
-1732 -209 0
-1732 1604 0
1732 209 -1604 0
-2000 -200 0
-2000 1936 0
2000 200 -1936 0
-2128 -201 0
-2128 2000 0
2128 201 -2000 0
-2396 -192 0
-2396 2332 0
2396 192 -2332 0
-2524 -193 0
-2524 2396 0
2524 193 -2396 0
-2792 -184 0
-2792 2728 0
2792 184 -2728 0
-2920 -185 0
-2920 2792 0
2920 185 -2792 0
-3188 -176 0
-3188 3124 0
3188 176 -3124 0
-3316 -177 0
-3316 3188 0
3316 177 -3188 0
-3584 -168 0
-3584 3520 0
3584 168 -3520 0
-3712 -169 0
-3712 3584 0
3712 169 -3584 0
-3980 -160 0
-3980 3916 0
3980 160 -3916 0
-4108 -161 0
-4108 3980 0
4108 161 -3980 0
-4376 -152 0
-4376 4312 0
4376 152 -4312 0
-4504 -153 0
-4504 4376 0
4504 153 -4376 0
-4648 -4108 0
-4648 -4504 0
4648 4108 4504 0
-4792 -3712 0
-4792 4648 0
4792 3712 -4648 0
-4936 -3316 0
-4936 4792 0
4936 3316 -4792 0
-5080 -2920 0
-5080 4936 0
5080 2920 -4936 0
-5224 -2524 0
-5224 5080 0
5224 2524 -5080 0
-5368 -2128 0
-5368 5224 0
5368 2128 -5224 0
-5512 -1732 0
-5512 5368 0
5512 1732 -5368 0
-5656 -1336 0
-5656 5512 0
5656 1336 -5512 0
-5800 -940 0
-5800 5656 0
5800 940 -5656 0
-5944 -544 0
-5944 5800 0
5944 544 -5800 0
-6204 60 0
-6204 5944 0
6204 -60 -5944 0
-6205 -60 0
-6205 -5944 0
6205 60 5944 0
-6206 -6204 0
-6206 -6205 0
6206 6204 6205 0
59 -18849 0
-59 18849 0
-415 -232 0
-415 351 0
415 232 -351 0
-543 -233 0
-543 415 0
543 233 -415 0
-811 -224 0
-811 747 0
811 224 -747 0
-939 -225 0
-939 811 0
939 225 -811 0
-1207 -216 0
-1207 1143 0
1207 216 -1143 0
-1335 -217 0
-1335 1207 0
1335 217 -1207 0
-1603 -208 0
-1603 1539 0
1603 208 -1539 0
-1731 -209 0
-1731 1603 0
1731 209 -1603 0
-1999 -200 0
-1999 1935 0
1999 200 -1935 0
-2127 -201 0
-2127 1999 0
2127 201 -1999 0
-2395 -192 0
-2395 2331 0
2395 192 -2331 0
-2523 -193 0
-2523 2395 0
2523 193 -2395 0
-2791 -184 0
-2791 2727 0
2791 184 -2727 0
-2919 -185 0
-2919 2791 0
2919 185 -2791 0
-3187 -176 0
-3187 3123 0
3187 176 -3123 0
-3315 -177 0
-3315 3187 0
3315 177 -3187 0
-3583 -168 0
-3583 3519 0
3583 168 -3519 0
-3711 -169 0
-3711 3583 0
3711 169 -3583 0
-3979 -160 0
-3979 3915 0
3979 160 -3915 0
-4107 -161 0
-4107 3979 0
4107 161 -3979 0
-4375 -152 0
-4375 4311 0
4375 152 -4311 0
-4503 -153 0
-4503 4375 0
4503 153 -4375 0
-4647 -4107 0
-4647 -4503 0
4647 4107 4503 0
-4791 -3711 0
-4791 4647 0
4791 3711 -4647 0
-4935 -3315 0
-4935 4791 0
4935 3315 -4791 0
-5079 -2919 0
-5079 4935 0
5079 2919 -4935 0
-5223 -2523 0
-5223 5079 0
5223 2523 -5079 0
-5367 -2127 0
-5367 5223 0
5367 2127 -5223 0
-5511 -1731 0
-5511 5367 0
5511 1731 -5367 0
-5655 -1335 0
-5655 5511 0
5655 1335 -5511 0
-5799 -939 0
-5799 5655 0
5799 939 -5655 0
-5943 -543 0
-5943 5799 0
5943 543 -5799 0
-6201 59 0
-6201 5943 0
6201 -59 -5943 0
-6202 -59 0
-6202 -5943 0
6202 59 5943 0
-6203 -6201 0
-6203 -6202 0
6203 6201 6202 0
58 -18848 0
-58 18848 0
-414 -232 0
-414 350 0
414 232 -350 0
-542 -233 0
-542 414 0
542 233 -414 0
-810 -224 0
-810 746 0
810 224 -746 0
-938 -225 0
-938 810 0
938 225 -810 0
-1206 -216 0
-1206 1142 0
1206 216 -1142 0
-1334 -217 0
-1334 1206 0
1334 217 -1206 0
-1602 -208 0
-1602 1538 0
1602 208 -1538 0
-1730 -209 0
-1730 1602 0
1730 209 -1602 0
-1998 -200 0
-1998 1934 0
1998 200 -1934 0
-2126 -201 0
-2126 1998 0
2126 201 -1998 0
-2394 -192 0
-2394 2330 0
2394 192 -2330 0
-2522 -193 0
-2522 2394 0
2522 193 -2394 0
-2790 -184 0
-2790 2726 0
2790 184 -2726 0
-2918 -185 0
-2918 2790 0
2918 185 -2790 0
-3186 -176 0
-3186 3122 0
3186 176 -3122 0
-3314 -177 0
-3314 3186 0
3314 177 -3186 0
-3582 -168 0
-3582 3518 0
3582 168 -3518 0
-3710 -169 0
-3710 3582 0
3710 169 -3582 0
-3978 -160 0
-3978 3914 0
3978 160 -3914 0
-4106 -161 0
-4106 3978 0
4106 161 -3978 0
-4374 -152 0
-4374 4310 0
4374 152 -4310 0
-4502 -153 0
-4502 4374 0
4502 153 -4374 0
-4646 -4106 0
-4646 -4502 0
4646 4106 4502 0
-4790 -3710 0
-4790 4646 0
4790 3710 -4646 0
-4934 -3314 0
-4934 4790 0
4934 3314 -4790 0
-5078 -2918 0
-5078 4934 0
5078 2918 -4934 0
-5222 -2522 0
-5222 5078 0
5222 2522 -5078 0
-5366 -2126 0
-5366 5222 0
5366 2126 -5222 0
-5510 -1730 0
-5510 5366 0
5510 1730 -5366 0
-5654 -1334 0
-5654 5510 0
5654 1334 -5510 0
-5798 -938 0
-5798 5654 0
5798 938 -5654 0
-5942 -542 0
-5942 5798 0
5942 542 -5798 0
-6198 58 0
-6198 5942 0
6198 -58 -5942 0
-6199 -58 0
-6199 -5942 0
6199 58 5942 0
-6200 -6198 0
-6200 -6199 0
6200 6198 6199 0
57 -18847 0
-57 18847 0
-413 -232 0
-413 349 0
413 232 -349 0
-541 -233 0
-541 413 0
541 233 -413 0
-809 -224 0
-809 745 0
809 224 -745 0
-937 -225 0
-937 809 0
937 225 -809 0
-1205 -216 0
-1205 1141 0
1205 216 -1141 0
-1333 -217 0
-1333 1205 0
1333 217 -1205 0
-1601 -208 0
-1601 1537 0
1601 208 -1537 0
-1729 -209 0
-1729 1601 0
1729 209 -1601 0
-1997 -200 0
-1997 1933 0
1997 200 -1933 0
-2125 -201 0
-2125 1997 0
2125 201 -1997 0
-2393 -192 0
-2393 2329 0
2393 192 -2329 0
-2521 -193 0
-2521 2393 0
2521 193 -2393 0
-2789 -184 0
-2789 2725 0
2789 184 -2725 0
-2917 -185 0
-2917 2789 0
2917 185 -2789 0
-3185 -176 0
-3185 3121 0
3185 176 -3121 0
-3313 -177 0
-3313 3185 0
3313 177 -3185 0
-3581 -168 0
-3581 3517 0
3581 168 -3517 0
-3709 -169 0
-3709 3581 0
3709 169 -3581 0
-3977 -160 0
-3977 3913 0
3977 160 -3913 0
-4105 -161 0
-4105 3977 0
4105 161 -3977 0
-4373 -152 0
-4373 4309 0
4373 152 -4309 0
-4501 -153 0
-4501 4373 0
4501 153 -4373 0
-4645 -4105 0
-4645 -4501 0
4645 4105 4501 0
-4789 -3709 0
-4789 4645 0
4789 3709 -4645 0
-4933 -3313 0
-4933 4789 0
4933 3313 -4789 0
-5077 -2917 0
-5077 4933 0
5077 2917 -4933 0
-5221 -2521 0
-5221 5077 0
5221 2521 -5077 0
-5365 -2125 0
-5365 5221 0
5365 2125 -5221 0
-5509 -1729 0
-5509 5365 0
5509 1729 -5365 0
-5653 -1333 0
-5653 5509 0
5653 1333 -5509 0
-5797 -937 0
-5797 5653 0
5797 937 -5653 0
-5941 -541 0
-5941 5797 0
5941 541 -5797 0
-6195 57 0
-6195 5941 0
6195 -57 -5941 0
-6196 -57 0
-6196 -5941 0
6196 57 5941 0
-6197 -6195 0
-6197 -6196 0
6197 6195 6196 0
56 -18846 0
-56 18846 0
-412 -232 0
-412 348 0
412 232 -348 0
-540 -233 0
-540 412 0
540 233 -412 0
-808 -224 0
-808 744 0
808 224 -744 0
-936 -225 0
-936 808 0
936 225 -808 0
-1204 -216 0
-1204 1140 0
1204 216 -1140 0
-1332 -217 0
-1332 1204 0
1332 217 -1204 0
-1600 -208 0
-1600 1536 0
1600 208 -1536 0
-1728 -209 0
-1728 1600 0
1728 209 -1600 0
-1996 -200 0
-1996 1932 0
1996 200 -1932 0
-2124 -201 0
-2124 1996 0
2124 201 -1996 0
-2392 -192 0
-2392 2328 0
2392 192 -2328 0
-2520 -193 0
-2520 2392 0
2520 193 -2392 0
-2788 -184 0
-2788 2724 0
2788 184 -2724 0
-2916 -185 0
-2916 2788 0
2916 185 -2788 0
-3184 -176 0
-3184 3120 0
3184 176 -3120 0
-3312 -177 0
-3312 3184 0
3312 177 -3184 0
-3580 -168 0
-3580 3516 0
3580 168 -3516 0
-3708 -169 0
-3708 3580 0
3708 169 -3580 0
-3976 -160 0
-3976 3912 0
3976 160 -3912 0
-4104 -161 0
-4104 3976 0
4104 161 -3976 0
-4372 -152 0
-4372 4308 0
4372 152 -4308 0
-4500 -153 0
-4500 4372 0
4500 153 -4372 0
-4644 -4104 0
-4644 -4500 0
4644 4104 4500 0
-4788 -3708 0
-4788 4644 0
4788 3708 -4644 0
-4932 -3312 0
-4932 4788 0
4932 3312 -4788 0
-5076 -2916 0
-5076 4932 0
5076 2916 -4932 0
-5220 -2520 0
-5220 5076 0
5220 2520 -5076 0
-5364 -2124 0
-5364 5220 0
5364 2124 -5220 0
-5508 -1728 0
-5508 5364 0
5508 1728 -5364 0
-5652 -1332 0
-5652 5508 0
5652 1332 -5508 0
-5796 -936 0
-5796 5652 0
5796 936 -5652 0
-5940 -540 0
-5940 5796 0
5940 540 -5796 0
-6192 56 0
-6192 5940 0
6192 -56 -5940 0
-6193 -56 0
-6193 -5940 0
6193 56 5940 0
-6194 -6192 0
-6194 -6193 0
6194 6192 6193 0
55 -18845 0
-55 18845 0
-411 -232 0
-411 347 0
411 232 -347 0
-539 -233 0
-539 411 0
539 233 -411 0
-807 -224 0
-807 743 0
807 224 -743 0
-935 -225 0
-935 807 0
935 225 -807 0
-1203 -216 0
-1203 1139 0
1203 216 -1139 0
-1331 -217 0
-1331 1203 0
1331 217 -1203 0
-1599 -208 0
-1599 1535 0
1599 208 -1535 0
-1727 -209 0
-1727 1599 0
1727 209 -1599 0
-1995 -200 0
-1995 1931 0
1995 200 -1931 0
-2123 -201 0
-2123 1995 0
2123 201 -1995 0
-2391 -192 0
-2391 2327 0
2391 192 -2327 0
-2519 -193 0
-2519 2391 0
2519 193 -2391 0
-2787 -184 0
-2787 2723 0
2787 184 -2723 0
-2915 -185 0
-2915 2787 0
2915 185 -2787 0
-3183 -176 0
-3183 3119 0
3183 176 -3119 0
-3311 -177 0
-3311 3183 0
3311 177 -3183 0
-3579 -168 0
-3579 3515 0
3579 168 -3515 0
-3707 -169 0
-3707 3579 0
3707 169 -3579 0
-3975 -160 0
-3975 3911 0
3975 160 -3911 0
-4103 -161 0
-4103 3975 0
4103 161 -3975 0
-4371 -152 0
-4371 4307 0
4371 152 -4307 0
-4499 -153 0
-4499 4371 0
4499 153 -4371 0
-4643 -4103 0
-4643 -4499 0
4643 4103 4499 0
-4787 -3707 0
-4787 4643 0
4787 3707 -4643 0
-4931 -3311 0
-4931 4787 0
4931 3311 -4787 0
-5075 -2915 0
-5075 4931 0
5075 2915 -4931 0
-5219 -2519 0
-5219 5075 0
5219 2519 -5075 0
-5363 -2123 0
-5363 5219 0
5363 2123 -5219 0
-5507 -1727 0
-5507 5363 0
5507 1727 -5363 0
-5651 -1331 0
-5651 5507 0
5651 1331 -5507 0
-5795 -935 0
-5795 5651 0
5795 935 -5651 0
-5939 -539 0
-5939 5795 0
5939 539 -5795 0
-6189 55 0
-6189 5939 0
6189 -55 -5939 0
-6190 -55 0
-6190 -5939 0
6190 55 5939 0
-6191 -6189 0
-6191 -6190 0
6191 6189 6190 0
54 -18844 0
-54 18844 0
-410 -232 0
-410 346 0
410 232 -346 0
-538 -233 0
-538 410 0
538 233 -410 0
-806 -224 0
-806 742 0
806 224 -742 0
-934 -225 0
-934 806 0
934 225 -806 0
-1202 -216 0
-1202 1138 0
1202 216 -1138 0
-1330 -217 0
-1330 1202 0
1330 217 -1202 0
-1598 -208 0
-1598 1534 0
1598 208 -1534 0
-1726 -209 0
-1726 1598 0
1726 209 -1598 0
-1994 -200 0
-1994 1930 0
1994 200 -1930 0
-2122 -201 0
-2122 1994 0
2122 201 -1994 0
-2390 -192 0
-2390 2326 0
2390 192 -2326 0
-2518 -193 0
-2518 2390 0
2518 193 -2390 0
-2786 -184 0
-2786 2722 0
2786 184 -2722 0
-2914 -185 0
-2914 2786 0
2914 185 -2786 0
-3182 -176 0
-3182 3118 0
3182 176 -3118 0
-3310 -177 0
-3310 3182 0
3310 177 -3182 0
-3578 -168 0
-3578 3514 0
3578 168 -3514 0
-3706 -169 0
-3706 3578 0
3706 169 -3578 0
-3974 -160 0
-3974 3910 0
3974 160 -3910 0
-4102 -161 0
-4102 3974 0
4102 161 -3974 0
-4370 -152 0
-4370 4306 0
4370 152 -4306 0
-4498 -153 0
-4498 4370 0
4498 153 -4370 0
-4642 -4102 0
-4642 -4498 0
4642 4102 4498 0
-4786 -3706 0
-4786 4642 0
4786 3706 -4642 0
-4930 -3310 0
-4930 4786 0
4930 3310 -4786 0
-5074 -2914 0
-5074 4930 0
5074 2914 -4930 0
-5218 -2518 0
-5218 5074 0
5218 2518 -5074 0
-5362 -2122 0
-5362 5218 0
5362 2122 -5218 0
-5506 -1726 0
-5506 5362 0
5506 1726 -5362 0
-5650 -1330 0
-5650 5506 0
5650 1330 -5506 0
-5794 -934 0
-5794 5650 0
5794 934 -5650 0
-5938 -538 0
-5938 5794 0
5938 538 -5794 0
-6186 54 0
-6186 5938 0
6186 -54 -5938 0
-6187 -54 0
-6187 -5938 0
6187 54 5938 0
-6188 -6186 0
-6188 -6187 0
6188 6186 6187 0
53 -18843 0
-53 18843 0
-409 -232 0
-409 345 0
409 232 -345 0
-537 -233 0
-537 409 0
537 233 -409 0
-805 -224 0
-805 741 0
805 224 -741 0
-933 -225 0
-933 805 0
933 225 -805 0
-1201 -216 0
-1201 1137 0
1201 216 -1137 0
-1329 -217 0
-1329 1201 0
1329 217 -1201 0
-1597 -208 0
-1597 1533 0
1597 208 -1533 0
-1725 -209 0
-1725 1597 0
1725 209 -1597 0
-1993 -200 0
-1993 1929 0
1993 200 -1929 0
-2121 -201 0
-2121 1993 0
2121 201 -1993 0
-2389 -192 0
-2389 2325 0
2389 192 -2325 0
-2517 -193 0
-2517 2389 0
2517 193 -2389 0
-2785 -184 0
-2785 2721 0
2785 184 -2721 0
-2913 -185 0
-2913 2785 0
2913 185 -2785 0
-3181 -176 0
-3181 3117 0
3181 176 -3117 0
-3309 -177 0
-3309 3181 0
3309 177 -3181 0
-3577 -168 0
-3577 3513 0
3577 168 -3513 0
-3705 -169 0
-3705 3577 0
3705 169 -3577 0
-3973 -160 0
-3973 3909 0
3973 160 -3909 0
-4101 -161 0
-4101 3973 0
4101 161 -3973 0
-4369 -152 0
-4369 4305 0
4369 152 -4305 0
-4497 -153 0
-4497 4369 0
4497 153 -4369 0
-4641 -4101 0
-4641 -4497 0
4641 4101 4497 0
-4785 -3705 0
-4785 4641 0
4785 3705 -4641 0
-4929 -3309 0
-4929 4785 0
4929 3309 -4785 0
-5073 -2913 0
-5073 4929 0
5073 2913 -4929 0
-5217 -2517 0
-5217 5073 0
5217 2517 -5073 0
-5361 -2121 0
-5361 5217 0
5361 2121 -5217 0
-5505 -1725 0
-5505 5361 0
5505 1725 -5361 0
-5649 -1329 0
-5649 5505 0
5649 1329 -5505 0
-5793 -933 0
-5793 5649 0
5793 933 -5649 0
-5937 -537 0
-5937 5793 0
5937 537 -5793 0
-6183 53 0
-6183 5937 0
6183 -53 -5937 0
-6184 -53 0
-6184 -5937 0
6184 53 5937 0
-6185 -6183 0
-6185 -6184 0
6185 6183 6184 0
52 -18842 0
-52 18842 0
-408 -232 0
-408 344 0
408 232 -344 0
-536 -233 0
-536 408 0
536 233 -408 0
-804 -224 0
-804 740 0
804 224 -740 0
-932 -225 0
-932 804 0
932 225 -804 0
-1200 -216 0
-1200 1136 0
1200 216 -1136 0
-1328 -217 0
-1328 1200 0
1328 217 -1200 0
-1596 -208 0
-1596 1532 0
1596 208 -1532 0
-1724 -209 0
-1724 1596 0
1724 209 -1596 0
-1992 -200 0
-1992 1928 0
1992 200 -1928 0
-2120 -201 0
-2120 1992 0
2120 201 -1992 0
-2388 -192 0
-2388 2324 0
2388 192 -2324 0
-2516 -193 0
-2516 2388 0
2516 193 -2388 0
-2784 -184 0
-2784 2720 0
2784 184 -2720 0
-2912 -185 0
-2912 2784 0
2912 185 -2784 0
-3180 -176 0
-3180 3116 0
3180 176 -3116 0
-3308 -177 0
-3308 3180 0
3308 177 -3180 0
-3576 -168 0
-3576 3512 0
3576 168 -3512 0
-3704 -169 0
-3704 3576 0
3704 169 -3576 0
-3972 -160 0
-3972 3908 0
3972 160 -3908 0
-4100 -161 0
-4100 3972 0
4100 161 -3972 0
-4368 -152 0
-4368 4304 0
4368 152 -4304 0
-4496 -153 0
-4496 4368 0
4496 153 -4368 0
-4640 -4100 0
-4640 -4496 0
4640 4100 4496 0
-4784 -3704 0
-4784 4640 0
4784 3704 -4640 0
-4928 -3308 0
-4928 4784 0
4928 3308 -4784 0
-5072 -2912 0
-5072 4928 0
5072 2912 -4928 0
-5216 -2516 0
-5216 5072 0
5216 2516 -5072 0
-5360 -2120 0
-5360 5216 0
5360 2120 -5216 0
-5504 -1724 0
-5504 5360 0
5504 1724 -5360 0
-5648 -1328 0
-5648 5504 0
5648 1328 -5504 0
-5792 -932 0
-5792 5648 0
5792 932 -5648 0
-5936 -536 0
-5936 5792 0
5936 536 -5792 0
-6180 52 0
-6180 5936 0
6180 -52 -5936 0
-6181 -52 0
-6181 -5936 0
6181 52 5936 0
-6182 -6180 0
-6182 -6181 0
6182 6180 6181 0
51 -18841 0
-51 18841 0
-407 -232 0
-407 343 0
407 232 -343 0
-535 -233 0
-535 407 0
535 233 -407 0
-803 -224 0
-803 739 0
803 224 -739 0
-931 -225 0
-931 803 0
931 225 -803 0
-1199 -216 0
-1199 1135 0
1199 216 -1135 0
-1327 -217 0
-1327 1199 0
1327 217 -1199 0
-1595 -208 0
-1595 1531 0
1595 208 -1531 0
-1723 -209 0
-1723 1595 0
1723 209 -1595 0
-1991 -200 0
-1991 1927 0
1991 200 -1927 0
-2119 -201 0
-2119 1991 0
2119 201 -1991 0
-2387 -192 0
-2387 2323 0
2387 192 -2323 0
-2515 -193 0
-2515 2387 0
2515 193 -2387 0
-2783 -184 0
-2783 2719 0
2783 184 -2719 0
-2911 -185 0
-2911 2783 0
2911 185 -2783 0
-3179 -176 0
-3179 3115 0
3179 176 -3115 0
-3307 -177 0
-3307 3179 0
3307 177 -3179 0
-3575 -168 0
-3575 3511 0
3575 168 -3511 0
-3703 -169 0
-3703 3575 0
3703 169 -3575 0
-3971 -160 0
-3971 3907 0
3971 160 -3907 0
-4099 -161 0
-4099 3971 0
4099 161 -3971 0
-4367 -152 0
-4367 4303 0
4367 152 -4303 0
-4495 -153 0
-4495 4367 0
4495 153 -4367 0
-4639 -4099 0
-4639 -4495 0
4639 4099 4495 0
-4783 -3703 0
-4783 4639 0
4783 3703 -4639 0
-4927 -3307 0
-4927 4783 0
4927 3307 -4783 0
-5071 -2911 0
-5071 4927 0
5071 2911 -4927 0
-5215 -2515 0
-5215 5071 0
5215 2515 -5071 0
-5359 -2119 0
-5359 5215 0
5359 2119 -5215 0
-5503 -1723 0
-5503 5359 0
5503 1723 -5359 0
-5647 -1327 0
-5647 5503 0
5647 1327 -5503 0
-5791 -931 0
-5791 5647 0
5791 931 -5647 0
-5935 -535 0
-5935 5791 0
5935 535 -5791 0
-6177 51 0
-6177 5935 0
6177 -51 -5935 0
-6178 -51 0
-6178 -5935 0
6178 51 5935 0
-6179 -6177 0
-6179 -6178 0
6179 6177 6178 0
50 -18840 0
-50 18840 0
-406 -232 0
-406 342 0
406 232 -342 0
-534 -233 0
-534 406 0
534 233 -406 0
-802 -224 0
-802 738 0
802 224 -738 0
-930 -225 0
-930 802 0
930 225 -802 0
-1198 -216 0
-1198 1134 0
1198 216 -1134 0
-1326 -217 0
-1326 1198 0
1326 217 -1198 0
-1594 -208 0
-1594 1530 0
1594 208 -1530 0
-1722 -209 0
-1722 1594 0
1722 209 -1594 0
-1990 -200 0
-1990 1926 0
1990 200 -1926 0
-2118 -201 0
-2118 1990 0
2118 201 -1990 0
-2386 -192 0
-2386 2322 0
2386 192 -2322 0
-2514 -193 0
-2514 2386 0
2514 193 -2386 0
-2782 -184 0
-2782 2718 0
2782 184 -2718 0
-2910 -185 0
-2910 2782 0
2910 185 -2782 0
-3178 -176 0
-3178 3114 0
3178 176 -3114 0
-3306 -177 0
-3306 3178 0
3306 177 -3178 0
-3574 -168 0
-3574 3510 0
3574 168 -3510 0
-3702 -169 0
-3702 3574 0
3702 169 -3574 0
-3970 -160 0
-3970 3906 0
3970 160 -3906 0
-4098 -161 0
-4098 3970 0
4098 161 -3970 0
-4366 -152 0
-4366 4302 0
4366 152 -4302 0
-4494 -153 0
-4494 4366 0
4494 153 -4366 0
-4638 -4098 0
-4638 -4494 0
4638 4098 4494 0
-4782 -3702 0
-4782 4638 0
4782 3702 -4638 0
-4926 -3306 0
-4926 4782 0
4926 3306 -4782 0
-5070 -2910 0
-5070 4926 0
5070 2910 -4926 0
-5214 -2514 0
-5214 5070 0
5214 2514 -5070 0
-5358 -2118 0
-5358 5214 0
5358 2118 -5214 0
-5502 -1722 0
-5502 5358 0
5502 1722 -5358 0
-5646 -1326 0
-5646 5502 0
5646 1326 -5502 0
-5790 -930 0
-5790 5646 0
5790 930 -5646 0
-5934 -534 0
-5934 5790 0
5934 534 -5790 0
-6174 50 0
-6174 5934 0
6174 -50 -5934 0
-6175 -50 0
-6175 -5934 0
6175 50 5934 0
-6176 -6174 0
-6176 -6175 0
6176 6174 6175 0
49 -18839 0
-49 18839 0
-405 -232 0
-405 341 0
405 232 -341 0
-533 -233 0
-533 405 0
533 233 -405 0
-801 -224 0
-801 737 0
801 224 -737 0
-929 -225 0
-929 801 0
929 225 -801 0
-1197 -216 0
-1197 1133 0
1197 216 -1133 0
-1325 -217 0
-1325 1197 0
1325 217 -1197 0
-1593 -208 0
-1593 1529 0
1593 208 -1529 0
-1721 -209 0
-1721 1593 0
1721 209 -1593 0
-1989 -200 0
-1989 1925 0
1989 200 -1925 0
-2117 -201 0
-2117 1989 0
2117 201 -1989 0
-2385 -192 0
-2385 2321 0
2385 192 -2321 0
-2513 -193 0
-2513 2385 0
2513 193 -2385 0
-2781 -184 0
-2781 2717 0
2781 184 -2717 0
-2909 -185 0
-2909 2781 0
2909 185 -2781 0
-3177 -176 0
-3177 3113 0
3177 176 -3113 0
-3305 -177 0
-3305 3177 0
3305 177 -3177 0
-3573 -168 0
-3573 3509 0
3573 168 -3509 0
-3701 -169 0
-3701 3573 0
3701 169 -3573 0
-3969 -160 0
-3969 3905 0
3969 160 -3905 0
-4097 -161 0
-4097 3969 0
4097 161 -3969 0
-4365 -152 0
-4365 4301 0
4365 152 -4301 0
-4493 -153 0
-4493 4365 0
4493 153 -4365 0
-4637 -4097 0
-4637 -4493 0
4637 4097 4493 0
-4781 -3701 0
-4781 4637 0
4781 3701 -4637 0
-4925 -3305 0
-4925 4781 0
4925 3305 -4781 0
-5069 -2909 0
-5069 4925 0
5069 2909 -4925 0
-5213 -2513 0
-5213 5069 0
5213 2513 -5069 0
-5357 -2117 0
-5357 5213 0
5357 2117 -5213 0
-5501 -1721 0
-5501 5357 0
5501 1721 -5357 0
-5645 -1325 0
-5645 5501 0
5645 1325 -5501 0
-5789 -929 0
-5789 5645 0
5789 929 -5645 0
-5933 -533 0
-5933 5789 0
5933 533 -5789 0
-6171 49 0
-6171 5933 0
6171 -49 -5933 0
-6172 -49 0
-6172 -5933 0
6172 49 5933 0
-6173 -6171 0
-6173 -6172 0
6173 6171 6172 0
48 -18838 0
-48 18838 0
-404 -232 0
-404 340 0
404 232 -340 0
-532 -233 0
-532 404 0
532 233 -404 0
-800 -224 0
-800 736 0
800 224 -736 0
-928 -225 0
-928 800 0
928 225 -800 0
-1196 -216 0
-1196 1132 0
1196 216 -1132 0
-1324 -217 0
-1324 1196 0
1324 217 -1196 0
-1592 -208 0
-1592 1528 0
1592 208 -1528 0
-1720 -209 0
-1720 1592 0
1720 209 -1592 0
-1988 -200 0
-1988 1924 0
1988 200 -1924 0
-2116 -201 0
-2116 1988 0
2116 201 -1988 0
-2384 -192 0
-2384 2320 0
2384 192 -2320 0
-2512 -193 0
-2512 2384 0
2512 193 -2384 0
-2780 -184 0
-2780 2716 0
2780 184 -2716 0
-2908 -185 0
-2908 2780 0
2908 185 -2780 0
-3176 -176 0
-3176 3112 0
3176 176 -3112 0
-3304 -177 0
-3304 3176 0
3304 177 -3176 0
-3572 -168 0
-3572 3508 0
3572 168 -3508 0
-3700 -169 0
-3700 3572 0
3700 169 -3572 0
-3968 -160 0
-3968 3904 0
3968 160 -3904 0
-4096 -161 0
-4096 3968 0
4096 161 -3968 0
-4364 -152 0
-4364 4300 0
4364 152 -4300 0
-4492 -153 0
-4492 4364 0
4492 153 -4364 0
-4636 -4096 0
-4636 -4492 0
4636 4096 4492 0
-4780 -3700 0
-4780 4636 0
4780 3700 -4636 0
-4924 -3304 0
-4924 4780 0
4924 3304 -4780 0
-5068 -2908 0
-5068 4924 0
5068 2908 -4924 0
-5212 -2512 0
-5212 5068 0
5212 2512 -5068 0
-5356 -2116 0
-5356 5212 0
5356 2116 -5212 0
-5500 -1720 0
-5500 5356 0
5500 1720 -5356 0
-5644 -1324 0
-5644 5500 0
5644 1324 -5500 0
-5788 -928 0
-5788 5644 0
5788 928 -5644 0
-5932 -532 0
-5932 5788 0
5932 532 -5788 0
-6168 48 0
-6168 5932 0
6168 -48 -5932 0
-6169 -48 0
-6169 -5932 0
6169 48 5932 0
-6170 -6168 0
-6170 -6169 0
6170 6168 6169 0
47 -18837 0
-47 18837 0
-403 -232 0
-403 339 0
403 232 -339 0
-531 -233 0
-531 403 0
531 233 -403 0
-799 -224 0
-799 735 0
799 224 -735 0
-927 -225 0
-927 799 0
927 225 -799 0
-1195 -216 0
-1195 1131 0
1195 216 -1131 0
-1323 -217 0
-1323 1195 0
1323 217 -1195 0
-1591 -208 0
-1591 1527 0
1591 208 -1527 0
-1719 -209 0
-1719 1591 0
1719 209 -1591 0
-1987 -200 0
-1987 1923 0
1987 200 -1923 0
-2115 -201 0
-2115 1987 0
2115 201 -1987 0
-2383 -192 0
-2383 2319 0
2383 192 -2319 0
-2511 -193 0
-2511 2383 0
2511 193 -2383 0
-2779 -184 0
-2779 2715 0
2779 184 -2715 0
-2907 -185 0
-2907 2779 0
2907 185 -2779 0
-3175 -176 0
-3175 3111 0
3175 176 -3111 0
-3303 -177 0
-3303 3175 0
3303 177 -3175 0
-3571 -168 0
-3571 3507 0
3571 168 -3507 0
-3699 -169 0
-3699 3571 0
3699 169 -3571 0
-3967 -160 0
-3967 3903 0
3967 160 -3903 0
-4095 -161 0
-4095 3967 0
4095 161 -3967 0
-4363 -152 0
-4363 4299 0
4363 152 -4299 0
-4491 -153 0
-4491 4363 0
4491 153 -4363 0
-4635 -4095 0
-4635 -4491 0
4635 4095 4491 0
-4779 -3699 0
-4779 4635 0
4779 3699 -4635 0
-4923 -3303 0
-4923 4779 0
4923 3303 -4779 0
-5067 -2907 0
-5067 4923 0
5067 2907 -4923 0
-5211 -2511 0
-5211 5067 0
5211 2511 -5067 0
-5355 -2115 0
-5355 5211 0
5355 2115 -5211 0
-5499 -1719 0
-5499 5355 0
5499 1719 -5355 0
-5643 -1323 0
-5643 5499 0
5643 1323 -5499 0
-5787 -927 0
-5787 5643 0
5787 927 -5643 0
-5931 -531 0
-5931 5787 0
5931 531 -5787 0
-6165 47 0
-6165 5931 0
6165 -47 -5931 0
-6166 -47 0
-6166 -5931 0
6166 47 5931 0
-6167 -6165 0
-6167 -6166 0
6167 6165 6166 0
46 -18836 0
-46 18836 0
-402 -232 0
-402 338 0
402 232 -338 0
-530 -233 0
-530 402 0
530 233 -402 0
-798 -224 0
-798 734 0
798 224 -734 0
-926 -225 0
-926 798 0
926 225 -798 0
-1194 -216 0
-1194 1130 0
1194 216 -1130 0
-1322 -217 0
-1322 1194 0
1322 217 -1194 0
-1590 -208 0
-1590 1526 0
1590 208 -1526 0
-1718 -209 0
-1718 1590 0
1718 209 -1590 0
-1986 -200 0
-1986 1922 0
1986 200 -1922 0
-2114 -201 0
-2114 1986 0
2114 201 -1986 0
-2382 -192 0
-2382 2318 0
2382 192 -2318 0
-2510 -193 0
-2510 2382 0
2510 193 -2382 0
-2778 -184 0
-2778 2714 0
2778 184 -2714 0
-2906 -185 0
-2906 2778 0
2906 185 -2778 0
-3174 -176 0
-3174 3110 0
3174 176 -3110 0
-3302 -177 0
-3302 3174 0
3302 177 -3174 0
-3570 -168 0
-3570 3506 0
3570 168 -3506 0
-3698 -169 0
-3698 3570 0
3698 169 -3570 0
-3966 -160 0
-3966 3902 0
3966 160 -3902 0
-4094 -161 0
-4094 3966 0
4094 161 -3966 0
-4362 -152 0
-4362 4298 0
4362 152 -4298 0
-4490 -153 0
-4490 4362 0
4490 153 -4362 0
-4634 -4094 0
-4634 -4490 0
4634 4094 4490 0
-4778 -3698 0
-4778 4634 0
4778 3698 -4634 0
-4922 -3302 0
-4922 4778 0
4922 3302 -4778 0
-5066 -2906 0
-5066 4922 0
5066 2906 -4922 0
-5210 -2510 0
-5210 5066 0
5210 2510 -5066 0
-5354 -2114 0
-5354 5210 0
5354 2114 -5210 0
-5498 -1718 0
-5498 5354 0
5498 1718 -5354 0
-5642 -1322 0
-5642 5498 0
5642 1322 -5498 0
-5786 -926 0
-5786 5642 0
5786 926 -5642 0
-5930 -530 0
-5930 5786 0
5930 530 -5786 0
-6162 46 0
-6162 5930 0
6162 -46 -5930 0
-6163 -46 0
-6163 -5930 0
6163 46 5930 0
-6164 -6162 0
-6164 -6163 0
6164 6162 6163 0
45 -18835 0
-45 18835 0
-401 -232 0
-401 337 0
401 232 -337 0
-529 -233 0
-529 401 0
529 233 -401 0
-797 -224 0
-797 733 0
797 224 -733 0
-925 -225 0
-925 797 0
925 225 -797 0
-1193 -216 0
-1193 1129 0
1193 216 -1129 0
-1321 -217 0
-1321 1193 0
1321 217 -1193 0
-1589 -208 0
-1589 1525 0
1589 208 -1525 0
-1717 -209 0
-1717 1589 0
1717 209 -1589 0
-1985 -200 0
-1985 1921 0
1985 200 -1921 0
-2113 -201 0
-2113 1985 0
2113 201 -1985 0
-2381 -192 0
-2381 2317 0
2381 192 -2317 0
-2509 -193 0
-2509 2381 0
2509 193 -2381 0
-2777 -184 0
-2777 2713 0
2777 184 -2713 0
-2905 -185 0
-2905 2777 0
2905 185 -2777 0
-3173 -176 0
-3173 3109 0
3173 176 -3109 0
-3301 -177 0
-3301 3173 0
3301 177 -3173 0
-3569 -168 0
-3569 3505 0
3569 168 -3505 0
-3697 -169 0
-3697 3569 0
3697 169 -3569 0
-3965 -160 0
-3965 3901 0
3965 160 -3901 0
-4093 -161 0
-4093 3965 0
4093 161 -3965 0
-4361 -152 0
-4361 4297 0
4361 152 -4297 0
-4489 -153 0
-4489 4361 0
4489 153 -4361 0
-4633 -4093 0
-4633 -4489 0
4633 4093 4489 0
-4777 -3697 0
-4777 4633 0
4777 3697 -4633 0
-4921 -3301 0
-4921 4777 0
4921 3301 -4777 0
-5065 -2905 0
-5065 4921 0
5065 2905 -4921 0
-5209 -2509 0
-5209 5065 0
5209 2509 -5065 0
-5353 -2113 0
-5353 5209 0
5353 2113 -5209 0
-5497 -1717 0
-5497 5353 0
5497 1717 -5353 0
-5641 -1321 0
-5641 5497 0
5641 1321 -5497 0
-5785 -925 0
-5785 5641 0
5785 925 -5641 0
-5929 -529 0
-5929 5785 0
5929 529 -5785 0
-6159 45 0
-6159 5929 0
6159 -45 -5929 0
-6160 -45 0
-6160 -5929 0
6160 45 5929 0
-6161 -6159 0
-6161 -6160 0
6161 6159 6160 0
44 -18834 0
-44 18834 0
-400 -232 0
-400 336 0
400 232 -336 0
-528 -233 0
-528 400 0
528 233 -400 0
-796 -224 0
-796 732 0
796 224 -732 0
-924 -225 0
-924 796 0
924 225 -796 0
-1192 -216 0
-1192 1128 0
1192 216 -1128 0
-1320 -217 0
-1320 1192 0
1320 217 -1192 0
-1588 -208 0
-1588 1524 0
1588 208 -1524 0
-1716 -209 0
-1716 1588 0
1716 209 -1588 0
-1984 -200 0
-1984 1920 0
1984 200 -1920 0
-2112 -201 0
-2112 1984 0
2112 201 -1984 0
-2380 -192 0
-2380 2316 0
2380 192 -2316 0
-2508 -193 0
-2508 2380 0
2508 193 -2380 0
-2776 -184 0
-2776 2712 0
2776 184 -2712 0
-2904 -185 0
-2904 2776 0
2904 185 -2776 0
-3172 -176 0
-3172 3108 0
3172 176 -3108 0
-3300 -177 0
-3300 3172 0
3300 177 -3172 0
-3568 -168 0
-3568 3504 0
3568 168 -3504 0
-3696 -169 0
-3696 3568 0
3696 169 -3568 0
-3964 -160 0
-3964 3900 0
3964 160 -3900 0
-4092 -161 0
-4092 3964 0
4092 161 -3964 0
-4360 -152 0
-4360 4296 0
4360 152 -4296 0
-4488 -153 0
-4488 4360 0
4488 153 -4360 0
-4632 -4092 0
-4632 -4488 0
4632 4092 4488 0
-4776 -3696 0
-4776 4632 0
4776 3696 -4632 0
-4920 -3300 0
-4920 4776 0
4920 3300 -4776 0
-5064 -2904 0
-5064 4920 0
5064 2904 -4920 0
-5208 -2508 0
-5208 5064 0
5208 2508 -5064 0
-5352 -2112 0
-5352 5208 0
5352 2112 -5208 0
-5496 -1716 0
-5496 5352 0
5496 1716 -5352 0
-5640 -1320 0
-5640 5496 0
5640 1320 -5496 0
-5784 -924 0
-5784 5640 0
5784 924 -5640 0
-5928 -528 0
-5928 5784 0
5928 528 -5784 0
-6156 44 0
-6156 5928 0
6156 -44 -5928 0
-6157 -44 0
-6157 -5928 0
6157 44 5928 0
-6158 -6156 0
-6158 -6157 0
6158 6156 6157 0
43 -18833 0
-43 18833 0
-399 -232 0
-399 335 0
399 232 -335 0
-527 -233 0
-527 399 0
527 233 -399 0
-795 -224 0
-795 731 0
795 224 -731 0
-923 -225 0
-923 795 0
923 225 -795 0
-1191 -216 0
-1191 1127 0
1191 216 -1127 0
-1319 -217 0
-1319 1191 0
1319 217 -1191 0
-1587 -208 0
-1587 1523 0
1587 208 -1523 0
-1715 -209 0
-1715 1587 0
1715 209 -1587 0
-1983 -200 0
-1983 1919 0
1983 200 -1919 0
-2111 -201 0
-2111 1983 0
2111 201 -1983 0
-2379 -192 0
-2379 2315 0
2379 192 -2315 0
-2507 -193 0
-2507 2379 0
2507 193 -2379 0
-2775 -184 0
-2775 2711 0
2775 184 -2711 0
-2903 -185 0
-2903 2775 0
2903 185 -2775 0
-3171 -176 0
-3171 3107 0
3171 176 -3107 0
-3299 -177 0
-3299 3171 0
3299 177 -3171 0
-3567 -168 0
-3567 3503 0
3567 168 -3503 0
-3695 -169 0
-3695 3567 0
3695 169 -3567 0
-3963 -160 0
-3963 3899 0
3963 160 -3899 0
-4091 -161 0
-4091 3963 0
4091 161 -3963 0
-4359 -152 0
-4359 4295 0
4359 152 -4295 0
-4487 -153 0
-4487 4359 0
4487 153 -4359 0
-4631 -4091 0
-4631 -4487 0
4631 4091 4487 0
-4775 -3695 0
-4775 4631 0
4775 3695 -4631 0
-4919 -3299 0
-4919 4775 0
4919 3299 -4775 0
-5063 -2903 0
-5063 4919 0
5063 2903 -4919 0
-5207 -2507 0
-5207 5063 0
5207 2507 -5063 0
-5351 -2111 0
-5351 5207 0
5351 2111 -5207 0
-5495 -1715 0
-5495 5351 0
5495 1715 -5351 0
-5639 -1319 0
-5639 5495 0
5639 1319 -5495 0
-5783 -923 0
-5783 5639 0
5783 923 -5639 0
-5927 -527 0
-5927 5783 0
5927 527 -5783 0
-6153 43 0
-6153 5927 0
6153 -43 -5927 0
-6154 -43 0
-6154 -5927 0
6154 43 5927 0
-6155 -6153 0
-6155 -6154 0
6155 6153 6154 0
42 -18832 0
-42 18832 0
-398 -232 0
-398 334 0
398 232 -334 0
-526 -233 0
-526 398 0
526 233 -398 0
-794 -224 0
-794 730 0
794 224 -730 0
-922 -225 0
-922 794 0
922 225 -794 0
-1190 -216 0
-1190 1126 0
1190 216 -1126 0
-1318 -217 0
-1318 1190 0
1318 217 -1190 0
-1586 -208 0
-1586 1522 0
1586 208 -1522 0
-1714 -209 0
-1714 1586 0
1714 209 -1586 0
-1982 -200 0
-1982 1918 0
1982 200 -1918 0
-2110 -201 0
-2110 1982 0
2110 201 -1982 0
-2378 -192 0
-2378 2314 0
2378 192 -2314 0
-2506 -193 0
-2506 2378 0
2506 193 -2378 0
-2774 -184 0
-2774 2710 0
2774 184 -2710 0
-2902 -185 0
-2902 2774 0
2902 185 -2774 0
-3170 -176 0
-3170 3106 0
3170 176 -3106 0
-3298 -177 0
-3298 3170 0
3298 177 -3170 0
-3566 -168 0
-3566 3502 0
3566 168 -3502 0
-3694 -169 0
-3694 3566 0
3694 169 -3566 0
-3962 -160 0
-3962 3898 0
3962 160 -3898 0
-4090 -161 0
-4090 3962 0
4090 161 -3962 0
-4358 -152 0
-4358 4294 0
4358 152 -4294 0
-4486 -153 0
-4486 4358 0
4486 153 -4358 0
-4630 -4090 0
-4630 -4486 0
4630 4090 4486 0
-4774 -3694 0
-4774 4630 0
4774 3694 -4630 0
-4918 -3298 0
-4918 4774 0
4918 3298 -4774 0
-5062 -2902 0
-5062 4918 0
5062 2902 -4918 0
-5206 -2506 0
-5206 5062 0
5206 2506 -5062 0
-5350 -2110 0
-5350 5206 0
5350 2110 -5206 0
-5494 -1714 0
-5494 5350 0
5494 1714 -5350 0
-5638 -1318 0
-5638 5494 0
5638 1318 -5494 0
-5782 -922 0
-5782 5638 0
5782 922 -5638 0
-5926 -526 0
-5926 5782 0
5926 526 -5782 0
-6150 42 0
-6150 5926 0
6150 -42 -5926 0
-6151 -42 0
-6151 -5926 0
6151 42 5926 0
-6152 -6150 0
-6152 -6151 0
6152 6150 6151 0
41 -18831 0
-41 18831 0
-397 -232 0
-397 333 0
397 232 -333 0
-525 -233 0
-525 397 0
525 233 -397 0
-793 -224 0
-793 729 0
793 224 -729 0
-921 -225 0
-921 793 0
921 225 -793 0
-1189 -216 0
-1189 1125 0
1189 216 -1125 0
-1317 -217 0
-1317 1189 0
1317 217 -1189 0
-1585 -208 0
-1585 1521 0
1585 208 -1521 0
-1713 -209 0
-1713 1585 0
1713 209 -1585 0
-1981 -200 0
-1981 1917 0
1981 200 -1917 0
-2109 -201 0
-2109 1981 0
2109 201 -1981 0
-2377 -192 0
-2377 2313 0
2377 192 -2313 0
-2505 -193 0
-2505 2377 0
2505 193 -2377 0
-2773 -184 0
-2773 2709 0
2773 184 -2709 0
-2901 -185 0
-2901 2773 0
2901 185 -2773 0
-3169 -176 0
-3169 3105 0
3169 176 -3105 0
-3297 -177 0
-3297 3169 0
3297 177 -3169 0
-3565 -168 0
-3565 3501 0
3565 168 -3501 0
-3693 -169 0
-3693 3565 0
3693 169 -3565 0
-3961 -160 0
-3961 3897 0
3961 160 -3897 0
-4089 -161 0
-4089 3961 0
4089 161 -3961 0
-4357 -152 0
-4357 4293 0
4357 152 -4293 0
-4485 -153 0
-4485 4357 0
4485 153 -4357 0
-4629 -4089 0
-4629 -4485 0
4629 4089 4485 0
-4773 -3693 0
-4773 4629 0
4773 3693 -4629 0
-4917 -3297 0
-4917 4773 0
4917 3297 -4773 0
-5061 -2901 0
-5061 4917 0
5061 2901 -4917 0
-5205 -2505 0
-5205 5061 0
5205 2505 -5061 0
-5349 -2109 0
-5349 5205 0
5349 2109 -5205 0
-5493 -1713 0
-5493 5349 0
5493 1713 -5349 0
-5637 -1317 0
-5637 5493 0
5637 1317 -5493 0
-5781 -921 0
-5781 5637 0
5781 921 -5637 0
-5925 -525 0
-5925 5781 0
5925 525 -5781 0
-6147 41 0
-6147 5925 0
6147 -41 -5925 0
-6148 -41 0
-6148 -5925 0
6148 41 5925 0
-6149 -6147 0
-6149 -6148 0
6149 6147 6148 0
40 -18830 0
-40 18830 0
-396 -232 0
-396 332 0
396 232 -332 0
-524 -233 0
-524 396 0
524 233 -396 0
-792 -224 0
-792 728 0
792 224 -728 0
-920 -225 0
-920 792 0
920 225 -792 0
-1188 -216 0
-1188 1124 0
1188 216 -1124 0
-1316 -217 0
-1316 1188 0
1316 217 -1188 0
-1584 -208 0
-1584 1520 0
1584 208 -1520 0
-1712 -209 0
-1712 1584 0
1712 209 -1584 0
-1980 -200 0
-1980 1916 0
1980 200 -1916 0
-2108 -201 0
-2108 1980 0
2108 201 -1980 0
-2376 -192 0
-2376 2312 0
2376 192 -2312 0
-2504 -193 0
-2504 2376 0
2504 193 -2376 0
-2772 -184 0
-2772 2708 0
2772 184 -2708 0
-2900 -185 0
-2900 2772 0
2900 185 -2772 0
-3168 -176 0
-3168 3104 0
3168 176 -3104 0
-3296 -177 0
-3296 3168 0
3296 177 -3168 0
-3564 -168 0
-3564 3500 0
3564 168 -3500 0
-3692 -169 0
-3692 3564 0
3692 169 -3564 0
-3960 -160 0
-3960 3896 0
3960 160 -3896 0
-4088 -161 0
-4088 3960 0
4088 161 -3960 0
-4356 -152 0
-4356 4292 0
4356 152 -4292 0
-4484 -153 0
-4484 4356 0
4484 153 -4356 0
-4628 -4088 0
-4628 -4484 0
4628 4088 4484 0
-4772 -3692 0
-4772 4628 0
4772 3692 -4628 0
-4916 -3296 0
-4916 4772 0
4916 3296 -4772 0
-5060 -2900 0
-5060 4916 0
5060 2900 -4916 0
-5204 -2504 0
-5204 5060 0
5204 2504 -5060 0
-5348 -2108 0
-5348 5204 0
5348 2108 -5204 0
-5492 -1712 0
-5492 5348 0
5492 1712 -5348 0
-5636 -1316 0
-5636 5492 0
5636 1316 -5492 0
-5780 -920 0
-5780 5636 0
5780 920 -5636 0
-5924 -524 0
-5924 5780 0
5924 524 -5780 0
-6144 40 0
-6144 5924 0
6144 -40 -5924 0
-6145 -40 0
-6145 -5924 0
6145 40 5924 0
-6146 -6144 0
-6146 -6145 0
6146 6144 6145 0
39 -18829 0
-39 18829 0
-395 -232 0
-395 331 0
395 232 -331 0
-523 -233 0
-523 395 0
523 233 -395 0
-791 -224 0
-791 727 0
791 224 -727 0
-919 -225 0
-919 791 0
919 225 -791 0
-1187 -216 0
-1187 1123 0
1187 216 -1123 0
-1315 -217 0
-1315 1187 0
1315 217 -1187 0
-1583 -208 0
-1583 1519 0
1583 208 -1519 0
-1711 -209 0
-1711 1583 0
1711 209 -1583 0
-1979 -200 0
-1979 1915 0
1979 200 -1915 0
-2107 -201 0
-2107 1979 0
2107 201 -1979 0
-2375 -192 0
-2375 2311 0
2375 192 -2311 0
-2503 -193 0
-2503 2375 0
2503 193 -2375 0
-2771 -184 0
-2771 2707 0
2771 184 -2707 0
-2899 -185 0
-2899 2771 0
2899 185 -2771 0
-3167 -176 0
-3167 3103 0
3167 176 -3103 0
-3295 -177 0
-3295 3167 0
3295 177 -3167 0
-3563 -168 0
-3563 3499 0
3563 168 -3499 0
-3691 -169 0
-3691 3563 0
3691 169 -3563 0
-3959 -160 0
-3959 3895 0
3959 160 -3895 0
-4087 -161 0
-4087 3959 0
4087 161 -3959 0
-4355 -152 0
-4355 4291 0
4355 152 -4291 0
-4483 -153 0
-4483 4355 0
4483 153 -4355 0
-4627 -4087 0
-4627 -4483 0
4627 4087 4483 0
-4771 -3691 0
-4771 4627 0
4771 3691 -4627 0
-4915 -3295 0
-4915 4771 0
4915 3295 -4771 0
-5059 -2899 0
-5059 4915 0
5059 2899 -4915 0
-5203 -2503 0
-5203 5059 0
5203 2503 -5059 0
-5347 -2107 0
-5347 5203 0
5347 2107 -5203 0
-5491 -1711 0
-5491 5347 0
5491 1711 -5347 0
-5635 -1315 0
-5635 5491 0
5635 1315 -5491 0
-5779 -919 0
-5779 5635 0
5779 919 -5635 0
-5923 -523 0
-5923 5779 0
5923 523 -5779 0
-6141 39 0
-6141 5923 0
6141 -39 -5923 0
-6142 -39 0
-6142 -5923 0
6142 39 5923 0
-6143 -6141 0
-6143 -6142 0
6143 6141 6142 0
38 -18828 0
-38 18828 0
-394 -232 0
-394 330 0
394 232 -330 0
-522 -233 0
-522 394 0
522 233 -394 0
-790 -224 0
-790 726 0
790 224 -726 0
-918 -225 0
-918 790 0
918 225 -790 0
-1186 -216 0
-1186 1122 0
1186 216 -1122 0
-1314 -217 0
-1314 1186 0
1314 217 -1186 0
-1582 -208 0
-1582 1518 0
1582 208 -1518 0
-1710 -209 0
-1710 1582 0
1710 209 -1582 0
-1978 -200 0
-1978 1914 0
1978 200 -1914 0
-2106 -201 0
-2106 1978 0
2106 201 -1978 0
-2374 -192 0
-2374 2310 0
2374 192 -2310 0
-2502 -193 0
-2502 2374 0
2502 193 -2374 0
-2770 -184 0
-2770 2706 0
2770 184 -2706 0
-2898 -185 0
-2898 2770 0
2898 185 -2770 0
-3166 -176 0
-3166 3102 0
3166 176 -3102 0
-3294 -177 0
-3294 3166 0
3294 177 -3166 0
-3562 -168 0
-3562 3498 0
3562 168 -3498 0
-3690 -169 0
-3690 3562 0
3690 169 -3562 0
-3958 -160 0
-3958 3894 0
3958 160 -3894 0
-4086 -161 0
-4086 3958 0
4086 161 -3958 0
-4354 -152 0
-4354 4290 0
4354 152 -4290 0
-4482 -153 0
-4482 4354 0
4482 153 -4354 0
-4626 -4086 0
-4626 -4482 0
4626 4086 4482 0
-4770 -3690 0
-4770 4626 0
4770 3690 -4626 0
-4914 -3294 0
-4914 4770 0
4914 3294 -4770 0
-5058 -2898 0
-5058 4914 0
5058 2898 -4914 0
-5202 -2502 0
-5202 5058 0
5202 2502 -5058 0
-5346 -2106 0
-5346 5202 0
5346 2106 -5202 0
-5490 -1710 0
-5490 5346 0
5490 1710 -5346 0
-5634 -1314 0
-5634 5490 0
5634 1314 -5490 0
-5778 -918 0
-5778 5634 0
5778 918 -5634 0
-5922 -522 0
-5922 5778 0
5922 522 -5778 0
-6138 38 0
-6138 5922 0
6138 -38 -5922 0
-6139 -38 0
-6139 -5922 0
6139 38 5922 0
-6140 -6138 0
-6140 -6139 0
6140 6138 6139 0
37 -18827 0
-37 18827 0
-393 -232 0
-393 329 0
393 232 -329 0
-521 -233 0
-521 393 0
521 233 -393 0
-789 -224 0
-789 725 0
789 224 -725 0
-917 -225 0
-917 789 0
917 225 -789 0
-1185 -216 0
-1185 1121 0
1185 216 -1121 0
-1313 -217 0
-1313 1185 0
1313 217 -1185 0
-1581 -208 0
-1581 1517 0
1581 208 -1517 0
-1709 -209 0
-1709 1581 0
1709 209 -1581 0
-1977 -200 0
-1977 1913 0
1977 200 -1913 0
-2105 -201 0
-2105 1977 0
2105 201 -1977 0
-2373 -192 0
-2373 2309 0
2373 192 -2309 0
-2501 -193 0
-2501 2373 0
2501 193 -2373 0
-2769 -184 0
-2769 2705 0
2769 184 -2705 0
-2897 -185 0
-2897 2769 0
2897 185 -2769 0
-3165 -176 0
-3165 3101 0
3165 176 -3101 0
-3293 -177 0
-3293 3165 0
3293 177 -3165 0
-3561 -168 0
-3561 3497 0
3561 168 -3497 0
-3689 -169 0
-3689 3561 0
3689 169 -3561 0
-3957 -160 0
-3957 3893 0
3957 160 -3893 0
-4085 -161 0
-4085 3957 0
4085 161 -3957 0
-4353 -152 0
-4353 4289 0
4353 152 -4289 0
-4481 -153 0
-4481 4353 0
4481 153 -4353 0
-4625 -4085 0
-4625 -4481 0
4625 4085 4481 0
-4769 -3689 0
-4769 4625 0
4769 3689 -4625 0
-4913 -3293 0
-4913 4769 0
4913 3293 -4769 0
-5057 -2897 0
-5057 4913 0
5057 2897 -4913 0
-5201 -2501 0
-5201 5057 0
5201 2501 -5057 0
-5345 -2105 0
-5345 5201 0
5345 2105 -5201 0
-5489 -1709 0
-5489 5345 0
5489 1709 -5345 0
-5633 -1313 0
-5633 5489 0
5633 1313 -5489 0
-5777 -917 0
-5777 5633 0
5777 917 -5633 0
-5921 -521 0
-5921 5777 0
5921 521 -5777 0
-6135 37 0
-6135 5921 0
6135 -37 -5921 0
-6136 -37 0
-6136 -5921 0
6136 37 5921 0
-6137 -6135 0
-6137 -6136 0
6137 6135 6136 0
36 -18826 0
-36 18826 0
-392 -232 0
-392 328 0
392 232 -328 0
-520 -233 0
-520 392 0
520 233 -392 0
-788 -224 0
-788 724 0
788 224 -724 0
-916 -225 0
-916 788 0
916 225 -788 0
-1184 -216 0
-1184 1120 0
1184 216 -1120 0
-1312 -217 0
-1312 1184 0
1312 217 -1184 0
-1580 -208 0
-1580 1516 0
1580 208 -1516 0
-1708 -209 0
-1708 1580 0
1708 209 -1580 0
-1976 -200 0
-1976 1912 0
1976 200 -1912 0
-2104 -201 0
-2104 1976 0
2104 201 -1976 0
-2372 -192 0
-2372 2308 0
2372 192 -2308 0
-2500 -193 0
-2500 2372 0
2500 193 -2372 0
-2768 -184 0
-2768 2704 0
2768 184 -2704 0
-2896 -185 0
-2896 2768 0
2896 185 -2768 0
-3164 -176 0
-3164 3100 0
3164 176 -3100 0
-3292 -177 0
-3292 3164 0
3292 177 -3164 0
-3560 -168 0
-3560 3496 0
3560 168 -3496 0
-3688 -169 0
-3688 3560 0
3688 169 -3560 0
-3956 -160 0
-3956 3892 0
3956 160 -3892 0
-4084 -161 0
-4084 3956 0
4084 161 -3956 0
-4352 -152 0
-4352 4288 0
4352 152 -4288 0
-4480 -153 0
-4480 4352 0
4480 153 -4352 0
-4624 -4084 0
-4624 -4480 0
4624 4084 4480 0
-4768 -3688 0
-4768 4624 0
4768 3688 -4624 0
-4912 -3292 0
-4912 4768 0
4912 3292 -4768 0
-5056 -2896 0
-5056 4912 0
5056 2896 -4912 0
-5200 -2500 0
-5200 5056 0
5200 2500 -5056 0
-5344 -2104 0
-5344 5200 0
5344 2104 -5200 0
-5488 -1708 0
-5488 5344 0
5488 1708 -5344 0
-5632 -1312 0
-5632 5488 0
5632 1312 -5488 0
-5776 -916 0
-5776 5632 0
5776 916 -5632 0
-5920 -520 0
-5920 5776 0
5920 520 -5776 0
-6132 36 0
-6132 5920 0
6132 -36 -5920 0
-6133 -36 0
-6133 -5920 0
6133 36 5920 0
-6134 -6132 0
-6134 -6133 0
6134 6132 6133 0
35 -18825 0
-35 18825 0
-391 -232 0
-391 327 0
391 232 -327 0
-519 -233 0
-519 391 0
519 233 -391 0
-787 -224 0
-787 723 0
787 224 -723 0
-915 -225 0
-915 787 0
915 225 -787 0
-1183 -216 0
-1183 1119 0
1183 216 -1119 0
-1311 -217 0
-1311 1183 0
1311 217 -1183 0
-1579 -208 0
-1579 1515 0
1579 208 -1515 0
-1707 -209 0
-1707 1579 0
1707 209 -1579 0
-1975 -200 0
-1975 1911 0
1975 200 -1911 0
-2103 -201 0
-2103 1975 0
2103 201 -1975 0
-2371 -192 0
-2371 2307 0
2371 192 -2307 0
-2499 -193 0
-2499 2371 0
2499 193 -2371 0
-2767 -184 0
-2767 2703 0
2767 184 -2703 0
-2895 -185 0
-2895 2767 0
2895 185 -2767 0
-3163 -176 0
-3163 3099 0
3163 176 -3099 0
-3291 -177 0
-3291 3163 0
3291 177 -3163 0
-3559 -168 0
-3559 3495 0
3559 168 -3495 0
-3687 -169 0
-3687 3559 0
3687 169 -3559 0
-3955 -160 0
-3955 3891 0
3955 160 -3891 0
-4083 -161 0
-4083 3955 0
4083 161 -3955 0
-4351 -152 0
-4351 4287 0
4351 152 -4287 0
-4479 -153 0
-4479 4351 0
4479 153 -4351 0
-4623 -4083 0
-4623 -4479 0
4623 4083 4479 0
-4767 -3687 0
-4767 4623 0
4767 3687 -4623 0
-4911 -3291 0
-4911 4767 0
4911 3291 -4767 0
-5055 -2895 0
-5055 4911 0
5055 2895 -4911 0
-5199 -2499 0
-5199 5055 0
5199 2499 -5055 0
-5343 -2103 0
-5343 5199 0
5343 2103 -5199 0
-5487 -1707 0
-5487 5343 0
5487 1707 -5343 0
-5631 -1311 0
-5631 5487 0
5631 1311 -5487 0
-5775 -915 0
-5775 5631 0
5775 915 -5631 0
-5919 -519 0
-5919 5775 0
5919 519 -5775 0
-6129 35 0
-6129 5919 0
6129 -35 -5919 0
-6130 -35 0
-6130 -5919 0
6130 35 5919 0
-6131 -6129 0
-6131 -6130 0
6131 6129 6130 0
34 -18824 0
-34 18824 0
-390 -232 0
-390 326 0
390 232 -326 0
-518 -233 0
-518 390 0
518 233 -390 0
-786 -224 0
-786 722 0
786 224 -722 0
-914 -225 0
-914 786 0
914 225 -786 0
-1182 -216 0
-1182 1118 0
1182 216 -1118 0
-1310 -217 0
-1310 1182 0
1310 217 -1182 0
-1578 -208 0
-1578 1514 0
1578 208 -1514 0
-1706 -209 0
-1706 1578 0
1706 209 -1578 0
-1974 -200 0
-1974 1910 0
1974 200 -1910 0
-2102 -201 0
-2102 1974 0
2102 201 -1974 0
-2370 -192 0
-2370 2306 0
2370 192 -2306 0
-2498 -193 0
-2498 2370 0
2498 193 -2370 0
-2766 -184 0
-2766 2702 0
2766 184 -2702 0
-2894 -185 0
-2894 2766 0
2894 185 -2766 0
-3162 -176 0
-3162 3098 0
3162 176 -3098 0
-3290 -177 0
-3290 3162 0
3290 177 -3162 0
-3558 -168 0
-3558 3494 0
3558 168 -3494 0
-3686 -169 0
-3686 3558 0
3686 169 -3558 0
-3954 -160 0
-3954 3890 0
3954 160 -3890 0
-4082 -161 0
-4082 3954 0
4082 161 -3954 0
-4350 -152 0
-4350 4286 0
4350 152 -4286 0
-4478 -153 0
-4478 4350 0
4478 153 -4350 0
-4622 -4082 0
-4622 -4478 0
4622 4082 4478 0
-4766 -3686 0
-4766 4622 0
4766 3686 -4622 0
-4910 -3290 0
-4910 4766 0
4910 3290 -4766 0
-5054 -2894 0
-5054 4910 0
5054 2894 -4910 0
-5198 -2498 0
-5198 5054 0
5198 2498 -5054 0
-5342 -2102 0
-5342 5198 0
5342 2102 -5198 0
-5486 -1706 0
-5486 5342 0
5486 1706 -5342 0
-5630 -1310 0
-5630 5486 0
5630 1310 -5486 0
-5774 -914 0
-5774 5630 0
5774 914 -5630 0
-5918 -518 0
-5918 5774 0
5918 518 -5774 0
-6126 34 0
-6126 5918 0
6126 -34 -5918 0
-6127 -34 0
-6127 -5918 0
6127 34 5918 0
-6128 -6126 0
-6128 -6127 0
6128 6126 6127 0
33 -18823 0
-33 18823 0
-389 -232 0
-389 325 0
389 232 -325 0
-517 -233 0
-517 389 0
517 233 -389 0
-785 -224 0
-785 721 0
785 224 -721 0
-913 -225 0
-913 785 0
913 225 -785 0
-1181 -216 0
-1181 1117 0
1181 216 -1117 0
-1309 -217 0
-1309 1181 0
1309 217 -1181 0
-1577 -208 0
-1577 1513 0
1577 208 -1513 0
-1705 -209 0
-1705 1577 0
1705 209 -1577 0
-1973 -200 0
-1973 1909 0
1973 200 -1909 0
-2101 -201 0
-2101 1973 0
2101 201 -1973 0
-2369 -192 0
-2369 2305 0
2369 192 -2305 0
-2497 -193 0
-2497 2369 0
2497 193 -2369 0
-2765 -184 0
-2765 2701 0
2765 184 -2701 0
-2893 -185 0
-2893 2765 0
2893 185 -2765 0
-3161 -176 0
-3161 3097 0
3161 176 -3097 0
-3289 -177 0
-3289 3161 0
3289 177 -3161 0
-3557 -168 0
-3557 3493 0
3557 168 -3493 0
-3685 -169 0
-3685 3557 0
3685 169 -3557 0
-3953 -160 0
-3953 3889 0
3953 160 -3889 0
-4081 -161 0
-4081 3953 0
4081 161 -3953 0
-4349 -152 0
-4349 4285 0
4349 152 -4285 0
-4477 -153 0
-4477 4349 0
4477 153 -4349 0
-4621 -4081 0
-4621 -4477 0
4621 4081 4477 0
-4765 -3685 0
-4765 4621 0
4765 3685 -4621 0
-4909 -3289 0
-4909 4765 0
4909 3289 -4765 0
-5053 -2893 0
-5053 4909 0
5053 2893 -4909 0
-5197 -2497 0
-5197 5053 0
5197 2497 -5053 0
-5341 -2101 0
-5341 5197 0
5341 2101 -5197 0
-5485 -1705 0
-5485 5341 0
5485 1705 -5341 0
-5629 -1309 0
-5629 5485 0
5629 1309 -5485 0
-5773 -913 0
-5773 5629 0
5773 913 -5629 0
-5917 -517 0
-5917 5773 0
5917 517 -5773 0
-6123 33 0
-6123 5917 0
6123 -33 -5917 0
-6124 -33 0
-6124 -5917 0
6124 33 5917 0
-6125 -6123 0
-6125 -6124 0
6125 6123 6124 0
32 -18822 0
-32 18822 0
-388 -232 0
-388 324 0
388 232 -324 0
-516 -233 0
-516 388 0
516 233 -388 0
-784 -224 0
-784 720 0
784 224 -720 0
-912 -225 0
-912 784 0
912 225 -784 0
-1180 -216 0
-1180 1116 0
1180 216 -1116 0
-1308 -217 0
-1308 1180 0
1308 217 -1180 0
-1576 -208 0
-1576 1512 0
1576 208 -1512 0
-1704 -209 0
-1704 1576 0
1704 209 -1576 0
-1972 -200 0
-1972 1908 0
1972 200 -1908 0
-2100 -201 0
-2100 1972 0
2100 201 -1972 0
-2368 -192 0
-2368 2304 0
2368 192 -2304 0
-2496 -193 0
-2496 2368 0
2496 193 -2368 0
-2764 -184 0
-2764 2700 0
2764 184 -2700 0
-2892 -185 0
-2892 2764 0
2892 185 -2764 0
-3160 -176 0
-3160 3096 0
3160 176 -3096 0
-3288 -177 0
-3288 3160 0
3288 177 -3160 0
-3556 -168 0
-3556 3492 0
3556 168 -3492 0
-3684 -169 0
-3684 3556 0
3684 169 -3556 0
-3952 -160 0
-3952 3888 0
3952 160 -3888 0
-4080 -161 0
-4080 3952 0
4080 161 -3952 0
-4348 -152 0
-4348 4284 0
4348 152 -4284 0
-4476 -153 0
-4476 4348 0
4476 153 -4348 0
-4620 -4080 0
-4620 -4476 0
4620 4080 4476 0
-4764 -3684 0
-4764 4620 0
4764 3684 -4620 0
-4908 -3288 0
-4908 4764 0
4908 3288 -4764 0
-5052 -2892 0
-5052 4908 0
5052 2892 -4908 0
-5196 -2496 0
-5196 5052 0
5196 2496 -5052 0
-5340 -2100 0
-5340 5196 0
5340 2100 -5196 0
-5484 -1704 0
-5484 5340 0
5484 1704 -5340 0
-5628 -1308 0
-5628 5484 0
5628 1308 -5484 0
-5772 -912 0
-5772 5628 0
5772 912 -5628 0
-5916 -516 0
-5916 5772 0
5916 516 -5772 0
-6120 32 0
-6120 5916 0
6120 -32 -5916 0
-6121 -32 0
-6121 -5916 0
6121 32 5916 0
-6122 -6120 0
-6122 -6121 0
6122 6120 6121 0
31 -18821 0
-31 18821 0
-387 -232 0
-387 323 0
387 232 -323 0
-515 -233 0
-515 387 0
515 233 -387 0
-783 -224 0
-783 719 0
783 224 -719 0
-911 -225 0
-911 783 0
911 225 -783 0
-1179 -216 0
-1179 1115 0
1179 216 -1115 0
-1307 -217 0
-1307 1179 0
1307 217 -1179 0
-1575 -208 0
-1575 1511 0
1575 208 -1511 0
-1703 -209 0
-1703 1575 0
1703 209 -1575 0
-1971 -200 0
-1971 1907 0
1971 200 -1907 0
-2099 -201 0
-2099 1971 0
2099 201 -1971 0
-2367 -192 0
-2367 2303 0
2367 192 -2303 0
-2495 -193 0
-2495 2367 0
2495 193 -2367 0
-2763 -184 0
-2763 2699 0
2763 184 -2699 0
-2891 -185 0
-2891 2763 0
2891 185 -2763 0
-3159 -176 0
-3159 3095 0
3159 176 -3095 0
-3287 -177 0
-3287 3159 0
3287 177 -3159 0
-3555 -168 0
-3555 3491 0
3555 168 -3491 0
-3683 -169 0
-3683 3555 0
3683 169 -3555 0
-3951 -160 0
-3951 3887 0
3951 160 -3887 0
-4079 -161 0
-4079 3951 0
4079 161 -3951 0
-4347 -152 0
-4347 4283 0
4347 152 -4283 0
-4475 -153 0
-4475 4347 0
4475 153 -4347 0
-4619 -4079 0
-4619 -4475 0
4619 4079 4475 0
-4763 -3683 0
-4763 4619 0
4763 3683 -4619 0
-4907 -3287 0
-4907 4763 0
4907 3287 -4763 0
-5051 -2891 0
-5051 4907 0
5051 2891 -4907 0
-5195 -2495 0
-5195 5051 0
5195 2495 -5051 0
-5339 -2099 0
-5339 5195 0
5339 2099 -5195 0
-5483 -1703 0
-5483 5339 0
5483 1703 -5339 0
-5627 -1307 0
-5627 5483 0
5627 1307 -5483 0
-5771 -911 0
-5771 5627 0
5771 911 -5627 0
-5915 -515 0
-5915 5771 0
5915 515 -5771 0
-6117 31 0
-6117 5915 0
6117 -31 -5915 0
-6118 -31 0
-6118 -5915 0
6118 31 5915 0
-6119 -6117 0
-6119 -6118 0
6119 6117 6118 0
30 -18820 0
-30 18820 0
-386 -232 0
-386 322 0
386 232 -322 0
-514 -233 0
-514 386 0
514 233 -386 0
-782 -224 0
-782 718 0
782 224 -718 0
-910 -225 0
-910 782 0
910 225 -782 0
-1178 -216 0
-1178 1114 0
1178 216 -1114 0
-1306 -217 0
-1306 1178 0
1306 217 -1178 0
-1574 -208 0
-1574 1510 0
1574 208 -1510 0
-1702 -209 0
-1702 1574 0
1702 209 -1574 0
-1970 -200 0
-1970 1906 0
1970 200 -1906 0
-2098 -201 0
-2098 1970 0
2098 201 -1970 0
-2366 -192 0
-2366 2302 0
2366 192 -2302 0
-2494 -193 0
-2494 2366 0
2494 193 -2366 0
-2762 -184 0
-2762 2698 0
2762 184 -2698 0
-2890 -185 0
-2890 2762 0
2890 185 -2762 0
-3158 -176 0
-3158 3094 0
3158 176 -3094 0
-3286 -177 0
-3286 3158 0
3286 177 -3158 0
-3554 -168 0
-3554 3490 0
3554 168 -3490 0
-3682 -169 0
-3682 3554 0
3682 169 -3554 0
-3950 -160 0
-3950 3886 0
3950 160 -3886 0
-4078 -161 0
-4078 3950 0
4078 161 -3950 0
-4346 -152 0
-4346 4282 0
4346 152 -4282 0
-4474 -153 0
-4474 4346 0
4474 153 -4346 0
-4618 -4078 0
-4618 -4474 0
4618 4078 4474 0
-4762 -3682 0
-4762 4618 0
4762 3682 -4618 0
-4906 -3286 0
-4906 4762 0
4906 3286 -4762 0
-5050 -2890 0
-5050 4906 0
5050 2890 -4906 0
-5194 -2494 0
-5194 5050 0
5194 2494 -5050 0
-5338 -2098 0
-5338 5194 0
5338 2098 -5194 0
-5482 -1702 0
-5482 5338 0
5482 1702 -5338 0
-5626 -1306 0
-5626 5482 0
5626 1306 -5482 0
-5770 -910 0
-5770 5626 0
5770 910 -5626 0
-5914 -514 0
-5914 5770 0
5914 514 -5770 0
-6114 30 0
-6114 5914 0
6114 -30 -5914 0
-6115 -30 0
-6115 -5914 0
6115 30 5914 0
-6116 -6114 0
-6116 -6115 0
6116 6114 6115 0
29 -18819 0
-29 18819 0
-385 -232 0
-385 321 0
385 232 -321 0
-513 -233 0
-513 385 0
513 233 -385 0
-781 -224 0
-781 717 0
781 224 -717 0
-909 -225 0
-909 781 0
909 225 -781 0
-1177 -216 0
-1177 1113 0
1177 216 -1113 0
-1305 -217 0
-1305 1177 0
1305 217 -1177 0
-1573 -208 0
-1573 1509 0
1573 208 -1509 0
-1701 -209 0
-1701 1573 0
1701 209 -1573 0
-1969 -200 0
-1969 1905 0
1969 200 -1905 0
-2097 -201 0
-2097 1969 0
2097 201 -1969 0
-2365 -192 0
-2365 2301 0
2365 192 -2301 0
-2493 -193 0
-2493 2365 0
2493 193 -2365 0
-2761 -184 0
-2761 2697 0
2761 184 -2697 0
-2889 -185 0
-2889 2761 0
2889 185 -2761 0
-3157 -176 0
-3157 3093 0
3157 176 -3093 0
-3285 -177 0
-3285 3157 0
3285 177 -3157 0
-3553 -168 0
-3553 3489 0
3553 168 -3489 0
-3681 -169 0
-3681 3553 0
3681 169 -3553 0
-3949 -160 0
-3949 3885 0
3949 160 -3885 0
-4077 -161 0
-4077 3949 0
4077 161 -3949 0
-4345 -152 0
-4345 4281 0
4345 152 -4281 0
-4473 -153 0
-4473 4345 0
4473 153 -4345 0
-4617 -4077 0
-4617 -4473 0
4617 4077 4473 0
-4761 -3681 0
-4761 4617 0
4761 3681 -4617 0
-4905 -3285 0
-4905 4761 0
4905 3285 -4761 0
-5049 -2889 0
-5049 4905 0
5049 2889 -4905 0
-5193 -2493 0
-5193 5049 0
5193 2493 -5049 0
-5337 -2097 0
-5337 5193 0
5337 2097 -5193 0
-5481 -1701 0
-5481 5337 0
5481 1701 -5337 0
-5625 -1305 0
-5625 5481 0
5625 1305 -5481 0
-5769 -909 0
-5769 5625 0
5769 909 -5625 0
-5913 -513 0
-5913 5769 0
5913 513 -5769 0
-6111 29 0
-6111 5913 0
6111 -29 -5913 0
-6112 -29 0
-6112 -5913 0
6112 29 5913 0
-6113 -6111 0
-6113 -6112 0
6113 6111 6112 0
28 -18818 0
-28 18818 0
-384 -232 0
-384 320 0
384 232 -320 0
-512 -233 0
-512 384 0
512 233 -384 0
-780 -224 0
-780 716 0
780 224 -716 0
-908 -225 0
-908 780 0
908 225 -780 0
-1176 -216 0
-1176 1112 0
1176 216 -1112 0
-1304 -217 0
-1304 1176 0
1304 217 -1176 0
-1572 -208 0
-1572 1508 0
1572 208 -1508 0
-1700 -209 0
-1700 1572 0
1700 209 -1572 0
-1968 -200 0
-1968 1904 0
1968 200 -1904 0
-2096 -201 0
-2096 1968 0
2096 201 -1968 0
-2364 -192 0
-2364 2300 0
2364 192 -2300 0
-2492 -193 0
-2492 2364 0
2492 193 -2364 0
-2760 -184 0
-2760 2696 0
2760 184 -2696 0
-2888 -185 0
-2888 2760 0
2888 185 -2760 0
-3156 -176 0
-3156 3092 0
3156 176 -3092 0
-3284 -177 0
-3284 3156 0
3284 177 -3156 0
-3552 -168 0
-3552 3488 0
3552 168 -3488 0
-3680 -169 0
-3680 3552 0
3680 169 -3552 0
-3948 -160 0
-3948 3884 0
3948 160 -3884 0
-4076 -161 0
-4076 3948 0
4076 161 -3948 0
-4344 -152 0
-4344 4280 0
4344 152 -4280 0
-4472 -153 0
-4472 4344 0
4472 153 -4344 0
-4616 -4076 0
-4616 -4472 0
4616 4076 4472 0
-4760 -3680 0
-4760 4616 0
4760 3680 -4616 0
-4904 -3284 0
-4904 4760 0
4904 3284 -4760 0
-5048 -2888 0
-5048 4904 0
5048 2888 -4904 0
-5192 -2492 0
-5192 5048 0
5192 2492 -5048 0
-5336 -2096 0
-5336 5192 0
5336 2096 -5192 0
-5480 -1700 0
-5480 5336 0
5480 1700 -5336 0
-5624 -1304 0
-5624 5480 0
5624 1304 -5480 0
-5768 -908 0
-5768 5624 0
5768 908 -5624 0
-5912 -512 0
-5912 5768 0
5912 512 -5768 0
-6108 28 0
-6108 5912 0
6108 -28 -5912 0
-6109 -28 0
-6109 -5912 0
6109 28 5912 0
-6110 -6108 0
-6110 -6109 0
6110 6108 6109 0
27 -18817 0
-27 18817 0
-383 -232 0
-383 319 0
383 232 -319 0
-511 -233 0
-511 383 0
511 233 -383 0
-779 -224 0
-779 715 0
779 224 -715 0
-907 -225 0
-907 779 0
907 225 -779 0
-1175 -216 0
-1175 1111 0
1175 216 -1111 0
-1303 -217 0
-1303 1175 0
1303 217 -1175 0
-1571 -208 0
-1571 1507 0
1571 208 -1507 0
-1699 -209 0
-1699 1571 0
1699 209 -1571 0
-1967 -200 0
-1967 1903 0
1967 200 -1903 0
-2095 -201 0
-2095 1967 0
2095 201 -1967 0
-2363 -192 0
-2363 2299 0
2363 192 -2299 0
-2491 -193 0
-2491 2363 0
2491 193 -2363 0
-2759 -184 0
-2759 2695 0
2759 184 -2695 0
-2887 -185 0
-2887 2759 0
2887 185 -2759 0
-3155 -176 0
-3155 3091 0
3155 176 -3091 0
-3283 -177 0
-3283 3155 0
3283 177 -3155 0
-3551 -168 0
-3551 3487 0
3551 168 -3487 0
-3679 -169 0
-3679 3551 0
3679 169 -3551 0
-3947 -160 0
-3947 3883 0
3947 160 -3883 0
-4075 -161 0
-4075 3947 0
4075 161 -3947 0
-4343 -152 0
-4343 4279 0
4343 152 -4279 0
-4471 -153 0
-4471 4343 0
4471 153 -4343 0
-4615 -4075 0
-4615 -4471 0
4615 4075 4471 0
-4759 -3679 0
-4759 4615 0
4759 3679 -4615 0
-4903 -3283 0
-4903 4759 0
4903 3283 -4759 0
-5047 -2887 0
-5047 4903 0
5047 2887 -4903 0
-5191 -2491 0
-5191 5047 0
5191 2491 -5047 0
-5335 -2095 0
-5335 5191 0
5335 2095 -5191 0
-5479 -1699 0
-5479 5335 0
5479 1699 -5335 0
-5623 -1303 0
-5623 5479 0
5623 1303 -5479 0
-5767 -907 0
-5767 5623 0
5767 907 -5623 0
-5911 -511 0
-5911 5767 0
5911 511 -5767 0
-6105 27 0
-6105 5911 0
6105 -27 -5911 0
-6106 -27 0
-6106 -5911 0
6106 27 5911 0
-6107 -6105 0
-6107 -6106 0
6107 6105 6106 0
26 -18816 0
-26 18816 0
-382 -232 0
-382 318 0
382 232 -318 0
-510 -233 0
-510 382 0
510 233 -382 0
-778 -224 0
-778 714 0
778 224 -714 0
-906 -225 0
-906 778 0
906 225 -778 0
-1174 -216 0
-1174 1110 0
1174 216 -1110 0
-1302 -217 0
-1302 1174 0
1302 217 -1174 0
-1570 -208 0
-1570 1506 0
1570 208 -1506 0
-1698 -209 0
-1698 1570 0
1698 209 -1570 0
-1966 -200 0
-1966 1902 0
1966 200 -1902 0
-2094 -201 0
-2094 1966 0
2094 201 -1966 0
-2362 -192 0
-2362 2298 0
2362 192 -2298 0
-2490 -193 0
-2490 2362 0
2490 193 -2362 0
-2758 -184 0
-2758 2694 0
2758 184 -2694 0
-2886 -185 0
-2886 2758 0
2886 185 -2758 0
-3154 -176 0
-3154 3090 0
3154 176 -3090 0
-3282 -177 0
-3282 3154 0
3282 177 -3154 0
-3550 -168 0
-3550 3486 0
3550 168 -3486 0
-3678 -169 0
-3678 3550 0
3678 169 -3550 0
-3946 -160 0
-3946 3882 0
3946 160 -3882 0
-4074 -161 0
-4074 3946 0
4074 161 -3946 0
-4342 -152 0
-4342 4278 0
4342 152 -4278 0
-4470 -153 0
-4470 4342 0
4470 153 -4342 0
-4614 -4074 0
-4614 -4470 0
4614 4074 4470 0
-4758 -3678 0
-4758 4614 0
4758 3678 -4614 0
-4902 -3282 0
-4902 4758 0
4902 3282 -4758 0
-5046 -2886 0
-5046 4902 0
5046 2886 -4902 0
-5190 -2490 0
-5190 5046 0
5190 2490 -5046 0
-5334 -2094 0
-5334 5190 0
5334 2094 -5190 0
-5478 -1698 0
-5478 5334 0
5478 1698 -5334 0
-5622 -1302 0
-5622 5478 0
5622 1302 -5478 0
-5766 -906 0
-5766 5622 0
5766 906 -5622 0
-5910 -510 0
-5910 5766 0
5910 510 -5766 0
-6102 26 0
-6102 5910 0
6102 -26 -5910 0
-6103 -26 0
-6103 -5910 0
6103 26 5910 0
-6104 -6102 0
-6104 -6103 0
6104 6102 6103 0
25 -18815 0
-25 18815 0
-381 -232 0
-381 317 0
381 232 -317 0
-509 -233 0
-509 381 0
509 233 -381 0
-777 -224 0
-777 713 0
777 224 -713 0
-905 -225 0
-905 777 0
905 225 -777 0
-1173 -216 0
-1173 1109 0
1173 216 -1109 0
-1301 -217 0
-1301 1173 0
1301 217 -1173 0
-1569 -208 0
-1569 1505 0
1569 208 -1505 0
-1697 -209 0
-1697 1569 0
1697 209 -1569 0
-1965 -200 0
-1965 1901 0
1965 200 -1901 0
-2093 -201 0
-2093 1965 0
2093 201 -1965 0
-2361 -192 0
-2361 2297 0
2361 192 -2297 0
-2489 -193 0
-2489 2361 0
2489 193 -2361 0
-2757 -184 0
-2757 2693 0
2757 184 -2693 0
-2885 -185 0
-2885 2757 0
2885 185 -2757 0
-3153 -176 0
-3153 3089 0
3153 176 -3089 0
-3281 -177 0
-3281 3153 0
3281 177 -3153 0
-3549 -168 0
-3549 3485 0
3549 168 -3485 0
-3677 -169 0
-3677 3549 0
3677 169 -3549 0
-3945 -160 0
-3945 3881 0
3945 160 -3881 0
-4073 -161 0
-4073 3945 0
4073 161 -3945 0
-4341 -152 0
-4341 4277 0
4341 152 -4277 0
-4469 -153 0
-4469 4341 0
4469 153 -4341 0
-4613 -4073 0
-4613 -4469 0
4613 4073 4469 0
-4757 -3677 0
-4757 4613 0
4757 3677 -4613 0
-4901 -3281 0
-4901 4757 0
4901 3281 -4757 0
-5045 -2885 0
-5045 4901 0
5045 2885 -4901 0
-5189 -2489 0
-5189 5045 0
5189 2489 -5045 0
-5333 -2093 0
-5333 5189 0
5333 2093 -5189 0
-5477 -1697 0
-5477 5333 0
5477 1697 -5333 0
-5621 -1301 0
-5621 5477 0
5621 1301 -5477 0
-5765 -905 0
-5765 5621 0
5765 905 -5621 0
-5909 -509 0
-5909 5765 0
5909 509 -5765 0
-6099 25 0
-6099 5909 0
6099 -25 -5909 0
-6100 -25 0
-6100 -5909 0
6100 25 5909 0
-6101 -6099 0
-6101 -6100 0
6101 6099 6100 0
24 -18814 0
-24 18814 0
-380 -232 0
-380 316 0
380 232 -316 0
-508 -233 0
-508 380 0
508 233 -380 0
-776 -224 0
-776 712 0
776 224 -712 0
-904 -225 0
-904 776 0
904 225 -776 0
-1172 -216 0
-1172 1108 0
1172 216 -1108 0
-1300 -217 0
-1300 1172 0
1300 217 -1172 0
-1568 -208 0
-1568 1504 0
1568 208 -1504 0
-1696 -209 0
-1696 1568 0
1696 209 -1568 0
-1964 -200 0
-1964 1900 0
1964 200 -1900 0
-2092 -201 0
-2092 1964 0
2092 201 -1964 0
-2360 -192 0
-2360 2296 0
2360 192 -2296 0
-2488 -193 0
-2488 2360 0
2488 193 -2360 0
-2756 -184 0
-2756 2692 0
2756 184 -2692 0
-2884 -185 0
-2884 2756 0
2884 185 -2756 0
-3152 -176 0
-3152 3088 0
3152 176 -3088 0
-3280 -177 0
-3280 3152 0
3280 177 -3152 0
-3548 -168 0
-3548 3484 0
3548 168 -3484 0
-3676 -169 0
-3676 3548 0
3676 169 -3548 0
-3944 -160 0
-3944 3880 0
3944 160 -3880 0
-4072 -161 0
-4072 3944 0
4072 161 -3944 0
-4340 -152 0
-4340 4276 0
4340 152 -4276 0
-4468 -153 0
-4468 4340 0
4468 153 -4340 0
-4612 -4072 0
-4612 -4468 0
4612 4072 4468 0
-4756 -3676 0
-4756 4612 0
4756 3676 -4612 0
-4900 -3280 0
-4900 4756 0
4900 3280 -4756 0
-5044 -2884 0
-5044 4900 0
5044 2884 -4900 0
-5188 -2488 0
-5188 5044 0
5188 2488 -5044 0
-5332 -2092 0
-5332 5188 0
5332 2092 -5188 0
-5476 -1696 0
-5476 5332 0
5476 1696 -5332 0
-5620 -1300 0
-5620 5476 0
5620 1300 -5476 0
-5764 -904 0
-5764 5620 0
5764 904 -5620 0
-5908 -508 0
-5908 5764 0
5908 508 -5764 0
-6096 24 0
-6096 5908 0
6096 -24 -5908 0
-6097 -24 0
-6097 -5908 0
6097 24 5908 0
-6098 -6096 0
-6098 -6097 0
6098 6096 6097 0
23 -18813 0
-23 18813 0
-379 -232 0
-379 315 0
379 232 -315 0
-507 -233 0
-507 379 0
507 233 -379 0
-775 -224 0
-775 711 0
775 224 -711 0
-903 -225 0
-903 775 0
903 225 -775 0
-1171 -216 0
-1171 1107 0
1171 216 -1107 0
-1299 -217 0
-1299 1171 0
1299 217 -1171 0
-1567 -208 0
-1567 1503 0
1567 208 -1503 0
-1695 -209 0
-1695 1567 0
1695 209 -1567 0
-1963 -200 0
-1963 1899 0
1963 200 -1899 0
-2091 -201 0
-2091 1963 0
2091 201 -1963 0
-2359 -192 0
-2359 2295 0
2359 192 -2295 0
-2487 -193 0
-2487 2359 0
2487 193 -2359 0
-2755 -184 0
-2755 2691 0
2755 184 -2691 0
-2883 -185 0
-2883 2755 0
2883 185 -2755 0
-3151 -176 0
-3151 3087 0
3151 176 -3087 0
-3279 -177 0
-3279 3151 0
3279 177 -3151 0
-3547 -168 0
-3547 3483 0
3547 168 -3483 0
-3675 -169 0
-3675 3547 0
3675 169 -3547 0
-3943 -160 0
-3943 3879 0
3943 160 -3879 0
-4071 -161 0
-4071 3943 0
4071 161 -3943 0
-4339 -152 0
-4339 4275 0
4339 152 -4275 0
-4467 -153 0
-4467 4339 0
4467 153 -4339 0
-4611 -4071 0
-4611 -4467 0
4611 4071 4467 0
-4755 -3675 0
-4755 4611 0
4755 3675 -4611 0
-4899 -3279 0
-4899 4755 0
4899 3279 -4755 0
-5043 -2883 0
-5043 4899 0
5043 2883 -4899 0
-5187 -2487 0
-5187 5043 0
5187 2487 -5043 0
-5331 -2091 0
-5331 5187 0
5331 2091 -5187 0
-5475 -1695 0
-5475 5331 0
5475 1695 -5331 0
-5619 -1299 0
-5619 5475 0
5619 1299 -5475 0
-5763 -903 0
-5763 5619 0
5763 903 -5619 0
-5907 -507 0
-5907 5763 0
5907 507 -5763 0
-6093 23 0
-6093 5907 0
6093 -23 -5907 0
-6094 -23 0
-6094 -5907 0
6094 23 5907 0
-6095 -6093 0
-6095 -6094 0
6095 6093 6094 0
22 -18812 0
-22 18812 0
-378 -232 0
-378 314 0
378 232 -314 0
-506 -233 0
-506 378 0
506 233 -378 0
-774 -224 0
-774 710 0
774 224 -710 0
-902 -225 0
-902 774 0
902 225 -774 0
-1170 -216 0
-1170 1106 0
1170 216 -1106 0
-1298 -217 0
-1298 1170 0
1298 217 -1170 0
-1566 -208 0
-1566 1502 0
1566 208 -1502 0
-1694 -209 0
-1694 1566 0
1694 209 -1566 0
-1962 -200 0
-1962 1898 0
1962 200 -1898 0
-2090 -201 0
-2090 1962 0
2090 201 -1962 0
-2358 -192 0
-2358 2294 0
2358 192 -2294 0
-2486 -193 0
-2486 2358 0
2486 193 -2358 0
-2754 -184 0
-2754 2690 0
2754 184 -2690 0
-2882 -185 0
-2882 2754 0
2882 185 -2754 0
-3150 -176 0
-3150 3086 0
3150 176 -3086 0
-3278 -177 0
-3278 3150 0
3278 177 -3150 0
-3546 -168 0
-3546 3482 0
3546 168 -3482 0
-3674 -169 0
-3674 3546 0
3674 169 -3546 0
-3942 -160 0
-3942 3878 0
3942 160 -3878 0
-4070 -161 0
-4070 3942 0
4070 161 -3942 0
-4338 -152 0
-4338 4274 0
4338 152 -4274 0
-4466 -153 0
-4466 4338 0
4466 153 -4338 0
-4610 -4070 0
-4610 -4466 0
4610 4070 4466 0
-4754 -3674 0
-4754 4610 0
4754 3674 -4610 0
-4898 -3278 0
-4898 4754 0
4898 3278 -4754 0
-5042 -2882 0
-5042 4898 0
5042 2882 -4898 0
-5186 -2486 0
-5186 5042 0
5186 2486 -5042 0
-5330 -2090 0
-5330 5186 0
5330 2090 -5186 0
-5474 -1694 0
-5474 5330 0
5474 1694 -5330 0
-5618 -1298 0
-5618 5474 0
5618 1298 -5474 0
-5762 -902 0
-5762 5618 0
5762 902 -5618 0
-5906 -506 0
-5906 5762 0
5906 506 -5762 0
-6090 22 0
-6090 5906 0
6090 -22 -5906 0
-6091 -22 0
-6091 -5906 0
6091 22 5906 0
-6092 -6090 0
-6092 -6091 0
6092 6090 6091 0
21 -18811 0
-21 18811 0
-377 -232 0
-377 313 0
377 232 -313 0
-505 -233 0
-505 377 0
505 233 -377 0
-773 -224 0
-773 709 0
773 224 -709 0
-901 -225 0
-901 773 0
901 225 -773 0
-1169 -216 0
-1169 1105 0
1169 216 -1105 0
-1297 -217 0
-1297 1169 0
1297 217 -1169 0
-1565 -208 0
-1565 1501 0
1565 208 -1501 0
-1693 -209 0
-1693 1565 0
1693 209 -1565 0
-1961 -200 0
-1961 1897 0
1961 200 -1897 0
-2089 -201 0
-2089 1961 0
2089 201 -1961 0
-2357 -192 0
-2357 2293 0
2357 192 -2293 0
-2485 -193 0
-2485 2357 0
2485 193 -2357 0
-2753 -184 0
-2753 2689 0
2753 184 -2689 0
-2881 -185 0
-2881 2753 0
2881 185 -2753 0
-3149 -176 0
-3149 3085 0
3149 176 -3085 0
-3277 -177 0
-3277 3149 0
3277 177 -3149 0
-3545 -168 0
-3545 3481 0
3545 168 -3481 0
-3673 -169 0
-3673 3545 0
3673 169 -3545 0
-3941 -160 0
-3941 3877 0
3941 160 -3877 0
-4069 -161 0
-4069 3941 0
4069 161 -3941 0
-4337 -152 0
-4337 4273 0
4337 152 -4273 0
-4465 -153 0
-4465 4337 0
4465 153 -4337 0
-4609 -4069 0
-4609 -4465 0
4609 4069 4465 0
-4753 -3673 0
-4753 4609 0
4753 3673 -4609 0
-4897 -3277 0
-4897 4753 0
4897 3277 -4753 0
-5041 -2881 0
-5041 4897 0
5041 2881 -4897 0
-5185 -2485 0
-5185 5041 0
5185 2485 -5041 0
-5329 -2089 0
-5329 5185 0
5329 2089 -5185 0
-5473 -1693 0
-5473 5329 0
5473 1693 -5329 0
-5617 -1297 0
-5617 5473 0
5617 1297 -5473 0
-5761 -901 0
-5761 5617 0
5761 901 -5617 0
-5905 -505 0
-5905 5761 0
5905 505 -5761 0
-6087 21 0
-6087 5905 0
6087 -21 -5905 0
-6088 -21 0
-6088 -5905 0
6088 21 5905 0
-6089 -6087 0
-6089 -6088 0
6089 6087 6088 0
20 -18810 0
-20 18810 0
-376 -232 0
-376 312 0
376 232 -312 0
-504 -233 0
-504 376 0
504 233 -376 0
-772 -224 0
-772 708 0
772 224 -708 0
-900 -225 0
-900 772 0
900 225 -772 0
-1168 -216 0
-1168 1104 0
1168 216 -1104 0
-1296 -217 0
-1296 1168 0
1296 217 -1168 0
-1564 -208 0
-1564 1500 0
1564 208 -1500 0
-1692 -209 0
-1692 1564 0
1692 209 -1564 0
-1960 -200 0
-1960 1896 0
1960 200 -1896 0
-2088 -201 0
-2088 1960 0
2088 201 -1960 0
-2356 -192 0
-2356 2292 0
2356 192 -2292 0
-2484 -193 0
-2484 2356 0
2484 193 -2356 0
-2752 -184 0
-2752 2688 0
2752 184 -2688 0
-2880 -185 0
-2880 2752 0
2880 185 -2752 0
-3148 -176 0
-3148 3084 0
3148 176 -3084 0
-3276 -177 0
-3276 3148 0
3276 177 -3148 0
-3544 -168 0
-3544 3480 0
3544 168 -3480 0
-3672 -169 0
-3672 3544 0
3672 169 -3544 0
-3940 -160 0
-3940 3876 0
3940 160 -3876 0
-4068 -161 0
-4068 3940 0
4068 161 -3940 0
-4336 -152 0
-4336 4272 0
4336 152 -4272 0
-4464 -153 0
-4464 4336 0
4464 153 -4336 0
-4608 -4068 0
-4608 -4464 0
4608 4068 4464 0
-4752 -3672 0
-4752 4608 0
4752 3672 -4608 0
-4896 -3276 0
-4896 4752 0
4896 3276 -4752 0
-5040 -2880 0
-5040 4896 0
5040 2880 -4896 0
-5184 -2484 0
-5184 5040 0
5184 2484 -5040 0
-5328 -2088 0
-5328 5184 0
5328 2088 -5184 0
-5472 -1692 0
-5472 5328 0
5472 1692 -5328 0
-5616 -1296 0
-5616 5472 0
5616 1296 -5472 0
-5760 -900 0
-5760 5616 0
5760 900 -5616 0
-5904 -504 0
-5904 5760 0
5904 504 -5760 0
-6084 20 0
-6084 5904 0
6084 -20 -5904 0
-6085 -20 0
-6085 -5904 0
6085 20 5904 0
-6086 -6084 0
-6086 -6085 0
6086 6084 6085 0
19 -18809 0
-19 18809 0
-375 -232 0
-375 311 0
375 232 -311 0
-503 -233 0
-503 375 0
503 233 -375 0
-771 -224 0
-771 707 0
771 224 -707 0
-899 -225 0
-899 771 0
899 225 -771 0
-1167 -216 0
-1167 1103 0
1167 216 -1103 0
-1295 -217 0
-1295 1167 0
1295 217 -1167 0
-1563 -208 0
-1563 1499 0
1563 208 -1499 0
-1691 -209 0
-1691 1563 0
1691 209 -1563 0
-1959 -200 0
-1959 1895 0
1959 200 -1895 0
-2087 -201 0
-2087 1959 0
2087 201 -1959 0
-2355 -192 0
-2355 2291 0
2355 192 -2291 0
-2483 -193 0
-2483 2355 0
2483 193 -2355 0
-2751 -184 0
-2751 2687 0
2751 184 -2687 0
-2879 -185 0
-2879 2751 0
2879 185 -2751 0
-3147 -176 0
-3147 3083 0
3147 176 -3083 0
-3275 -177 0
-3275 3147 0
3275 177 -3147 0
-3543 -168 0
-3543 3479 0
3543 168 -3479 0
-3671 -169 0
-3671 3543 0
3671 169 -3543 0
-3939 -160 0
-3939 3875 0
3939 160 -3875 0
-4067 -161 0
-4067 3939 0
4067 161 -3939 0
-4335 -152 0
-4335 4271 0
4335 152 -4271 0
-4463 -153 0
-4463 4335 0
4463 153 -4335 0
-4607 -4067 0
-4607 -4463 0
4607 4067 4463 0
-4751 -3671 0
-4751 4607 0
4751 3671 -4607 0
-4895 -3275 0
-4895 4751 0
4895 3275 -4751 0
-5039 -2879 0
-5039 4895 0
5039 2879 -4895 0
-5183 -2483 0
-5183 5039 0
5183 2483 -5039 0
-5327 -2087 0
-5327 5183 0
5327 2087 -5183 0
-5471 -1691 0
-5471 5327 0
5471 1691 -5327 0
-5615 -1295 0
-5615 5471 0
5615 1295 -5471 0
-5759 -899 0
-5759 5615 0
5759 899 -5615 0
-5903 -503 0
-5903 5759 0
5903 503 -5759 0
-6081 19 0
-6081 5903 0
6081 -19 -5903 0
-6082 -19 0
-6082 -5903 0
6082 19 5903 0
-6083 -6081 0
-6083 -6082 0
6083 6081 6082 0
18 -18808 0
-18 18808 0
-374 -232 0
-374 310 0
374 232 -310 0
-502 -233 0
-502 374 0
502 233 -374 0
-770 -224 0
-770 706 0
770 224 -706 0
-898 -225 0
-898 770 0
898 225 -770 0
-1166 -216 0
-1166 1102 0
1166 216 -1102 0
-1294 -217 0
-1294 1166 0
1294 217 -1166 0
-1562 -208 0
-1562 1498 0
1562 208 -1498 0
-1690 -209 0
-1690 1562 0
1690 209 -1562 0
-1958 -200 0
-1958 1894 0
1958 200 -1894 0
-2086 -201 0
-2086 1958 0
2086 201 -1958 0
-2354 -192 0
-2354 2290 0
2354 192 -2290 0
-2482 -193 0
-2482 2354 0
2482 193 -2354 0
-2750 -184 0
-2750 2686 0
2750 184 -2686 0
-2878 -185 0
-2878 2750 0
2878 185 -2750 0
-3146 -176 0
-3146 3082 0
3146 176 -3082 0
-3274 -177 0
-3274 3146 0
3274 177 -3146 0
-3542 -168 0
-3542 3478 0
3542 168 -3478 0
-3670 -169 0
-3670 3542 0
3670 169 -3542 0
-3938 -160 0
-3938 3874 0
3938 160 -3874 0
-4066 -161 0
-4066 3938 0
4066 161 -3938 0
-4334 -152 0
-4334 4270 0
4334 152 -4270 0
-4462 -153 0
-4462 4334 0
4462 153 -4334 0
-4606 -4066 0
-4606 -4462 0
4606 4066 4462 0
-4750 -3670 0
-4750 4606 0
4750 3670 -4606 0
-4894 -3274 0
-4894 4750 0
4894 3274 -4750 0
-5038 -2878 0
-5038 4894 0
5038 2878 -4894 0
-5182 -2482 0
-5182 5038 0
5182 2482 -5038 0
-5326 -2086 0
-5326 5182 0
5326 2086 -5182 0
-5470 -1690 0
-5470 5326 0
5470 1690 -5326 0
-5614 -1294 0
-5614 5470 0
5614 1294 -5470 0
-5758 -898 0
-5758 5614 0
5758 898 -5614 0
-5902 -502 0
-5902 5758 0
5902 502 -5758 0
-6078 18 0
-6078 5902 0
6078 -18 -5902 0
-6079 -18 0
-6079 -5902 0
6079 18 5902 0
-6080 -6078 0
-6080 -6079 0
6080 6078 6079 0
17 -18807 0
-17 18807 0
-501 -233 0
-501 373 0
501 233 -373 0
-897 -225 0
-897 769 0
897 225 -769 0
-1293 -217 0
-1293 1165 0
1293 217 -1165 0
-1689 -209 0
-1689 1561 0
1689 209 -1561 0
-2085 -201 0
-2085 1957 0
2085 201 -1957 0
-2481 -193 0
-2481 2353 0
2481 193 -2353 0
-2877 -185 0
-2877 2749 0
2877 185 -2749 0
-3273 -177 0
-3273 3145 0
3273 177 -3145 0
-3669 -169 0
-3669 3541 0
3669 169 -3541 0
-4065 -161 0
-4065 3937 0
4065 161 -3937 0
-4461 -153 0
-4461 4333 0
4461 153 -4333 0
-4605 -4065 0
-4605 -4461 0
4605 4065 4461 0
-4749 -3669 0
-4749 4605 0
4749 3669 -4605 0
-4893 -3273 0
-4893 4749 0
4893 3273 -4749 0
-5037 -2877 0
-5037 4893 0
5037 2877 -4893 0
-5181 -2481 0
-5181 5037 0
5181 2481 -5037 0
-5325 -2085 0
-5325 5181 0
5325 2085 -5181 0
-5469 -1689 0
-5469 5325 0
5469 1689 -5325 0
-5613 -1293 0
-5613 5469 0
5613 1293 -5469 0
-5757 -897 0
-5757 5613 0
5757 897 -5613 0
-5901 -501 0
-5901 5757 0
5901 501 -5757 0
-6075 17 0
-6075 5901 0
6075 -17 -5901 0
-6076 -17 0
-6076 -5901 0
6076 17 5901 0
-6077 -6075 0
-6077 -6076 0
6077 6075 6076 0
16 -18806 0
-16 18806 0
-500 -233 0
-500 372 0
500 233 -372 0
-896 -225 0
-896 768 0
896 225 -768 0
-1292 -217 0
-1292 1164 0
1292 217 -1164 0
-1688 -209 0
-1688 1560 0
1688 209 -1560 0
-2084 -201 0
-2084 1956 0
2084 201 -1956 0
-2480 -193 0
-2480 2352 0
2480 193 -2352 0
-2876 -185 0
-2876 2748 0
2876 185 -2748 0
-3272 -177 0
-3272 3144 0
3272 177 -3144 0
-3668 -169 0
-3668 3540 0
3668 169 -3540 0
-4064 -161 0
-4064 3936 0
4064 161 -3936 0
-4460 -153 0
-4460 4332 0
4460 153 -4332 0
-4604 -4064 0
-4604 -4460 0
4604 4064 4460 0
-4748 -3668 0
-4748 4604 0
4748 3668 -4604 0
-4892 -3272 0
-4892 4748 0
4892 3272 -4748 0
-5036 -2876 0
-5036 4892 0
5036 2876 -4892 0
-5180 -2480 0
-5180 5036 0
5180 2480 -5036 0
-5324 -2084 0
-5324 5180 0
5324 2084 -5180 0
-5468 -1688 0
-5468 5324 0
5468 1688 -5324 0
-5612 -1292 0
-5612 5468 0
5612 1292 -5468 0
-5756 -896 0
-5756 5612 0
5756 896 -5612 0
-5900 -500 0
-5900 5756 0
5900 500 -5756 0
-6072 16 0
-6072 5900 0
6072 -16 -5900 0
-6073 -16 0
-6073 -5900 0
6073 16 5900 0
-6074 -6072 0
-6074 -6073 0
6074 6072 6073 0
15 -18805 0
-15 18805 0
-499 -233 0
-499 371 0
499 233 -371 0
-895 -225 0
-895 767 0
895 225 -767 0
-1291 -217 0
-1291 1163 0
1291 217 -1163 0
-1687 -209 0
-1687 1559 0
1687 209 -1559 0
-2083 -201 0
-2083 1955 0
2083 201 -1955 0
-2479 -193 0
-2479 2351 0
2479 193 -2351 0
-2875 -185 0
-2875 2747 0
2875 185 -2747 0
-3271 -177 0
-3271 3143 0
3271 177 -3143 0
-3667 -169 0
-3667 3539 0
3667 169 -3539 0
-4063 -161 0
-4063 3935 0
4063 161 -3935 0
-4459 -153 0
-4459 4331 0
4459 153 -4331 0
-4603 -4063 0
-4603 -4459 0
4603 4063 4459 0
-4747 -3667 0
-4747 4603 0
4747 3667 -4603 0
-4891 -3271 0
-4891 4747 0
4891 3271 -4747 0
-5035 -2875 0
-5035 4891 0
5035 2875 -4891 0
-5179 -2479 0
-5179 5035 0
5179 2479 -5035 0
-5323 -2083 0
-5323 5179 0
5323 2083 -5179 0
-5467 -1687 0
-5467 5323 0
5467 1687 -5323 0
-5611 -1291 0
-5611 5467 0
5611 1291 -5467 0
-5755 -895 0
-5755 5611 0
5755 895 -5611 0
-5899 -499 0
-5899 5755 0
5899 499 -5755 0
-6069 15 0
-6069 5899 0
6069 -15 -5899 0
-6070 -15 0
-6070 -5899 0
6070 15 5899 0
-6071 -6069 0
-6071 -6070 0
6071 6069 6070 0
14 -18804 0
-14 18804 0
-498 -233 0
-498 370 0
498 233 -370 0
-894 -225 0
-894 766 0
894 225 -766 0
-1290 -217 0
-1290 1162 0
1290 217 -1162 0
-1686 -209 0
-1686 1558 0
1686 209 -1558 0
-2082 -201 0
-2082 1954 0
2082 201 -1954 0
-2478 -193 0
-2478 2350 0
2478 193 -2350 0
-2874 -185 0
-2874 2746 0
2874 185 -2746 0
-3270 -177 0
-3270 3142 0
3270 177 -3142 0
-3666 -169 0
-3666 3538 0
3666 169 -3538 0
-4062 -161 0
-4062 3934 0
4062 161 -3934 0
-4458 -153 0
-4458 4330 0
4458 153 -4330 0
-4602 -4062 0
-4602 -4458 0
4602 4062 4458 0
-4746 -3666 0
-4746 4602 0
4746 3666 -4602 0
-4890 -3270 0
-4890 4746 0
4890 3270 -4746 0
-5034 -2874 0
-5034 4890 0
5034 2874 -4890 0
-5178 -2478 0
-5178 5034 0
5178 2478 -5034 0
-5322 -2082 0
-5322 5178 0
5322 2082 -5178 0
-5466 -1686 0
-5466 5322 0
5466 1686 -5322 0
-5610 -1290 0
-5610 5466 0
5610 1290 -5466 0
-5754 -894 0
-5754 5610 0
5754 894 -5610 0
-5898 -498 0
-5898 5754 0
5898 498 -5754 0
-6066 14 0
-6066 5898 0
6066 -14 -5898 0
-6067 -14 0
-6067 -5898 0
6067 14 5898 0
-6068 -6066 0
-6068 -6067 0
6068 6066 6067 0
13 -18803 0
-13 18803 0
-497 -233 0
-497 369 0
497 233 -369 0
-893 -225 0
-893 765 0
893 225 -765 0
-1289 -217 0
-1289 1161 0
1289 217 -1161 0
-1685 -209 0
-1685 1557 0
1685 209 -1557 0
-2081 -201 0
-2081 1953 0
2081 201 -1953 0
-2477 -193 0
-2477 2349 0
2477 193 -2349 0
-2873 -185 0
-2873 2745 0
2873 185 -2745 0
-3269 -177 0
-3269 3141 0
3269 177 -3141 0
-3665 -169 0
-3665 3537 0
3665 169 -3537 0
-4061 -161 0
-4061 3933 0
4061 161 -3933 0
-4457 -153 0
-4457 4329 0
4457 153 -4329 0
-4601 -4061 0
-4601 -4457 0
4601 4061 4457 0
-4745 -3665 0
-4745 4601 0
4745 3665 -4601 0
-4889 -3269 0
-4889 4745 0
4889 3269 -4745 0
-5033 -2873 0
-5033 4889 0
5033 2873 -4889 0
-5177 -2477 0
-5177 5033 0
5177 2477 -5033 0
-5321 -2081 0
-5321 5177 0
5321 2081 -5177 0
-5465 -1685 0
-5465 5321 0
5465 1685 -5321 0
-5609 -1289 0
-5609 5465 0
5609 1289 -5465 0
-5753 -893 0
-5753 5609 0
5753 893 -5609 0
-5897 -497 0
-5897 5753 0
5897 497 -5753 0
-6063 13 0
-6063 5897 0
6063 -13 -5897 0
-6064 -13 0
-6064 -5897 0
6064 13 5897 0
-6065 -6063 0
-6065 -6064 0
6065 6063 6064 0
12 -18802 0
-12 18802 0
-496 -233 0
-496 368 0
496 233 -368 0
-892 -225 0
-892 764 0
892 225 -764 0
-1288 -217 0
-1288 1160 0
1288 217 -1160 0
-1684 -209 0
-1684 1556 0
1684 209 -1556 0
-2080 -201 0
-2080 1952 0
2080 201 -1952 0
-2476 -193 0
-2476 2348 0
2476 193 -2348 0
-2872 -185 0
-2872 2744 0
2872 185 -2744 0
-3268 -177 0
-3268 3140 0
3268 177 -3140 0
-3664 -169 0
-3664 3536 0
3664 169 -3536 0
-4060 -161 0
-4060 3932 0
4060 161 -3932 0
-4456 -153 0
-4456 4328 0
4456 153 -4328 0
-4600 -4060 0
-4600 -4456 0
4600 4060 4456 0
-4744 -3664 0
-4744 4600 0
4744 3664 -4600 0
-4888 -3268 0
-4888 4744 0
4888 3268 -4744 0
-5032 -2872 0
-5032 4888 0
5032 2872 -4888 0
-5176 -2476 0
-5176 5032 0
5176 2476 -5032 0
-5320 -2080 0
-5320 5176 0
5320 2080 -5176 0
-5464 -1684 0
-5464 5320 0
5464 1684 -5320 0
-5608 -1288 0
-5608 5464 0
5608 1288 -5464 0
-5752 -892 0
-5752 5608 0
5752 892 -5608 0
-5896 -496 0
-5896 5752 0
5896 496 -5752 0
-6060 12 0
-6060 5896 0
6060 -12 -5896 0
-6061 -12 0
-6061 -5896 0
6061 12 5896 0
-6062 -6060 0
-6062 -6061 0
6062 6060 6061 0
11 -18801 0
-11 18801 0
-495 -233 0
-495 367 0
495 233 -367 0
-891 -225 0
-891 763 0
891 225 -763 0
-1287 -217 0
-1287 1159 0
1287 217 -1159 0
-1683 -209 0
-1683 1555 0
1683 209 -1555 0
-2079 -201 0
-2079 1951 0
2079 201 -1951 0
-2475 -193 0
-2475 2347 0
2475 193 -2347 0
-2871 -185 0
-2871 2743 0
2871 185 -2743 0
-3267 -177 0
-3267 3139 0
3267 177 -3139 0
-3663 -169 0
-3663 3535 0
3663 169 -3535 0
-4059 -161 0
-4059 3931 0
4059 161 -3931 0
-4455 -153 0
-4455 4327 0
4455 153 -4327 0
-4599 -4059 0
-4599 -4455 0
4599 4059 4455 0
-4743 -3663 0
-4743 4599 0
4743 3663 -4599 0
-4887 -3267 0
-4887 4743 0
4887 3267 -4743 0
-5031 -2871 0
-5031 4887 0
5031 2871 -4887 0
-5175 -2475 0
-5175 5031 0
5175 2475 -5031 0
-5319 -2079 0
-5319 5175 0
5319 2079 -5175 0
-5463 -1683 0
-5463 5319 0
5463 1683 -5319 0
-5607 -1287 0
-5607 5463 0
5607 1287 -5463 0
-5751 -891 0
-5751 5607 0
5751 891 -5607 0
-5895 -495 0
-5895 5751 0
5895 495 -5751 0
-6057 11 0
-6057 5895 0
6057 -11 -5895 0
-6058 -11 0
-6058 -5895 0
6058 11 5895 0
-6059 -6057 0
-6059 -6058 0
6059 6057 6058 0
10 -18800 0
-10 18800 0
-494 -233 0
-494 366 0
494 233 -366 0
-890 -225 0
-890 762 0
890 225 -762 0
-1286 -217 0
-1286 1158 0
1286 217 -1158 0
-1682 -209 0
-1682 1554 0
1682 209 -1554 0
-2078 -201 0
-2078 1950 0
2078 201 -1950 0
-2474 -193 0
-2474 2346 0
2474 193 -2346 0
-2870 -185 0
-2870 2742 0
2870 185 -2742 0
-3266 -177 0
-3266 3138 0
3266 177 -3138 0
-3662 -169 0
-3662 3534 0
3662 169 -3534 0
-4058 -161 0
-4058 3930 0
4058 161 -3930 0
-4454 -153 0
-4454 4326 0
4454 153 -4326 0
-4598 -4058 0
-4598 -4454 0
4598 4058 4454 0
-4742 -3662 0
-4742 4598 0
4742 3662 -4598 0
-4886 -3266 0
-4886 4742 0
4886 3266 -4742 0
-5030 -2870 0
-5030 4886 0
5030 2870 -4886 0
-5174 -2474 0
-5174 5030 0
5174 2474 -5030 0
-5318 -2078 0
-5318 5174 0
5318 2078 -5174 0
-5462 -1682 0
-5462 5318 0
5462 1682 -5318 0
-5606 -1286 0
-5606 5462 0
5606 1286 -5462 0
-5750 -890 0
-5750 5606 0
5750 890 -5606 0
-5894 -494 0
-5894 5750 0
5894 494 -5750 0
-6054 10 0
-6054 5894 0
6054 -10 -5894 0
-6055 -10 0
-6055 -5894 0
6055 10 5894 0
-6056 -6054 0
-6056 -6055 0
6056 6054 6055 0
9 -18799 0
-9 18799 0
-493 -233 0
-493 365 0
493 233 -365 0
-889 -225 0
-889 761 0
889 225 -761 0
-1285 -217 0
-1285 1157 0
1285 217 -1157 0
-1681 -209 0
-1681 1553 0
1681 209 -1553 0
-2077 -201 0
-2077 1949 0
2077 201 -1949 0
-2473 -193 0
-2473 2345 0
2473 193 -2345 0
-2869 -185 0
-2869 2741 0
2869 185 -2741 0
-3265 -177 0
-3265 3137 0
3265 177 -3137 0
-3661 -169 0
-3661 3533 0
3661 169 -3533 0
-4057 -161 0
-4057 3929 0
4057 161 -3929 0
-4453 -153 0
-4453 4325 0
4453 153 -4325 0
-4597 -4057 0
-4597 -4453 0
4597 4057 4453 0
-4741 -3661 0
-4741 4597 0
4741 3661 -4597 0
-4885 -3265 0
-4885 4741 0
4885 3265 -4741 0
-5029 -2869 0
-5029 4885 0
5029 2869 -4885 0
-5173 -2473 0
-5173 5029 0
5173 2473 -5029 0
-5317 -2077 0
-5317 5173 0
5317 2077 -5173 0
-5461 -1681 0
-5461 5317 0
5461 1681 -5317 0
-5605 -1285 0
-5605 5461 0
5605 1285 -5461 0
-5749 -889 0
-5749 5605 0
5749 889 -5605 0
-5893 -493 0
-5893 5749 0
5893 493 -5749 0
-6051 9 0
-6051 5893 0
6051 -9 -5893 0
-6052 -9 0
-6052 -5893 0
6052 9 5893 0
-6053 -6051 0
-6053 -6052 0
6053 6051 6052 0
8 -18798 0
-8 18798 0
-492 -233 0
-492 364 0
492 233 -364 0
-888 -225 0
-888 760 0
888 225 -760 0
-1284 -217 0
-1284 1156 0
1284 217 -1156 0
-1680 -209 0
-1680 1552 0
1680 209 -1552 0
-2076 -201 0
-2076 1948 0
2076 201 -1948 0
-2472 -193 0
-2472 2344 0
2472 193 -2344 0
-2868 -185 0
-2868 2740 0
2868 185 -2740 0
-3264 -177 0
-3264 3136 0
3264 177 -3136 0
-3660 -169 0
-3660 3532 0
3660 169 -3532 0
-4056 -161 0
-4056 3928 0
4056 161 -3928 0
-4452 -153 0
-4452 4324 0
4452 153 -4324 0
-4596 -4056 0
-4596 -4452 0
4596 4056 4452 0
-4740 -3660 0
-4740 4596 0
4740 3660 -4596 0
-4884 -3264 0
-4884 4740 0
4884 3264 -4740 0
-5028 -2868 0
-5028 4884 0
5028 2868 -4884 0
-5172 -2472 0
-5172 5028 0
5172 2472 -5028 0
-5316 -2076 0
-5316 5172 0
5316 2076 -5172 0
-5460 -1680 0
-5460 5316 0
5460 1680 -5316 0
-5604 -1284 0
-5604 5460 0
5604 1284 -5460 0
-5748 -888 0
-5748 5604 0
5748 888 -5604 0
-5892 -492 0
-5892 5748 0
5892 492 -5748 0
-6048 8 0
-6048 5892 0
6048 -8 -5892 0
-6049 -8 0
-6049 -5892 0
6049 8 5892 0
-6050 -6048 0
-6050 -6049 0
6050 6048 6049 0
7 -18797 0
-7 18797 0
-491 -233 0
-491 363 0
491 233 -363 0
-887 -225 0
-887 759 0
887 225 -759 0
-1283 -217 0
-1283 1155 0
1283 217 -1155 0
-1679 -209 0
-1679 1551 0
1679 209 -1551 0
-2075 -201 0
-2075 1947 0
2075 201 -1947 0
-2471 -193 0
-2471 2343 0
2471 193 -2343 0
-2867 -185 0
-2867 2739 0
2867 185 -2739 0
-3263 -177 0
-3263 3135 0
3263 177 -3135 0
-3659 -169 0
-3659 3531 0
3659 169 -3531 0
-4055 -161 0
-4055 3927 0
4055 161 -3927 0
-4451 -153 0
-4451 4323 0
4451 153 -4323 0
-4595 -4055 0
-4595 -4451 0
4595 4055 4451 0
-4739 -3659 0
-4739 4595 0
4739 3659 -4595 0
-4883 -3263 0
-4883 4739 0
4883 3263 -4739 0
-5027 -2867 0
-5027 4883 0
5027 2867 -4883 0
-5171 -2471 0
-5171 5027 0
5171 2471 -5027 0
-5315 -2075 0
-5315 5171 0
5315 2075 -5171 0
-5459 -1679 0
-5459 5315 0
5459 1679 -5315 0
-5603 -1283 0
-5603 5459 0
5603 1283 -5459 0
-5747 -887 0
-5747 5603 0
5747 887 -5603 0
-5891 -491 0
-5891 5747 0
5891 491 -5747 0
-6045 7 0
-6045 5891 0
6045 -7 -5891 0
-6046 -7 0
-6046 -5891 0
6046 7 5891 0
-6047 -6045 0
-6047 -6046 0
6047 6045 6046 0
6 -18796 0
-6 18796 0
-490 -233 0
-490 362 0
490 233 -362 0
-886 -225 0
-886 758 0
886 225 -758 0
-1282 -217 0
-1282 1154 0
1282 217 -1154 0
-1678 -209 0
-1678 1550 0
1678 209 -1550 0
-2074 -201 0
-2074 1946 0
2074 201 -1946 0
-2470 -193 0
-2470 2342 0
2470 193 -2342 0
-2866 -185 0
-2866 2738 0
2866 185 -2738 0
-3262 -177 0
-3262 3134 0
3262 177 -3134 0
-3658 -169 0
-3658 3530 0
3658 169 -3530 0
-4054 -161 0
-4054 3926 0
4054 161 -3926 0
-4450 -153 0
-4450 4322 0
4450 153 -4322 0
-4594 -4054 0
-4594 -4450 0
4594 4054 4450 0
-4738 -3658 0
-4738 4594 0
4738 3658 -4594 0
-4882 -3262 0
-4882 4738 0
4882 3262 -4738 0
-5026 -2866 0
-5026 4882 0
5026 2866 -4882 0
-5170 -2470 0
-5170 5026 0
5170 2470 -5026 0
-5314 -2074 0
-5314 5170 0
5314 2074 -5170 0
-5458 -1678 0
-5458 5314 0
5458 1678 -5314 0
-5602 -1282 0
-5602 5458 0
5602 1282 -5458 0
-5746 -886 0
-5746 5602 0
5746 886 -5602 0
-5890 -490 0
-5890 5746 0
5890 490 -5746 0
-6042 6 0
-6042 5890 0
6042 -6 -5890 0
-6043 -6 0
-6043 -5890 0
6043 6 5890 0
-6044 -6042 0
-6044 -6043 0
6044 6042 6043 0
5 -18795 0
-5 18795 0
-489 -233 0
-489 361 0
489 233 -361 0
-885 -225 0
-885 757 0
885 225 -757 0
-1281 -217 0
-1281 1153 0
1281 217 -1153 0
-1677 -209 0
-1677 1549 0
1677 209 -1549 0
-2073 -201 0
-2073 1945 0
2073 201 -1945 0
-2469 -193 0
-2469 2341 0
2469 193 -2341 0
-2865 -185 0
-2865 2737 0
2865 185 -2737 0
-3261 -177 0
-3261 3133 0
3261 177 -3133 0
-3657 -169 0
-3657 3529 0
3657 169 -3529 0
-4053 -161 0
-4053 3925 0
4053 161 -3925 0
-4449 -153 0
-4449 4321 0
4449 153 -4321 0
-4593 -4053 0
-4593 -4449 0
4593 4053 4449 0
-4737 -3657 0
-4737 4593 0
4737 3657 -4593 0
-4881 -3261 0
-4881 4737 0
4881 3261 -4737 0
-5025 -2865 0
-5025 4881 0
5025 2865 -4881 0
-5169 -2469 0
-5169 5025 0
5169 2469 -5025 0
-5313 -2073 0
-5313 5169 0
5313 2073 -5169 0
-5457 -1677 0
-5457 5313 0
5457 1677 -5313 0
-5601 -1281 0
-5601 5457 0
5601 1281 -5457 0
-5745 -885 0
-5745 5601 0
5745 885 -5601 0
-5889 -489 0
-5889 5745 0
5889 489 -5745 0
-6039 5 0
-6039 5889 0
6039 -5 -5889 0
-6040 -5 0
-6040 -5889 0
6040 5 5889 0
-6041 -6039 0
-6041 -6040 0
6041 6039 6040 0
4 -18794 0
-4 18794 0
-488 -233 0
-488 360 0
488 233 -360 0
-884 -225 0
-884 756 0
884 225 -756 0
-1280 -217 0
-1280 1152 0
1280 217 -1152 0
-1676 -209 0
-1676 1548 0
1676 209 -1548 0
-2072 -201 0
-2072 1944 0
2072 201 -1944 0
-2468 -193 0
-2468 2340 0
2468 193 -2340 0
-2864 -185 0
-2864 2736 0
2864 185 -2736 0
-3260 -177 0
-3260 3132 0
3260 177 -3132 0
-3656 -169 0
-3656 3528 0
3656 169 -3528 0
-4052 -161 0
-4052 3924 0
4052 161 -3924 0
-4448 -153 0
-4448 4320 0
4448 153 -4320 0
-4592 -4052 0
-4592 -4448 0
4592 4052 4448 0
-4736 -3656 0
-4736 4592 0
4736 3656 -4592 0
-4880 -3260 0
-4880 4736 0
4880 3260 -4736 0
-5024 -2864 0
-5024 4880 0
5024 2864 -4880 0
-5168 -2468 0
-5168 5024 0
5168 2468 -5024 0
-5312 -2072 0
-5312 5168 0
5312 2072 -5168 0
-5456 -1676 0
-5456 5312 0
5456 1676 -5312 0
-5600 -1280 0
-5600 5456 0
5600 1280 -5456 0
-5744 -884 0
-5744 5600 0
5744 884 -5600 0
-5888 -488 0
-5888 5744 0
5888 488 -5744 0
-6036 4 0
-6036 5888 0
6036 -4 -5888 0
-6037 -4 0
-6037 -5888 0
6037 4 5888 0
-6038 -6036 0
-6038 -6037 0
6038 6036 6037 0
2 -18792 0
-2 18792 0
-486 -233 0
-486 358 0
486 233 -358 0
-882 -225 0
-882 754 0
882 225 -754 0
-1278 -217 0
-1278 1150 0
1278 217 -1150 0
-1674 -209 0
-1674 1546 0
1674 209 -1546 0
-2070 -201 0
-2070 1942 0
2070 201 -1942 0
-2466 -193 0
-2466 2338 0
2466 193 -2338 0
-2862 -185 0
-2862 2734 0
2862 185 -2734 0
-3258 -177 0
-3258 3130 0
3258 177 -3130 0
-3654 -169 0
-3654 3526 0
3654 169 -3526 0
-4050 -161 0
-4050 3922 0
4050 161 -3922 0
-4446 -153 0
-4446 4318 0
4446 153 -4318 0
-4590 -4050 0
-4590 -4446 0
4590 4050 4446 0
-4734 -3654 0
-4734 4590 0
4734 3654 -4590 0
-4878 -3258 0
-4878 4734 0
4878 3258 -4734 0
-5022 -2862 0
-5022 4878 0
5022 2862 -4878 0
-5166 -2466 0
-5166 5022 0
5166 2466 -5022 0
-5310 -2070 0
-5310 5166 0
5310 2070 -5166 0
-5454 -1674 0
-5454 5310 0
5454 1674 -5310 0
-5598 -1278 0
-5598 5454 0
5598 1278 -5454 0
-5742 -882 0
-5742 5598 0
5742 882 -5598 0
-5886 -486 0
-5886 5742 0
5886 486 -5742 0
-6030 2 0
-6030 5886 0
6030 -2 -5886 0
-6031 -2 0
-6031 -5886 0
6031 2 5886 0
-6032 -6030 0
-6032 -6031 0
6032 6030 6031 0
3 -18793 0
-3 18793 0
-487 -233 0
-487 359 0
487 233 -359 0
-883 -225 0
-883 755 0
883 225 -755 0
-1279 -217 0
-1279 1151 0
1279 217 -1151 0
-1675 -209 0
-1675 1547 0
1675 209 -1547 0
-2071 -201 0
-2071 1943 0
2071 201 -1943 0
-2467 -193 0
-2467 2339 0
2467 193 -2339 0
-2863 -185 0
-2863 2735 0
2863 185 -2735 0
-3259 -177 0
-3259 3131 0
3259 177 -3131 0
-3655 -169 0
-3655 3527 0
3655 169 -3527 0
-4051 -161 0
-4051 3923 0
4051 161 -3923 0
-4447 -153 0
-4447 4319 0
4447 153 -4319 0
-4591 -4051 0
-4591 -4447 0
4591 4051 4447 0
-4735 -3655 0
-4735 4591 0
4735 3655 -4591 0
-4879 -3259 0
-4879 4735 0
4879 3259 -4735 0
-5023 -2863 0
-5023 4879 0
5023 2863 -4879 0
-5167 -2467 0
-5167 5023 0
5167 2467 -5023 0
-5311 -2071 0
-5311 5167 0
5311 2071 -5167 0
-5455 -1675 0
-5455 5311 0
5455 1675 -5311 0
-5599 -1279 0
-5599 5455 0
5599 1279 -5455 0
-5743 -883 0
-5743 5599 0
5743 883 -5599 0
-5887 -487 0
-5887 5743 0
5887 487 -5743 0
-6033 3 0
-6033 5887 0
6033 -3 -5887 0
-6034 -3 0
-6034 -5887 0
6034 3 5887 0
-6035 -6033 0
-6035 -6034 0
6035 6033 6034 0
-6462 6032 0
-6462 6035 0
6462 -6032 -6035 0
-6463 6038 0
-6463 6462 0
6463 -6038 -6462 0
-6464 6041 0
-6464 6463 0
6464 -6041 -6463 0
-6465 6044 0
-6465 6464 0
6465 -6044 -6464 0
-6466 6047 0
-6466 6465 0
6466 -6047 -6465 0
-6467 6050 0
-6467 6466 0
6467 -6050 -6466 0
-6468 6053 0
-6468 6467 0
6468 -6053 -6467 0
-6469 6056 0
-6469 6468 0
6469 -6056 -6468 0
-6470 6059 0
-6470 6469 0
6470 -6059 -6469 0
-6471 6062 0
-6471 6470 0
6471 -6062 -6470 0
-6472 6065 0
-6472 6471 0
6472 -6065 -6471 0
-6473 6068 0
-6473 6472 0
6473 -6068 -6472 0
-6474 6071 0
-6474 6473 0
6474 -6071 -6473 0
-6475 6074 0
-6475 6474 0
6475 -6074 -6474 0
-6476 6077 0
-6476 6475 0
6476 -6077 -6475 0
-6477 6080 0
-6477 6476 0
6477 -6080 -6476 0
-6478 6083 0
-6478 6477 0
6478 -6083 -6477 0
-6479 6086 0
-6479 6478 0
6479 -6086 -6478 0
-6480 6089 0
-6480 6479 0
6480 -6089 -6479 0
-6481 6092 0
-6481 6480 0
6481 -6092 -6480 0
-6482 6095 0
-6482 6481 0
6482 -6095 -6481 0
-6483 6098 0
-6483 6482 0
6483 -6098 -6482 0
-6484 6101 0
-6484 6483 0
6484 -6101 -6483 0
-6485 6104 0
-6485 6484 0
6485 -6104 -6484 0
-6486 6107 0
-6486 6485 0
6486 -6107 -6485 0
-6487 6110 0
-6487 6486 0
6487 -6110 -6486 0
-6488 6113 0
-6488 6487 0
6488 -6113 -6487 0
-6489 6116 0
-6489 6488 0
6489 -6116 -6488 0
-6490 6119 0
-6490 6489 0
6490 -6119 -6489 0
-6491 6122 0
-6491 6490 0
6491 -6122 -6490 0
-6492 6125 0
-6492 6491 0
6492 -6125 -6491 0
-6493 6128 0
-6493 6492 0
6493 -6128 -6492 0
-6494 6131 0
-6494 6493 0
6494 -6131 -6493 0
-6495 6134 0
-6495 6494 0
6495 -6134 -6494 0
-6496 6137 0
-6496 6495 0
6496 -6137 -6495 0
-6497 6140 0
-6497 6496 0
6497 -6140 -6496 0
-6498 6143 0
-6498 6497 0
6498 -6143 -6497 0
-6499 6146 0
-6499 6498 0
6499 -6146 -6498 0
-6500 6149 0
-6500 6499 0
6500 -6149 -6499 0
-6501 6152 0
-6501 6500 0
6501 -6152 -6500 0
-6502 6155 0
-6502 6501 0
6502 -6155 -6501 0
-6503 6158 0
-6503 6502 0
6503 -6158 -6502 0
-6504 6161 0
-6504 6503 0
6504 -6161 -6503 0
-6505 6164 0
-6505 6504 0
6505 -6164 -6504 0
-6506 6167 0
-6506 6505 0
6506 -6167 -6505 0
-6507 6170 0
-6507 6506 0
6507 -6170 -6506 0
-6508 6173 0
-6508 6507 0
6508 -6173 -6507 0
-6509 6176 0
-6509 6508 0
6509 -6176 -6508 0
-6510 6179 0
-6510 6509 0
6510 -6179 -6509 0
-6511 6182 0
-6511 6510 0
6511 -6182 -6510 0
-6512 6185 0
-6512 6511 0
6512 -6185 -6511 0
-6513 6188 0
-6513 6512 0
6513 -6188 -6512 0
-6514 6191 0
-6514 6513 0
6514 -6191 -6513 0
-6515 6194 0
-6515 6514 0
6515 -6194 -6514 0
-6516 6197 0
-6516 6515 0
6516 -6197 -6515 0
-6517 6200 0
-6517 6516 0
6517 -6200 -6516 0
-6518 6203 0
-6518 6517 0
6518 -6203 -6517 0
-6519 6206 0
-6519 6518 0
6519 -6206 -6518 0
-6520 6209 0
-6520 6519 0
6520 -6209 -6519 0
-6521 6212 0
-6521 6520 0
6521 -6212 -6520 0
-6522 6215 0
-6522 6521 0
6522 -6215 -6521 0
-6523 6218 0
-6523 6522 0
6523 -6218 -6522 0
-6524 6221 0
-6524 6523 0
6524 -6221 -6523 0
-6525 6224 0
-6525 6524 0
6525 -6224 -6524 0
-6526 6227 0
-6526 6525 0
6526 -6227 -6525 0
-6527 6230 0
-6527 6526 0
6527 -6230 -6526 0
-6528 6233 0
-6528 6527 0
6528 -6233 -6527 0
-6529 6236 0
-6529 6528 0
6529 -6236 -6528 0
-6530 6239 0
-6530 6529 0
6530 -6239 -6529 0
-6531 6242 0
-6531 6530 0
6531 -6242 -6530 0
-6532 6245 0
-6532 6531 0
6532 -6245 -6531 0
-6533 6248 0
-6533 6532 0
6533 -6248 -6532 0
-6534 6251 0
-6534 6533 0
6534 -6251 -6533 0
-6535 6254 0
-6535 6534 0
6535 -6254 -6534 0
-6536 6257 0
-6536 6535 0
6536 -6257 -6535 0
-6537 6260 0
-6537 6536 0
6537 -6260 -6536 0
-6538 6263 0
-6538 6537 0
6538 -6263 -6537 0
-6539 6266 0
-6539 6538 0
6539 -6266 -6538 0
-6540 6269 0
-6540 6539 0
6540 -6269 -6539 0
-6541 6272 0
-6541 6540 0
6541 -6272 -6540 0
-6542 6275 0
-6542 6541 0
6542 -6275 -6541 0
-6543 6278 0
-6543 6542 0
6543 -6278 -6542 0
-6544 6281 0
-6544 6543 0
6544 -6281 -6543 0
-6545 6284 0
-6545 6544 0
6545 -6284 -6544 0
-6546 6287 0
-6546 6545 0
6546 -6287 -6545 0
-6547 6290 0
-6547 6546 0
6547 -6290 -6546 0
-6548 6293 0
-6548 6547 0
6548 -6293 -6547 0
-6549 6296 0
-6549 6548 0
6549 -6296 -6548 0
-6550 6299 0
-6550 6549 0
6550 -6299 -6549 0
-6551 6302 0
-6551 6550 0
6551 -6302 -6550 0
-6552 6305 0
-6552 6551 0
6552 -6305 -6551 0
-6553 6308 0
-6553 6552 0
6553 -6308 -6552 0
-6554 6311 0
-6554 6553 0
6554 -6311 -6553 0
-6555 6314 0
-6555 6554 0
6555 -6314 -6554 0
-6556 6317 0
-6556 6555 0
6556 -6317 -6555 0
-6557 6320 0
-6557 6556 0
6557 -6320 -6556 0
-6558 6323 0
-6558 6557 0
6558 -6323 -6557 0
-6559 6326 0
-6559 6558 0
6559 -6326 -6558 0
-6560 6329 0
-6560 6559 0
6560 -6329 -6559 0
-6561 6332 0
-6561 6560 0
6561 -6332 -6560 0
-6562 6335 0
-6562 6561 0
6562 -6335 -6561 0
-6563 6338 0
-6563 6562 0
6563 -6338 -6562 0
-6564 6341 0
-6564 6563 0
6564 -6341 -6563 0
-6565 6344 0
-6565 6564 0
6565 -6344 -6564 0
-6566 6347 0
-6566 6565 0
6566 -6347 -6565 0
-6567 6350 0
-6567 6566 0
6567 -6350 -6566 0
-6568 6353 0
-6568 6567 0
6568 -6353 -6567 0
-6569 6356 0
-6569 6568 0
6569 -6356 -6568 0
-6570 6359 0
-6570 6569 0
6570 -6359 -6569 0
-6571 6362 0
-6571 6570 0
6571 -6362 -6570 0
-6572 6365 0
-6572 6571 0
6572 -6365 -6571 0
-6573 6368 0
-6573 6572 0
6573 -6368 -6572 0
-6574 6371 0
-6574 6573 0
6574 -6371 -6573 0
-6575 6374 0
-6575 6574 0
6575 -6374 -6574 0
-6576 6377 0
-6576 6575 0
6576 -6377 -6575 0
-6577 6380 0
-6577 6576 0
6577 -6380 -6576 0
-6578 6383 0
-6578 6577 0
6578 -6383 -6577 0
-6579 6386 0
-6579 6578 0
6579 -6386 -6578 0
-6580 6389 0
-6580 6579 0
6580 -6389 -6579 0
-6581 6392 0
-6581 6580 0
6581 -6392 -6580 0
-6582 6395 0
-6582 6581 0
6582 -6395 -6581 0
-6583 6398 0
-6583 6582 0
6583 -6398 -6582 0
-6584 6401 0
-6584 6583 0
6584 -6401 -6583 0
-6585 6404 0
-6585 6584 0
6585 -6404 -6584 0
-6586 6407 0
-6586 6585 0
6586 -6407 -6585 0
-6587 6410 0
-6587 6586 0
6587 -6410 -6586 0
-6588 6413 0
-6588 6587 0
6588 -6413 -6587 0
-6589 6416 0
-6589 6588 0
6589 -6416 -6588 0
-6590 6419 0
-6590 6589 0
6590 -6419 -6589 0
-6591 6422 0
-6591 6590 0
6591 -6422 -6590 0
-6592 6425 0
-6592 6591 0
6592 -6425 -6591 0
-6593 6428 0
-6593 6592 0
6593 -6428 -6592 0
-6594 6431 0
-6594 6593 0
6594 -6431 -6593 0
-6595 6434 0
-6595 6594 0
6595 -6434 -6594 0
-6596 6437 0
-6596 6595 0
6596 -6437 -6595 0
-6597 6440 0
-6597 6596 0
6597 -6440 -6596 0
-6598 6443 0
-6598 6597 0
6598 -6443 -6597 0
-6599 6446 0
-6599 6598 0
6599 -6446 -6598 0
-6600 6449 0
-6600 6599 0
6600 -6449 -6599 0
-6601 6452 0
-6601 6600 0
6601 -6452 -6600 0
-6602 6455 0
-6602 6601 0
6602 -6455 -6601 0
-6603 6458 0
-6603 6602 0
6603 -6458 -6602 0
-6604 6461 0
-6604 6603 0
6604 -6461 -6603 0
-6605 68 0
-6605 69 0
6605 -68 -69 0
-6606 -68 0
-6606 -69 0
6606 68 69 0
-6607 -6605 0
-6607 -6606 0
6607 6605 6606 0
-6611 79 0
-6611 6607 0
6611 -79 -6607 0
-6612 -79 0
-6612 -6607 0
6612 79 6607 0
-6613 -6611 0
-6613 -6612 0
6613 6611 6612 0
-6617 85 0
-6617 6613 0
6617 -85 -6613 0
-6618 -85 0
-6618 -6613 0
6618 85 6613 0
-6619 -6617 0
-6619 -6618 0
6619 6617 6618 0
-6629 19 0
-6629 6619 0
6629 -19 -6619 0
-6630 -19 0
-6630 -6619 0
6630 19 6619 0
-6631 -6629 0
-6631 -6630 0
6631 6629 6630 0
-6632 142 0
-6632 6631 0
6632 -142 -6631 0
-6633 -142 0
-6633 -6631 0
6633 142 6631 0
-6634 -6632 0
-6634 -6633 0
6634 6632 6633 0
-6635 6604 0
-6635 -6634 0
6635 -6604 6634 0
-6636 68 0
-6636 73 0
6636 -68 -73 0
-6637 -68 0
-6637 -73 0
6637 68 73 0
-6638 -6636 0
-6638 -6637 0
6638 6636 6637 0
-6648 78 0
-6648 6638 0
6648 -78 -6638 0
-6649 -78 0
-6649 -6638 0
6649 78 6638 0
-6650 -6648 0
-6650 -6649 0
6650 6648 6649 0
-6657 84 0
-6657 6650 0
6657 -84 -6650 0
-6658 -84 0
-6658 -6650 0
6658 84 6650 0
-6659 -6657 0
-6659 -6658 0
6659 6657 6658 0
-6672 18 0
-6672 6659 0
6672 -18 -6659 0
-6673 -18 0
-6673 -6659 0
6673 18 6659 0
-6674 -6672 0
-6674 -6673 0
6674 6672 6673 0
-6675 141 0
-6675 6674 0
6675 -141 -6674 0
-6676 -141 0
-6676 -6674 0
6676 141 6674 0
-6677 -6675 0
-6677 -6676 0
6677 6675 6676 0
-6678 6635 0
-6678 -6677 0
6678 -6635 6677 0
-6679 72 0
-6679 73 0
6679 -72 -73 0
-6680 -72 0
-6680 -73 0
6680 72 73 0
-6681 -6679 0
-6681 -6680 0
6681 6679 6680 0
-6682 77 0
-6682 6681 0
6682 -77 -6681 0
-6683 -77 0
-6683 -6681 0
6683 77 6681 0
-6684 -6682 0
-6684 -6683 0
6684 6682 6683 0
-6697 83 0
-6697 6684 0
6697 -83 -6684 0
-6698 -83 0
-6698 -6684 0
6698 83 6684 0
-6699 -6697 0
-6699 -6698 0
6699 6697 6698 0
-6709 17 0
-6709 6699 0
6709 -17 -6699 0
-6710 -17 0
-6710 -6699 0
6710 17 6699 0
-6711 -6709 0
-6711 -6710 0
6711 6709 6710 0
-6712 140 0
-6712 6711 0
6712 -140 -6711 0
-6713 -140 0
-6713 -6711 0
6713 140 6711 0
-6714 -6712 0
-6714 -6713 0
6714 6712 6713 0
-6715 6678 0
-6715 -6714 0
6715 -6678 6714 0
-6716 71 0
-6716 72 0
6716 -71 -72 0
-6717 -71 0
-6717 -72 0
6717 71 72 0
-6718 -6716 0
-6718 -6717 0
6718 6716 6717 0
-6719 76 0
-6719 6718 0
6719 -76 -6718 0
-6720 -76 0
-6720 -6718 0
6720 76 6718 0
-6721 -6719 0
-6721 -6720 0
6721 6719 6720 0
-6734 82 0
-6734 6721 0
6734 -82 -6721 0
-6735 -82 0
-6735 -6721 0
6735 82 6721 0
-6736 -6734 0
-6736 -6735 0
6736 6734 6735 0
-6746 16 0
-6746 6736 0
6746 -16 -6736 0
-6747 -16 0
-6747 -6736 0
6747 16 6736 0
-6748 -6746 0
-6748 -6747 0
6748 6746 6747 0
-6749 145 0
-6749 6748 0
6749 -145 -6748 0
-6750 -145 0
-6750 -6748 0
6750 145 6748 0
-6751 -6749 0
-6751 -6750 0
6751 6749 6750 0
-6752 6715 0
-6752 -6751 0
6752 -6715 6751 0
-6753 70 0
-6753 71 0
6753 -70 -71 0
-6754 -70 0
-6754 -71 0
6754 70 71 0
-6755 -6753 0
-6755 -6754 0
6755 6753 6754 0
-6762 75 0
-6762 81 0
6762 -75 -81 0
-6763 -75 0
-6763 -81 0
6763 75 81 0
-6764 -6762 0
-6764 -6763 0
6764 6762 6763 0
-6768 6755 0
-6768 6764 0
6768 -6755 -6764 0
-6769 -6755 0
-6769 -6764 0
6769 6755 6764 0
-6770 -6768 0
-6770 -6769 0
6770 6768 6769 0
-6783 15 0
-6783 6770 0
6783 -15 -6770 0
-6784 -15 0
-6784 -6770 0
6784 15 6770 0
-6785 -6783 0
-6785 -6784 0
6785 6783 6784 0
-6786 144 0
-6786 6785 0
6786 -144 -6785 0
-6787 -144 0
-6787 -6785 0
6787 144 6785 0
-6788 -6786 0
-6788 -6787 0
6788 6786 6787 0
-6789 6752 0
-6789 -6788 0
6789 -6752 6788 0
-6790 69 0
-6790 70 0
6790 -69 -70 0
-6791 -69 0
-6791 -70 0
6791 69 70 0
-6792 -6790 0
-6792 -6791 0
6792 6790 6791 0
-6799 74 0
-6799 80 0
6799 -74 -80 0
-6800 -74 0
-6800 -80 0
6800 74 80 0
-6801 -6799 0
-6801 -6800 0
6801 6799 6800 0
-6805 6792 0
-6805 6801 0
6805 -6792 -6801 0
-6806 -6792 0
-6806 -6801 0
6806 6792 6801 0
-6807 -6805 0
-6807 -6806 0
6807 6805 6806 0
-6820 14 0
-6820 6807 0
6820 -14 -6807 0
-6821 -14 0
-6821 -6807 0
6821 14 6807 0
-6822 -6820 0
-6822 -6821 0
6822 6820 6821 0
-6823 143 0
-6823 6822 0
6823 -143 -6822 0
-6824 -143 0
-6824 -6822 0
6824 143 6822 0
-6825 -6823 0
-6825 -6824 0
6825 6823 6824 0
-6826 6789 0
-6826 -6825 0
6826 -6789 6825 0
-6830 136 0
-6830 145 0
6830 -136 -145 0
-6831 -136 0
-6831 -145 0
6831 136 145 0
-6832 -6830 0
-6832 -6831 0
6832 6830 6831 0
-6827 62 0
-6827 63 0
6827 -62 -63 0
-6828 -62 0
-6828 -63 0
6828 62 63 0
-6829 -6827 0
-6829 -6828 0
6829 6827 6828 0
-6833 13 0
-6833 6829 0
6833 -13 -6829 0
-6834 -13 0
-6834 -6829 0
6834 13 6829 0
-6835 -6833 0
-6835 -6834 0
6835 6833 6834 0
-6842 79 0
-6842 6835 0
6842 -79 -6835 0
-6843 -79 0
-6843 -6835 0
6843 79 6835 0
-6844 -6842 0
-6844 -6843 0
6844 6842 6843 0
-6845 6832 0
-6845 6844 0
6845 -6832 -6844 0
-6846 -6832 0
-6846 -6844 0
6846 6832 6844 0
-6847 -6845 0
-6847 -6846 0
6847 6845 6846 0
-6848 6826 0
-6848 -6847 0
6848 -6826 6847 0
-6855 135 0
-6855 144 0
6855 -135 -144 0
-6856 -135 0
-6856 -144 0
6856 135 144 0
-6857 -6855 0
-6857 -6856 0
6857 6855 6856 0
-6852 67 0
-6852 78 0
6852 -67 -78 0
-6853 -67 0
-6853 -78 0
6853 67 78 0
-6854 -6852 0
-6854 -6853 0
6854 6852 6853 0
-6858 12 0
-6858 62 0
6858 -12 -62 0
-6859 -12 0
-6859 -62 0
6859 12 62 0
-6860 -6858 0
-6860 -6859 0
6860 6858 6859 0
-6867 6854 0
-6867 6860 0
6867 -6854 -6860 0
-6868 -6854 0
-6868 -6860 0
6868 6854 6860 0
-6869 -6867 0
-6869 -6868 0
6869 6867 6868 0
-6870 6857 0
-6870 6869 0
6870 -6857 -6869 0
-6871 -6857 0
-6871 -6869 0
6871 6857 6869 0
-6872 -6870 0
-6872 -6871 0
6872 6870 6871 0
-6873 6848 0
-6873 -6872 0
6873 -6848 6872 0
-6883 134 0
-6883 143 0
6883 -134 -143 0
-6884 -134 0
-6884 -143 0
6884 134 143 0
-6885 -6883 0
-6885 -6884 0
6885 6883 6884 0
-6874 66 0
-6874 67 0
6874 -66 -67 0
-6875 -66 0
-6875 -67 0
6875 66 67 0
-6876 -6874 0
-6876 -6875 0
6876 6874 6875 0
-6877 77 0
-6877 6876 0
6877 -77 -6876 0
-6878 -77 0
-6878 -6876 0
6878 77 6876 0
-6879 -6877 0
-6879 -6878 0
6879 6877 6878 0
-6889 11 0
-6889 6879 0
6889 -11 -6879 0
-6890 -11 0
-6890 -6879 0
6890 11 6879 0
-6891 -6889 0
-6891 -6890 0
6891 6889 6890 0
-6892 6885 0
-6892 6891 0
6892 -6885 -6891 0
-6893 -6885 0
-6893 -6891 0
6893 6885 6891 0
-6894 -6892 0
-6894 -6893 0
6894 6892 6893 0
-6895 6873 0
-6895 -6894 0
6895 -6873 6894 0
-6899 139 0
-6899 142 0
6899 -139 -142 0
-6900 -139 0
-6900 -142 0
6900 139 142 0
-6901 -6899 0
-6901 -6900 0
6901 6899 6900 0
-6905 66 0
-6905 76 0
6905 -66 -76 0
-6906 -66 0
-6906 -76 0
6906 66 76 0
-6907 -6905 0
-6907 -6906 0
6907 6905 6906 0
-6908 10 0
-6908 65 0
6908 -10 -65 0
-6909 -10 0
-6909 -65 0
6909 10 65 0
-6910 -6908 0
-6910 -6909 0
6910 6908 6909 0
-6914 6907 0
-6914 6910 0
6914 -6907 -6910 0
-6915 -6907 0
-6915 -6910 0
6915 6907 6910 0
-6916 -6914 0
-6916 -6915 0
6916 6914 6915 0
-6917 6901 0
-6917 6916 0
6917 -6901 -6916 0
-6918 -6901 0
-6918 -6916 0
6918 6901 6916 0
-6919 -6917 0
-6919 -6918 0
6919 6917 6918 0
-6920 6895 0
-6920 -6919 0
6920 -6895 6919 0
-6924 138 0
-6924 141 0
6924 -138 -141 0
-6925 -138 0
-6925 -141 0
6925 138 141 0
-6926 -6924 0
-6926 -6925 0
6926 6924 6925 0
-6921 64 0
-6921 65 0
6921 -64 -65 0
-6922 -64 0
-6922 -65 0
6922 64 65 0
-6923 -6921 0
-6923 -6922 0
6923 6921 6922 0
-6933 9 0
-6933 6923 0
6933 -9 -6923 0
-6934 -9 0
-6934 -6923 0
6934 9 6923 0
-6935 -6933 0
-6935 -6934 0
6935 6933 6934 0
-6939 75 0
-6939 6935 0
6939 -75 -6935 0
-6940 -75 0
-6940 -6935 0
6940 75 6935 0
-6941 -6939 0
-6941 -6940 0
6941 6939 6940 0
-6942 6926 0
-6942 6941 0
6942 -6926 -6941 0
-6943 -6926 0
-6943 -6941 0
6943 6926 6941 0
-6944 -6942 0
-6944 -6943 0
6944 6942 6943 0
-6945 6920 0
-6945 -6944 0
6945 -6920 6944 0
-6949 137 0
-6949 140 0
6949 -137 -140 0
-6950 -137 0
-6950 -140 0
6950 137 140 0
-6951 -6949 0
-6951 -6950 0
6951 6949 6950 0
-6946 63 0
-6946 64 0
6946 -63 -64 0
-6947 -63 0
-6947 -64 0
6947 63 64 0
-6948 -6946 0
-6948 -6947 0
6948 6946 6947 0
-6958 8 0
-6958 6948 0
6958 -8 -6948 0
-6959 -8 0
-6959 -6948 0
6959 8 6948 0
-6960 -6958 0
-6960 -6959 0
6960 6958 6959 0
-6964 74 0
-6964 6960 0
6964 -74 -6960 0
-6965 -74 0
-6965 -6960 0
6965 74 6960 0
-6966 -6964 0
-6966 -6965 0
6966 6964 6965 0
-6967 6951 0
-6967 6966 0
6967 -6951 -6966 0
-6968 -6951 0
-6968 -6966 0
6968 6951 6966 0
-6969 -6967 0
-6969 -6968 0
6969 6967 6968 0
-6970 6945 0
-6970 -6969 0
6970 -6945 6969 0
-6974 139 0
-6974 145 0
6974 -139 -145 0
-6975 -139 0
-6975 -145 0
6975 139 145 0
-6976 -6974 0
-6976 -6975 0
6976 6974 6975 0
-6980 130 0
-6980 6976 0
6980 -130 -6976 0
-6981 -130 0
-6981 -6976 0
6981 130 6976 0
-6982 -6980 0
-6982 -6981 0
6982 6980 6981 0
-6971 56 0
-6971 57 0
6971 -56 -57 0
-6972 -56 0
-6972 -57 0
6972 56 57 0
-6973 -6971 0
-6973 -6972 0
6973 6971 6972 0
-6983 7 0
-6983 6973 0
6983 -7 -6973 0
-6984 -7 0
-6984 -6973 0
6984 7 6973 0
-6985 -6983 0
-6985 -6984 0
6985 6983 6984 0
-6989 6982 0
-6989 6985 0
6989 -6982 -6985 0
-6990 -6982 0
-6990 -6985 0
6990 6982 6985 0
-6991 -6989 0
-6991 -6990 0
6991 6989 6990 0
-6992 6970 0
-6992 -6991 0
6992 -6970 6991 0
-6996 138 0
-6996 144 0
6996 -138 -144 0
-6997 -138 0
-6997 -144 0
6997 138 144 0
-6998 -6996 0
-6998 -6997 0
6998 6996 6997 0
-6993 56 0
-6993 61 0
6993 -56 -61 0
-6994 -56 0
-6994 -61 0
6994 56 61 0
-6995 -6993 0
-6995 -6994 0
6995 6993 6994 0
-7005 6 0
-7005 6995 0
7005 -6 -6995 0
-7006 -6 0
-7006 -6995 0
7006 6 6995 0
-7007 -7005 0
-7007 -7006 0
7007 7005 7006 0
-7011 129 0
-7011 7007 0
7011 -129 -7007 0
-7012 -129 0
-7012 -7007 0
7012 129 7007 0
-7013 -7011 0
-7013 -7012 0
7013 7011 7012 0
-7014 6998 0
-7014 7013 0
7014 -6998 -7013 0
-7015 -6998 0
-7015 -7013 0
7015 6998 7013 0
-7016 -7014 0
-7016 -7015 0
7016 7014 7015 0
-7017 6992 0
-7017 -7016 0
7017 -6992 7016 0
-7021 137 0
-7021 143 0
7021 -137 -143 0
-7022 -137 0
-7022 -143 0
7022 137 143 0
-7023 -7021 0
-7023 -7022 0
7023 7021 7022 0
-7018 60 0
-7018 61 0
7018 -60 -61 0
-7019 -60 0
-7019 -61 0
7019 60 61 0
-7020 -7018 0
-7020 -7019 0
7020 7018 7019 0
-7030 5 0
-7030 7020 0
7030 -5 -7020 0
-7031 -5 0
-7031 -7020 0
7031 5 7020 0
-7032 -7030 0
-7032 -7031 0
7032 7030 7031 0
-7036 128 0
-7036 7032 0
7036 -128 -7032 0
-7037 -128 0
-7037 -7032 0
7037 128 7032 0
-7038 -7036 0
-7038 -7037 0
7038 7036 7037 0
-7039 7023 0
-7039 7038 0
7039 -7023 -7038 0
-7040 -7023 0
-7040 -7038 0
7040 7023 7038 0
-7041 -7039 0
-7041 -7040 0
7041 7039 7040 0
-7042 7017 0
-7042 -7041 0
7042 -7017 7041 0
-7046 133 0
-7046 136 0
7046 -133 -136 0
-7047 -133 0
-7047 -136 0
7047 133 136 0
-7048 -7046 0
-7048 -7047 0
7048 7046 7047 0
-7055 142 0
-7055 7048 0
7055 -142 -7048 0
-7056 -142 0
-7056 -7048 0
7056 142 7048 0
-7057 -7055 0
-7057 -7056 0
7057 7055 7056 0
-7043 59 0
-7043 60 0
7043 -59 -60 0
-7044 -59 0
-7044 -60 0
7044 59 60 0
-7045 -7043 0
-7045 -7044 0
7045 7043 7044 0
-7058 4 0
-7058 7045 0
7058 -4 -7045 0
-7059 -4 0
-7059 -7045 0
7059 4 7045 0
-7060 -7058 0
-7060 -7059 0
7060 7058 7059 0
-7061 7057 0
-7061 7060 0
7061 -7057 -7060 0
-7062 -7057 0
-7062 -7060 0
7062 7057 7060 0
-7063 -7061 0
-7063 -7062 0
7063 7061 7062 0
-7064 7042 0
-7064 -7063 0
7064 -7042 7063 0
-7068 132 0
-7068 135 0
7068 -132 -135 0
-7069 -132 0
-7069 -135 0
7069 132 135 0
-7070 -7068 0
-7070 -7069 0
7070 7068 7069 0
-7077 141 0
-7077 7070 0
7077 -141 -7070 0
-7078 -141 0
-7078 -7070 0
7078 141 7070 0
-7079 -7077 0
-7079 -7078 0
7079 7077 7078 0
-7065 58 0
-7065 59 0
7065 -58 -59 0
-7066 -58 0
-7066 -59 0
7066 58 59 0
-7067 -7065 0
-7067 -7066 0
7067 7065 7066 0
-7080 3 0
-7080 7067 0
7080 -3 -7067 0
-7081 -3 0
-7081 -7067 0
7081 3 7067 0
-7082 -7080 0
-7082 -7081 0
7082 7080 7081 0
-7083 7079 0
-7083 7082 0
7083 -7079 -7082 0
-7084 -7079 0
-7084 -7082 0
7084 7079 7082 0
-7085 -7083 0
-7085 -7084 0
7085 7083 7084 0
-7086 7064 0
-7086 -7085 0
7086 -7064 7085 0
-7090 131 0
-7090 134 0
7090 -131 -134 0
-7091 -131 0
-7091 -134 0
7091 131 134 0
-7092 -7090 0
-7092 -7091 0
7092 7090 7091 0
-7099 140 0
-7099 7092 0
7099 -140 -7092 0
-7100 -140 0
-7100 -7092 0
7100 140 7092 0
-7101 -7099 0
-7101 -7100 0
7101 7099 7100 0
-7087 57 0
-7087 58 0
7087 -57 -58 0
-7088 -57 0
-7088 -58 0
7088 57 58 0
-7089 -7087 0
-7089 -7088 0
7089 7087 7088 0
-7102 2 0
-7102 7089 0
7102 -2 -7089 0
-7103 -2 0
-7103 -7089 0
7103 2 7089 0
-7104 -7102 0
-7104 -7103 0
7104 7102 7103 0
-7105 7101 0
-7105 7104 0
7105 -7101 -7104 0
-7106 -7101 0
-7106 -7104 0
7106 7101 7104 0
-7107 -7105 0
-7107 -7106 0
7107 7105 7106 0
-7108 7086 0
-7108 -7107 0
7108 -7086 7107 0
-7112 133 0
-7112 139 0
7112 -133 -139 0
-7113 -133 0
-7113 -139 0
7113 133 139 0
-7114 -7112 0
-7114 -7113 0
7114 7112 7113 0
-7109 50 0
-7109 51 0
7109 -50 -51 0
-7110 -50 0
-7110 -51 0
7110 50 51 0
-7111 -7109 0
-7111 -7110 0
7111 7109 7110 0
-7130 73 0
-7130 124 0
7130 -73 -124 0
-7131 -73 0
-7131 -124 0
7131 73 124 0
-7132 -7130 0
-7132 -7131 0
7132 7130 7131 0
-7133 7111 0
-7133 7132 0
7133 -7111 -7132 0
-7134 -7111 0
-7134 -7132 0
7134 7111 7132 0
-7135 -7133 0
-7135 -7134 0
7135 7133 7134 0
-7136 7114 0
-7136 7135 0
7136 -7114 -7135 0
-7137 -7114 0
-7137 -7135 0
7137 7114 7135 0
-7138 -7136 0
-7138 -7137 0
7138 7136 7137 0
-7139 7108 0
-7139 -7138 0
7139 -7108 7138 0
-7143 132 0
-7143 138 0
7143 -132 -138 0
-7144 -132 0
-7144 -138 0
7144 132 138 0
-7145 -7143 0
-7145 -7144 0
7145 7143 7144 0
-7140 50 0
-7140 55 0
7140 -50 -55 0
-7141 -50 0
-7141 -55 0
7141 50 55 0
-7142 -7140 0
-7142 -7141 0
7142 7140 7141 0
-7161 72 0
-7161 123 0
7161 -72 -123 0
-7162 -72 0
-7162 -123 0
7162 72 123 0
-7163 -7161 0
-7163 -7162 0
7163 7161 7162 0
-7164 7142 0
-7164 7163 0
7164 -7142 -7163 0
-7165 -7142 0
-7165 -7163 0
7165 7142 7163 0
-7166 -7164 0
-7166 -7165 0
7166 7164 7165 0
-7167 7145 0
-7167 7166 0
7167 -7145 -7166 0
-7168 -7145 0
-7168 -7166 0
7168 7145 7166 0
-7169 -7167 0
-7169 -7168 0
7169 7167 7168 0
-7170 7139 0
-7170 -7169 0
7170 -7139 7169 0
-7174 131 0
-7174 137 0
7174 -131 -137 0
-7175 -131 0
-7175 -137 0
7175 131 137 0
-7176 -7174 0
-7176 -7175 0
7176 7174 7175 0
-7171 54 0
-7171 55 0
7171 -54 -55 0
-7172 -54 0
-7172 -55 0
7172 54 55 0
-7173 -7171 0
-7173 -7172 0
7173 7171 7172 0
-7192 71 0
-7192 122 0
7192 -71 -122 0
-7193 -71 0
-7193 -122 0
7193 71 122 0
-7194 -7192 0
-7194 -7193 0
7194 7192 7193 0
-7195 7173 0
-7195 7194 0
7195 -7173 -7194 0
-7196 -7173 0
-7196 -7194 0
7196 7173 7194 0
-7197 -7195 0
-7197 -7196 0
7197 7195 7196 0
-7198 7176 0
-7198 7197 0
7198 -7176 -7197 0
-7199 -7176 0
-7199 -7197 0
7199 7176 7197 0
-7200 -7198 0
-7200 -7199 0
7200 7198 7199 0
-7201 7170 0
-7201 -7200 0
7201 -7170 7200 0
-7208 130 0
-7208 136 0
7208 -130 -136 0
-7209 -130 0
-7209 -136 0
7209 130 136 0
-7210 -7208 0
-7210 -7209 0
7210 7208 7209 0
-7202 53 0
-7202 54 0
7202 -53 -54 0
-7203 -53 0
-7203 -54 0
7203 53 54 0
-7204 -7202 0
-7204 -7203 0
7204 7202 7203 0
-7223 70 0
-7223 127 0
7223 -70 -127 0
-7224 -70 0
-7224 -127 0
7224 70 127 0
-7225 -7223 0
-7225 -7224 0
7225 7223 7224 0
-7226 7204 0
-7226 7225 0
7226 -7204 -7225 0
-7227 -7204 0
-7227 -7225 0
7227 7204 7225 0
-7228 -7226 0
-7228 -7227 0
7228 7226 7227 0
-7229 7210 0
-7229 7228 0
7229 -7210 -7228 0
-7230 -7210 0
-7230 -7228 0
7230 7210 7228 0
-7231 -7229 0
-7231 -7230 0
7231 7229 7230 0
-7232 7201 0
-7232 -7231 0
7232 -7201 7231 0
-7233 52 0
-7233 53 0
7233 -52 -53 0
-7234 -52 0
-7234 -53 0
7234 52 53 0
-7235 -7233 0
-7235 -7234 0
7235 7233 7234 0
-7236 126 0
-7236 129 0
7236 -126 -129 0
-7237 -126 0
-7237 -129 0
7237 126 129 0
-7238 -7236 0
-7238 -7237 0
7238 7236 7237 0
-7254 69 0
-7254 7238 0
7254 -69 -7238 0
-7255 -69 0
-7255 -7238 0
7255 69 7238 0
-7256 -7254 0
-7256 -7255 0
7256 7254 7255 0
-7257 7235 0
-7257 7256 0
7257 -7235 -7256 0
-7258 -7235 0
-7258 -7256 0
7258 7235 7256 0
-7259 -7257 0
-7259 -7258 0
7259 7257 7258 0
-7260 135 0
-7260 7259 0
7260 -135 -7259 0
-7261 -135 0
-7261 -7259 0
7261 135 7259 0
-7262 -7260 0
-7262 -7261 0
7262 7260 7261 0
-7263 7232 0
-7263 -7262 0
7263 -7232 7262 0
-7264 51 0
-7264 52 0
7264 -51 -52 0
-7265 -51 0
-7265 -52 0
7265 51 52 0
-7266 -7264 0
-7266 -7265 0
7266 7264 7265 0
-7267 125 0
-7267 128 0
7267 -125 -128 0
-7268 -125 0
-7268 -128 0
7268 125 128 0
-7269 -7267 0
-7269 -7268 0
7269 7267 7268 0
-7285 68 0
-7285 7269 0
7285 -68 -7269 0
-7286 -68 0
-7286 -7269 0
7286 68 7269 0
-7287 -7285 0
-7287 -7286 0
7287 7285 7286 0
-7288 7266 0
-7288 7287 0
7288 -7266 -7287 0
-7289 -7266 0
-7289 -7287 0
7289 7266 7287 0
-7290 -7288 0
-7290 -7289 0
7290 7288 7289 0
-7291 134 0
-7291 7290 0
7291 -134 -7290 0
-7292 -134 0
-7292 -7290 0
7292 134 7290 0
-7293 -7291 0
-7293 -7292 0
7293 7291 7292 0
-7294 7263 0
-7294 -7293 0
7294 -7263 7293 0
-7295 44 0
-7295 45 0
7295 -44 -45 0
-7296 -44 0
-7296 -45 0
7296 44 45 0
-7297 -7295 0
-7297 -7296 0
7297 7295 7296 0
-7301 118 0
-7301 127 0
7301 -118 -127 0
-7302 -118 0
-7302 -127 0
7302 118 127 0
-7303 -7301 0
-7303 -7302 0
7303 7301 7302 0
-7316 67 0
-7316 7303 0
7316 -67 -7303 0
-7317 -67 0
-7317 -7303 0
7317 67 7303 0
-7318 -7316 0
-7318 -7317 0
7318 7316 7317 0
-7319 7297 0
-7319 7318 0
7319 -7297 -7318 0
-7320 -7297 0
-7320 -7318 0
7320 7297 7318 0
-7321 -7319 0
-7321 -7320 0
7321 7319 7320 0
-7322 133 0
-7322 7321 0
7322 -133 -7321 0
-7323 -133 0
-7323 -7321 0
7323 133 7321 0
-7324 -7322 0
-7324 -7323 0
7324 7322 7323 0
-7325 7294 0
-7325 -7324 0
7325 -7294 7324 0
-7326 44 0
-7326 49 0
7326 -44 -49 0
-7327 -44 0
-7327 -49 0
7327 44 49 0
-7328 -7326 0
-7328 -7327 0
7328 7326 7327 0
-7332 117 0
-7332 126 0
7332 -117 -126 0
-7333 -117 0
-7333 -126 0
7333 117 126 0
-7334 -7332 0
-7334 -7333 0
7334 7332 7333 0
-7347 66 0
-7347 7334 0
7347 -66 -7334 0
-7348 -66 0
-7348 -7334 0
7348 66 7334 0
-7349 -7347 0
-7349 -7348 0
7349 7347 7348 0
-7350 7328 0
-7350 7349 0
7350 -7328 -7349 0
-7351 -7328 0
-7351 -7349 0
7351 7328 7349 0
-7352 -7350 0
-7352 -7351 0
7352 7350 7351 0
-7353 132 0
-7353 7352 0
7353 -132 -7352 0
-7354 -132 0
-7354 -7352 0
7354 132 7352 0
-7355 -7353 0
-7355 -7354 0
7355 7353 7354 0
-7356 7325 0
-7356 -7355 0
7356 -7325 7355 0
-7363 116 0
-7363 125 0
7363 -116 -125 0
-7364 -116 0
-7364 -125 0
7364 116 125 0
-7365 -7363 0
-7365 -7364 0
7365 7363 7364 0
-7357 48 0
-7357 49 0
7357 -48 -49 0
-7358 -48 0
-7358 -49 0
7358 48 49 0
-7359 -7357 0
-7359 -7358 0
7359 7357 7358 0
-7369 65 0
-7369 7359 0
7369 -65 -7359 0
-7370 -65 0
-7370 -7359 0
7370 65 7359 0
-7371 -7369 0
-7371 -7370 0
7371 7369 7370 0
-7378 7365 0
-7378 7371 0
7378 -7365 -7371 0
-7379 -7365 0
-7379 -7371 0
7379 7365 7371 0
-7380 -7378 0
-7380 -7379 0
7380 7378 7379 0
-7381 131 0
-7381 7380 0
7381 -131 -7380 0
-7382 -131 0
-7382 -7380 0
7382 131 7380 0
-7383 -7381 0
-7383 -7382 0
7383 7381 7382 0
-7384 7356 0
-7384 -7383 0
7384 -7356 7383 0
-7388 121 0
-7388 124 0
7388 -121 -124 0
-7389 -121 0
-7389 -124 0
7389 121 124 0
-7390 -7388 0
-7390 -7389 0
7390 7388 7389 0
-7385 47 0
-7385 48 0
7385 -47 -48 0
-7386 -47 0
-7386 -48 0
7386 47 48 0
-7387 -7385 0
-7387 -7386 0
7387 7385 7386 0
-7400 64 0
-7400 7387 0
7400 -64 -7387 0
-7401 -64 0
-7401 -7387 0
7401 64 7387 0
-7402 -7400 0
-7402 -7401 0
7402 7400 7401 0
-7406 7390 0
-7406 7402 0
7406 -7390 -7402 0
-7407 -7390 0
-7407 -7402 0
7407 7390 7402 0
-7408 -7406 0
-7408 -7407 0
7408 7406 7407 0
-7409 130 0
-7409 7408 0
7409 -130 -7408 0
-7410 -130 0
-7410 -7408 0
7410 130 7408 0
-7411 -7409 0
-7411 -7410 0
7411 7409 7410 0
-7412 7384 0
-7412 -7411 0
7412 -7384 7411 0
-7419 123 0
-7419 129 0
7419 -123 -129 0
-7420 -123 0
-7420 -129 0
7420 123 129 0
-7421 -7419 0
-7421 -7420 0
7421 7419 7420 0
-7422 120 0
-7422 7421 0
7422 -120 -7421 0
-7423 -120 0
-7423 -7421 0
7423 120 7421 0
-7424 -7422 0
-7424 -7423 0
7424 7422 7423 0
-7413 46 0
-7413 47 0
7413 -46 -47 0
-7414 -46 0
-7414 -47 0
7414 46 47 0
-7415 -7413 0
-7415 -7414 0
7415 7413 7414 0
-7428 63 0
-7428 7415 0
7428 -63 -7415 0
-7429 -63 0
-7429 -7415 0
7429 63 7415 0
-7430 -7428 0
-7430 -7429 0
7430 7428 7429 0
-7434 7424 0
-7434 7430 0
7434 -7424 -7430 0
-7435 -7424 0
-7435 -7430 0
7435 7424 7430 0
-7436 -7434 0
-7436 -7435 0
7436 7434 7435 0
-7437 7412 0
-7437 -7436 0
7437 -7412 7436 0
-7444 122 0
-7444 128 0
7444 -122 -128 0
-7445 -122 0
-7445 -128 0
7445 122 128 0
-7446 -7444 0
-7446 -7445 0
7446 7444 7445 0
-7447 119 0
-7447 7446 0
7447 -119 -7446 0
-7448 -119 0
-7448 -7446 0
7448 119 7446 0
-7449 -7447 0
-7449 -7448 0
7449 7447 7448 0
-7438 45 0
-7438 46 0
7438 -45 -46 0
-7439 -45 0
-7439 -46 0
7439 45 46 0
-7440 -7438 0
-7440 -7439 0
7440 7438 7439 0
-7453 62 0
-7453 7440 0
7453 -62 -7440 0
-7454 -62 0
-7454 -7440 0
7454 62 7440 0
-7455 -7453 0
-7455 -7454 0
7455 7453 7454 0
-7459 7449 0
-7459 7455 0
7459 -7449 -7455 0
-7460 -7449 0
-7460 -7455 0
7460 7449 7455 0
-7461 -7459 0
-7461 -7460 0
7461 7459 7460 0
-7462 7437 0
-7462 -7461 0
7462 -7437 7461 0
-7466 121 0
-7466 127 0
7466 -121 -127 0
-7467 -121 0
-7467 -127 0
7467 121 127 0
-7468 -7466 0
-7468 -7467 0
7468 7466 7467 0
-7472 112 0
-7472 7468 0
7472 -112 -7468 0
-7473 -112 0
-7473 -7468 0
7473 112 7468 0
-7474 -7472 0
-7474 -7473 0
7474 7472 7473 0
-7463 38 0
-7463 39 0
7463 -38 -39 0
-7464 -38 0
-7464 -39 0
7464 38 39 0
-7465 -7463 0
-7465 -7464 0
7465 7463 7464 0
-7475 61 0
-7475 7465 0
7475 -61 -7465 0
-7476 -61 0
-7476 -7465 0
7476 61 7465 0
-7477 -7475 0
-7477 -7476 0
7477 7475 7476 0
-7484 7474 0
-7484 7477 0
7484 -7474 -7477 0
-7485 -7474 0
-7485 -7477 0
7485 7474 7477 0
-7486 -7484 0
-7486 -7485 0
7486 7484 7485 0
-7487 7462 0
-7487 -7486 0
7487 -7462 7486 0
-7491 120 0
-7491 126 0
7491 -120 -126 0
-7492 -120 0
-7492 -126 0
7492 120 126 0
-7493 -7491 0
-7493 -7492 0
7493 7491 7492 0
-7497 111 0
-7497 7493 0
7497 -111 -7493 0
-7498 -111 0
-7498 -7493 0
7498 111 7493 0
-7499 -7497 0
-7499 -7498 0
7499 7497 7498 0
-7488 38 0
-7488 43 0
7488 -38 -43 0
-7489 -38 0
-7489 -43 0
7489 38 43 0
-7490 -7488 0
-7490 -7489 0
7490 7488 7489 0
-7500 60 0
-7500 7490 0
7500 -60 -7490 0
-7501 -60 0
-7501 -7490 0
7501 60 7490 0
-7502 -7500 0
-7502 -7501 0
7502 7500 7501 0
-7509 7499 0
-7509 7502 0
7509 -7499 -7502 0
-7510 -7499 0
-7510 -7502 0
7510 7499 7502 0
-7511 -7509 0
-7511 -7510 0
7511 7509 7510 0
-7512 7487 0
-7512 -7511 0
7512 -7487 7511 0
-7516 119 0
-7516 125 0
7516 -119 -125 0
-7517 -119 0
-7517 -125 0
7517 119 125 0
-7518 -7516 0
-7518 -7517 0
7518 7516 7517 0
-7522 110 0
-7522 7518 0
7522 -110 -7518 0
-7523 -110 0
-7523 -7518 0
7523 110 7518 0
-7524 -7522 0
-7524 -7523 0
7524 7522 7523 0
-7513 42 0
-7513 43 0
7513 -42 -43 0
-7514 -42 0
-7514 -43 0
7514 42 43 0
-7515 -7513 0
-7515 -7514 0
7515 7513 7514 0
-7525 59 0
-7525 7515 0
7525 -59 -7515 0
-7526 -59 0
-7526 -7515 0
7526 59 7515 0
-7527 -7525 0
-7527 -7526 0
7527 7525 7526 0
-7534 7524 0
-7534 7527 0
7534 -7524 -7527 0
-7535 -7524 0
-7535 -7527 0
7535 7524 7527 0
-7536 -7534 0
-7536 -7535 0
7536 7534 7535 0
-7537 7512 0
-7537 -7536 0
7537 -7512 7536 0
-7541 115 0
-7541 118 0
7541 -115 -118 0
-7542 -115 0
-7542 -118 0
7542 115 118 0
-7543 -7541 0
-7543 -7542 0
7543 7541 7542 0
-7550 124 0
-7550 7543 0
7550 -124 -7543 0
-7551 -124 0
-7551 -7543 0
7551 124 7543 0
-7552 -7550 0
-7552 -7551 0
7552 7550 7551 0
-7538 41 0
-7538 42 0
7538 -41 -42 0
-7539 -41 0
-7539 -42 0
7539 41 42 0
-7540 -7538 0
-7540 -7539 0
7540 7538 7539 0
-7553 58 0
-7553 7540 0
7553 -58 -7540 0
-7554 -58 0
-7554 -7540 0
7554 58 7540 0
-7555 -7553 0
-7555 -7554 0
7555 7553 7554 0
-7559 7552 0
-7559 7555 0
7559 -7552 -7555 0
-7560 -7552 0
-7560 -7555 0
7560 7552 7555 0
-7561 -7559 0
-7561 -7560 0
7561 7559 7560 0
-7562 7537 0
-7562 -7561 0
7562 -7537 7561 0
-7566 114 0
-7566 117 0
7566 -114 -117 0
-7567 -114 0
-7567 -117 0
7567 114 117 0
-7568 -7566 0
-7568 -7567 0
7568 7566 7567 0
-7575 123 0
-7575 7568 0
7575 -123 -7568 0
-7576 -123 0
-7576 -7568 0
7576 123 7568 0
-7577 -7575 0
-7577 -7576 0
7577 7575 7576 0
-7563 40 0
-7563 41 0
7563 -40 -41 0
-7564 -40 0
-7564 -41 0
7564 40 41 0
-7565 -7563 0
-7565 -7564 0
7565 7563 7564 0
-7578 57 0
-7578 7565 0
7578 -57 -7565 0
-7579 -57 0
-7579 -7565 0
7579 57 7565 0
-7580 -7578 0
-7580 -7579 0
7580 7578 7579 0
-7584 7577 0
-7584 7580 0
7584 -7577 -7580 0
-7585 -7577 0
-7585 -7580 0
7585 7577 7580 0
-7586 -7584 0
-7586 -7585 0
7586 7584 7585 0
-7587 7562 0
-7587 -7586 0
7587 -7562 7586 0
-7594 116 0
-7594 122 0
7594 -116 -122 0
-7595 -116 0
-7595 -122 0
7595 116 122 0
-7596 -7594 0
-7596 -7595 0
7596 7594 7595 0
-7597 113 0
-7597 7596 0
7597 -113 -7596 0
-7598 -113 0
-7598 -7596 0
7598 113 7596 0
-7599 -7597 0
-7599 -7598 0
7599 7597 7598 0
-7588 39 0
-7588 40 0
7588 -39 -40 0
-7589 -39 0
-7589 -40 0
7589 39 40 0
-7590 -7588 0
-7590 -7589 0
7590 7588 7589 0
-7603 56 0
-7603 7590 0
7603 -56 -7590 0
-7604 -56 0
-7604 -7590 0
7604 56 7590 0
-7605 -7603 0
-7605 -7604 0
7605 7603 7604 0
-7609 7599 0
-7609 7605 0
7609 -7599 -7605 0
-7610 -7599 0
-7610 -7605 0
7610 7599 7605 0
-7611 -7609 0
-7611 -7610 0
7611 7609 7610 0
-7612 7587 0
-7612 -7611 0
7612 -7587 7611 0
-7616 115 0
-7616 121 0
7616 -115 -121 0
-7617 -115 0
-7617 -121 0
7617 115 121 0
-7618 -7616 0
-7618 -7617 0
7618 7616 7617 0
-7622 106 0
-7622 7618 0
7622 -106 -7618 0
-7623 -106 0
-7623 -7618 0
7623 106 7618 0
-7624 -7622 0
-7624 -7623 0
7624 7622 7623 0
-7613 32 0
-7613 33 0
7613 -32 -33 0
-7614 -32 0
-7614 -33 0
7614 32 33 0
-7615 -7613 0
-7615 -7614 0
7615 7613 7614 0
-7625 55 0
-7625 7615 0
7625 -55 -7615 0
-7626 -55 0
-7626 -7615 0
7626 55 7615 0
-7627 -7625 0
-7627 -7626 0
7627 7625 7626 0
-7631 7624 0
-7631 7627 0
7631 -7624 -7627 0
-7632 -7624 0
-7632 -7627 0
7632 7624 7627 0
-7633 -7631 0
-7633 -7632 0
7633 7631 7632 0
-7634 7612 0
-7634 -7633 0
7634 -7612 7633 0
-7638 114 0
-7638 120 0
7638 -114 -120 0
-7639 -114 0
-7639 -120 0
7639 114 120 0
-7640 -7638 0
-7640 -7639 0
7640 7638 7639 0
-7644 105 0
-7644 7640 0
7644 -105 -7640 0
-7645 -105 0
-7645 -7640 0
7645 105 7640 0
-7646 -7644 0
-7646 -7645 0
7646 7644 7645 0
-7647 37 0
-7647 54 0
7647 -37 -54 0
-7648 -37 0
-7648 -54 0
7648 37 54 0
-7649 -7647 0
-7649 -7648 0
7649 7647 7648 0
-7650 32 0
-7650 7649 0
7650 -32 -7649 0
-7651 -32 0
-7651 -7649 0
7651 32 7649 0
-7652 -7650 0
-7652 -7651 0
7652 7650 7651 0
-7656 7646 0
-7656 7652 0
7656 -7646 -7652 0
-7657 -7646 0
-7657 -7652 0
7657 7646 7652 0
-7658 -7656 0
-7658 -7657 0
7658 7656 7657 0
-7659 7634 0
-7659 -7658 0
7659 -7634 7658 0
-7660 36 0
-7660 37 0
7660 -36 -37 0
-7661 -36 0
-7661 -37 0
7661 36 37 0
-7662 -7660 0
-7662 -7661 0
7662 7660 7661 0
-7672 53 0
-7672 7662 0
7672 -53 -7662 0
-7673 -53 0
-7673 -7662 0
7673 53 7662 0
-7674 -7672 0
-7674 -7673 0
7674 7672 7673 0
-7666 104 0
-7666 113 0
7666 -104 -113 0
-7667 -104 0
-7667 -113 0
7667 104 113 0
-7668 -7666 0
-7668 -7667 0
7668 7666 7667 0
-7678 119 0
-7678 7668 0
7678 -119 -7668 0
-7679 -119 0
-7679 -7668 0
7679 119 7668 0
-7680 -7678 0
-7680 -7679 0
7680 7678 7679 0
-7681 7674 0
-7681 7680 0
7681 -7674 -7680 0
-7682 -7674 0
-7682 -7680 0
7682 7674 7680 0
-7683 -7681 0
-7683 -7682 0
7683 7681 7682 0
-7684 7659 0
-7684 -7683 0
7684 -7659 7683 0
-7688 109 0
-7688 112 0
7688 -109 -112 0
-7689 -109 0
-7689 -112 0
7689 109 112 0
-7690 -7688 0
-7690 -7689 0
7690 7688 7689 0
-7697 118 0
-7697 7690 0
7697 -118 -7690 0
-7698 -118 0
-7698 -7690 0
7698 118 7690 0
-7699 -7697 0
-7699 -7698 0
7699 7697 7698 0
-7685 35 0
-7685 36 0
7685 -35 -36 0
-7686 -35 0
-7686 -36 0
7686 35 36 0
-7687 -7685 0
-7687 -7686 0
7687 7685 7686 0
-7700 52 0
-7700 7687 0
7700 -52 -7687 0
-7701 -52 0
-7701 -7687 0
7701 52 7687 0
-7702 -7700 0
-7702 -7701 0
7702 7700 7701 0
-7706 7699 0
-7706 7702 0
7706 -7699 -7702 0
-7707 -7699 0
-7707 -7702 0
7707 7699 7702 0
-7708 -7706 0
-7708 -7707 0
7708 7706 7707 0
-7709 7684 0
-7709 -7708 0
7709 -7684 7708 0
-7713 108 0
-7713 111 0
7713 -108 -111 0
-7714 -108 0
-7714 -111 0
7714 108 111 0
-7715 -7713 0
-7715 -7714 0
7715 7713 7714 0
-7722 117 0
-7722 7715 0
7722 -117 -7715 0
-7723 -117 0
-7723 -7715 0
7723 117 7715 0
-7724 -7722 0
-7724 -7723 0
7724 7722 7723 0
-7710 34 0
-7710 35 0
7710 -34 -35 0
-7711 -34 0
-7711 -35 0
7711 34 35 0
-7712 -7710 0
-7712 -7711 0
7712 7710 7711 0
-7725 51 0
-7725 7712 0
7725 -51 -7712 0
-7726 -51 0
-7726 -7712 0
7726 51 7712 0
-7727 -7725 0
-7727 -7726 0
7727 7725 7726 0
-7731 7724 0
-7731 7727 0
7731 -7724 -7727 0
-7732 -7724 0
-7732 -7727 0
7732 7724 7727 0
-7733 -7731 0
-7733 -7732 0
7733 7731 7732 0
-7734 7709 0
-7734 -7733 0
7734 -7709 7733 0
-7738 107 0
-7738 110 0
7738 -107 -110 0
-7739 -107 0
-7739 -110 0
7739 107 110 0
-7740 -7738 0
-7740 -7739 0
7740 7738 7739 0
-7747 116 0
-7747 7740 0
7747 -116 -7740 0
-7748 -116 0
-7748 -7740 0
7748 116 7740 0
-7749 -7747 0
-7749 -7748 0
7749 7747 7748 0
-7750 34 0
-7750 50 0
7750 -34 -50 0
-7751 -34 0
-7751 -50 0
7751 34 50 0
-7752 -7750 0
-7752 -7751 0
7752 7750 7751 0
-7753 33 0
-7753 7752 0
7753 -33 -7752 0
-7754 -33 0
-7754 -7752 0
7754 33 7752 0
-7755 -7753 0
-7755 -7754 0
7755 7753 7754 0
-7756 7749 0
-7756 7755 0
7756 -7749 -7755 0
-7757 -7749 0
-7757 -7755 0
7757 7749 7755 0
-7758 -7756 0
-7758 -7757 0
7758 7756 7757 0
-7759 7734 0
-7759 -7758 0
7759 -7734 7758 0
-7760 26 0
-7760 27 0
7760 -26 -27 0
-7761 -26 0
-7761 -27 0
7761 26 27 0
-7762 -7760 0
-7762 -7761 0
7762 7760 7761 0
-7772 49 0
-7772 7762 0
7772 -49 -7762 0
-7773 -49 0
-7773 -7762 0
7773 49 7762 0
-7774 -7772 0
-7774 -7773 0
7774 7772 7773 0
-7766 100 0
-7766 109 0
7766 -100 -109 0
-7767 -100 0
-7767 -109 0
7767 100 109 0
-7768 -7766 0
-7768 -7767 0
7768 7766 7767 0
-7775 115 0
-7775 7768 0
7775 -115 -7768 0
-7776 -115 0
-7776 -7768 0
7776 115 7768 0
-7777 -7775 0
-7777 -7776 0
7777 7775 7776 0
-7778 7774 0
-7778 7777 0
7778 -7774 -7777 0
-7779 -7774 0
-7779 -7777 0
7779 7774 7777 0
-7780 -7778 0
-7780 -7779 0
7780 7778 7779 0
-7781 7759 0
-7781 -7780 0
7781 -7759 7780 0
-7782 26 0
-7782 31 0
7782 -26 -31 0
-7783 -26 0
-7783 -31 0
7783 26 31 0
-7784 -7782 0
-7784 -7783 0
7784 7782 7783 0
-7794 48 0
-7794 7784 0
7794 -48 -7784 0
-7795 -48 0
-7795 -7784 0
7795 48 7784 0
-7796 -7794 0
-7796 -7795 0
7796 7794 7795 0
-7788 99 0
-7788 108 0
7788 -99 -108 0
-7789 -99 0
-7789 -108 0
7789 99 108 0
-7790 -7788 0
-7790 -7789 0
7790 7788 7789 0
-7797 114 0
-7797 7790 0
7797 -114 -7790 0
-7798 -114 0
-7798 -7790 0
7798 114 7790 0
-7799 -7797 0
-7799 -7798 0
7799 7797 7798 0
-7800 7796 0
-7800 7799 0
7800 -7796 -7799 0
-7801 -7796 0
-7801 -7799 0
7801 7796 7799 0
-7802 -7800 0
-7802 -7801 0
7802 7800 7801 0
-7803 7781 0
-7803 -7802 0
7803 -7781 7802 0
-7807 107 0
-7807 113 0
7807 -107 -113 0
-7808 -107 0
-7808 -113 0
7808 107 113 0
-7809 -7807 0
-7809 -7808 0
7809 7807 7808 0
-7813 98 0
-7813 7809 0
7813 -98 -7809 0
-7814 -98 0
-7814 -7809 0
7814 98 7809 0
-7815 -7813 0
-7815 -7814 0
7815 7813 7814 0
-7804 30 0
-7804 31 0
7804 -30 -31 0
-7805 -30 0
-7805 -31 0
7805 30 31 0
-7806 -7804 0
-7806 -7805 0
7806 7804 7805 0
-7816 47 0
-7816 7806 0
7816 -47 -7806 0
-7817 -47 0
-7817 -7806 0
7817 47 7806 0
-7818 -7816 0
-7818 -7817 0
7818 7816 7817 0
-7822 7815 0
-7822 7818 0
7822 -7815 -7818 0
-7823 -7815 0
-7823 -7818 0
7823 7815 7818 0
-7824 -7822 0
-7824 -7823 0
7824 7822 7823 0
-7825 7803 0
-7825 -7824 0
7825 -7803 7824 0
-7832 106 0
-7832 112 0
7832 -106 -112 0
-7833 -106 0
-7833 -112 0
7833 106 112 0
-7834 -7832 0
-7834 -7833 0
7834 7832 7833 0
-7835 103 0
-7835 7834 0
7835 -103 -7834 0
-7836 -103 0
-7836 -7834 0
7836 103 7834 0
-7837 -7835 0
-7837 -7836 0
7837 7835 7836 0
-7826 29 0
-7826 30 0
7826 -29 -30 0
-7827 -29 0
-7827 -30 0
7827 29 30 0
-7828 -7826 0
-7828 -7827 0
7828 7826 7827 0
-7841 46 0
-7841 7828 0
7841 -46 -7828 0
-7842 -46 0
-7842 -7828 0
7842 46 7828 0
-7843 -7841 0
-7843 -7842 0
7843 7841 7842 0
-7844 7837 0
-7844 7843 0
7844 -7837 -7843 0
-7845 -7837 0
-7845 -7843 0
7845 7837 7843 0
-7846 -7844 0
-7846 -7845 0
7846 7844 7845 0
-7847 7825 0
-7847 -7846 0
7847 -7825 7846 0
-7851 102 0
-7851 105 0
7851 -102 -105 0
-7852 -102 0
-7852 -105 0
7852 102 105 0
-7853 -7851 0
-7853 -7852 0
7853 7851 7852 0
-7860 111 0
-7860 7853 0
7860 -111 -7853 0
-7861 -111 0
-7861 -7853 0
7861 111 7853 0
-7862 -7860 0
-7862 -7861 0
7862 7860 7861 0
-7848 28 0
-7848 29 0
7848 -28 -29 0
-7849 -28 0
-7849 -29 0
7849 28 29 0
-7850 -7848 0
-7850 -7849 0
7850 7848 7849 0
-7863 45 0
-7863 7850 0
7863 -45 -7850 0
-7864 -45 0
-7864 -7850 0
7864 45 7850 0
-7865 -7863 0
-7865 -7864 0
7865 7863 7864 0
-7866 7862 0
-7866 7865 0
7866 -7862 -7865 0
-7867 -7862 0
-7867 -7865 0
7867 7862 7865 0
-7868 -7866 0
-7868 -7867 0
7868 7866 7867 0
-7869 7847 0
-7869 -7868 0
7869 -7847 7868 0
-7873 101 0
-7873 104 0
7873 -101 -104 0
-7874 -101 0
-7874 -104 0
7874 101 104 0
-7875 -7873 0
-7875 -7874 0
7875 7873 7874 0
-7882 110 0
-7882 7875 0
7882 -110 -7875 0
-7883 -110 0
-7883 -7875 0
7883 110 7875 0
-7884 -7882 0
-7884 -7883 0
7884 7882 7883 0
-7870 27 0
-7870 28 0
7870 -27 -28 0
-7871 -27 0
-7871 -28 0
7871 27 28 0
-7872 -7870 0
-7872 -7871 0
7872 7870 7871 0
-7885 44 0
-7885 7872 0
7885 -44 -7872 0
-7886 -44 0
-7886 -7872 0
7886 44 7872 0
-7887 -7885 0
-7887 -7886 0
7887 7885 7886 0
-7888 7884 0
-7888 7887 0
7888 -7884 -7887 0
-7889 -7884 0
-7889 -7887 0
7889 7884 7887 0
-7890 -7888 0
-7890 -7889 0
7890 7888 7889 0
-7891 7869 0
-7891 -7890 0
7891 -7869 7890 0
-7895 103 0
-7895 109 0
7895 -103 -109 0
-7896 -103 0
-7896 -109 0
7896 103 109 0
-7897 -7895 0
-7897 -7896 0
7897 7895 7896 0
-7901 94 0
-7901 7897 0
7901 -94 -7897 0
-7902 -94 0
-7902 -7897 0
7902 94 7897 0
-7903 -7901 0
-7903 -7902 0
7903 7901 7902 0
-7892 20 0
-7892 21 0
7892 -20 -21 0
-7893 -20 0
-7893 -21 0
7893 20 21 0
-7894 -7892 0
-7894 -7893 0
7894 7892 7893 0
-7904 43 0
-7904 7894 0
7904 -43 -7894 0
-7905 -43 0
-7905 -7894 0
7905 43 7894 0
-7906 -7904 0
-7906 -7905 0
7906 7904 7905 0
-7910 7903 0
-7910 7906 0
7910 -7903 -7906 0
-7911 -7903 0
-7911 -7906 0
7911 7903 7906 0
-7912 -7910 0
-7912 -7911 0
7912 7910 7911 0
-7913 7891 0
-7913 -7912 0
7913 -7891 7912 0
-7917 102 0
-7917 108 0
7917 -102 -108 0
-7918 -102 0
-7918 -108 0
7918 102 108 0
-7919 -7917 0
-7919 -7918 0
7919 7917 7918 0
-7923 93 0
-7923 7919 0
7923 -93 -7919 0
-7924 -93 0
-7924 -7919 0
7924 93 7919 0
-7925 -7923 0
-7925 -7924 0
7925 7923 7924 0
-7914 20 0
-7914 25 0
7914 -20 -25 0
-7915 -20 0
-7915 -25 0
7915 20 25 0
-7916 -7914 0
-7916 -7915 0
7916 7914 7915 0
-7926 42 0
-7926 7916 0
7926 -42 -7916 0
-7927 -42 0
-7927 -7916 0
7927 42 7916 0
-7928 -7926 0
-7928 -7927 0
7928 7926 7927 0
-7932 7925 0
-7932 7928 0
7932 -7925 -7928 0
-7933 -7925 0
-7933 -7928 0
7933 7925 7928 0
-7934 -7932 0
-7934 -7933 0
7934 7932 7933 0
-7935 7913 0
-7935 -7934 0
7935 -7913 7934 0
-7939 101 0
-7939 107 0
7939 -101 -107 0
-7940 -101 0
-7940 -107 0
7940 101 107 0
-7941 -7939 0
-7941 -7940 0
7941 7939 7940 0
-7945 92 0
-7945 7941 0
7945 -92 -7941 0
-7946 -92 0
-7946 -7941 0
7946 92 7941 0
-7947 -7945 0
-7947 -7946 0
7947 7945 7946 0
-7936 24 0
-7936 25 0
7936 -24 -25 0
-7937 -24 0
-7937 -25 0
7937 24 25 0
-7938 -7936 0
-7938 -7937 0
7938 7936 7937 0
-7948 41 0
-7948 7938 0
7948 -41 -7938 0
-7949 -41 0
-7949 -7938 0
7949 41 7938 0
-7950 -7948 0
-7950 -7949 0
7950 7948 7949 0
-7954 7947 0
-7954 7950 0
7954 -7947 -7950 0
-7955 -7947 0
-7955 -7950 0
7955 7947 7950 0
-7956 -7954 0
-7956 -7955 0
7956 7954 7955 0
-7957 7935 0
-7957 -7956 0
7957 -7935 7956 0
-7964 100 0
-7964 106 0
7964 -100 -106 0
-7965 -100 0
-7965 -106 0
7965 100 106 0
-7966 -7964 0
-7966 -7965 0
7966 7964 7965 0
-7967 97 0
-7967 7966 0
7967 -97 -7966 0
-7968 -97 0
-7968 -7966 0
7968 97 7966 0
-7969 -7967 0
-7969 -7968 0
7969 7967 7968 0
-7958 23 0
-7958 24 0
7958 -23 -24 0
-7959 -23 0
-7959 -24 0
7959 23 24 0
-7960 -7958 0
-7960 -7959 0
7960 7958 7959 0
-7973 40 0
-7973 7960 0
7973 -40 -7960 0
-7974 -40 0
-7974 -7960 0
7974 40 7960 0
-7975 -7973 0
-7975 -7974 0
7975 7973 7974 0
-7976 7969 0
-7976 7975 0
7976 -7969 -7975 0
-7977 -7969 0
-7977 -7975 0
7977 7969 7975 0
-7978 -7976 0
-7978 -7977 0
7978 7976 7977 0
-7979 7957 0
-7979 -7978 0
7979 -7957 7978 0
-7986 99 0
-7986 105 0
7986 -99 -105 0
-7987 -99 0
-7987 -105 0
7987 99 105 0
-7988 -7986 0
-7988 -7987 0
7988 7986 7987 0
-7989 96 0
-7989 7988 0
7989 -96 -7988 0
-7990 -96 0
-7990 -7988 0
7990 96 7988 0
-7991 -7989 0
-7991 -7990 0
7991 7989 7990 0
-7980 22 0
-7980 23 0
7980 -22 -23 0
-7981 -22 0
-7981 -23 0
7981 22 23 0
-7982 -7980 0
-7982 -7981 0
7982 7980 7981 0
-7995 39 0
-7995 7982 0
7995 -39 -7982 0
-7996 -39 0
-7996 -7982 0
7996 39 7982 0
-7997 -7995 0
-7997 -7996 0
7997 7995 7996 0
-7998 7991 0
-7998 7997 0
7998 -7991 -7997 0
-7999 -7991 0
-7999 -7997 0
7999 7991 7997 0
-8000 -7998 0
-8000 -7999 0
8000 7998 7999 0
-8001 7979 0
-8001 -8000 0
8001 -7979 8000 0
-8008 98 0
-8008 104 0
8008 -98 -104 0
-8009 -98 0
-8009 -104 0
8009 98 104 0
-8010 -8008 0
-8010 -8009 0
8010 8008 8009 0
-8011 95 0
-8011 8010 0
8011 -95 -8010 0
-8012 -95 0
-8012 -8010 0
8012 95 8010 0
-8013 -8011 0
-8013 -8012 0
8013 8011 8012 0
-8002 21 0
-8002 22 0
8002 -21 -22 0
-8003 -21 0
-8003 -22 0
8003 21 22 0
-8004 -8002 0
-8004 -8003 0
8004 8002 8003 0
-8017 38 0
-8017 8004 0
8017 -38 -8004 0
-8018 -38 0
-8018 -8004 0
8018 38 8004 0
-8019 -8017 0
-8019 -8018 0
8019 8017 8018 0
-8020 8013 0
-8020 8019 0
8020 -8013 -8019 0
-8021 -8013 0
-8021 -8019 0
8021 8013 8019 0
-8022 -8020 0
-8022 -8021 0
8022 8020 8021 0
-8023 8001 0
-8023 -8022 0
8023 -8001 8022 0
-8024 14 0
-8024 15 0
8024 -14 -15 0
-8025 -14 0
-8025 -15 0
8025 14 15 0
-8026 -8024 0
-8026 -8025 0
8026 8024 8025 0
-8036 37 0
-8036 8026 0
8036 -37 -8026 0
-8037 -37 0
-8037 -8026 0
8037 37 8026 0
-8038 -8036 0
-8038 -8037 0
8038 8036 8037 0
-8030 88 0
-8030 97 0
8030 -88 -97 0
-8031 -88 0
-8031 -97 0
8031 88 97 0
-8032 -8030 0
-8032 -8031 0
8032 8030 8031 0
-8039 103 0
-8039 8032 0
8039 -103 -8032 0
-8040 -103 0
-8040 -8032 0
8040 103 8032 0
-8041 -8039 0
-8041 -8040 0
8041 8039 8040 0
-8042 8038 0
-8042 8041 0
8042 -8038 -8041 0
-8043 -8038 0
-8043 -8041 0
8043 8038 8041 0
-8044 -8042 0
-8044 -8043 0
8044 8042 8043 0
-8045 8023 0
-8045 -8044 0
8045 -8023 8044 0
-8046 14 0
-8046 19 0
8046 -14 -19 0
-8047 -14 0
-8047 -19 0
8047 14 19 0
-8048 -8046 0
-8048 -8047 0
8048 8046 8047 0
-8058 36 0
-8058 8048 0
8058 -36 -8048 0
-8059 -36 0
-8059 -8048 0
8059 36 8048 0
-8060 -8058 0
-8060 -8059 0
8060 8058 8059 0
-8052 87 0
-8052 96 0
8052 -87 -96 0
-8053 -87 0
-8053 -96 0
8053 87 96 0
-8054 -8052 0
-8054 -8053 0
8054 8052 8053 0
-8061 102 0
-8061 8054 0
8061 -102 -8054 0
-8062 -102 0
-8062 -8054 0
8062 102 8054 0
-8063 -8061 0
-8063 -8062 0
8063 8061 8062 0
-8064 8060 0
-8064 8063 0
8064 -8060 -8063 0
-8065 -8060 0
-8065 -8063 0
8065 8060 8063 0
-8066 -8064 0
-8066 -8065 0
8066 8064 8065 0
-8067 8045 0
-8067 -8066 0
8067 -8045 8066 0
-8068 18 0
-8068 19 0
8068 -18 -19 0
-8069 -18 0
-8069 -19 0
8069 18 19 0
-8070 -8068 0
-8070 -8069 0
8070 8068 8069 0
-8080 35 0
-8080 8070 0
8080 -35 -8070 0
-8081 -35 0
-8081 -8070 0
8081 35 8070 0
-8082 -8080 0
-8082 -8081 0
8082 8080 8081 0
-8074 86 0
-8074 95 0
8074 -86 -95 0
-8075 -86 0
-8075 -95 0
8075 86 95 0
-8076 -8074 0
-8076 -8075 0
8076 8074 8075 0
-8083 101 0
-8083 8076 0
8083 -101 -8076 0
-8084 -101 0
-8084 -8076 0
8084 101 8076 0
-8085 -8083 0
-8085 -8084 0
8085 8083 8084 0
-8086 8082 0
-8086 8085 0
8086 -8082 -8085 0
-8087 -8082 0
-8087 -8085 0
8087 8082 8085 0
-8088 -8086 0
-8088 -8087 0
8088 8086 8087 0
-8089 8067 0
-8089 -8088 0
8089 -8067 8088 0
-8093 91 0
-8093 94 0
8093 -91 -94 0
-8094 -91 0
-8094 -94 0
8094 91 94 0
-8095 -8093 0
-8095 -8094 0
8095 8093 8094 0
-8102 100 0
-8102 8095 0
8102 -100 -8095 0
-8103 -100 0
-8103 -8095 0
8103 100 8095 0
-8104 -8102 0
-8104 -8103 0
8104 8102 8103 0
-8090 17 0
-8090 18 0
8090 -17 -18 0
-8091 -17 0
-8091 -18 0
8091 17 18 0
-8092 -8090 0
-8092 -8091 0
8092 8090 8091 0
-8105 34 0
-8105 8092 0
8105 -34 -8092 0
-8106 -34 0
-8106 -8092 0
8106 34 8092 0
-8107 -8105 0
-8107 -8106 0
8107 8105 8106 0
-8108 8104 0
-8108 8107 0
8108 -8104 -8107 0
-8109 -8104 0
-8109 -8107 0
8109 8104 8107 0
-8110 -8108 0
-8110 -8109 0
8110 8108 8109 0
-8111 8089 0
-8111 -8110 0
8111 -8089 8110 0
-8112 16 0
-8112 17 0
8112 -16 -17 0
-8113 -16 0
-8113 -17 0
8113 16 17 0
-8114 -8112 0
-8114 -8113 0
8114 8112 8113 0
-8121 33 0
-8121 8114 0
8121 -33 -8114 0
-8122 -33 0
-8122 -8114 0
8122 33 8114 0
-8123 -8121 0
-8123 -8122 0
8123 8121 8122 0
-8115 90 0
-8115 93 0
8115 -90 -93 0
-8116 -90 0
-8116 -93 0
8116 90 93 0
-8117 -8115 0
-8117 -8116 0
8117 8115 8116 0
-8127 99 0
-8127 8117 0
8127 -99 -8117 0
-8128 -99 0
-8128 -8117 0
8128 99 8117 0
-8129 -8127 0
-8129 -8128 0
8129 8127 8128 0
-8130 8123 0
-8130 8129 0
8130 -8123 -8129 0
-8131 -8123 0
-8131 -8129 0
8131 8123 8129 0
-8132 -8130 0
-8132 -8131 0
8132 8130 8131 0
-8133 8111 0
-8133 -8132 0
8133 -8111 8132 0
-8134 15 0
-8134 16 0
8134 -15 -16 0
-8135 -15 0
-8135 -16 0
8135 15 16 0
-8136 -8134 0
-8136 -8135 0
8136 8134 8135 0
-8143 32 0
-8143 8136 0
8143 -32 -8136 0
-8144 -32 0
-8144 -8136 0
8144 32 8136 0
-8145 -8143 0
-8145 -8144 0
8145 8143 8144 0
-8137 89 0
-8137 92 0
8137 -89 -92 0
-8138 -89 0
-8138 -92 0
8138 89 92 0
-8139 -8137 0
-8139 -8138 0
8139 8137 8138 0
-8149 98 0
-8149 8139 0
8149 -98 -8139 0
-8150 -98 0
-8150 -8139 0
8150 98 8139 0
-8151 -8149 0
-8151 -8150 0
8151 8149 8150 0
-8152 8145 0
-8152 8151 0
8152 -8145 -8151 0
-8153 -8145 0
-8153 -8151 0
8153 8145 8151 0
-8154 -8152 0
-8154 -8153 0
8154 8152 8153 0
-8155 8133 0
-8155 -8154 0
8155 -8133 8154 0
-8156 8 0
-8156 9 0
8156 -8 -9 0
-8157 -8 0
-8157 -9 0
8157 8 9 0
-8158 -8156 0
-8158 -8157 0
8158 8156 8157 0
-8162 31 0
-8162 8158 0
8162 -31 -8158 0
-8163 -31 0
-8163 -8158 0
8163 31 8158 0
-8164 -8162 0
-8164 -8163 0
8164 8162 8163 0
-8159 91 0
-8159 97 0
8159 -91 -97 0
-8160 -91 0
-8160 -97 0
8160 91 97 0
-8161 -8159 0
-8161 -8160 0
8161 8159 8160 0
-8168 82 0
-8168 8161 0
8168 -82 -8161 0
-8169 -82 0
-8169 -8161 0
8169 82 8161 0
-8170 -8168 0
-8170 -8169 0
8170 8168 8169 0
-8174 8164 0
-8174 8170 0
8174 -8164 -8170 0
-8175 -8164 0
-8175 -8170 0
8175 8164 8170 0
-8176 -8174 0
-8176 -8175 0
8176 8174 8175 0
-8177 8155 0
-8177 -8176 0
8177 -8155 8176 0
-8178 8 0
-8178 13 0
8178 -8 -13 0
-8179 -8 0
-8179 -13 0
8179 8 13 0
-8180 -8178 0
-8180 -8179 0
8180 8178 8179 0
-8184 30 0
-8184 8180 0
8184 -30 -8180 0
-8185 -30 0
-8185 -8180 0
8185 30 8180 0
-8186 -8184 0
-8186 -8185 0
8186 8184 8185 0
-8181 90 0
-8181 96 0
8181 -90 -96 0
-8182 -90 0
-8182 -96 0
8182 90 96 0
-8183 -8181 0
-8183 -8182 0
8183 8181 8182 0
-8190 81 0
-8190 8183 0
8190 -81 -8183 0
-8191 -81 0
-8191 -8183 0
8191 81 8183 0
-8192 -8190 0
-8192 -8191 0
8192 8190 8191 0
-8196 8186 0
-8196 8192 0
8196 -8186 -8192 0
-8197 -8186 0
-8197 -8192 0
8197 8186 8192 0
-8198 -8196 0
-8198 -8197 0
8198 8196 8197 0
-8199 8177 0
-8199 -8198 0
8199 -8177 8198 0
-8200 12 0
-8200 13 0
8200 -12 -13 0
-8201 -12 0
-8201 -13 0
8201 12 13 0
-8202 -8200 0
-8202 -8201 0
8202 8200 8201 0
-8206 29 0
-8206 8202 0
8206 -29 -8202 0
-8207 -29 0
-8207 -8202 0
8207 29 8202 0
-8208 -8206 0
-8208 -8207 0
8208 8206 8207 0
-8203 89 0
-8203 95 0
8203 -89 -95 0
-8204 -89 0
-8204 -95 0
8204 89 95 0
-8205 -8203 0
-8205 -8204 0
8205 8203 8204 0
-8212 80 0
-8212 8205 0
8212 -80 -8205 0
-8213 -80 0
-8213 -8205 0
8213 80 8205 0
-8214 -8212 0
-8214 -8213 0
8214 8212 8213 0
-8218 8208 0
-8218 8214 0
8218 -8208 -8214 0
-8219 -8208 0
-8219 -8214 0
8219 8208 8214 0
-8220 -8218 0
-8220 -8219 0
8220 8218 8219 0
-8221 8199 0
-8221 -8220 0
8221 -8199 8220 0
-8222 11 0
-8222 12 0
8222 -11 -12 0
-8223 -11 0
-8223 -12 0
8223 11 12 0
-8224 -8222 0
-8224 -8223 0
8224 8222 8223 0
-8231 28 0
-8231 8224 0
8231 -28 -8224 0
-8232 -28 0
-8232 -8224 0
8232 28 8224 0
-8233 -8231 0
-8233 -8232 0
8233 8231 8232 0
-8225 85 0
-8225 88 0
8225 -85 -88 0
-8226 -85 0
-8226 -88 0
8226 85 88 0
-8227 -8225 0
-8227 -8226 0
8227 8225 8226 0
-8237 94 0
-8237 8227 0
8237 -94 -8227 0
-8238 -94 0
-8238 -8227 0
8238 94 8227 0
-8239 -8237 0
-8239 -8238 0
8239 8237 8238 0
-8240 8233 0
-8240 8239 0
8240 -8233 -8239 0
-8241 -8233 0
-8241 -8239 0
8241 8233 8239 0
-8242 -8240 0
-8242 -8241 0
8242 8240 8241 0
-8243 8221 0
-8243 -8242 0
8243 -8221 8242 0
-8244 10 0
-8244 11 0
8244 -10 -11 0
-8245 -10 0
-8245 -11 0
8245 10 11 0
-8246 -8244 0
-8246 -8245 0
8246 8244 8245 0
-8253 27 0
-8253 8246 0
8253 -27 -8246 0
-8254 -27 0
-8254 -8246 0
8254 27 8246 0
-8255 -8253 0
-8255 -8254 0
8255 8253 8254 0
-8247 84 0
-8247 87 0
8247 -84 -87 0
-8248 -84 0
-8248 -87 0
8248 84 87 0
-8249 -8247 0
-8249 -8248 0
8249 8247 8248 0
-8259 93 0
-8259 8249 0
8259 -93 -8249 0
-8260 -93 0
-8260 -8249 0
8260 93 8249 0
-8261 -8259 0
-8261 -8260 0
8261 8259 8260 0
-8262 8255 0
-8262 8261 0
8262 -8255 -8261 0
-8263 -8255 0
-8263 -8261 0
8263 8255 8261 0
-8264 -8262 0
-8264 -8263 0
8264 8262 8263 0
-8265 8243 0
-8265 -8264 0
8265 -8243 8264 0
-8266 9 0
-8266 10 0
8266 -9 -10 0
-8267 -9 0
-8267 -10 0
8267 9 10 0
-8268 -8266 0
-8268 -8267 0
8268 8266 8267 0
-8275 26 0
-8275 8268 0
8275 -26 -8268 0
-8276 -26 0
-8276 -8268 0
8276 26 8268 0
-8277 -8275 0
-8277 -8276 0
8277 8275 8276 0
-8269 83 0
-8269 86 0
8269 -83 -86 0
-8270 -83 0
-8270 -86 0
8270 83 86 0
-8271 -8269 0
-8271 -8270 0
8271 8269 8270 0
-8281 92 0
-8281 8271 0
8281 -92 -8271 0
-8282 -92 0
-8282 -8271 0
8282 92 8271 0
-8283 -8281 0
-8283 -8282 0
8283 8281 8282 0
-8284 8277 0
-8284 8283 0
8284 -8277 -8283 0
-8285 -8277 0
-8285 -8283 0
8285 8277 8283 0
-8286 -8284 0
-8286 -8285 0
8286 8284 8285 0
-8287 8265 0
-8287 -8286 0
8287 -8265 8286 0
-8288 2 0
-8288 3 0
8288 -2 -3 0
-8289 -2 0
-8289 -3 0
8289 2 3 0
-8290 -8288 0
-8290 -8289 0
8290 8288 8289 0
-8294 25 0
-8294 8290 0
8294 -25 -8290 0
-8295 -25 0
-8295 -8290 0
8295 25 8290 0
-8296 -8294 0
-8296 -8295 0
8296 8294 8295 0
-8291 85 0
-8291 91 0
8291 -85 -91 0
-8292 -85 0
-8292 -91 0
8292 85 91 0
-8293 -8291 0
-8293 -8292 0
8293 8291 8292 0
-8300 76 0
-8300 8293 0
8300 -76 -8293 0
-8301 -76 0
-8301 -8293 0
8301 76 8293 0
-8302 -8300 0
-8302 -8301 0
8302 8300 8301 0
-8306 8296 0
-8306 8302 0
8306 -8296 -8302 0
-8307 -8296 0
-8307 -8302 0
8307 8296 8302 0
-8308 -8306 0
-8308 -8307 0
8308 8306 8307 0
-8309 8287 0
-8309 -8308 0
8309 -8287 8308 0
-8310 2 0
-8310 7 0
8310 -2 -7 0
-8311 -2 0
-8311 -7 0
8311 2 7 0
-8312 -8310 0
-8312 -8311 0
8312 8310 8311 0
-8316 24 0
-8316 8312 0
8316 -24 -8312 0
-8317 -24 0
-8317 -8312 0
8317 24 8312 0
-8318 -8316 0
-8318 -8317 0
8318 8316 8317 0
-8313 84 0
-8313 90 0
8313 -84 -90 0
-8314 -84 0
-8314 -90 0
8314 84 90 0
-8315 -8313 0
-8315 -8314 0
8315 8313 8314 0
-8322 75 0
-8322 8315 0
8322 -75 -8315 0
-8323 -75 0
-8323 -8315 0
8323 75 8315 0
-8324 -8322 0
-8324 -8323 0
8324 8322 8323 0
-8328 8318 0
-8328 8324 0
8328 -8318 -8324 0
-8329 -8318 0
-8329 -8324 0
8329 8318 8324 0
-8330 -8328 0
-8330 -8329 0
8330 8328 8329 0
-8331 8309 0
-8331 -8330 0
8331 -8309 8330 0
-8332 6 0
-8332 7 0
8332 -6 -7 0
-8333 -6 0
-8333 -7 0
8333 6 7 0
-8334 -8332 0
-8334 -8333 0
8334 8332 8333 0
-8338 23 0
-8338 8334 0
8338 -23 -8334 0
-8339 -23 0
-8339 -8334 0
8339 23 8334 0
-8340 -8338 0
-8340 -8339 0
8340 8338 8339 0
-8335 83 0
-8335 89 0
8335 -83 -89 0
-8336 -83 0
-8336 -89 0
8336 83 89 0
-8337 -8335 0
-8337 -8336 0
8337 8335 8336 0
-8344 74 0
-8344 8337 0
8344 -74 -8337 0
-8345 -74 0
-8345 -8337 0
8345 74 8337 0
-8346 -8344 0
-8346 -8345 0
8346 8344 8345 0
-8350 8340 0
-8350 8346 0
8350 -8340 -8346 0
-8351 -8340 0
-8351 -8346 0
8351 8340 8346 0
-8352 -8350 0
-8352 -8351 0
8352 8350 8351 0
-8353 8331 0
-8353 -8352 0
8353 -8331 8352 0
-8354 5 0
-8354 6 0
8354 -5 -6 0
-8355 -5 0
-8355 -6 0
8355 5 6 0
-8356 -8354 0
-8356 -8355 0
8356 8354 8355 0
-8363 22 0
-8363 8356 0
8363 -22 -8356 0
-8364 -22 0
-8364 -8356 0
8364 22 8356 0
-8365 -8363 0
-8365 -8364 0
8365 8363 8364 0
-8360 82 0
-8360 88 0
8360 -82 -88 0
-8361 -82 0
-8361 -88 0
8361 82 88 0
-8362 -8360 0
-8362 -8361 0
8362 8360 8361 0
-8366 79 0
-8366 8362 0
8366 -79 -8362 0
-8367 -79 0
-8367 -8362 0
8367 79 8362 0
-8368 -8366 0
-8368 -8367 0
8368 8366 8367 0
-8372 8365 0
-8372 8368 0
8372 -8365 -8368 0
-8373 -8365 0
-8373 -8368 0
8373 8365 8368 0
-8374 -8372 0
-8374 -8373 0
8374 8372 8373 0
-8375 8353 0
-8375 -8374 0
8375 -8353 8374 0
-8376 4 0
-8376 5 0
8376 -4 -5 0
-8377 -4 0
-8377 -5 0
8377 4 5 0
-8378 -8376 0
-8378 -8377 0
8378 8376 8377 0
-8385 21 0
-8385 8378 0
8385 -21 -8378 0
-8386 -21 0
-8386 -8378 0
8386 21 8378 0
-8387 -8385 0
-8387 -8386 0
8387 8385 8386 0
-8379 78 0
-8379 81 0
8379 -78 -81 0
-8380 -78 0
-8380 -81 0
8380 78 81 0
-8381 -8379 0
-8381 -8380 0
8381 8379 8380 0
-8391 87 0
-8391 8381 0
8391 -87 -8381 0
-8392 -87 0
-8392 -8381 0
8392 87 8381 0
-8393 -8391 0
-8393 -8392 0
8393 8391 8392 0
-8394 8387 0
-8394 8393 0
8394 -8387 -8393 0
-8395 -8387 0
-8395 -8393 0
8395 8387 8393 0
-8396 -8394 0
-8396 -8395 0
8396 8394 8395 0
-8397 8375 0
-8397 -8396 0
8397 -8375 8396 0
-8398 3 0
-8398 4 0
8398 -3 -4 0
-8399 -3 0
-8399 -4 0
8399 3 4 0
-8400 -8398 0
-8400 -8399 0
8400 8398 8399 0
-8407 20 0
-8407 8400 0
8407 -20 -8400 0
-8408 -20 0
-8408 -8400 0
8408 20 8400 0
-8409 -8407 0
-8409 -8408 0
8409 8407 8408 0
-8401 77 0
-8401 80 0
8401 -77 -80 0
-8402 -77 0
-8402 -80 0
8402 77 80 0
-8403 -8401 0
-8403 -8402 0
8403 8401 8402 0
-8413 86 0
-8413 8403 0
8413 -86 -8403 0
-8414 -86 0
-8414 -8403 0
8414 86 8403 0
-8415 -8413 0
-8415 -8414 0
8415 8413 8414 0
-8416 8409 0
-8416 8415 0
8416 -8409 -8415 0
-8417 -8409 0
-8417 -8415 0
8417 8409 8415 0
-8418 -8416 0
-8418 -8417 0
8418 8416 8417 0
-8419 8397 0
-8419 -8418 0
8419 -8397 8418 0
-8423 76 0
-8423 77 0
8423 -76 -77 0
-8424 -76 0
-8424 -77 0
8424 76 77 0
-8425 -8423 0
-8425 -8424 0
8425 8423 8424 0
-8456 75 0
-8456 8425 0
8456 -75 -8425 0
-8457 -75 0
-8457 -8425 0
8457 75 8425 0
-8458 -8456 0
-8458 -8457 0
8458 8456 8457 0
-8525 80 0
-8525 8458 0
8525 -80 -8458 0
-8526 -80 0
-8526 -8458 0
8526 80 8458 0
-8527 -8525 0
-8527 -8526 0
8527 8525 8526 0
-8426 4 0
-8426 7 0
8426 -4 -7 0
-8427 -4 0
-8427 -7 0
8427 4 7 0
-8428 -8426 0
-8428 -8427 0
8428 8426 8427 0
-8429 10 0
-8429 12 0
8429 -10 -12 0
-8430 -10 0
-8430 -12 0
8430 10 12 0
-8431 -8429 0
-8431 -8430 0
8431 8429 8430 0
-8462 15 0
-8462 8431 0
8462 -15 -8431 0
-8463 -15 0
-8463 -8431 0
8463 15 8431 0
-8464 -8462 0
-8464 -8463 0
8464 8462 8463 0
-8465 8428 0
-8465 8464 0
8465 -8428 -8464 0
-8466 -8428 0
-8466 -8464 0
8466 8428 8464 0
-8467 -8465 0
-8467 -8466 0
8467 8465 8466 0
-8534 7894 0
-8534 8467 0
8534 -7894 -8467 0
-8535 -7894 0
-8535 -8467 0
8535 7894 8467 0
-8536 -8534 0
-8536 -8535 0
8536 8534 8535 0
-8516 6973 0
-8516 7111 0
8516 -6973 -7111 0
-8517 -6973 0
-8517 -7111 0
8517 6973 7111 0
-8518 -8516 0
-8518 -8517 0
8518 8516 8517 0
-8477 7465 0
-8477 7687 0
8477 -7465 -7687 0
-8478 -7465 0
-8478 -7687 0
8478 7465 7687 0
-8479 -8477 0
-8479 -8478 0
8479 8477 8478 0
-8495 7297 0
-8495 7387 0
8495 -7297 -7387 0
-8496 -7297 0
-8496 -7387 0
8496 7297 7387 0
-8497 -8495 0
-8497 -8496 0
8497 8495 8496 0
-8537 8479 0
-8537 8497 0
8537 -8479 -8497 0
-8538 -8479 0
-8538 -8497 0
8538 8479 8497 0
-8539 -8537 0
-8539 -8538 0
8539 8537 8538 0
-8606 8518 0
-8606 8539 0
8606 -8518 -8539 0
-8607 -8518 0
-8607 -8539 0
8607 8518 8539 0
-8608 -8606 0
-8608 -8607 0
8608 8606 8607 0
-8609 8536 0
-8609 8608 0
8609 -8536 -8608 0
-8610 -8536 0
-8610 -8608 0
8610 8536 8608 0
-8611 -8609 0
-8611 -8610 0
8611 8609 8610 0
-8669 8527 0
-8669 8611 0
8669 -8527 -8611 0
-8670 -8527 0
-8670 -8611 0
8670 8527 8611 0
-8671 -8669 0
-8671 -8670 0
8671 8669 8670 0
-8672 -145 0
-8672 8671 0
8672 145 -8671 0
-8673 145 0
-8673 -8671 0
8673 -145 8671 0
-8674 -8672 0
-8674 -8673 0
8674 8672 8673 0
-8675 7 0
-8675 8 0
8675 -7 -8 0
-8676 -7 0
-8676 -8 0
8676 7 8 0
-8677 -8675 0
-8677 -8676 0
8677 8675 8676 0
-8693 2 0
-8693 8677 0
8693 -2 -8677 0
-8694 -2 0
-8694 -8677 0
8694 2 8677 0
-8695 -8693 0
-8695 -8694 0
8695 8693 8694 0
-8696 13 0
-8696 8246 0
8696 -13 -8246 0
-8697 -13 0
-8697 -8246 0
8697 13 8246 0
-8698 -8696 0
-8698 -8697 0
8698 8696 8697 0
-8729 8026 0
-8729 8698 0
8729 -8026 -8698 0
-8730 -8026 0
-8730 -8698 0
8730 8026 8698 0
-8731 -8729 0
-8731 -8730 0
8731 8729 8730 0
-8732 8695 0
-8732 8731 0
8732 -8695 -8731 0
-8733 -8695 0
-8733 -8731 0
8733 8695 8731 0
-8734 -8732 0
-8734 -8733 0
8734 8732 8733 0
-8681 19 0
-8681 20 0
8681 -19 -20 0
-8682 -19 0
-8682 -20 0
8682 19 20 0
-8683 -8681 0
-8683 -8682 0
8683 8681 8682 0
-8735 25 0
-8735 8683 0
8735 -25 -8683 0
-8736 -25 0
-8736 -8683 0
8736 25 8683 0
-8737 -8735 0
-8737 -8736 0
8737 8735 8736 0
-8795 8734 0
-8795 8737 0
8795 -8734 -8737 0
-8796 -8734 0
-8796 -8737 0
8796 8734 8737 0
-8797 -8795 0
-8797 -8796 0
8797 8795 8796 0
-8756 38 0
-8756 7712 0
8756 -38 -7712 0
-8757 -38 0
-8757 -7712 0
8757 38 7712 0
-8758 -8756 0
-8758 -8757 0
8758 8756 8757 0
-8684 43 0
-8684 44 0
8684 -43 -44 0
-8685 -43 0
-8685 -44 0
8685 43 44 0
-8686 -8684 0
-8686 -8685 0
8686 8684 8685 0
-8723 49 0
-8723 7415 0
8723 -49 -7415 0
-8724 -49 0
-8724 -7415 0
8724 49 7415 0
-8725 -8723 0
-8725 -8724 0
8725 8723 8724 0
-8768 8686 0
-8768 8725 0
8768 -8686 -8725 0
-8769 -8686 0
-8769 -8725 0
8769 8686 8725 0
-8770 -8768 0
-8770 -8769 0
8770 8768 8769 0
-8798 8758 0
-8798 8770 0
8798 -8758 -8770 0
-8799 -8758 0
-8799 -8770 0
8799 8758 8770 0
-8800 -8798 0
-8800 -8799 0
8800 8798 8799 0
-8690 55 0
-8690 56 0
8690 -55 -56 0
-8691 -55 0
-8691 -56 0
8691 55 56 0
-8692 -8690 0
-8692 -8691 0
8692 8690 8691 0
-8789 50 0
-8789 8692 0
8789 -50 -8692 0
-8790 -50 0
-8790 -8692 0
8790 50 8692 0
-8791 -8789 0
-8791 -8790 0
8791 8789 8790 0
-8873 61 0
-8873 8791 0
8873 -61 -8791 0
-8874 -61 0
-8874 -8791 0
8874 61 8791 0
-8875 -8873 0
-8875 -8874 0
8875 8873 8874 0
-8879 8800 0
-8879 8875 0
8879 -8800 -8875 0
-8880 -8800 0
-8880 -8875 0
8880 8800 8875 0
-8881 -8879 0
-8881 -8880 0
8881 8879 8880 0
-8882 8797 0
-8882 8881 0
8882 -8797 -8881 0
-8883 -8797 0
-8883 -8881 0
8883 8797 8881 0
-8884 -8882 0
-8884 -8883 0
8884 8882 8883 0
-8945 6764 0
-8945 8884 0
8945 -6764 -8884 0
-8946 -6764 0
-8946 -8884 0
8946 6764 8884 0
-8947 -8945 0
-8947 -8946 0
8947 8945 8946 0
-8948 -144 0
-8948 8947 0
8948 144 -8947 0
-8949 144 0
-8949 -8947 0
8949 -144 8947 0
-8950 -8948 0
-8950 -8949 0
8950 8948 8949 0
-8951 9 0
-8951 8334 0
8951 -9 -8334 0
-8952 -9 0
-8952 -8334 0
8952 9 8334 0
-8953 -8951 0
-8953 -8952 0
8953 8951 8952 0
-8954 10 0
-8954 8202 0
8954 -10 -8202 0
-8955 -10 0
-8955 -8202 0
8955 10 8202 0
-8956 -8954 0
-8956 -8955 0
8956 8954 8955 0
-8981 14 0
-8981 8956 0
8981 -14 -8956 0
-8982 -14 0
-8982 -8956 0
8982 14 8956 0
-8983 -8981 0
-8983 -8982 0
8983 8981 8982 0
-8984 8953 0
-8984 8983 0
8984 -8953 -8983 0
-8985 -8953 0
-8985 -8983 0
8985 8953 8983 0
-8986 -8984 0
-8986 -8985 0
8986 8984 8985 0
-8987 7938 0
-8987 8070 0
8987 -7938 -8070 0
-8988 -7938 0
-8988 -8070 0
8988 7938 8070 0
-8989 -8987 0
-8989 -8988 0
8989 8987 8988 0
-9047 33 0
-9047 8989 0
9047 -33 -8989 0
-9048 -33 0
-9048 -8989 0
9048 33 8989 0
-9049 -9047 0
-9049 -9048 0
9049 9047 9048 0
-9050 8986 0
-9050 9049 0
9050 -8986 -9049 0
-9051 -8986 0
-9051 -9049 0
9051 8986 9049 0
-9052 -9050 0
-9052 -9051 0
9052 9050 9051 0
-9041 7020 0
-9041 7173 0
9041 -7020 -7173 0
-9042 -7020 0
-9042 -7173 0
9042 7020 7173 0
-9043 -9041 0
-9043 -9042 0
9043 9041 9042 0
-8969 45 0
-8969 7515 0
8969 -45 -7515 0
-8970 -45 0
-8970 -7515 0
8970 45 7515 0
-8971 -8969 0
-8971 -8970 0
8971 8969 8970 0
-8978 46 0
-8978 7359 0
8978 -46 -7359 0
-8979 -46 0
-8979 -7359 0
8979 46 7359 0
-8980 -8978 0
-8980 -8979 0
8980 8978 8979 0
-9017 8971 0
-9017 8980 0
9017 -8971 -8980 0
-9018 -8971 0
-9018 -8980 0
9018 8971 8980 0
-9019 -9017 0
-9019 -9018 0
9019 9017 9018 0
-9053 34 0
-9053 9019 0
9053 -34 -9019 0
-9054 -34 0
-9054 -9019 0
9054 34 9019 0
-9055 -9053 0
-9055 -9054 0
9055 9053 9054 0
-9134 9043 0
-9134 9055 0
9134 -9043 -9055 0
-9135 -9043 0
-9135 -9055 0
9135 9043 9055 0
-9136 -9134 0
-9136 -9135 0
9136 9134 9135 0
-9137 9052 0
-9137 9136 0
9137 -9052 -9136 0
-9138 -9052 0
-9138 -9136 0
9138 9052 9136 0
-9139 -9137 0
-9139 -9138 0
9139 9137 9138 0
-9203 6801 0
-9203 9139 0
9203 -6801 -9139 0
-9204 -6801 0
-9204 -9139 0
9204 6801 9139 0
-9205 -9203 0
-9205 -9204 0
9205 9203 9204 0
-9206 -143 0
-9206 9205 0
9206 143 -9205 0
-9207 143 0
-9207 -9205 0
9207 -143 9205 0
-9208 -9206 0
-9208 -9207 0
9208 9206 9207 0
-9284 77 0
-9284 81 0
9284 -77 -81 0
-9285 -77 0
-9285 -81 0
9285 77 81 0
-9286 -9284 0
-9286 -9285 0
9286 9284 9285 0
-9209 8 0
-9209 8400 0
9209 -8 -8400 0
-9210 -8 0
-9210 -8400 0
9210 8 8400 0
-9211 -9209 0
-9211 -9210 0
9211 9209 9210 0
-9212 15 0
-9212 17 0
9212 -15 -17 0
-9213 -15 0
-9213 -17 0
9213 15 17 0
-9214 -9212 0
-9214 -9213 0
9214 9212 9213 0
-9224 12 0
-9224 9214 0
9224 -12 -9214 0
-9225 -12 0
-9225 -9214 0
9225 12 9214 0
-9226 -9224 0
-9226 -9225 0
9226 9224 9225 0
-9227 9211 0
-9227 9226 0
9227 -9211 -9226 0
-9228 -9211 0
-9228 -9226 0
9228 9211 9226 0
-9229 -9227 0
-9229 -9228 0
9229 9227 9228 0
-9230 18 0
-9230 7960 0
9230 -18 -7960 0
-9231 -18 0
-9231 -7960 0
9231 18 7960 0
-9232 -9230 0
-9232 -9231 0
9232 9230 9231 0
-9287 7615 0
-9287 9232 0
9287 -7615 -9232 0
-9288 -7615 0
-9288 -9232 0
9288 7615 9232 0
-9289 -9287 0
-9289 -9288 0
9289 9287 9288 0
-9290 9229 0
-9290 9289 0
9290 -9229 -9289 0
-9291 -9229 0
-9291 -9289 0
9291 9229 9289 0
-9292 -9290 0
-9292 -9291 0
9292 9290 9291 0
-9278 7045 0
-9278 7204 0
9278 -7045 -7204 0
-9279 -7045 0
-9279 -7204 0
9279 7045 7204 0
-9280 -9278 0
-9280 -9279 0
9280 9278 9279 0
-9221 42 0
-9221 7297 0
9221 -42 -7297 0
-9222 -42 0
-9222 -7297 0
9222 42 7297 0
-9223 -9221 0
-9223 -9222 0
9223 9221 9222 0
-9260 7387 0
-9260 9223 0
9260 -7387 -9223 0
-9261 -7387 0
-9261 -9223 0
9261 7387 9223 0
-9262 -9260 0
-9262 -9261 0
9262 9260 9261 0
-9293 41 0
-9293 9262 0
9293 -41 -9262 0
-9294 -41 0
-9294 -9262 0
9294 41 9262 0
-9295 -9293 0
-9295 -9294 0
9295 9293 9294 0
-9365 9280 0
-9365 9295 0
9365 -9280 -9295 0
-9366 -9280 0
-9366 -9295 0
9366 9280 9295 0
-9367 -9365 0
-9367 -9366 0
9367 9365 9366 0
-9368 9292 0
-9368 9367 0
9368 -9292 -9367 0
-9369 -9292 0
-9369 -9367 0
9369 9292 9367 0
-9370 -9368 0
-9370 -9369 0
9370 9368 9369 0
-9428 9286 0
-9428 9370 0
9428 -9286 -9370 0
-9429 -9286 0
-9429 -9370 0
9429 9286 9370 0
-9430 -9428 0
-9430 -9429 0
9430 9428 9429 0
-9431 -142 0
-9431 9430 0
9431 142 -9430 0
-9432 142 0
-9432 -9430 0
9432 -142 9430 0
-9433 -9431 0
-9433 -9432 0
9433 9431 9432 0
-9533 76 0
-9533 80 0
9533 -76 -80 0
-9534 -76 0
-9534 -80 0
9534 76 80 0
-9535 -9533 0
-9535 -9534 0
9535 9533 9534 0
-9434 11 0
-9434 13 0
9434 -11 -13 0
-9435 -11 0
-9435 -13 0
9435 11 13 0
-9436 -9434 0
-9436 -9435 0
9436 9434 9435 0
-9440 14 0
-9440 8114 0
9440 -14 -8114 0
-9441 -14 0
-9441 -8114 0
9441 14 8114 0
-9442 -9440 0
-9442 -9441 0
9442 9440 9441 0
-9458 9436 0
-9458 9442 0
9458 -9436 -9442 0
-9459 -9436 0
-9459 -9442 0
9459 9436 9442 0
-9460 -9458 0
-9460 -9459 0
9460 9458 9459 0
-9461 8290 0
-9461 9460 0
9461 -8290 -9460 0
-9462 -8290 0
-9462 -9460 0
9462 8290 9460 0
-9463 -9461 0
-9463 -9462 0
9463 9461 9462 0
-9536 32 0
-9536 7982 0
9536 -32 -7982 0
-9537 -32 0
-9537 -7982 0
9537 32 7982 0
-9538 -9536 0
-9538 -9537 0
9538 9536 9537 0
-9539 9463 0
-9539 9538 0
9539 -9463 -9538 0
-9540 -9463 0
-9540 -9538 0
9540 9463 9538 0
-9541 -9539 0
-9541 -9540 0
9541 9539 9540 0
-9527 7067 0
-9527 7235 0
9527 -7067 -7235 0
-9528 -7067 0
-9528 -7235 0
9528 7067 7235 0
-9529 -9527 0
-9529 -9528 0
9529 9527 9528 0
-9482 37 0
-9482 7565 0
9482 -37 -7565 0
-9483 -37 0
-9483 -7565 0
9483 37 7565 0
-9484 -9482 0
-9484 -9483 0
9484 9482 9483 0
-9500 44 0
-9500 8725 0
9500 -44 -8725 0
-9501 -44 0
-9501 -8725 0
9501 44 8725 0
-9502 -9500 0
-9502 -9501 0
9502 9500 9501 0
-9542 9484 0
-9542 9502 0
9542 -9484 -9502 0
-9543 -9484 0
-9543 -9502 0
9543 9484 9502 0
-9544 -9542 0
-9544 -9543 0
9544 9542 9543 0
-9620 9529 0
-9620 9544 0
9620 -9529 -9544 0
-9621 -9529 0
-9621 -9544 0
9621 9529 9544 0
-9622 -9620 0
-9622 -9621 0
9622 9620 9621 0
-9623 9541 0
-9623 9622 0
9623 -9541 -9622 0
-9624 -9541 0
-9624 -9622 0
9624 9541 9622 0
-9625 -9623 0
-9625 -9624 0
9625 9623 9624 0
-9683 9535 0
-9683 9625 0
9683 -9535 -9625 0
-9684 -9535 0
-9684 -9625 0
9684 9535 9625 0
-9685 -9683 0
-9685 -9684 0
9685 9683 9684 0
-9686 -141 0
-9686 9685 0
9686 141 -9685 0
-9687 141 0
-9687 -9685 0
9687 -141 9685 0
-9688 -9686 0
-9688 -9687 0
9688 9686 9687 0
-9689 74 0
-9689 75 0
9689 -74 -75 0
-9690 -74 0
-9690 -75 0
9690 74 75 0
-9691 -9689 0
-9691 -9690 0
9691 9689 9690 0
-9719 76 0
-9719 9691 0
9719 -76 -9691 0
-9720 -76 0
-9720 -9691 0
9720 76 9691 0
-9721 -9719 0
-9721 -9720 0
9721 9719 9720 0
-9779 81 0
-9779 9721 0
9779 -81 -9721 0
-9780 -81 0
-9780 -9721 0
9780 81 9721 0
-9781 -9779 0
-9781 -9780 0
9781 9779 9780 0
-9692 6 0
-9692 8158 0
9692 -6 -8158 0
-9693 -6 0
-9693 -8158 0
9693 6 8158 0
-9694 -9692 0
-9694 -9693 0
9694 9692 9693 0
-9695 3 0
-9695 9694 0
9695 -3 -9694 0
-9696 -3 0
-9696 -9694 0
9696 3 9694 0
-9697 -9695 0
-9697 -9696 0
9697 9695 9696 0
-9722 16 0
-9722 8202 0
9722 -16 -8202 0
-9723 -16 0
-9723 -8202 0
9723 16 8202 0
-9724 -9722 0
-9724 -9723 0
9724 9722 9723 0
-9725 9697 0
-9725 9724 0
9725 -9697 -9724 0
-9726 -9697 0
-9726 -9724 0
9726 9697 9724 0
-9727 -9725 0
-9727 -9726 0
9727 9725 9726 0
-9788 8004 0
-9788 9727 0
9788 -8004 -9727 0
-9789 -8004 0
-9789 -9727 0
9789 8004 9727 0
-9790 -9788 0
-9790 -9789 0
9790 9788 9789 0
-9737 7590 0
-9737 7662 0
9737 -7590 -7662 0
-9738 -7590 0
-9738 -7662 0
9738 7590 7662 0
-9739 -9737 0
-9739 -9738 0
9739 9737 9738 0
-9752 45 0
-9752 8980 0
9752 -45 -8980 0
-9753 -45 0
-9753 -8980 0
9753 45 8980 0
-9754 -9752 0
-9754 -9753 0
9754 9752 9753 0
-9791 9739 0
-9791 9754 0
9791 -9739 -9754 0
-9792 -9739 0
-9792 -9754 0
9792 9739 9754 0
-9793 -9791 0
-9793 -9792 0
9793 9791 9792 0
-9770 57 0
-9770 7266 0
9770 -57 -7266 0
-9771 -57 0
-9771 -7266 0
9771 57 7266 0
-9772 -9770 0
-9772 -9771 0
9772 9770 9771 0
-9854 58 0
-9854 9772 0
9854 -58 -9772 0
-9855 -58 0
-9855 -9772 0
9855 58 9772 0
-9856 -9854 0
-9856 -9855 0
9856 9854 9855 0
-9866 9793 0
-9866 9856 0
9866 -9793 -9856 0
-9867 -9793 0
-9867 -9856 0
9867 9793 9856 0
-9868 -9866 0
-9868 -9867 0
9868 9866 9867 0
-9869 9790 0
-9869 9868 0
9869 -9790 -9868 0
-9870 -9790 0
-9870 -9868 0
9870 9790 9868 0
-9871 -9869 0
-9871 -9870 0
9871 9869 9870 0
-9932 9781 0
-9932 9871 0
9932 -9781 -9871 0
-9933 -9781 0
-9933 -9871 0
9933 9781 9871 0
-9934 -9932 0
-9934 -9933 0
9934 9932 9933 0
-9935 -140 0
-9935 9934 0
9935 140 -9934 0
-9936 140 0
-9936 -9934 0
9936 -140 9934 0
-9937 -9935 0
-9937 -9936 0
9937 9935 9936 0
-10013 81 0
-10013 8425 0
10013 -81 -8425 0
-10014 -81 0
-10014 -8425 0
10014 81 8425 0
-10015 -10013 0
-10015 -10014 0
10015 10013 10014 0
-9938 2 0
-9938 4 0
9938 -2 -4 0
-9939 -2 0
-9939 -4 0
9939 2 4 0
-9940 -9938 0
-9940 -9939 0
9940 9938 9939 0
-9941 8 0
-9941 9940 0
9941 -8 -9940 0
-9942 -8 0
-9942 -9940 0
9942 8 9940 0
-9943 -9941 0
-9943 -9942 0
9943 9941 9942 0
-9962 14 0
-9962 8246 0
9962 -14 -8246 0
-9963 -14 0
-9963 -8246 0
9963 14 8246 0
-9964 -9962 0
-9964 -9963 0
9964 9962 9963 0
-9965 9943 0
-9965 9964 0
9965 -9943 -9964 0
-9966 -9943 0
-9966 -9964 0
9966 9943 9964 0
-9967 -9965 0
-9967 -9966 0
9967 9965 9966 0
-9953 30 0
-9953 7615 0
9953 -30 -7615 0
-9954 -30 0
-9954 -7615 0
9954 30 7615 0
-9955 -9953 0
-9955 -9954 0
9955 9953 9954 0
-9968 29 0
-9968 9955 0
9968 -29 -9955 0
-9969 -29 0
-9969 -9955 0
9969 29 9955 0
-9970 -9968 0
-9970 -9969 0
9970 9968 9969 0
-10016 9967 0
-10016 9970 0
10016 -9967 -9970 0
-10017 -9967 0
-10017 -9970 0
10017 9967 9970 0
-10018 -10016 0
-10018 -10017 0
10018 10016 10017 0
-9956 41 0
-9956 7465 0
9956 -41 -7465 0
-9957 -41 0
-9957 -7465 0
9957 41 7465 0
-9958 -9956 0
-9958 -9957 0
9958 9956 9957 0
-9995 9223 0
-9995 9958 0
9995 -9223 -9958 0
-9996 -9223 0
-9996 -9958 0
9996 9223 9958 0
-9997 -9995 0
-9997 -9996 0
9997 9995 9996 0
-10061 7111 0
-10061 9997 0
10061 -7111 -9997 0
-10062 -7111 0
-10062 -9997 0
10062 7111 9997 0
-10063 -10061 0
-10063 -10062 0
10063 10061 10062 0
-10082 10018 0
-10082 10063 0
10082 -10018 -10063 0
-10083 -10018 0
-10083 -10063 0
10083 10018 10063 0
-10084 -10082 0
-10084 -10083 0
10084 10082 10083 0
-10100 10015 0
-10100 10084 0
10100 -10015 -10084 0
-10101 -10015 0
-10101 -10084 0
10101 10015 10084 0
-10102 -10100 0
-10102 -10101 0
10102 10100 10101 0
-10103 -139 0
-10103 10102 0
10103 139 -10102 0
-10104 139 0
-10104 -10102 0
10104 -139 10102 0
-10105 -10103 0
-10105 -10104 0
10105 10103 10104 0
-8420 75 0
-8420 76 0
8420 -75 -76 0
-8421 -75 0
-8421 -76 0
8421 75 76 0
-8422 -8420 0
-8422 -8421 0
8422 8420 8421 0
-10178 80 0
-10178 8422 0
10178 -80 -8422 0
-10179 -80 0
-10179 -8422 0
10179 80 8422 0
-10180 -10178 0
-10180 -10179 0
10180 10178 10179 0
-10109 7 0
-10109 9 0
10109 -7 -9 0
-10110 -7 0
-10110 -9 0
10110 7 9 0
-10111 -10109 0
-10111 -10110 0
10111 10109 10110 0
-10112 3 0
-10112 10111 0
10112 -3 -10111 0
-10113 -3 0
-10113 -10111 0
10113 3 10111 0
-10114 -10112 0
-10114 -10113 0
10114 10112 10113 0
-10115 10 0
-10115 13 0
10115 -10 -13 0
-10116 -10 0
-10116 -13 0
10116 10 13 0
-10117 -10115 0
-10117 -10116 0
10117 10115 10116 0
-10133 10114 0
-10133 10117 0
10133 -10114 -10117 0
-10134 -10114 0
-10134 -10117 0
10134 10114 10117 0
-10135 -10133 0
-10135 -10134 0
10135 10133 10134 0
-10142 32 0
-10142 7850 0
10142 -32 -7850 0
-10143 -32 0
-10143 -7850 0
10143 32 7850 0
-10144 -10142 0
-10144 -10143 0
10144 10142 10143 0
-10181 19 0
-10181 10144 0
10181 -19 -10144 0
-10182 -19 0
-10182 -10144 0
10182 19 10144 0
-10183 -10181 0
-10183 -10182 0
10183 10181 10182 0
-10184 10135 0
-10184 10183 0
10184 -10135 -10183 0
-10185 -10135 0
-10185 -10183 0
10185 10135 10183 0
-10186 -10184 0
-10186 -10185 0
10186 10184 10185 0
-10124 38 0
-10124 7565 0
10124 -38 -7565 0
-10125 -38 0
-10125 -7565 0
10125 38 7565 0
-10126 -10124 0
-10126 -10125 0
10126 10124 10125 0
-10148 37 0
-10148 10126 0
10148 -37 -10126 0
-10149 -37 0
-10149 -10126 0
10149 37 10126 0
-10150 -10148 0
-10150 -10149 0
10150 10148 10149 0
-10169 49 0
-10169 8686 0
10169 -49 -8686 0
-10170 -49 0
-10170 -8686 0
10170 49 8686 0
-10171 -10169 0
-10171 -10170 0
10171 10169 10170 0
-10187 10150 0
-10187 10171 0
10187 -10150 -10171 0
-10188 -10150 0
-10188 -10171 0
10188 10150 10171 0
-10189 -10187 0
-10189 -10188 0
10189 10187 10188 0
-10253 7142 0
-10253 10189 0
10253 -7142 -10189 0
-10254 -7142 0
-10254 -10189 0
10254 7142 10189 0
-10255 -10253 0
-10255 -10254 0
10255 10253 10254 0
-10256 10186 0
-10256 10255 0
10256 -10186 -10255 0
-10257 -10186 0
-10257 -10255 0
10257 10186 10255 0
-10258 -10256 0
-10258 -10257 0
10258 10256 10257 0
-10292 10180 0
-10292 10258 0
10292 -10180 -10258 0
-10293 -10180 0
-10293 -10258 0
10293 10180 10258 0
-10294 -10292 0
-10294 -10293 0
10294 10292 10293 0
-10295 -138 0
-10295 10294 0
10295 138 -10294 0
-10296 138 0
-10296 -10294 0
10296 -138 10294 0
-10297 -10295 0
-10297 -10296 0
10297 10295 10296 0
-9782 81 0
-9782 8422 0
9782 -81 -8422 0
-9783 -81 0
-9783 -8422 0
9783 81 8422 0
-9784 -9782 0
-9784 -9783 0
9784 9782 9783 0
-10298 3 0
-10298 7 0
10298 -3 -7 0
-10299 -3 0
-10299 -7 0
10299 3 7 0
-10300 -10298 0
-10300 -10299 0
10300 10298 10299 0
-10316 15 0
-10316 8956 0
10316 -15 -8956 0
-10317 -15 0
-10317 -8956 0
10317 15 8956 0
-10318 -10316 0
-10318 -10317 0
10318 10316 10317 0
-10319 10300 0
-10319 10318 0
10319 -10300 -10318 0
-10320 -10300 0
-10320 -10318 0
10320 10300 10318 0
-10321 -10319 0
-10321 -10320 0
10321 10319 10320 0
-10361 7872 0
-10361 8070 0
10361 -7872 -8070 0
-10362 -7872 0
-10362 -8070 0
10362 7872 8070 0
-10363 -10361 0
-10363 -10362 0
10363 10361 10362 0
-10364 10321 0
-10364 10363 0
10364 -10321 -10363 0
-10365 -10321 0
-10365 -10363 0
10365 10321 10363 0
-10366 -10364 0
-10366 -10365 0
10366 10364 10365 0
-10355 7359 0
-10355 7515 0
10355 -7359 -7515 0
-10356 -7359 0
-10356 -7515 0
10356 7359 7515 0
-10357 -10355 0
-10357 -10356 0
10357 10355 10356 0
-10367 9739 0
-10367 10357 0
10367 -9739 -10357 0
-10368 -9739 0
-10368 -10357 0
10368 9739 10357 0
-10369 -10367 0
-10369 -10368 0
10369 10367 10368 0
-10439 7173 0
-10439 10369 0
10439 -7173 -10369 0
-10440 -7173 0
-10440 -10369 0
10440 7173 10369 0
-10441 -10439 0
-10441 -10440 0
10441 10439 10440 0
-10442 10366 0
-10442 10441 0
10442 -10366 -10441 0
-10443 -10366 0
-10443 -10441 0
10443 10366 10441 0
-10444 -10442 0
-10444 -10443 0
10444 10442 10443 0
-10481 9784 0
-10481 10444 0
10481 -9784 -10444 0
-10482 -9784 0
-10482 -10444 0
10482 9784 10444 0
-10483 -10481 0
-10483 -10482 0
10483 10481 10482 0
-10484 -137 0
-10484 10483 0
10484 137 -10483 0
-10485 137 0
-10485 -10483 0
10485 -137 10483 0
-10486 -10484 0
-10486 -10485 0
10486 10484 10485 0
-10547 80 0
-10547 9691 0
10547 -80 -9691 0
-10548 -80 0
-10548 -9691 0
10548 80 9691 0
-10549 -10547 0
-10549 -10548 0
10549 10547 10548 0
-10487 6 0
-10487 9 0
10487 -6 -9 0
-10488 -6 0
-10488 -9 0
10488 6 9 0
-10489 -10487 0
-10489 -10488 0
10489 10487 10488 0
-10490 2 0
-10490 10489 0
10490 -2 -10489 0
-10491 -2 0
-10491 -10489 0
10491 2 10489 0
-10492 -10490 0
-10492 -10491 0
10492 10490 10491 0
-10505 14 0
-10505 17 0
10505 -14 -17 0
-10506 -14 0
-10506 -17 0
10506 14 17 0
-10507 -10505 0
-10507 -10506 0
10507 10505 10506 0
-10508 8224 0
-10508 10507 0
10508 -8224 -10507 0
-10509 -8224 0
-10509 -10507 0
10509 8224 10507 0
-10510 -10508 0
-10510 -10509 0
10510 10508 10509 0
-10511 10492 0
-10511 10510 0
10511 -10492 -10510 0
-10512 -10492 0
-10512 -10510 0
10512 10492 10510 0
-10513 -10511 0
-10513 -10512 0
10513 10511 10512 0
-10553 18 0
-10553 7762 0
10553 -18 -7762 0
-10554 -18 0
-10554 -7762 0
10554 18 7762 0
-10555 -10553 0
-10555 -10554 0
10555 10553 10554 0
-10556 10513 0
-10556 10555 0
10556 -10513 -10555 0
-10557 -10513 0
-10557 -10555 0
10557 10513 10555 0
-10558 -10556 0
-10558 -10557 0
10558 10556 10557 0
-10526 7687 0
-10526 9958 0
10526 -7687 -9958 0
-10527 -7687 0
-10527 -9958 0
10527 7687 9958 0
-10528 -10526 0
-10528 -10527 0
10528 10526 10527 0
-10544 42 0
-10544 7387 0
10544 -42 -7387 0
-10545 -42 0
-10545 -7387 0
10545 42 7387 0
-10546 -10544 0
-10546 -10545 0
10546 10544 10545 0
-10559 10528 0
-10559 10546 0
10559 -10528 -10546 0
-10560 -10528 0
-10560 -10546 0
10560 10528 10546 0
-10561 -10559 0
-10561 -10560 0
10561 10559 10560 0
-10628 7204 0
-10628 10561 0
10628 -7204 -10561 0
-10629 -7204 0
-10629 -10561 0
10629 7204 10561 0
-10630 -10628 0
-10630 -10629 0
10630 10628 10629 0
-10631 10558 0
-10631 10630 0
10631 -10558 -10630 0
-10632 -10558 0
-10632 -10630 0
10632 10558 10630 0
-10633 -10631 0
-10633 -10632 0
10633 10631 10632 0
-10667 10549 0
-10667 10633 0
10667 -10549 -10633 0
-10668 -10549 0
-10668 -10633 0
10668 10549 10633 0
-10669 -10667 0
-10669 -10668 0
10669 10667 10668 0
-10670 -136 0
-10670 10669 0
10670 136 -10669 0
-10671 136 0
-10671 -10669 0
10671 -136 10669 0
-10672 -10670 0
-10672 -10671 0
10672 10670 10671 0
-10703 74 0
-10703 77 0
10703 -74 -77 0
-10704 -74 0
-10704 -77 0
10704 74 77 0
-10705 -10703 0
-10705 -10704 0
10705 10703 10704 0
-10760 81 0
-10760 10705 0
10760 -81 -10705 0
-10761 -81 0
-10761 -10705 0
10761 81 10705 0
-10762 -10760 0
-10762 -10761 0
10762 10760 10761 0
-10673 8158 0
-10673 8334 0
10673 -8158 -8334 0
-10674 -8158 0
-10674 -8334 0
10674 8158 8334 0
-10675 -10673 0
-10675 -10674 0
10675 10673 10674 0
-10676 8400 0
-10676 10675 0
10676 -8400 -10675 0
-10677 -8400 0
-10677 -10675 0
10677 8400 10675 0
-10678 -10676 0
-10678 -10677 0
10678 10676 10677 0
-10685 15 0
-10685 8114 0
10685 -15 -8114 0
-10686 -15 0
-10686 -8114 0
10686 15 8114 0
-10687 -10685 0
-10687 -10686 0
10687 10685 10686 0
-10706 10 0
-10706 10687 0
10706 -10 -10687 0
-10707 -10 0
-10707 -10687 0
10707 10 10687 0
-10708 -10706 0
-10708 -10707 0
10708 10706 10707 0
-10709 10678 0
-10709 10708 0
10709 -10678 -10708 0
-10710 -10678 0
-10710 -10708 0
10710 10678 10708 0
-10711 -10709 0
-10711 -10710 0
10711 10709 10710 0
-10763 7784 0
-10763 10711 0
10763 -7784 -10711 0
-10764 -7784 0
-10764 -10711 0
10764 7784 10711 0
-10765 -10763 0
-10765 -10764 0
10765 10763 10764 0
-10721 7712 0
-10721 10126 0
10721 -7712 -10126 0
-10722 -7712 0
-10722 -10126 0
10722 7712 10126 0
-10723 -10721 0
-10723 -10722 0
10723 10721 10722 0
-10745 43 0
-10745 7415 0
10745 -43 -7415 0
-10746 -43 0
-10746 -7415 0
10746 43 7415 0
-10747 -10745 0
-10747 -10746 0
10747 10745 10746 0
-10766 10723 0
-10766 10747 0
10766 -10723 -10747 0
-10767 -10723 0
-10767 -10747 0
10767 10723 10747 0
-10768 -10766 0
-10768 -10767 0
10768 10766 10767 0
-10841 7235 0
-10841 10768 0
10841 -7235 -10768 0
-10842 -7235 0
-10842 -10768 0
10842 7235 10768 0
-10843 -10841 0
-10843 -10842 0
10843 10841 10842 0
-10844 10765 0
-10844 10843 0
10844 -10765 -10843 0
-10845 -10765 0
-10845 -10843 0
10845 10765 10843 0
-10846 -10844 0
-10846 -10845 0
10846 10844 10845 0
-10883 10762 0
-10883 10846 0
10883 -10762 -10846 0
-10884 -10762 0
-10884 -10846 0
10884 10762 10846 0
-10885 -10883 0
-10885 -10884 0
10885 10883 10884 0
-10886 -135 0
-10886 10885 0
10886 135 -10885 0
-10887 135 0
-10887 -10885 0
10887 -135 10885 0
-10888 -10886 0
-10888 -10887 0
10888 10886 10887 0
-10964 80 0
-10964 10705 0
10964 -80 -10705 0
-10965 -80 0
-10965 -10705 0
10965 80 10705 0
-10966 -10964 0
-10966 -10965 0
10966 10964 10965 0
-10904 33 0
-10904 7806 0
10904 -33 -7806 0
-10905 -33 0
-10905 -7806 0
10905 33 7806 0
-10906 -10904 0
-10906 -10905 0
10906 10904 10905 0
-10889 8400 0
-10889 8953 0
10889 -8400 -8953 0
-10890 -8400 0
-10890 -8953 0
10890 8400 8953 0
-10891 -10889 0
-10891 -10890 0
10891 10889 10890 0
-10901 16 0
-10901 8026 0
10901 -16 -8026 0
-10902 -16 0
-10902 -8026 0
10902 16 8026 0
-10903 -10901 0
-10903 -10902 0
10903 10901 10902 0
-10910 8246 0
-10910 10903 0
10910 -8246 -10903 0
-10911 -8246 0
-10911 -10903 0
10911 8246 10903 0
-10912 -10910 0
-10912 -10911 0
10912 10910 10911 0
-10913 10891 0
-10913 10912 0
10913 -10891 -10912 0
-10914 -10891 0
-10914 -10912 0
10914 10891 10912 0
-10915 -10913 0
-10915 -10914 0
10915 10913 10914 0
-10967 10906 0
-10967 10915 0
10967 -10906 -10915 0
-10968 -10906 0
-10968 -10915 0
10968 10906 10915 0
-10969 -10967 0
-10969 -10968 0
10969 10967 10968 0
-10934 34 0
-10934 7590 0
10934 -34 -7590 0
-10935 -34 0
-10935 -7590 0
10935 34 7590 0
-10936 -10934 0
-10936 -10935 0
10936 10934 10935 0
-10949 46 0
-10949 8971 0
10949 -46 -8971 0
-10950 -46 0
-10950 -8971 0
10950 46 8971 0
-10951 -10949 0
-10951 -10950 0
10951 10949 10950 0
-10970 10936 0
-10970 10951 0
10970 -10936 -10951 0
-10971 -10936 0
-10971 -10951 0
10971 10936 10951 0
-10972 -10970 0
-10972 -10971 0
10972 10970 10971 0
-11030 7266 0
-11030 10972 0
11030 -7266 -10972 0
-11031 -7266 0
-11031 -10972 0
11031 7266 10972 0
-11032 -11030 0
-11032 -11031 0
11032 11030 11031 0
-11033 10969 0
-11033 11032 0
11033 -10969 -11032 0
-11034 -10969 0
-11034 -11032 0
11034 10969 11032 0
-11035 -11033 0
-11035 -11034 0
11035 11033 11034 0
-11063 10966 0
-11063 11035 0
11063 -10966 -11035 0
-11064 -10966 0
-11064 -11035 0
11064 10966 11035 0
-11065 -11063 0
-11065 -11064 0
11065 11063 11064 0
-11066 -134 0
-11066 11065 0
11066 134 -11065 0
-11067 134 0
-11067 -11065 0
11067 -134 11065 0
-11068 -11066 0
-11068 -11067 0
11068 11066 11067 0
-11069 80 0
-11069 81 0
11069 -80 -81 0
-11070 -80 0
-11070 -81 0
11070 80 81 0
-11071 -11069 0
-11071 -11070 0
11071 11069 11070 0
-11090 77 0
-11090 9691 0
11090 -77 -9691 0
-11091 -77 0
-11091 -9691 0
11091 77 9691 0
-11092 -11090 0
-11092 -11091 0
11092 11090 11091 0
-11144 11071 0
-11144 11092 0
11144 -11071 -11092 0
-11145 -11071 0
-11145 -11092 0
11145 11071 11092 0
-11146 -11144 0
-11146 -11145 0
11146 11144 11145 0
-11072 8290 0
-11072 9694 0
11072 -8290 -9694 0
-11073 -8290 0
-11073 -9694 0
11073 8290 9694 0
-11074 -11072 0
-11074 -11073 0
11074 11072 11073 0
-11096 11 0
-11096 8026 0
11096 -11 -8026 0
-11097 -11 0
-11097 -8026 0
11097 11 8026 0
-11098 -11096 0
-11098 -11097 0
11098 11096 11097 0
-11099 11074 0
-11099 11098 0
11099 -11074 -11098 0
-11100 -11074 0
-11100 -11098 0
11100 11074 11098 0
-11101 -11099 0
-11101 -11100 0
11101 11099 11100 0
-11117 7615 0
-11117 7762 0
11117 -7615 -7762 0
-11118 -7615 0
-11118 -7762 0
11118 7615 7762 0
-11119 -11117 0
-11119 -11118 0
11119 11117 11118 0
-11156 7960 0
-11156 11119 0
11156 -7960 -11119 0
-11157 -7960 0
-11157 -11119 0
11157 7960 11119 0
-11158 -11156 0
-11158 -11157 0
11158 11156 11157 0
-11159 11101 0
-11159 11158 0
11159 -11101 -11158 0
-11160 -11101 0
-11160 -11158 0
11160 11101 11158 0
-11161 -11159 0
-11161 -11160 0
11161 11159 11160 0
-11162 7297 0
-11162 8479 0
11162 -7297 -8479 0
-11163 -7297 0
-11163 -8479 0
11163 7297 8479 0
-11164 -11162 0
-11164 -11163 0
11164 11162 11163 0
-11231 11161 0
-11231 11164 0
11231 -11161 -11164 0
-11232 -11161 0
-11232 -11164 0
11232 11161 11164 0
-11233 -11231 0
-11233 -11232 0
11233 11231 11232 0
-11243 11146 0
-11243 11233 0
11243 -11146 -11233 0
-11244 -11146 0
-11244 -11233 0
11244 11146 11233 0
-11245 -11243 0
-11245 -11244 0
11245 11243 11244 0
-11246 -133 0
-11246 11245 0
11246 133 -11245 0
-11247 133 0
-11247 -11245 0
11247 -133 11245 0
-11248 -11246 0
-11248 -11247 0
11248 11246 11247 0
-11279 74 0
-11279 8425 0
11279 -74 -8425 0
-11280 -74 0
-11280 -8425 0
11280 74 8425 0
-11281 -11279 0
-11281 -11280 0
11281 11279 11280 0
-11327 11071 0
-11327 11281 0
11327 -11071 -11281 0
-11328 -11071 0
-11328 -11281 0
11328 11071 11281 0
-11329 -11327 0
-11329 -11328 0
11329 11327 11328 0
-11249 4 0
-11249 8290 0
11249 -4 -8290 0
-11250 -4 0
-11250 -8290 0
11250 4 8290 0
-11251 -11249 0
-11251 -11250 0
11251 11249 11250 0
-11255 10675 0
-11255 11251 0
11255 -10675 -11251 0
-11256 -10675 0
-11256 -11251 0
11256 10675 11251 0
-11257 -11255 0
-11257 -11256 0
11257 11255 11256 0
-11282 8731 0
-11282 11257 0
11282 -8731 -11257 0
-11283 -8731 0
-11283 -11257 0
11283 8731 11257 0
-11284 -11282 0
-11284 -11283 0
11284 11282 11283 0
-11252 31 0
-11252 32 0
11252 -31 -32 0
-11253 -31 0
-11253 -32 0
11253 31 32 0
-11254 -11252 0
-11254 -11253 0
11254 11252 11253 0
-11294 26 0
-11294 11254 0
11294 -26 -11254 0
-11295 -26 0
-11295 -11254 0
11295 26 11254 0
-11296 -11294 0
-11296 -11295 0
11296 11294 11295 0
-11333 7982 0
-11333 11296 0
11333 -7982 -11296 0
-11334 -7982 0
-11334 -11296 0
11334 7982 11296 0
-11335 -11333 0
-11335 -11334 0
11335 11333 11334 0
-11336 11284 0
-11336 11335 0
11336 -11284 -11335 0
-11337 -11284 0
-11337 -11335 0
11337 11284 11335 0
-11338 -11336 0
-11338 -11337 0
11338 11336 11337 0
-11270 37 0
-11270 7712 0
11270 -37 -7712 0
-11271 -37 0
-11271 -7712 0
11271 37 7712 0
-11272 -11270 0
-11272 -11271 0
11272 11270 11271 0
-11315 38 0
-11315 11272 0
11315 -38 -11272 0
-11316 -38 0
-11316 -11272 0
11316 38 11272 0
-11317 -11315 0
-11317 -11316 0
11317 11315 11316 0
-11339 10171 0
-11339 11317 0
11339 -10171 -11317 0
-11340 -10171 0
-11340 -11317 0
11340 10171 11317 0
-11341 -11339 0
-11341 -11340 0
11341 11339 11340 0
-11405 11338 0
-11405 11341 0
11405 -11338 -11341 0
-11406 -11338 0
-11406 -11341 0
11406 11338 11341 0
-11407 -11405 0
-11407 -11406 0
11407 11405 11406 0
-11423 11329 0
-11423 11407 0
11423 -11329 -11407 0
-11424 -11329 0
-11424 -11407 0
11424 11329 11407 0
-11425 -11423 0
-11425 -11424 0
11425 11423 11424 0
-11426 -132 0
-11426 11425 0
11426 132 -11425 0
-11427 132 0
-11427 -11425 0
11427 -132 11425 0
-11428 -11426 0
-11428 -11427 0
11428 11426 11427 0
-11489 8458 0
-11489 11071 0
11489 -8458 -11071 0
-11490 -8458 0
-11490 -11071 0
11490 8458 11071 0
-11491 -11489 0
-11491 -11490 0
11491 11489 11490 0
-11429 8677 0
-11429 9940 0
11429 -8677 -9940 0
-11430 -8677 0
-11430 -9940 0
11430 8677 9940 0
-11431 -11429 0
-11431 -11430 0
11431 11429 11430 0
-11432 8202 0
-11432 8246 0
11432 -8202 -8246 0
-11433 -8202 0
-11433 -8246 0
11433 8202 8246 0
-11434 -11432 0
-11434 -11433 0
11434 11432 11433 0
-11450 8026 0
-11450 11434 0
11450 -8026 -11434 0
-11451 -8026 0
-11451 -11434 0
11451 8026 11434 0
-11452 -11450 0
-11452 -11451 0
11452 11450 11451 0
-11453 11431 0
-11453 11452 0
11453 -11431 -11452 0
-11454 -11431 0
-11454 -11452 0
11454 11431 11452 0
-11455 -11453 0
-11455 -11454 0
11455 11453 11454 0
-11495 8004 0
-11495 10906 0
11495 -8004 -10906 0
-11496 -8004 0
-11496 -10906 0
11496 8004 10906 0
-11497 -11495 0
-11497 -11496 0
11497 11495 11496 0
-11498 11455 0
-11498 11497 0
11498 -11455 -11497 0
-11499 -11455 0
-11499 -11497 0
11499 11455 11497 0
-11500 -11498 0
-11500 -11499 0
11500 11498 11499 0
-11447 34 0
-11447 7662 0
11447 -34 -7662 0
-11448 -34 0
-11448 -7662 0
11448 34 7662 0
-11449 -11447 0
-11449 -11448 0
11449 11447 11448 0
-11501 10357 0
-11501 11449 0
11501 -10357 -11449 0
-11502 -10357 0
-11502 -11449 0
11502 10357 11449 0
-11503 -11501 0
-11503 -11502 0
11503 11501 11502 0
-11567 11500 0
-11567 11503 0
11567 -11500 -11503 0
-11568 -11500 0
-11568 -11503 0
11568 11500 11503 0
-11569 -11567 0
-11569 -11568 0
11569 11567 11568 0
-11585 11491 0
-11585 11569 0
11585 -11491 -11569 0
-11586 -11491 0
-11586 -11569 0
11586 11491 11569 0
-11587 -11585 0
-11587 -11586 0
11587 11585 11586 0
-11588 -131 0
-11588 11587 0
11588 131 -11587 0
-11589 131 0
-11589 -11587 0
11589 -131 11587 0
-11590 -11588 0
-11590 -11589 0
11590 11588 11589 0
-11636 75 0
-11636 11071 0
11636 -75 -11071 0
-11637 -75 0
-11637 -11071 0
11637 75 11071 0
-11638 -11636 0
-11638 -11637 0
11638 11636 11637 0
-11591 2 0
-11591 8 0
11591 -2 -8 0
-11592 -2 0
-11592 -8 0
11592 2 8 0
-11593 -11591 0
-11593 -11592 0
11593 11591 11592 0
-11600 8026 0
-11600 8224 0
11600 -8026 -8224 0
-11601 -8026 0
-11601 -8224 0
11601 8026 8224 0
-11602 -11600 0
-11602 -11601 0
11602 11600 11601 0
-11603 11593 0
-11603 11602 0
11603 -11593 -11602 0
-11604 -11593 0
-11604 -11602 0
11604 11593 11602 0
-11605 -11603 0
-11605 -11604 0
11605 11603 11604 0
-11639 7894 0
-11639 9970 0
11639 -7894 -9970 0
-11640 -7894 0
-11640 -9970 0
11640 7894 9970 0
-11641 -11639 0
-11641 -11640 0
11641 11639 11640 0
-11642 11605 0
-11642 11641 0
11642 -11605 -11641 0
-11643 -11605 0
-11643 -11641 0
11643 11605 11641 0
-11644 -11642 0
-11644 -11643 0
11644 11642 11643 0
-11627 41 0
-11627 7687 0
11627 -41 -7687 0
-11628 -41 0
-11628 -7687 0
11628 41 7687 0
-11629 -11627 0
-11629 -11628 0
11629 11627 11628 0
-11645 10546 0
-11645 11629 0
11645 -10546 -11629 0
-11646 -10546 0
-11646 -11629 0
11646 10546 11629 0
-11647 -11645 0
-11647 -11646 0
11647 11645 11646 0
-11702 11644 0
-11702 11647 0
11702 -11644 -11647 0
-11703 -11644 0
-11703 -11647 0
11703 11644 11647 0
-11704 -11702 0
-11704 -11703 0
11704 11702 11703 0
-11711 11638 0
-11711 11704 0
11711 -11638 -11704 0
-11712 -11638 0
-11712 -11704 0
11712 11638 11704 0
-11713 -11711 0
-11713 -11712 0
11713 11711 11712 0
-11714 -130 0
-11714 11713 0
11714 130 -11713 0
-11715 130 0
-11715 -11713 0
11715 -130 11713 0
-11716 -11714 0
-11716 -11715 0
11716 11714 11715 0
-11774 7916 0
-11774 10144 0
11774 -7916 -10144 0
-11775 -7916 0
-11775 -10144 0
11775 7916 10144 0
-11776 -11774 0
-11776 -11775 0
11776 11774 11775 0
-11777 11101 0
-11777 11776 0
11777 -11101 -11776 0
-11778 -11101 0
-11778 -11776 0
11778 11101 11776 0
-11779 -11777 0
-11779 -11778 0
11779 11777 11778 0
-11753 7565 0
-11753 11272 0
11753 -7565 -11272 0
-11754 -7565 0
-11754 -11272 0
11754 7565 11272 0
-11755 -11753 0
-11755 -11754 0
11755 11753 11754 0
-11780 7415 0
-11780 11755 0
11780 -7415 -11755 0
-11781 -7415 0
-11781 -11755 0
11781 7415 11755 0
-11782 -11780 0
-11782 -11781 0
11782 11780 11781 0
-11843 11779 0
-11843 11782 0
11843 -11779 -11782 0
-11844 -11779 0
-11844 -11782 0
11844 11779 11782 0
-11845 -11843 0
-11845 -11844 0
11845 11843 11844 0
-11771 76 0
-11771 11071 0
11771 -76 -11071 0
-11772 -76 0
-11772 -11071 0
11772 76 11071 0
-11773 -11771 0
-11773 -11772 0
11773 11771 11772 0
-11852 129 0
-11852 11773 0
11852 -129 -11773 0
-11853 -129 0
-11853 -11773 0
11853 129 11773 0
-11854 -11852 0
-11854 -11853 0
11854 11852 11853 0
-11855 11845 0
-11855 11854 0
11855 -11845 -11854 0
-11856 -11845 0
-11856 -11854 0
11856 11845 11854 0
-11857 -11855 0
-11857 -11856 0
11857 11855 11856 0
-11858 3 0
-11858 5 0
11858 -3 -5 0
-11859 -3 0
-11859 -5 0
11859 3 5 0
-11860 -11858 0
-11860 -11859 0
11860 11858 11859 0
-11861 10489 0
-11861 11860 0
11861 -10489 -11860 0
-11862 -10489 0
-11862 -11860 0
11862 10489 11860 0
-11863 -11861 0
-11863 -11862 0
11863 11861 11862 0
-11870 8026 0
-11870 11863 0
11870 -8026 -11863 0
-11871 -8026 0
-11871 -11863 0
11871 8026 11863 0
-11872 -11870 0
-11872 -11871 0
11872 11870 11871 0
-11882 33 0
-11882 7872 0
11882 -33 -7872 0
-11883 -33 0
-11883 -7872 0
11883 33 7872 0
-11884 -11882 0
-11884 -11883 0
11884 11882 11883 0
-11912 7938 0
-11912 11884 0
11912 -7938 -11884 0
-11913 -7938 0
-11913 -11884 0
11913 7938 11884 0
-11914 -11912 0
-11914 -11913 0
11914 11912 11913 0
-11915 11872 0
-11915 11914 0
11915 -11872 -11914 0
-11916 -11872 0
-11916 -11914 0
11916 11872 11914 0
-11917 -11915 0
-11917 -11916 0
11917 11915 11916 0
-11900 7590 0
-11900 11449 0
11900 -7590 -11449 0
-11901 -7590 0
-11901 -11449 0
11901 7590 11449 0
-11902 -11900 0
-11902 -11901 0
11902 11900 11901 0
-11918 7440 0
-11918 11902 0
11918 -7440 -11902 0
-11919 -7440 0
-11919 -11902 0
11919 7440 11902 0
-11920 -11918 0
-11920 -11919 0
11920 11918 11919 0
-11987 11917 0
-11987 11920 0
11987 -11917 -11920 0
-11988 -11917 0
-11988 -11920 0
11988 11917 11920 0
-11989 -11987 0
-11989 -11988 0
11989 11987 11988 0
-11906 9721 0
-11906 11071 0
11906 -9721 -11071 0
-11907 -9721 0
-11907 -11071 0
11907 9721 11071 0
-11908 -11906 0
-11908 -11907 0
11908 11906 11907 0
-12002 128 0
-12002 11908 0
12002 -128 -11908 0
-12003 -128 0
-12003 -11908 0
12003 128 11908 0
-12004 -12002 0
-12004 -12003 0
12004 12002 12003 0
-12005 11989 0
-12005 12004 0
12005 -11989 -12004 0
-12006 -11989 0
-12006 -12004 0
12006 11989 12004 0
-12007 -12005 0
-12007 -12006 0
12007 12005 12006 0
-12044 9214 0
-12044 10117 0
12044 -9214 -10117 0
-12045 -9214 0
-12045 -10117 0
12045 9214 10117 0
-12046 -12044 0
-12046 -12045 0
12046 12044 12045 0
-12047 10675 0
-12047 12046 0
12047 -10675 -12046 0
-12048 -10675 0
-12048 -12046 0
12048 10675 12046 0
-12049 -12047 0
-12049 -12048 0
12049 12047 12048 0
-12017 7894 0
-12017 8070 0
12017 -7894 -8070 0
-12018 -7894 0
-12018 -8070 0
12018 7894 8070 0
-12019 -12017 0
-12019 -12018 0
12019 12017 12018 0
-12050 25 0
-12050 12019 0
12050 -25 -12019 0
-12051 -25 0
-12051 -12019 0
12051 25 12019 0
-12052 -12050 0
-12052 -12051 0
12052 12050 12051 0
-12029 29 0
-12029 7762 0
12029 -29 -7762 0
-12030 -29 0
-12030 -7762 0
12030 29 7762 0
-12031 -12029 0
-12031 -12030 0
12031 12029 12030 0
-12095 9955 0
-12095 12031 0
12095 -9955 -12031 0
-12096 -9955 0
-12096 -12031 0
12096 9955 12031 0
-12097 -12095 0
-12097 -12096 0
12097 12095 12096 0
-12143 12052 0
-12143 12097 0
12143 -12052 -12097 0
-12144 -12052 0
-12144 -12097 0
12144 12052 12097 0
-12145 -12143 0
-12145 -12144 0
12145 12143 12144 0
-12146 12049 0
-12146 12145 0
12146 -12049 -12145 0
-12147 -12049 0
-12147 -12145 0
12147 12049 12145 0
-12148 -12146 0
-12148 -12147 0
12148 12146 12147 0
-12137 55 0
-12137 61 0
12137 -55 -61 0
-12138 -55 0
-12138 -61 0
12138 55 61 0
-12139 -12137 0
-12139 -12138 0
12139 12137 12138 0
-12119 34 0
-12119 7465 0
12119 -34 -7465 0
-12120 -34 0
-12120 -7465 0
12120 34 7465 0
-12121 -12119 0
-12121 -12120 0
12121 12119 12120 0
-12041 46 0
-12041 49 0
12041 -46 -49 0
-12042 -46 0
-12042 -49 0
12042 46 49 0
-12043 -12041 0
-12043 -12042 0
12043 12041 12042 0
-12128 43 0
-12128 12043 0
12128 -43 -12043 0
-12129 -43 0
-12129 -12043 0
12129 43 12043 0
-12130 -12128 0
-12130 -12129 0
12130 12128 12129 0
-12149 12121 0
-12149 12130 0
12149 -12121 -12130 0
-12150 -12121 0
-12150 -12130 0
12150 12121 12130 0
-12151 -12149 0
-12151 -12150 0
12151 12149 12150 0
-12227 12139 0
-12227 12151 0
12227 -12139 -12151 0
-12228 -12139 0
-12228 -12151 0
12228 12139 12151 0
-12229 -12227 0
-12229 -12228 0
12229 12227 12228 0
-12230 12148 0
-12230 12229 0
12230 -12148 -12229 0
-12231 -12148 0
-12231 -12229 0
12231 12148 12229 0
-12232 -12230 0
-12232 -12231 0
12232 12230 12231 0
-12140 74 0
-12140 81 0
12140 -74 -81 0
-12141 -74 0
-12141 -81 0
12141 74 81 0
-12142 -12140 0
-12142 -12141 0
12142 12140 12141 0
-12272 127 0
-12272 12142 0
12272 -127 -12142 0
-12273 -127 0
-12273 -12142 0
12273 127 12142 0
-12274 -12272 0
-12274 -12273 0
12274 12272 12273 0
-12275 12232 0
-12275 12274 0
12275 -12232 -12274 0
-12276 -12232 0
-12276 -12274 0
12276 12232 12274 0
-12277 -12275 0
-12277 -12276 0
12277 12275 12276 0
-12278 8953 0
-12278 9940 0
12278 -8953 -9940 0
-12279 -8953 0
-12279 -9940 0
12279 8953 9940 0
-12280 -12278 0
-12280 -12279 0
12280 12278 12279 0
-12281 12 0
-12281 8246 0
12281 -12 -8246 0
-12282 -12 0
-12282 -8246 0
12282 12 8246 0
-12283 -12281 0
-12283 -12282 0
12283 12281 12282 0
-12332 9442 0
-12332 12283 0
12332 -9442 -12283 0
-12333 -9442 0
-12333 -12283 0
12333 9442 12283 0
-12334 -12332 0
-12334 -12333 0
12334 12332 12333 0
-12335 12280 0
-12335 12334 0
12335 -12280 -12334 0
-12336 -12280 0
-12336 -12334 0
12336 12280 12334 0
-12337 -12335 0
-12337 -12336 0
12337 12335 12336 0
-12299 18 0
-12299 20 0
12299 -18 -20 0
-12300 -18 0
-12300 -20 0
12300 18 20 0
-12301 -12299 0
-12301 -12300 0
12301 12299 12300 0
-12338 7938 0
-12338 12301 0
12338 -7938 -12301 0
-12339 -7938 0
-12339 -12301 0
12339 7938 12301 0
-12340 -12338 0
-12340 -12339 0
12340 12338 12339 0
-12311 26 0
-12311 7850 0
12311 -26 -7850 0
-12312 -26 0
-12312 -7850 0
12312 26 7850 0
-12313 -12311 0
-12313 -12312 0
12313 12311 12312 0
-12320 31 0
-12320 7615 0
12320 -31 -7615 0
-12321 -31 0
-12321 -7615 0
12321 31 7615 0
-12322 -12320 0
-12322 -12321 0
12322 12320 12321 0
-12383 12313 0
-12383 12322 0
12383 -12313 -12322 0
-12384 -12313 0
-12384 -12322 0
12384 12313 12322 0
-12385 -12383 0
-12385 -12384 0
12385 12383 12384 0
-12437 12340 0
-12437 12385 0
12437 -12340 -12385 0
-12438 -12340 0
-12438 -12385 0
12438 12340 12385 0
-12439 -12437 0
-12439 -12438 0
12439 12437 12438 0
-12440 12337 0
-12440 12439 0
12440 -12337 -12439 0
-12441 -12337 0
-12441 -12439 0
12441 12337 12439 0
-12442 -12440 0
-12442 -12441 0
12442 12440 12441 0
-12431 54 0
-12431 60 0
12431 -54 -60 0
-12432 -54 0
-12432 -60 0
12432 54 60 0
-12433 -12431 0
-12433 -12432 0
12433 12431 12432 0
-10106 37 0
-10106 38 0
10106 -37 -38 0
-10107 -37 0
-10107 -38 0
10107 37 38 0
-10108 -10106 0
-10108 -10107 0
10108 10106 10107 0
-12422 48 0
-12422 8971 0
12422 -48 -8971 0
-12423 -48 0
-12423 -8971 0
12423 48 8971 0
-12424 -12422 0
-12424 -12423 0
12424 12422 12423 0
-12443 10108 0
-12443 12424 0
12443 -10108 -12424 0
-12444 -10108 0
-12444 -12424 0
12444 10108 12424 0
-12445 -12443 0
-12445 -12444 0
12445 12443 12444 0
-12533 12433 0
-12533 12445 0
12533 -12433 -12445 0
-12534 -12433 0
-12534 -12445 0
12534 12433 12445 0
-12535 -12533 0
-12535 -12534 0
12535 12533 12534 0
-12536 12442 0
-12536 12535 0
12536 -12442 -12535 0
-12537 -12442 0
-12537 -12535 0
12537 12442 12535 0
-12538 -12536 0
-12538 -12537 0
12538 12536 12537 0
-12434 80 0
-12434 11281 0
12434 -80 -11281 0
-12435 -80 0
-12435 -11281 0
12435 80 11281 0
-12436 -12434 0
-12436 -12435 0
12436 12434 12435 0
-12593 126 0
-12593 12436 0
12593 -126 -12436 0
-12594 -126 0
-12594 -12436 0
12594 126 12436 0
-12595 -12593 0
-12595 -12594 0
12595 12593 12594 0
-12596 12538 0
-12596 12595 0
12596 -12538 -12595 0
-12597 -12538 0
-12597 -12595 0
12597 12538 12595 0
-12598 -12596 0
-12598 -12597 0
12598 12596 12597 0
-12599 4 0
-12599 8677 0
12599 -4 -8677 0
-12600 -4 0
-12600 -8677 0
12600 4 8677 0
-12601 -12599 0
-12601 -12600 0
12601 12599 12600 0
-12632 10 0
-12632 8114 0
12632 -10 -8114 0
-12633 -10 0
-12633 -8114 0
12633 10 8114 0
-12634 -12632 0
-12634 -12633 0
12634 12632 12633 0
-12635 12601 0
-12635 12634 0
12635 -12601 -12634 0
-12636 -12601 0
-12636 -12634 0
12636 12601 12634 0
-12637 -12635 0
-12637 -12636 0
12637 12635 12636 0
-12602 23 0
-12602 7938 0
12602 -23 -7938 0
-12603 -23 0
-12603 -7938 0
12603 23 7938 0
-12604 -12602 0
-12604 -12603 0
12604 12602 12603 0
-12617 32 0
-12617 7806 0
12617 -32 -7806 0
-12618 -32 0
-12618 -7806 0
12618 32 7806 0
-12619 -12617 0
-12619 -12618 0
12619 12617 12618 0
-12662 7872 0
-12662 12619 0
12662 -7872 -12619 0
-12663 -7872 0
-12663 -12619 0
12663 7872 12619 0
-12664 -12662 0
-12664 -12663 0
12664 12662 12663 0
-12722 12604 0
-12722 12664 0
12722 -12604 -12664 0
-12723 -12604 0
-12723 -12664 0
12723 12604 12664 0
-12724 -12722 0
-12724 -12723 0
12724 12722 12723 0
-12725 12637 0
-12725 12724 0
12725 -12637 -12724 0
-12726 -12637 0
-12726 -12724 0
12726 12637 12724 0
-12727 -12725 0
-12727 -12726 0
12727 12725 12726 0
-12713 53 0
-12713 59 0
12713 -53 -59 0
-12714 -53 0
-12714 -59 0
12714 53 59 0
-12715 -12713 0
-12715 -12714 0
12715 12713 12714 0
-12683 41 0
-12683 7662 0
12683 -41 -7662 0
-12684 -41 0
-12684 -7662 0
12684 41 7662 0
-12685 -12683 0
-12685 -12684 0
12685 12683 12684 0
-12626 44 0
-12626 7515 0
12626 -44 -7515 0
-12627 -44 0
-12627 -7515 0
12627 44 7515 0
-12628 -12626 0
-12628 -12627 0
12628 12626 12627 0
-12704 47 0
-12704 12628 0
12704 -47 -12628 0
-12705 -47 0
-12705 -12628 0
12705 47 12628 0
-12706 -12704 0
-12706 -12705 0
12706 12704 12705 0
-12728 12685 0
-12728 12706 0
12728 -12685 -12706 0
-12729 -12685 0
-12729 -12706 0
12729 12685 12706 0
-12730 -12728 0
-12730 -12729 0
12730 12728 12729 0
-12818 12715 0
-12818 12730 0
12818 -12715 -12730 0
-12819 -12715 0
-12819 -12730 0
12819 12715 12730 0
-12820 -12818 0
-12820 -12819 0
12820 12818 12819 0
-12821 12727 0
-12821 12820 0
12821 -12727 -12820 0
-12822 -12727 0
-12822 -12820 0
12822 12727 12820 0
-12823 -12821 0
-12823 -12822 0
12823 12821 12822 0
-12716 81 0
-12716 8458 0
12716 -81 -8458 0
-12717 -81 0
-12717 -8458 0
12717 81 8458 0
-12718 -12716 0
-12718 -12717 0
12718 12716 12717 0
-12887 125 0
-12887 12718 0
12887 -125 -12718 0
-12888 -125 0
-12888 -12718 0
12888 125 12718 0
-12889 -12887 0
-12889 -12888 0
12889 12887 12888 0
-12890 12823 0
-12890 12889 0
12890 -12823 -12889 0
-12891 -12823 0
-12891 -12889 0
12891 12823 12889 0
-12892 -12890 0
-12892 -12891 0
12892 12890 12891 0
-12893 3 0
-12893 10489 0
12893 -3 -10489 0
-12894 -3 0
-12894 -10489 0
12894 3 10489 0
-12895 -12893 0
-12895 -12894 0
12895 12893 12894 0
-12896 13 0
-12896 8136 0
12896 -13 -8136 0
-12897 -13 0
-12897 -8136 0
12897 13 8136 0
-12898 -12896 0
-12898 -12897 0
12898 12896 12897 0
-12917 12895 0
-12917 12898 0
12917 -12895 -12898 0
-12918 -12895 0
-12918 -12898 0
12918 12895 12898 0
-12919 -12917 0
-12919 -12918 0
12919 12917 12918 0
-12902 24 0
-12902 7982 0
12902 -24 -7982 0
-12903 -24 0
-12903 -7982 0
12903 24 7982 0
-12904 -12902 0
-12904 -12903 0
12904 12902 12903 0
-12950 30 0
-12950 12031 0
12950 -30 -12031 0
-12951 -30 0
-12951 -12031 0
12951 30 12031 0
-12952 -12950 0
-12952 -12951 0
12952 12950 12951 0
-13001 12904 0
-13001 12952 0
13001 -12904 -12952 0
-13002 -12904 0
-13002 -12952 0
13002 12904 12952 0
-13003 -13001 0
-13003 -13002 0
13003 13001 13002 0
-13004 12919 0
-13004 13003 0
13004 -12919 -13003 0
-13005 -12919 0
-13005 -13003 0
13005 12919 13003 0
-13006 -13004 0
-13006 -13005 0
13006 13004 13005 0
-12995 52 0
-12995 58 0
12995 -52 -58 0
-12996 -52 0
-12996 -58 0
12996 52 58 0
-12997 -12995 0
-12997 -12996 0
12997 12995 12996 0
-12905 35 0
-12905 7662 0
12905 -35 -7662 0
-12906 -35 0
-12906 -7662 0
12906 35 7662 0
-12907 -12905 0
-12907 -12906 0
12907 12905 12906 0
-12965 7565 0
-12965 12907 0
12965 -7565 -12907 0
-12966 -7565 0
-12966 -12907 0
12966 7565 12907 0
-12967 -12965 0
-12967 -12966 0
12967 12965 12966 0
-12986 42 0
-12986 12043 0
12986 -42 -12043 0
-12987 -42 0
-12987 -12043 0
12987 42 12043 0
-12988 -12986 0
-12988 -12987 0
12988 12986 12987 0
-13007 12967 0
-13007 12988 0
13007 -12967 -12988 0
-13008 -12967 0
-13008 -12988 0
13008 12967 12988 0
-13009 -13007 0
-13009 -13008 0
13009 13007 13008 0
-13097 12997 0
-13097 13009 0
13097 -12997 -13009 0
-13098 -12997 0
-13098 -13009 0
13098 12997 13009 0
-13099 -13097 0
-13099 -13098 0
13099 13097 13098 0
-13100 13006 0
-13100 13099 0
13100 -13006 -13099 0
-13101 -13006 0
-13101 -13099 0
13101 13006 13099 0
-13102 -13100 0
-13102 -13101 0
13102 13100 13101 0
-12998 80 0
-12998 9721 0
12998 -80 -9721 0
-12999 -80 0
-12999 -9721 0
12999 80 9721 0
-13000 -12998 0
-13000 -12999 0
13000 12998 12999 0
-13163 124 0
-13163 13000 0
13163 -124 -13000 0
-13164 -124 0
-13164 -13000 0
13164 124 13000 0
-13165 -13163 0
-13165 -13164 0
13165 13163 13164 0
-13166 13102 0
-13166 13165 0
13166 -13102 -13165 0
-13167 -13102 0
-13167 -13165 0
13167 13102 13165 0
-13168 -13166 0
-13168 -13167 0
13168 13166 13167 0
-10499 14 0
-10499 8224 0
10499 -14 -8224 0
-10500 -14 0
-10500 -8224 0
10500 14 8224 0
-10501 -10499 0
-10501 -10500 0
10501 10499 10500 0
-13169 9694 0
-13169 11251 0
13169 -9694 -11251 0
-13170 -9694 0
-13170 -11251 0
13170 9694 11251 0
-13171 -13169 0
-13171 -13170 0
13171 13169 13170 0
-13208 10501 0
-13208 13171 0
13208 -10501 -13171 0
-13209 -10501 0
-13209 -13171 0
13209 10501 13171 0
-13210 -13208 0
-13210 -13209 0
13210 13208 13209 0
-13172 19 0
-13172 21 0
13172 -19 -21 0
-13173 -19 0
-13173 -21 0
13173 19 21 0
-13174 -13172 0
-13174 -13173 0
13174 13172 13173 0
-13211 7982 0
-13211 13174 0
13211 -7982 -13174 0
-13212 -7982 0
-13212 -13174 0
13212 7982 13174 0
-13213 -13211 0
-13213 -13212 0
13213 13211 13212 0
-13247 31 0
-13247 12313 0
13247 -31 -12313 0
-13248 -31 0
-13248 -12313 0
13248 31 12313 0
-13249 -13247 0
-13249 -13248 0
13249 13247 13248 0
-13307 13213 0
-13307 13249 0
13307 -13213 -13249 0
-13308 -13213 0
-13308 -13249 0
13308 13213 13249 0
-13309 -13307 0
-13309 -13308 0
13309 13307 13308 0
-13310 13210 0
-13310 13309 0
13310 -13210 -13309 0
-13311 -13210 0
-13311 -13309 0
13311 13210 13309 0
-13312 -13310 0
-13312 -13311 0
13312 13310 13311 0
-13298 51 0
-13298 57 0
13298 -51 -57 0
-13299 -51 0
-13299 -57 0
13299 51 57 0
-13300 -13298 0
-13300 -13299 0
13300 13298 13299 0
-12329 45 0
-12329 48 0
12329 -45 -48 0
-12330 -45 0
-12330 -48 0
12330 45 48 0
-12331 -12329 0
-12331 -12330 0
12331 12329 12330 0
-13193 36 0
-13193 7712 0
13193 -36 -7712 0
-13194 -36 0
-13194 -7712 0
13194 36 7712 0
-13195 -13193 0
-13195 -13194 0
13195 13193 13194 0
-13199 39 0
-13199 7565 0
13199 -39 -7565 0
-13200 -39 0
-13200 -7565 0
13200 39 7565 0
-13201 -13199 0
-13201 -13200 0
13201 13199 13200 0
-13271 13195 0
-13271 13201 0
13271 -13195 -13201 0
-13272 -13195 0
-13272 -13201 0
13272 13195 13201 0
-13273 -13271 0
-13273 -13272 0
13273 13271 13272 0
-13313 12331 0
-13313 13273 0
13313 -12331 -13273 0
-13314 -12331 0
-13314 -13273 0
13314 12331 13273 0
-13315 -13313 0
-13315 -13314 0
13315 13313 13314 0
-13403 13300 0
-13403 13315 0
13403 -13300 -13315 0
-13404 -13300 0
-13404 -13315 0
13404 13300 13315 0
-13405 -13403 0
-13405 -13404 0
13405 13403 13404 0
-13406 13312 0
-13406 13405 0
13406 -13312 -13405 0
-13407 -13312 0
-13407 -13405 0
13407 13312 13405 0
-13408 -13406 0
-13408 -13407 0
13408 13406 13407 0
-13301 81 0
-13301 11092 0
13301 -81 -11092 0
-13302 -81 0
-13302 -11092 0
13302 81 11092 0
-13303 -13301 0
-13303 -13302 0
13303 13301 13302 0
-13463 123 0
-13463 13303 0
13463 -123 -13303 0
-13464 -123 0
-13464 -13303 0
13464 123 13303 0
-13465 -13463 0
-13465 -13464 0
13465 13463 13464 0
-13466 13408 0
-13466 13465 0
13466 -13408 -13465 0
-13467 -13408 0
-13467 -13465 0
13467 13408 13465 0
-13468 -13466 0
-13468 -13467 0
13468 13466 13467 0
-13493 22 0
-13493 12019 0
13493 -22 -12019 0
-13494 -22 0
-13494 -12019 0
13494 22 12019 0
-13495 -13493 0
-13495 -13494 0
13495 13493 13494 0
-13520 7872 0
-13520 10906 0
13520 -7872 -10906 0
-13521 -7872 0
-13521 -10906 0
13521 7872 10906 0
-13522 -13520 0
-13522 -13521 0
13522 13520 13521 0
-13571 13495 0
-13571 13522 0
13571 -13495 -13522 0
-13572 -13495 0
-13572 -13522 0
13572 13495 13522 0
-13573 -13571 0
-13573 -13572 0
13573 13571 13572 0
-13574 8400 0
-13574 13573 0
13574 -8400 -13573 0
-13575 -8400 0
-13575 -13573 0
13575 8400 13573 0
-13576 -13574 0
-13576 -13575 0
13576 13574 13575 0
-13568 50 0
-13568 56 0
13568 -50 -56 0
-13569 -50 0
-13569 -56 0
13569 50 56 0
-13570 -13568 0
-13570 -13569 0
13570 13568 13569 0
-12629 44 0
-12629 47 0
12629 -44 -47 0
-12630 -44 0
-12630 -47 0
12630 44 47 0
-12631 -12629 0
-12631 -12630 0
12631 12629 12630 0
-13487 40 0
-13487 7465 0
13487 -40 -7465 0
-13488 -40 0
-13488 -7465 0
13488 40 7465 0
-13489 -13487 0
-13489 -13488 0
13489 13487 13488 0
-13544 7712 0
-13544 13489 0
13544 -7712 -13489 0
-13545 -7712 0
-13545 -13489 0
13545 7712 13489 0
-13546 -13544 0
-13546 -13545 0
13546 13544 13545 0
-13577 12631 0
-13577 13546 0
13577 -12631 -13546 0
-13578 -12631 0
-13578 -13546 0
13578 12631 13546 0
-13579 -13577 0
-13579 -13578 0
13579 13577 13578 0
-13655 13570 0
-13655 13579 0
13655 -13570 -13579 0
-13656 -13570 0
-13656 -13579 0
13656 13570 13579 0
-13657 -13655 0
-13657 -13656 0
13657 13655 13656 0
-13658 13576 0
-13658 13657 0
13658 -13576 -13657 0
-13659 -13576 0
-13659 -13657 0
13659 13576 13657 0
-13660 -13658 0
-13660 -13659 0
13660 13658 13659 0
-13691 122 0
-13691 8403 0
13691 -122 -8403 0
-13692 -122 0
-13692 -8403 0
13692 122 8403 0
-13693 -13691 0
-13693 -13692 0
13693 13691 13692 0
-13694 13660 0
-13694 13693 0
13694 -13660 -13693 0
-13695 -13660 0
-13695 -13693 0
13695 13660 13693 0
-13696 -13694 0
-13696 -13695 0
13696 13694 13695 0
-13697 8290 0
-13697 10675 0
13697 -8290 -10675 0
-13698 -8290 0
-13698 -10675 0
13698 8290 10675 0
-13699 -13697 0
-13699 -13698 0
13699 13697 13698 0
-13718 14 0
-13718 11434 0
13718 -14 -11434 0
-13719 -14 0
-13719 -11434 0
13719 14 11434 0
-13720 -13718 0
-13720 -13719 0
13720 13718 13719 0
-13721 13699 0
-13721 13720 0
13721 -13699 -13720 0
-13722 -13699 0
-13722 -13720 0
13722 13699 13720 0
-13723 -13721 0
-13723 -13722 0
13723 13721 13722 0
-13700 19 0
-13700 7894 0
13700 -19 -7894 0
-13701 -19 0
-13701 -7894 0
13701 19 7894 0
-13702 -13700 0
-13702 -13701 0
13702 13700 13701 0
-13724 7960 0
-13724 13702 0
13724 -7960 -13702 0
-13725 -7960 0
-13725 -13702 0
13725 7960 13702 0
-13726 -13724 0
-13726 -13725 0
13726 13724 13725 0
-13712 28 0
-13712 7762 0
13712 -28 -7762 0
-13713 -28 0
-13713 -7762 0
13713 28 7762 0
-13714 -13712 0
-13714 -13713 0
13714 13712 13713 0
-13763 7615 0
-13763 13714 0
13763 -7615 -13714 0
-13764 -7615 0
-13764 -13714 0
13764 7615 13714 0
-13765 -13763 0
-13765 -13764 0
13765 13763 13764 0
-13790 13726 0
-13790 13765 0
13790 -13726 -13765 0
-13791 -13726 0
-13791 -13765 0
13791 13726 13765 0
-13792 -13790 0
-13792 -13791 0
13792 13790 13791 0
-13793 13723 0
-13793 13792 0
13793 -13723 -13792 0
-13794 -13723 0
-13794 -13792 0
13794 13723 13792 0
-13795 -13793 0
-13795 -13794 0
13795 13793 13794 0
-9443 37 0
-9443 40 0
9443 -37 -40 0
-9444 -37 0
-9444 -40 0
9444 37 40 0
-9445 -9443 0
-9445 -9444 0
9445 9443 9444 0
-13784 43 0
-13784 49 0
13784 -43 -49 0
-13785 -43 0
-13785 -49 0
13785 43 49 0
-13786 -13784 0
-13786 -13785 0
13786 13784 13785 0
-13796 9445 0
-13796 13786 0
13796 -9445 -13786 0
-13797 -9445 0
-13797 -13786 0
13797 9445 13786 0
-13798 -13796 0
-13798 -13797 0
13798 13796 13797 0
-13859 55 0
-13859 13798 0
13859 -55 -13798 0
-13860 -55 0
-13860 -13798 0
13860 55 13798 0
-13861 -13859 0
-13861 -13860 0
13861 13859 13860 0
-13862 13795 0
-13862 13861 0
13862 -13795 -13861 0
-13863 -13795 0
-13863 -13861 0
13863 13795 13861 0
-13864 -13862 0
-13864 -13863 0
13864 13862 13863 0
-11276 74 0
-11276 76 0
11276 -74 -76 0
-11277 -74 0
-11277 -76 0
11277 74 76 0
-11278 -11276 0
-11278 -11277 0
11278 11276 11277 0
-13787 81 0
-13787 11278 0
13787 -81 -11278 0
-13788 -81 0
-13788 -11278 0
13788 81 11278 0
-13789 -13787 0
-13789 -13788 0
13789 13787 13788 0
-13889 121 0
-13889 13789 0
13889 -121 -13789 0
-13890 -121 0
-13890 -13789 0
13890 121 13789 0
-13891 -13889 0
-13891 -13890 0
13891 13889 13890 0
-13892 13864 0
-13892 13891 0
13892 -13864 -13891 0
-13893 -13864 0
-13893 -13891 0
13893 13864 13891 0
-13894 -13892 0
-13894 -13893 0
13894 13892 13893 0
-13895 4 0
-13895 10489 0
13895 -4 -10489 0
-13896 -4 0
-13896 -10489 0
13896 4 10489 0
-13897 -13895 0
-13897 -13896 0
13897 13895 13896 0
-13922 12 0
-13922 13897 0
13922 -12 -13897 0
-13923 -12 0
-13923 -13897 0
13923 12 13897 0
-13924 -13922 0
-13924 -13923 0
13924 13922 13923 0
-13898 20 0
-13898 8070 0
13898 -20 -8070 0
-13899 -20 0
-13899 -8070 0
13899 20 8070 0
-13900 -13898 0
-13900 -13899 0
13900 13898 13899 0
-13907 25 0
-13907 7982 0
13907 -25 -7982 0
-13908 -25 0
-13908 -7982 0
13908 25 7982 0
-13909 -13907 0
-13909 -13908 0
13909 13907 13908 0
-13925 13900 0
-13925 13909 0
13925 -13900 -13909 0
-13926 -13900 0
-13926 -13909 0
13926 13900 13909 0
-13927 -13925 0
-13927 -13926 0
13927 13925 13926 0
-13964 7762 0
-13964 11254 0
13964 -7762 -11254 0
-13965 -7762 0
-13965 -11254 0
13965 7762 11254 0
-13966 -13964 0
-13966 -13965 0
13966 13964 13965 0
-14000 13927 0
-14000 13966 0
14000 -13927 -13966 0
-14001 -13927 0
-14001 -13966 0
14001 13927 13966 0
-14002 -14000 0
-14002 -14001 0
14002 14000 14001 0
-14003 13924 0
-14003 14002 0
14003 -13924 -14002 0
-14004 -13924 0
-14004 -14002 0
14004 13924 14002 0
-14005 -14003 0
-14005 -14004 0
14005 14003 14004 0
-9704 39 0
-9704 7662 0
9704 -39 -7662 0
-9705 -39 0
-9705 -7662 0
9705 39 7662 0
-9706 -9704 0
-9706 -9705 0
9706 9704 9705 0
-13988 42 0
-13988 48 0
13988 -42 -48 0
-13989 -42 0
-13989 -48 0
13989 42 48 0
-13990 -13988 0
-13990 -13989 0
13990 13988 13989 0
-14006 9706 0
-14006 13990 0
14006 -9706 -13990 0
-14007 -9706 0
-14007 -13990 0
14007 9706 13990 0
-14008 -14006 0
-14008 -14007 0
14008 14006 14007 0
-14081 54 0
-14081 14008 0
14081 -54 -14008 0
-14082 -54 0
-14082 -14008 0
14082 54 14008 0
-14083 -14081 0
-14083 -14082 0
14083 14081 14082 0
-14084 14005 0
-14084 14083 0
14084 -14005 -14083 0
-14085 -14005 0
-14085 -14083 0
14085 14005 14083 0
-14086 -14084 0
-14086 -14085 0
14086 14084 14085 0
-13919 8425 0
-13919 9691 0
13919 -8425 -9691 0
-13920 -8425 0
-13920 -9691 0
13920 8425 9691 0
-13921 -13919 0
-13921 -13920 0
13921 13919 13920 0
-13997 80 0
-13997 13921 0
13997 -80 -13921 0
-13998 -80 0
-13998 -13921 0
13998 80 13921 0
-13999 -13997 0
-13999 -13998 0
13999 13997 13998 0
-14126 120 0
-14126 13999 0
14126 -120 -13999 0
-14127 -120 0
-14127 -13999 0
14127 120 13999 0
-14128 -14126 0
-14128 -14127 0
14128 14126 14127 0
-14129 14086 0
-14129 14128 0
14129 -14086 -14128 0
-14130 -14086 0
-14130 -14128 0
14130 14086 14128 0
-14131 -14129 0
-14131 -14130 0
14131 14129 14130 0
-14132 4 0
-14132 9694 0
14132 -4 -9694 0
-14133 -4 0
-14133 -9694 0
14133 4 9694 0
-14134 -14132 0
-14134 -14133 0
14134 14132 14133 0
-14156 9214 0
-14156 14134 0
14156 -9214 -14134 0
-14157 -9214 0
-14157 -14134 0
14157 9214 14134 0
-14158 -14156 0
-14158 -14157 0
14158 14156 14157 0
-14138 21 0
-14138 8070 0
14138 -21 -8070 0
-14139 -21 0
-14139 -8070 0
14139 21 8070 0
-14140 -14138 0
-14140 -14139 0
14140 14138 14139 0
-14144 22 0
-14144 7938 0
14144 -22 -7938 0
-14145 -22 0
-14145 -7938 0
14145 22 7938 0
-14146 -14144 0
-14146 -14145 0
14146 14144 14145 0
-14159 14140 0
-14159 14146 0
14159 -14140 -14146 0
-14160 -14140 0
-14160 -14146 0
14160 14140 14146 0
-14161 -14159 0
-14161 -14160 0
14161 14159 14160 0
-14201 26 0
-14201 7806 0
14201 -26 -7806 0
-14202 -26 0
-14202 -7806 0
14202 26 7806 0
-14203 -14201 0
-14203 -14202 0
14203 14201 14202 0
-14240 14161 0
-14240 14203 0
14240 -14161 -14203 0
-14241 -14161 0
-14241 -14203 0
14241 14161 14203 0
-14242 -14240 0
-14242 -14241 0
14242 14240 14241 0
-14243 14158 0
-14243 14242 0
14243 -14158 -14242 0
-14244 -14158 0
-14244 -14242 0
14244 14158 14242 0
-14245 -14243 0
-14245 -14244 0
14245 14243 14244 0
-14153 38 0
-14153 41 0
14153 -38 -41 0
-14154 -38 0
-14154 -41 0
14154 38 41 0
-14155 -14153 0
-14155 -14154 0
14155 14153 14154 0
-14219 12907 0
-14219 14155 0
14219 -12907 -14155 0
-14220 -12907 0
-14220 -14155 0
14220 12907 14155 0
-14221 -14219 0
-14221 -14220 0
14221 14219 14220 0
-14246 47 0
-14246 14221 0
14246 -47 -14221 0
-14247 -47 0
-14247 -14221 0
14247 47 14221 0
-14248 -14246 0
-14248 -14247 0
14248 14246 14247 0
-14327 53 0
-14327 14248 0
14327 -53 -14248 0
-14328 -53 0
-14328 -14248 0
14328 53 14248 0
-14329 -14327 0
-14329 -14328 0
14329 14327 14328 0
-14330 14245 0
-14330 14329 0
14330 -14245 -14329 0
-14331 -14245 0
-14331 -14329 0
14331 14245 14329 0
-14332 -14330 0
-14332 -14331 0
14332 14330 14331 0
-14237 81 0
-14237 13921 0
14237 -81 -13921 0
-14238 -81 0
-14238 -13921 0
14238 81 13921 0
-14239 -14237 0
-14239 -14238 0
14239 14237 14238 0
-14375 119 0
-14375 14239 0
14375 -119 -14239 0
-14376 -119 0
-14376 -14239 0
14376 119 14239 0
-14377 -14375 0
-14377 -14376 0
14377 14375 14376 0
-14378 14332 0
-14378 14377 0
14378 -14332 -14377 0
-14379 -14332 0
-14379 -14377 0
14379 14332 14377 0
-14380 -14378 0
-14380 -14379 0
14380 14378 14379 0
-14381 7 0
-14381 11251 0
14381 -7 -11251 0
-14382 -7 0
-14382 -11251 0
14382 7 11251 0
-14383 -14381 0
-14383 -14382 0
14383 14381 14382 0
-14393 8246 0
-14393 9442 0
14393 -8246 -9442 0
-14394 -8246 0
-14394 -9442 0
14394 8246 9442 0
-14395 -14393 0
-14395 -14394 0
14395 14393 14394 0
-14396 14383 0
-14396 14395 0
14396 -14383 -14395 0
-14397 -14383 0
-14397 -14395 0
14397 14383 14395 0
-14398 -14396 0
-14398 -14397 0
14398 14396 14397 0
-14387 29 0
-14387 7806 0
14387 -29 -7806 0
-14388 -29 0
-14388 -7806 0
14388 29 7806 0
-14389 -14387 0
-14389 -14388 0
14389 14387 14388 0
-14384 18 0
-14384 7894 0
14384 -18 -7894 0
-14385 -18 0
-14385 -7894 0
14385 18 7894 0
-14386 -14384 0
-14386 -14385 0
14386 14384 14385 0
-14399 7960 0
-14399 14386 0
14399 -7960 -14386 0
-14400 -7960 0
-14400 -14386 0
14400 7960 14386 0
-14401 -14399 0
-14401 -14400 0
14401 14399 14400 0
-14474 14389 0
-14474 14401 0
14474 -14389 -14401 0
-14475 -14389 0
-14475 -14401 0
14475 14389 14401 0
-14476 -14474 0
-14476 -14475 0
14476 14474 14475 0
-14477 14398 0
-14477 14476 0
14477 -14398 -14476 0
-14478 -14398 0
-14478 -14476 0
14478 14398 14476 0
-14479 -14477 0
-14479 -14478 0
14479 14477 14478 0
-10700 43 0
-10700 46 0
10700 -43 -46 0
-10701 -43 0
-10701 -46 0
10701 43 46 0
-10702 -10700 0
-10702 -10701 0
10702 10700 10701 0
-14450 40 0
-14450 13195 0
14450 -40 -13195 0
-14451 -40 0
-14451 -13195 0
14451 40 13195 0
-14452 -14450 0
-14452 -14451 0
14452 14450 14451 0
-14480 10702 0
-14480 14452 0
14480 -10702 -14452 0
-14481 -10702 0
-14481 -14452 0
14481 10702 14452 0
-14482 -14480 0
-14482 -14481 0
14482 14480 14481 0
-14546 52 0
-14546 14482 0
14546 -52 -14482 0
-14547 -52 0
-14547 -14482 0
14547 52 14482 0
-14548 -14546 0
-14548 -14547 0
14548 14546 14547 0
-14549 14479 0
-14549 14548 0
14549 -14479 -14548 0
-14550 -14479 0
-14550 -14548 0
14550 14479 14548 0
-14551 -14549 0
-14551 -14550 0
14551 14549 14550 0
-11093 75 0
-11093 77 0
11093 -75 -77 0
-11094 -75 0
-11094 -77 0
11094 75 77 0
-11095 -11093 0
-11095 -11094 0
11095 11093 11094 0
-14471 80 0
-14471 11095 0
14471 -80 -11095 0
-14472 -80 0
-14472 -11095 0
14472 80 11095 0
-14473 -14471 0
-14473 -14472 0
14473 14471 14472 0
-14573 118 0
-14573 14473 0
14573 -118 -14473 0
-14574 -118 0
-14574 -14473 0
14574 118 14473 0
-14575 -14573 0
-14575 -14574 0
14575 14573 14574 0
-14576 14551 0
-14576 14575 0
14576 -14551 -14575 0
-14577 -14551 0
-14577 -14575 0
14577 14551 14575 0
-14578 -14576 0
-14578 -14577 0
14578 14576 14577 0
-14600 13 0
-14600 8114 0
14600 -13 -8114 0
-14601 -13 0
-14601 -8114 0
14601 13 8114 0
-14602 -14600 0
-14602 -14601 0
14602 14600 14601 0
-14603 8 0
-14603 14602 0
14603 -8 -14602 0
-14604 -8 0
-14604 -14602 0
14604 8 14602 0
-14605 -14603 0
-14605 -14604 0
14605 14603 14604 0
-14606 20 0
-14606 13909 0
14606 -20 -13909 0
-14607 -20 0
-14607 -13909 0
14607 20 13909 0
-14608 -14606 0
-14608 -14607 0
14608 14606 14607 0
-14594 30 0
-14594 33 0
14594 -30 -33 0
-14595 -30 0
-14595 -33 0
14595 30 33 0
-14596 -14594 0
-14596 -14595 0
14596 14594 14595 0
-14645 7850 0
-14645 14596 0
14645 -7850 -14596 0
-14646 -7850 0
-14646 -14596 0
14646 7850 14596 0
-14647 -14645 0
-14647 -14646 0
14647 14645 14646 0
-14681 14608 0
-14681 14647 0
14681 -14608 -14647 0
-14682 -14608 0
-14682 -14647 0
14682 14608 14647 0
-14683 -14681 0
-14683 -14682 0
14683 14681 14682 0
-14684 14605 0
-14684 14683 0
14684 -14605 -14683 0
-14685 -14605 0
-14685 -14683 0
14685 14605 14683 0
-14686 -14684 0
-14686 -14685 0
14686 14684 14685 0
-14597 42 0
-14597 45 0
14597 -42 -45 0
-14598 -42 0
-14598 -45 0
14598 42 45 0
-14599 -14597 0
-14599 -14598 0
14599 14597 14598 0
-14666 39 0
-14666 7712 0
14666 -39 -7712 0
-14667 -39 0
-14667 -7712 0
14667 39 7712 0
-14668 -14666 0
-14668 -14667 0
14668 14666 14667 0
-14687 14599 0
-14687 14668 0
14687 -14599 -14668 0
-14688 -14599 0
-14688 -14668 0
14688 14599 14668 0
-14689 -14687 0
-14689 -14688 0
14689 14687 14688 0
-14750 51 0
-14750 14689 0
14750 -51 -14689 0
-14751 -51 0
-14751 -14689 0
14751 51 14689 0
-14752 -14750 0
-14752 -14751 0
14752 14750 14751 0
-14753 14686 0
-14753 14752 0
14753 -14686 -14752 0
-14754 -14686 0
-14754 -14752 0
14754 14686 14752 0
-14755 -14753 0
-14755 -14754 0
14755 14753 14754 0
-14762 81 0
-14762 117 0
14762 -81 -117 0
-14763 -81 0
-14763 -117 0
14763 81 117 0
-14764 -14762 0
-14764 -14763 0
14764 14762 14763 0
-14765 14755 0
-14765 14764 0
14765 -14755 -14764 0
-14766 -14755 0
-14766 -14764 0
14766 14755 14764 0
-14767 -14765 0
-14767 -14766 0
14767 14765 14766 0
-14774 8136 0
-14774 8202 0
14774 -8136 -8202 0
-14775 -8136 0
-14775 -8202 0
14775 8136 8202 0
-14776 -14774 0
-14776 -14775 0
14776 14774 14775 0
-14777 21 0
-14777 14146 0
14777 -21 -14146 0
-14778 -21 0
-14778 -14146 0
14778 21 14146 0
-14779 -14777 0
-14779 -14778 0
14779 14777 14778 0
-14768 27 0
-14768 7850 0
14768 -27 -7850 0
-14769 -27 0
-14769 -7850 0
14769 27 7850 0
-14770 -14768 0
-14770 -14769 0
14770 14768 14769 0
-14810 7615 0
-14810 14770 0
14810 -7615 -14770 0
-14811 -7615 0
-14811 -14770 0
14811 7615 14770 0
-14812 -14810 0
-14812 -14811 0
14812 14810 14811 0
-14840 14779 0
-14840 14812 0
14840 -14779 -14812 0
-14841 -14779 0
-14841 -14812 0
14841 14779 14812 0
-14842 -14840 0
-14842 -14841 0
14842 14840 14841 0
-14843 14776 0
-14843 14842 0
14843 -14776 -14842 0
-14844 -14776 0
-14844 -14842 0
14844 14776 14842 0
-14845 -14843 0
-14845 -14844 0
14845 14843 14844 0
-14828 34 0
-14828 14155 0
14828 -34 -14155 0
-14829 -34 0
-14829 -14155 0
14829 34 14155 0
-14830 -14828 0
-14830 -14829 0
14830 14828 14829 0
-14846 44 0
-14846 14830 0
14846 -44 -14830 0
-14847 -44 0
-14847 -14830 0
14847 44 14830 0
-14848 -14846 0
-14848 -14847 0
14848 14846 14847 0
-14906 50 0
-14906 14848 0
14906 -50 -14848 0
-14907 -50 0
-14907 -14848 0
14907 50 14848 0
-14908 -14906 0
-14908 -14907 0
14908 14906 14907 0
-14909 14845 0
-14909 14908 0
14909 -14845 -14908 0
-14910 -14845 0
-14910 -14908 0
14910 14845 14908 0
-14911 -14909 0
-14911 -14910 0
14911 14909 14910 0
-14915 80 0
-14915 116 0
14915 -80 -116 0
-14916 -80 0
-14916 -116 0
14916 80 116 0
-14917 -14915 0
-14917 -14916 0
14917 14915 14916 0
-14918 14911 0
-14918 14917 0
14918 -14911 -14917 0
-14919 -14911 0
-14919 -14917 0
14919 14911 14917 0
-14920 -14918 0
-14920 -14919 0
14920 14918 14919 0
-14921 17 0
-14921 8026 0
14921 -17 -8026 0
-14922 -17 0
-14922 -8026 0
14922 17 8026 0
-14923 -14921 0
-14923 -14922 0
14923 14921 14922 0
-14930 8698 0
-14930 14923 0
14930 -8698 -14923 0
-14931 -8698 0
-14931 -14923 0
14931 8698 14923 0
-14932 -14930 0
-14932 -14931 0
14932 14930 14931 0
-14933 12280 0
-14933 14932 0
14933 -12280 -14932 0
-14934 -12280 0
-14934 -14932 0
14934 12280 14932 0
-14935 -14933 0
-14935 -14934 0
14935 14933 14934 0
-14936 22 0
-14936 14386 0
14936 -22 -14386 0
-14937 -22 0
-14937 -14386 0
14937 22 14386 0
-14938 -14936 0
-14938 -14937 0
14938 14936 14937 0
-14972 31 0
-14972 7762 0
14972 -31 -7762 0
-14973 -31 0
-14973 -7762 0
14973 31 7762 0
-14974 -14972 0
-14974 -14973 0
14974 14972 14973 0
-14990 14938 0
-14990 14974 0
14990 -14938 -14974 0
-14991 -14938 0
-14991 -14974 0
14991 14938 14974 0
-14992 -14990 0
-14992 -14991 0
14992 14990 14991 0
-14993 14935 0
-14993 14992 0
14993 -14935 -14992 0
-14994 -14935 0
-14994 -14992 0
14994 14935 14992 0
-14995 -14993 0
-14995 -14994 0
14995 14993 14994 0
-14927 34 0
-14927 37 0
14927 -34 -37 0
-14928 -34 0
-14928 -37 0
14928 34 37 0
-14929 -14927 0
-14929 -14928 0
14929 14927 14928 0
-14996 13786 0
-14996 14929 0
14996 -13786 -14929 0
-14997 -13786 0
-14997 -14929 0
14997 13786 14929 0
-14998 -14996 0
-14998 -14997 0
14998 14996 14997 0
-15038 14995 0
-15038 14998 0
15038 -14995 -14998 0
-15039 -14995 0
-15039 -14998 0
15039 14995 14998 0
-15040 -15038 0
-15040 -15039 0
15040 15038 15039 0
-15050 115 0
-15050 11281 0
15050 -115 -11281 0
-15051 -115 0
-15051 -11281 0
15051 115 11281 0
-15052 -15050 0
-15052 -15051 0
15052 15050 15051 0
-15053 15040 0
-15053 15052 0
15053 -15040 -15052 0
-15054 -15040 0
-15054 -15052 0
15054 15040 15052 0
-15055 -15053 0
-15055 -15054 0
15055 15053 15054 0
-15056 10489 0
-15056 11251 0
15056 -10489 -11251 0
-15057 -10489 0
-15057 -11251 0
15057 10489 11251 0
-15058 -15056 0
-15058 -15057 0
15058 15056 15057 0
-15059 11 0
-15059 8202 0
15059 -11 -8202 0
-15060 -11 0
-15060 -8202 0
15060 11 8202 0
-15061 -15059 0
-15061 -15060 0
15061 15059 15060 0
-15074 9442 0
-15074 15061 0
15074 -9442 -15061 0
-15075 -9442 0
-15075 -15061 0
15075 9442 15061 0
-15076 -15074 0
-15076 -15075 0
15076 15074 15075 0
-15077 15058 0
-15077 15076 0
15077 -15058 -15076 0
-15078 -15058 0
-15078 -15076 0
15078 15058 15076 0
-15079 -15077 0
-15079 -15078 0
15079 15077 15078 0
-15080 25 0
-15080 13702 0
15080 -25 -13702 0
-15081 -25 0
-15081 -13702 0
15081 25 13702 0
-15082 -15080 0
-15082 -15081 0
15082 15080 15081 0
-15113 26 0
-15113 10906 0
15113 -26 -10906 0
-15114 -26 0
-15114 -10906 0
15114 26 10906 0
-15115 -15113 0
-15115 -15114 0
15115 15113 15114 0
-15131 15082 0
-15131 15115 0
15131 -15082 -15115 0
-15132 -15082 0
-15132 -15115 0
15132 15082 15115 0
-15133 -15131 0
-15133 -15132 0
15133 15131 15132 0
-15134 15079 0
-15134 15133 0
15134 -15079 -15133 0
-15135 -15079 0
-15135 -15133 0
15135 15079 15133 0
-15136 -15134 0
-15136 -15135 0
15136 15134 15135 0
-15137 36 0
-15137 13990 0
15137 -36 -13990 0
-15138 -36 0
-15138 -13990 0
15138 36 13990 0
-15139 -15137 0
-15139 -15138 0
15139 15137 15138 0
-15185 15136 0
-15185 15139 0
15185 -15136 -15139 0
-15186 -15136 0
-15186 -15139 0
15186 15136 15139 0
-15187 -15185 0
-15187 -15186 0
15187 15185 15186 0
-15200 114 0
-15200 11092 0
15200 -114 -11092 0
-15201 -114 0
-15201 -11092 0
15201 114 11092 0
-15202 -15200 0
-15202 -15201 0
15202 15200 15201 0
-15203 15187 0
-15203 15202 0
15203 -15187 -15202 0
-15204 -15187 0
-15204 -15202 0
15204 15187 15202 0
-15205 -15203 0
-15205 -15204 0
15205 15203 15204 0
-15218 8400 0
-15218 14776 0
15218 -8400 -14776 0
-15219 -8400 0
-15219 -14776 0
15219 8400 14776 0
-15220 -15218 0
-15220 -15219 0
15220 15218 15219 0
-15221 7938 0
-15221 13900 0
15221 -7938 -13900 0
-15222 -7938 0
-15222 -13900 0
15222 7938 13900 0
-15223 -15221 0
-15223 -15222 0
15223 15221 15222 0
-15263 29 0
-15263 12619 0
15263 -29 -12619 0
-15264 -29 0
-15264 -12619 0
15264 29 12619 0
-15265 -15263 0
-15265 -15264 0
15265 15263 15264 0
-15281 15223 0
-15281 15265 0
15281 -15223 -15265 0
-15282 -15223 0
-15282 -15265 0
15282 15223 15265 0
-15283 -15281 0
-15283 -15282 0
15283 15281 15282 0
-15284 15220 0
-15284 15283 0
15284 -15220 -15283 0
-15285 -15220 0
-15285 -15283 0
15285 15220 15283 0
-15286 -15284 0
-15286 -15285 0
15286 15284 15285 0
-15278 35 0
-15278 41 0
15278 -35 -41 0
-15279 -35 0
-15279 -41 0
15279 35 41 0
-15280 -15278 0
-15280 -15279 0
15280 15278 15279 0
-15287 47 0
-15287 15280 0
15287 -47 -15280 0
-15288 -47 0
-15288 -15280 0
15288 47 15280 0
-15289 -15287 0
-15289 -15288 0
15289 15287 15288 0
-15335 15286 0
-15335 15289 0
15335 -15286 -15289 0
-15336 -15286 0
-15336 -15289 0
15336 15286 15289 0
-15337 -15335 0
-15337 -15336 0
15337 15335 15336 0
-15341 77 0
-15341 113 0
15341 -77 -113 0
-15342 -77 0
-15342 -113 0
15342 77 113 0
-15343 -15341 0
-15343 -15342 0
15343 15341 15342 0
-15344 15337 0
-15344 15343 0
15344 -15337 -15343 0
-15345 -15337 0
-15345 -15343 0
15345 15337 15343 0
-15346 -15344 0
-15346 -15345 0
15346 15344 15345 0
-15347 8224 0
-15347 14923 0
15347 -8224 -14923 0
-15348 -8224 0
-15348 -14923 0
15348 8224 14923 0
-15349 -15347 0
-15349 -15348 0
15349 15347 15348 0
-15350 8290 0
-15350 15349 0
15350 -8290 -15349 0
-15351 -8290 0
-15351 -15349 0
15351 8290 15349 0
-15352 -15350 0
-15352 -15351 0
15352 15350 15351 0
-14591 30 0
-14591 7850 0
14591 -30 -7850 0
-14592 -30 0
-14592 -7850 0
14592 30 7850 0
-14593 -14591 0
-14593 -14592 0
14593 14591 14592 0
-15353 18 0
-15353 12604 0
15353 -18 -12604 0
-15354 -18 0
-15354 -12604 0
15354 18 12604 0
-15355 -15353 0
-15355 -15354 0
15355 15353 15354 0
-15401 14593 0
-15401 15355 0
15401 -14593 -15355 0
-15402 -14593 0
-15402 -15355 0
15402 14593 15355 0
-15403 -15401 0
-15403 -15402 0
15403 15401 15402 0
-15404 15352 0
-15404 15403 0
15404 -15352 -15403 0
-15405 -15352 0
-15405 -15403 0
15405 15352 15403 0
-15406 -15404 0
-15406 -15405 0
15406 15404 15405 0
-15395 40 0
-15395 14929 0
15395 -40 -14929 0
-15396 -40 0
-15396 -14929 0
15396 40 14929 0
-15397 -15395 0
-15397 -15396 0
15397 15395 15396 0
-15407 46 0
-15407 15397 0
15407 -46 -15397 0
-15408 -46 0
-15408 -15397 0
15408 46 15397 0
-15409 -15407 0
-15409 -15408 0
15409 15407 15408 0
-15455 15406 0
-15455 15409 0
15455 -15406 -15409 0
-15456 -15406 0
-15456 -15409 0
15456 15406 15409 0
-15457 -15455 0
-15457 -15456 0
15457 15455 15456 0
-15461 76 0
-15461 112 0
15461 -76 -112 0
-15462 -76 0
-15462 -112 0
15462 76 112 0
-15463 -15461 0
-15463 -15462 0
15463 15461 15462 0
-15464 15457 0
-15464 15463 0
15464 -15457 -15463 0
-15465 -15457 0
-15465 -15463 0
15465 15457 15463 0
-15466 -15464 0
-15466 -15465 0
15466 15464 15465 0
-15476 8312 0
-15476 14395 0
15476 -8312 -14395 0
-15477 -8312 0
-15477 -14395 0
15477 8312 14395 0
-15478 -15476 0
-15478 -15477 0
15478 15476 15477 0
-15479 19 0
-15479 12904 0
15479 -19 -12904 0
-15480 -19 0
-15480 -12904 0
15480 19 12904 0
-15481 -15479 0
-15481 -15480 0
15481 15479 15480 0
-15521 33 0
-15521 14770 0
15521 -33 -14770 0
-15522 -33 0
-15522 -14770 0
15522 33 14770 0
-15523 -15521 0
-15523 -15522 0
15523 15521 15522 0
-15542 15481 0
-15542 15523 0
15542 -15481 -15523 0
-15543 -15481 0
-15543 -15523 0
15543 15481 15523 0
-15544 -15542 0
-15544 -15543 0
15544 15542 15543 0
-15545 15478 0
-15545 15544 0
15545 -15478 -15544 0
-15546 -15478 0
-15546 -15544 0
15546 15478 15544 0
-15547 -15545 0
-15547 -15546 0
15547 15545 15546 0
-13196 36 0
-13196 39 0
13196 -36 -39 0
-13197 -36 0
-13197 -39 0
13197 36 39 0
-13198 -13196 0
-13198 -13197 0
13198 13196 13197 0
-15548 45 0
-15548 13198 0
15548 -45 -13198 0
-15549 -45 0
-15549 -13198 0
15549 45 13198 0
-15550 -15548 0
-15550 -15549 0
15550 15548 15549 0
-15593 15547 0
-15593 15550 0
15593 -15547 -15550 0
-15594 -15547 0
-15594 -15550 0
15594 15547 15550 0
-15595 -15593 0
-15595 -15594 0
15595 15593 15594 0
-15599 75 0
-15599 111 0
15599 -75 -111 0
-15600 -75 0
-15600 -111 0
15600 75 111 0
-15601 -15599 0
-15601 -15600 0
15601 15599 15600 0
-15602 15595 0
-15602 15601 0
15602 -15595 -15601 0
-15603 -15595 0
-15603 -15601 0
15603 15595 15601 0
-15604 -15602 0
-15604 -15603 0
15604 15602 15603 0
-15605 10 0
-15605 8136 0
15605 -10 -8136 0
-15606 -10 0
-15606 -8136 0
15606 10 8136 0
-15607 -15605 0
-15607 -15606 0
15607 15605 15606 0
-15608 8953 0
-15608 15607 0
15608 -8953 -15607 0
-15609 -8953 0
-15609 -15607 0
15609 8953 15607 0
-15610 -15608 0
-15610 -15609 0
15610 15608 15609 0
-15611 7982 0
-15611 14140 0
15611 -7982 -14140 0
-15612 -7982 0
-15612 -14140 0
15612 7982 14140 0
-15613 -15611 0
-15613 -15612 0
15613 15611 15612 0
-15644 32 0
-15644 13714 0
15644 -32 -13714 0
-15645 -32 0
-15645 -13714 0
15645 32 13714 0
-15646 -15644 0
-15646 -15645 0
15646 15644 15645 0
-15662 15613 0
-15662 15646 0
15662 -15613 -15646 0
-15663 -15613 0
-15663 -15646 0
15663 15613 15646 0
-15664 -15662 0
-15664 -15663 0
15664 15662 15663 0
-15665 15610 0
-15665 15664 0
15665 -15610 -15664 0
-15666 -15610 0
-15666 -15664 0
15666 15610 15664 0
-15667 -15665 0
-15667 -15666 0
15667 15665 15666 0
-8714 35 0
-8714 38 0
8714 -35 -38 0
-8715 -35 0
-8715 -38 0
8715 35 38 0
-8716 -8714 0
-8716 -8715 0
8716 8714 8715 0
-15668 44 0
-15668 8716 0
15668 -44 -8716 0
-15669 -44 0
-15669 -8716 0
15669 44 8716 0
-15670 -15668 0
-15670 -15669 0
15670 15668 15669 0
-15710 15667 0
-15710 15670 0
15710 -15667 -15670 0
-15711 -15667 0
-15711 -15670 0
15711 15667 15670 0
-15712 -15710 0
-15712 -15711 0
15712 15710 15711 0
-15716 74 0
-15716 110 0
15716 -74 -110 0
-15717 -74 0
-15717 -110 0
15717 74 110 0
-15718 -15716 0
-15718 -15717 0
15718 15716 15717 0
-15719 15712 0
-15719 15718 0
15719 -15712 -15718 0
-15720 -15712 0
-15720 -15718 0
15720 15712 15718 0
-15721 -15719 0
-15721 -15720 0
15721 15719 15720 0
-14984 37 0
-14984 43 0
14984 -37 -43 0
-14985 -37 0
-14985 -43 0
14985 37 43 0
-14986 -14984 0
-14986 -14985 0
14986 14984 14985 0
-15725 8136 0
-15725 8431 0
15725 -8136 -8431 0
-15726 -8136 0
-15726 -8431 0
15726 8136 8431 0
-15727 -15725 0
-15727 -15726 0
15727 15725 15726 0
-15728 8428 0
-15728 15727 0
15728 -8428 -15727 0
-15729 -8428 0
-15729 -15727 0
15729 8428 15727 0
-15730 -15728 0
-15730 -15729 0
15730 15728 15729 0
-15722 28 0
-15722 31 0
15722 -28 -31 0
-15723 -28 0
-15723 -31 0
15723 28 31 0
-15724 -15722 0
-15724 -15723 0
15724 15722 15723 0
-15731 25 0
-15731 7894 0
15731 -25 -7894 0
-15732 -25 0
-15732 -7894 0
15732 25 7894 0
-15733 -15731 0
-15733 -15732 0
15733 15731 15732 0
-15761 15724 0
-15761 15733 0
15761 -15724 -15733 0
-15762 -15724 0
-15762 -15733 0
15762 15724 15733 0
-15763 -15761 0
-15763 -15762 0
15763 15761 15762 0
-15764 15730 0
-15764 15763 0
15764 -15730 -15763 0
-15765 -15730 0
-15765 -15763 0
15765 15730 15763 0
-15766 -15764 0
-15766 -15765 0
15766 15764 15765 0
-15791 14986 0
-15791 15766 0
15791 -14986 -15766 0
-15792 -14986 0
-15792 -15766 0
15792 14986 15766 0
-15793 -15791 0
-15793 -15792 0
15793 15791 15792 0
-15797 109 0
-15797 8527 0
15797 -109 -8527 0
-15798 -109 0
-15798 -8527 0
15798 109 8527 0
-15799 -15797 0
-15799 -15798 0
15799 15797 15798 0
-15800 15793 0
-15800 15799 0
15800 -15793 -15799 0
-15801 -15793 0
-15801 -15799 0
15801 15793 15799 0
-15802 -15800 0
-15802 -15801 0
15802 15800 15801 0
-15128 36 0
-15128 42 0
15128 -36 -42 0
-15129 -36 0
-15129 -42 0
15129 36 42 0
-15130 -15128 0
-15130 -15129 0
15130 15128 15129 0
-15809 14 0
-15809 8698 0
15809 -14 -8698 0
-15810 -14 0
-15810 -8698 0
15810 14 8698 0
-15811 -15809 0
-15811 -15810 0
15811 15809 15810 0
-15812 8695 0
-15812 15811 0
15812 -8695 -15811 0
-15813 -8695 0
-15813 -15811 0
15813 8695 15811 0
-15814 -15812 0
-15814 -15813 0
15814 15812 15813 0
-15245 7938 0
-15245 8683 0
15245 -7938 -8683 0
-15246 -7938 0
-15246 -8683 0
15246 7938 8683 0
-15247 -15245 0
-15247 -15246 0
15247 15245 15246 0
-15806 27 0
-15806 30 0
15806 -27 -30 0
-15807 -27 0
-15807 -30 0
15807 27 30 0
-15808 -15806 0
-15808 -15807 0
15808 15806 15807 0
-15842 15247 0
-15842 15808 0
15842 -15247 -15808 0
-15843 -15247 0
-15843 -15808 0
15843 15247 15808 0
-15844 -15842 0
-15844 -15843 0
15844 15842 15843 0
-15845 15814 0
-15845 15844 0
15845 -15814 -15844 0
-15846 -15814 0
-15846 -15844 0
15846 15814 15844 0
-15847 -15845 0
-15847 -15846 0
15847 15845 15846 0
-15878 15130 0
-15878 15847 0
15878 -15130 -15847 0
-15879 -15130 0
-15879 -15847 0
15879 15130 15847 0
-15880 -15878 0
-15880 -15879 0
15880 15878 15879 0
-15884 108 0
-15884 6764 0
15884 -108 -6764 0
-15885 -108 0
-15885 -6764 0
15885 108 6764 0
-15886 -15884 0
-15886 -15885 0
15886 15884 15885 0
-15887 15880 0
-15887 15886 0
15887 -15880 -15886 0
-15888 -15880 0
-15888 -15886 0
15888 15880 15886 0
-15889 -15887 0
-15889 -15888 0
15889 15887 15888 0
-15896 8953 0
-15896 8956 0
15896 -8953 -8956 0
-15897 -8953 0
-15897 -8956 0
15897 8953 8956 0
-15898 -15896 0
-15898 -15897 0
15898 15896 15897 0
-15893 26 0
-15893 29 0
15893 -26 -29 0
-15894 -26 0
-15894 -29 0
15894 26 29 0
-15895 -15893 0
-15895 -15894 0
15895 15893 15894 0
-15899 8070 0
-15899 12604 0
15899 -8070 -12604 0
-15900 -8070 0
-15900 -12604 0
15900 8070 12604 0
-15901 -15899 0
-15901 -15900 0
15901 15899 15900 0
-15938 15895 0
-15938 15901 0
15938 -15895 -15901 0
-15939 -15895 0
-15939 -15901 0
15939 15895 15901 0
-15940 -15938 0
-15940 -15939 0
15940 15938 15939 0
-15941 15898 0
-15941 15940 0
15941 -15898 -15940 0
-15942 -15898 0
-15942 -15940 0
15942 15898 15940 0
-15943 -15941 0
-15943 -15942 0
15943 15941 15942 0
-15974 15280 0
-15974 15943 0
15974 -15280 -15943 0
-15975 -15280 0
-15975 -15943 0
15975 15280 15943 0
-15976 -15974 0
-15976 -15975 0
15976 15974 15975 0
-15980 107 0
-15980 6801 0
15980 -107 -6801 0
-15981 -107 0
-15981 -6801 0
15981 107 6801 0
-15982 -15980 0
-15982 -15981 0
15982 15980 15981 0
-15983 15976 0
-15983 15982 0
15983 -15976 -15982 0
-15984 -15976 0
-15984 -15982 0
15984 15976 15982 0
-15985 -15983 0
-15985 -15984 0
15985 15983 15984 0
-16022 34 0
-16022 40 0
16022 -34 -40 0
-16023 -34 0
-16023 -40 0
16023 34 40 0
-16024 -16022 0
-16024 -16023 0
16024 16022 16023 0
-15986 8070 0
-15986 12904 0
15986 -8070 -12904 0
-15987 -8070 0
-15987 -12904 0
15987 8070 12904 0
-15988 -15986 0
-15988 -15987 0
15988 15986 15987 0
-16025 15724 0
-16025 15988 0
16025 -15724 -15988 0
-16026 -15724 0
-16026 -15988 0
16026 15724 15988 0
-16027 -16025 0
-16027 -16026 0
16027 16025 16026 0
-16028 9229 0
-16028 16027 0
16028 -9229 -16027 0
-16029 -9229 0
-16029 -16027 0
16029 9229 16027 0
-16030 -16028 0
-16030 -16029 0
16030 16028 16029 0
-16061 16024 0
-16061 16030 0
16061 -16024 -16030 0
-16062 -16024 0
-16062 -16030 0
16062 16024 16030 0
-16063 -16061 0
-16063 -16062 0
16063 16061 16062 0
-16064 106 0
-16064 9286 0
16064 -106 -9286 0
-16065 -106 0
-16065 -9286 0
16065 106 9286 0
-16066 -16064 0
-16066 -16065 0
16066 16064 16065 0
-16070 16063 0
-16070 16066 0
16070 -16063 -16066 0
-16071 -16063 0
-16071 -16066 0
16071 16063 16066 0
-16072 -16070 0
-16072 -16071 0
16072 16070 16071 0
-16073 18 0
-16073 21 0
16073 -18 -21 0
-16074 -18 0
-16074 -21 0
16074 18 21 0
-16075 -16073 0
-16075 -16074 0
16075 16073 16074 0
-16076 7982 0
-16076 16075 0
16076 -7982 -16075 0
-16077 -7982 0
-16077 -16075 0
16077 7982 16075 0
-16078 -16076 0
-16078 -16077 0
16078 16076 16077 0
-16112 27 0
-16112 14596 0
16112 -27 -14596 0
-16113 -27 0
-16113 -14596 0
16113 27 14596 0
-16114 -16112 0
-16114 -16113 0
16114 16112 16113 0
-16121 16078 0
-16121 16114 0
16121 -16078 -16114 0
-16122 -16078 0
-16122 -16114 0
16122 16078 16114 0
-16123 -16121 0
-16123 -16122 0
16123 16121 16122 0
-16124 9463 0
-16124 16123 0
16124 -9463 -16123 0
-16125 -9463 0
-16125 -16123 0
16125 9463 16123 0
-16126 -16124 0
-16126 -16125 0
16126 16124 16125 0
-16154 39 0
-16154 16126 0
16154 -39 -16126 0
-16155 -39 0
-16155 -16126 0
16155 39 16126 0
-16156 -16154 0
-16156 -16155 0
16156 16154 16155 0
-16157 105 0
-16157 9535 0
16157 -105 -9535 0
-16158 -105 0
-16158 -9535 0
16158 105 9535 0
-16159 -16157 0
-16159 -16158 0
16159 16157 16158 0
-16163 16156 0
-16163 16159 0
16163 -16156 -16159 0
-16164 -16156 0
-16164 -16159 0
16164 16156 16159 0
-16165 -16163 0
-16165 -16164 0
16165 16163 16164 0
-16166 8114 0
-16166 8202 0
16166 -8114 -8202 0
-16167 -8114 0
-16167 -8202 0
16167 8114 8202 0
-16168 -16166 0
-16168 -16167 0
16168 16166 16167 0
-16169 9697 0
-16169 16168 0
16169 -9697 -16168 0
-16170 -9697 0
-16170 -16168 0
16170 9697 16168 0
-16171 -16169 0
-16171 -16170 0
16171 16169 16170 0
-13475 22 0
-13475 7894 0
13475 -22 -7894 0
-13476 -22 0
-13476 -7894 0
13476 22 7894 0
-13477 -13475 0
-13477 -13476 0
13477 13475 13476 0
-16196 32 0
-16196 15895 0
16196 -32 -15895 0
-16197 -32 0
-16197 -15895 0
16197 32 15895 0
-16198 -16196 0
-16198 -16197 0
16198 16196 16197 0
-16202 13477 0
-16202 16198 0
16202 -13477 -16198 0
-16203 -13477 0
-16203 -16198 0
16203 13477 16198 0
-16204 -16202 0
-16204 -16203 0
16204 16202 16203 0
-16205 16171 0
-16205 16204 0
16205 -16171 -16204 0
-16206 -16171 0
-16206 -16204 0
16206 16171 16204 0
-16207 -16205 0
-16207 -16206 0
16207 16205 16206 0
-16232 38 0
-16232 16207 0
16232 -38 -16207 0
-16233 -38 0
-16233 -16207 0
16233 38 16207 0
-16234 -16232 0
-16234 -16233 0
16234 16232 16233 0
-16238 104 0
-16238 9781 0
16238 -104 -9781 0
-16239 -104 0
-16239 -9781 0
16239 104 9781 0
-16240 -16238 0
-16240 -16239 0
16240 16238 16239 0
-16250 16234 0
-16250 16240 0
16250 -16234 -16240 0
-16251 -16234 0
-16251 -16240 0
16251 16234 16240 0
-16252 -16250 0
-16252 -16251 0
16252 16250 16251 0
-9947 11 0
-9947 14 0
9947 -11 -14 0
-9948 -11 0
-9948 -14 0
9948 11 14 0
-9949 -9947 0
-9949 -9948 0
9949 9947 9948 0
-16256 9943 0
-16256 9949 0
16256 -9943 -9949 0
-16257 -9943 0
-16257 -9949 0
16257 9943 9949 0
-16258 -16256 0
-16258 -16257 0
16258 16256 16257 0
-16253 22 0
-16253 25 0
16253 -22 -25 0
-16254 -22 0
-16254 -25 0
16254 22 25 0
-16255 -16253 0
-16255 -16254 0
16255 16253 16254 0
-16259 19 0
-16259 16255 0
16259 -19 -16255 0
-16260 -19 0
-16260 -16255 0
16260 19 16255 0
-16261 -16259 0
-16261 -16260 0
16261 16259 16260 0
-16268 31 0
-16268 16261 0
16268 -31 -16261 0
-16269 -31 0
-16269 -16261 0
16269 31 16261 0
-16270 -16268 0
-16270 -16269 0
16270 16268 16269 0
-16271 16258 0
-16271 16270 0
16271 -16258 -16270 0
-16272 -16258 0
-16272 -16270 0
16272 16258 16270 0
-16273 -16271 0
-16273 -16272 0
16273 16271 16272 0
-16289 37 0
-16289 16273 0
16289 -37 -16273 0
-16290 -37 0
-16290 -16273 0
16290 37 16273 0
-16291 -16289 0
-16291 -16290 0
16291 16289 16290 0
-16292 103 0
-16292 10015 0
16292 -103 -10015 0
-16293 -103 0
-16293 -10015 0
16293 103 10015 0
-16294 -16292 0
-16294 -16293 0
16294 16292 16293 0
-16301 16291 0
-16301 16294 0
16301 -16291 -16294 0
-16302 -16291 0
-16302 -16294 0
16302 16291 16294 0
-16303 -16301 0
-16303 -16302 0
16303 16301 16302 0
-16307 10117 0
-16307 10300 0
16307 -10117 -10300 0
-16308 -10117 0
-16308 -10300 0
16308 10117 10300 0
-16309 -16307 0
-16309 -16308 0
16309 16307 16308 0
-16310 24 0
-16310 14140 0
16310 -24 -14140 0
-16311 -24 0
-16311 -14140 0
16311 24 14140 0
-16312 -16310 0
-16312 -16311 0
16312 16310 16311 0
-16328 30 0
-16328 16312 0
16328 -30 -16312 0
-16329 -30 0
-16329 -16312 0
16329 30 16312 0
-16330 -16328 0
-16330 -16329 0
16330 16328 16329 0
-16331 16309 0
-16331 16330 0
16331 -16309 -16330 0
-16332 -16309 0
-16332 -16330 0
16332 16309 16330 0
-16333 -16331 0
-16333 -16332 0
16333 16331 16332 0
-16349 36 0
-16349 16333 0
16349 -36 -16333 0
-16350 -36 0
-16350 -16333 0
16350 36 16333 0
-16351 -16349 0
-16351 -16350 0
16351 16349 16350 0
-16352 102 0
-16352 10180 0
16352 -102 -10180 0
-16353 -102 0
-16353 -10180 0
16353 102 10180 0
-16354 -16352 0
-16354 -16353 0
16354 16352 16353 0
-16361 16351 0
-16361 16354 0
16361 -16351 -16354 0
-16362 -16351 0
-16362 -16354 0
16362 16351 16354 0
-16363 -16361 0
-16363 -16362 0
16363 16361 16362 0
-16364 3 0
-16364 8677 0
16364 -3 -8677 0
-16365 -3 0
-16365 -8677 0
16365 3 8677 0
-16366 -16364 0
-16366 -16365 0
16366 16364 16365 0
-16370 8956 0
-16370 9214 0
16370 -8956 -9214 0
-16371 -8956 0
-16371 -9214 0
16371 8956 9214 0
-16372 -16370 0
-16372 -16371 0
16372 16370 16371 0
-16373 16366 0
-16373 16372 0
16373 -16366 -16372 0
-16374 -16366 0
-16374 -16372 0
16374 16366 16372 0
-16375 -16373 0
-16375 -16374 0
16375 16373 16374 0
-16376 23 0
-16376 13900 0
16376 -23 -13900 0
-16377 -23 0
-16377 -13900 0
16377 23 13900 0
-16378 -16376 0
-16378 -16377 0
16378 16376 16377 0
-16403 29 0
-16403 16378 0
16403 -29 -16378 0
-16404 -29 0
-16404 -16378 0
16404 29 16378 0
-16405 -16403 0
-16405 -16404 0
16405 16403 16404 0
-16406 16375 0
-16406 16405 0
16406 -16375 -16405 0
-16407 -16375 0
-16407 -16405 0
16407 16375 16405 0
-16408 -16406 0
-16408 -16407 0
16408 16406 16407 0
-16421 35 0
-16421 16408 0
16421 -35 -16408 0
-16422 -35 0
-16422 -16408 0
16422 35 16408 0
-16423 -16421 0
-16423 -16422 0
16423 16421 16422 0
-16424 101 0
-16424 9784 0
16424 -101 -9784 0
-16425 -101 0
-16425 -9784 0
16425 101 9784 0
-16426 -16424 0
-16426 -16425 0
16426 16424 16425 0
-16433 16423 0
-16433 16426 0
16433 -16423 -16426 0
-16434 -16423 0
-16434 -16426 0
16434 16423 16426 0
-16435 -16433 0
-16435 -16434 0
16435 16433 16434 0
-16436 10492 0
-16436 15076 0
16436 -10492 -15076 0
-16437 -10492 0
-16437 -15076 0
16437 10492 15076 0
-16438 -16436 0
-16438 -16437 0
16438 16436 16437 0
-16439 18 0
-16439 16255 0
16439 -18 -16255 0
-16440 -18 0
-16440 -16255 0
16440 18 16255 0
-16441 -16439 0
-16441 -16440 0
16441 16439 16440 0
-16469 28 0
-16469 16441 0
16469 -28 -16441 0
-16470 -28 0
-16470 -16441 0
16470 28 16441 0
-16471 -16469 0
-16471 -16470 0
16471 16469 16470 0
-16472 16438 0
-16472 16471 0
16472 -16438 -16471 0
-16473 -16438 0
-16473 -16471 0
16473 16438 16471 0
-16474 -16472 0
-16474 -16473 0
16474 16472 16473 0
-16487 34 0
-16487 16474 0
16487 -34 -16474 0
-16488 -34 0
-16488 -16474 0
16488 34 16474 0
-16489 -16487 0
-16489 -16488 0
16489 16487 16488 0
-16490 100 0
-16490 10549 0
16490 -100 -10549 0
-16491 -100 0
-16491 -10549 0
16491 100 10549 0
-16492 -16490 0
-16492 -16491 0
16492 16490 16491 0
-16499 16489 0
-16499 16492 0
16499 -16489 -16492 0
-16500 -16489 0
-16500 -16492 0
16500 16489 16492 0
-16501 -16499 0
-16501 -16500 0
16501 16499 16500 0
-16502 8114 0
-16502 8431 0
16502 -8114 -8431 0
-16503 -8114 0
-16503 -8431 0
16503 8114 8431 0
-16504 -16502 0
-16504 -16503 0
16504 16502 16503 0
-16505 10678 0
-16505 16504 0
16505 -10678 -16504 0
-16506 -10678 0
-16506 -16504 0
16506 10678 16504 0
-16507 -16505 0
-16507 -16506 0
16507 16505 16506 0
-16304 21 0
-16304 24 0
16304 -21 -24 0
-16305 -21 0
-16305 -24 0
16305 21 24 0
-16306 -16304 0
-16306 -16305 0
16306 16304 16305 0
-16523 27 0
-16523 33 0
16523 -27 -33 0
-16524 -27 0
-16524 -33 0
16524 27 33 0
-16525 -16523 0
-16525 -16524 0
16525 16523 16524 0
-16526 16306 0
-16526 16525 0
16526 -16306 -16525 0
-16527 -16306 0
-16527 -16525 0
16527 16306 16525 0
-16528 -16526 0
-16528 -16527 0
16528 16526 16527 0
-16529 16507 0
-16529 16528 0
16529 -16507 -16528 0
-16530 -16507 0
-16530 -16528 0
16530 16507 16528 0
-16531 -16529 0
-16531 -16530 0
16531 16529 16530 0
-16544 99 0
-16544 10762 0
16544 -99 -10762 0
-16545 -99 0
-16545 -10762 0
16545 99 10762 0
-16546 -16544 0
-16546 -16545 0
16546 16544 16545 0
-16553 16531 0
-16553 16546 0
16553 -16531 -16546 0
-16554 -16531 0
-16554 -16546 0
16554 16531 16546 0
-16555 -16553 0
-16555 -16554 0
16555 16553 16554 0
-16556 10891 0
-16556 15607 0
16556 -10891 -15607 0
-16557 -10891 0
-16557 -15607 0
16557 10891 15607 0
-16558 -16556 0
-16558 -16557 0
16558 16556 16557 0
-16367 20 0
-16367 23 0
16367 -20 -23 0
-16368 -20 0
-16368 -23 0
16368 20 23 0
-16369 -16367 0
-16369 -16368 0
16369 16367 16368 0
-16568 26 0
-16568 32 0
16568 -26 -32 0
-16569 -26 0
-16569 -32 0
16569 26 32 0
-16570 -16568 0
-16570 -16569 0
16570 16568 16569 0
-16571 16369 0
-16571 16570 0
16571 -16369 -16570 0
-16572 -16369 0
-16572 -16570 0
16572 16369 16570 0
-16573 -16571 0
-16573 -16572 0
16573 16571 16572 0
-16574 16558 0
-16574 16573 0
16574 -16558 -16573 0
-16575 -16558 0
-16575 -16573 0
16575 16558 16573 0
-16576 -16574 0
-16576 -16575 0
16576 16574 16575 0
-16589 98 0
-16589 10966 0
16589 -98 -10966 0
-16590 -98 0
-16590 -10966 0
16590 98 10966 0
-16591 -16589 0
-16591 -16590 0
16591 16589 16590 0
-16598 16576 0
-16598 16591 0
16598 -16576 -16591 0
-16599 -16576 0
-16599 -16591 0
16599 16576 16591 0
-16600 -16598 0
-16600 -16599 0
16600 16598 16599 0
-16607 9436 0
-16607 10903 0
16607 -9436 -10903 0
-16608 -9436 0
-16608 -10903 0
16608 9436 10903 0
-16609 -16607 0
-16609 -16608 0
16609 16607 16608 0
-16610 13171 0
-16610 16609 0
16610 -13171 -16609 0
-16611 -13171 0
-16611 -16609 0
16611 13171 16609 0
-16612 -16610 0
-16612 -16611 0
16612 16610 16611 0
-16613 19 0
-16613 25 0
16613 -19 -25 0
-16614 -19 0
-16614 -25 0
16614 19 25 0
-16615 -16613 0
-16615 -16614 0
16615 16613 16614 0
-16631 31 0
-16631 16615 0
16631 -31 -16615 0
-16632 -31 0
-16632 -16615 0
16632 31 16615 0
-16633 -16631 0
-16633 -16632 0
16633 16631 16632 0
-16634 16612 0
-16634 16633 0
16634 -16612 -16633 0
-16635 -16612 0
-16635 -16633 0
16635 16612 16633 0
-16636 -16634 0
-16636 -16635 0
16636 16634 16635 0
-16637 97 0
-16637 11146 0
16637 -97 -11146 0
-16638 -97 0
-16638 -11146 0
16638 97 11146 0
-16639 -16637 0
-16639 -16638 0
16639 16637 16638 0
-16670 16636 0
-16670 16639 0
16670 -16636 -16639 0
-16671 -16636 0
-16671 -16639 0
16671 16636 16639 0
-16672 -16670 0
-16672 -16671 0
16672 16670 16671 0
-16673 9940 0
-16673 10675 0
16673 -9940 -10675 0
-16674 -9940 0
-16674 -10675 0
16674 9940 10675 0
-16675 -16673 0
-16675 -16674 0
16675 16673 16674 0
-16676 13720 0
-16676 16675 0
16676 -13720 -16675 0
-16677 -13720 0
-16677 -16675 0
16677 13720 16675 0
-16678 -16676 0
-16678 -16677 0
16678 16676 16677 0
-16679 18 0
-16679 24 0
16679 -18 -24 0
-16680 -18 0
-16680 -24 0
16680 18 24 0
-16681 -16679 0
-16681 -16680 0
16681 16679 16680 0
-16694 30 0
-16694 16681 0
16694 -30 -16681 0
-16695 -30 0
-16695 -16681 0
16695 30 16681 0
-16696 -16694 0
-16696 -16695 0
16696 16694 16695 0
-16697 16678 0
-16697 16696 0
16697 -16678 -16696 0
-16698 -16678 0
-16698 -16696 0
16698 16678 16696 0
-16699 -16697 0
-16699 -16698 0
16699 16697 16698 0
-16703 96 0
-16703 11329 0
16703 -96 -11329 0
-16704 -96 0
-16704 -11329 0
16704 96 11329 0
-16705 -16703 0
-16705 -16704 0
16705 16703 16704 0
-16727 16699 0
-16727 16705 0
16727 -16699 -16705 0
-16728 -16699 0
-16728 -16705 0
16728 16699 16705 0
-16729 -16727 0
-16729 -16728 0
16729 16727 16728 0
-16400 23 0
-16400 29 0
16400 -23 -29 0
-16401 -23 0
-16401 -29 0
16401 23 29 0
-16402 -16400 0
-16402 -16401 0
16402 16400 16401 0
-16730 12601 0
-16730 16372 0
16730 -12601 -16372 0
-16731 -12601 0
-16731 -16372 0
16731 12601 16372 0
-16732 -16730 0
-16732 -16731 0
16732 16730 16731 0
-16745 16402 0
-16745 16732 0
16745 -16402 -16732 0
-16746 -16402 0
-16746 -16732 0
16746 16402 16732 0
-16747 -16745 0
-16747 -16746 0
16747 16745 16746 0
-16754 95 0
-16754 11491 0
16754 -95 -11491 0
-16755 -95 0
-16755 -11491 0
16755 95 11491 0
-16756 -16754 0
-16756 -16755 0
16756 16754 16755 0
-16781 16747 0
-16781 16756 0
16781 -16747 -16756 0
-16782 -16747 0
-16782 -16756 0
16782 16747 16756 0
-16783 -16781 0
-16783 -16782 0
16783 16781 16782 0
-16784 10903 0
-16784 12283 0
16784 -10903 -12283 0
-16785 -10903 0
-16785 -12283 0
16785 10903 12283 0
-16786 -16784 0
-16786 -16785 0
16786 16784 16785 0
-16787 8695 0
-16787 16786 0
16787 -8695 -16786 0
-16788 -8695 0
-16788 -16786 0
16788 8695 16786 0
-16789 -16787 0
-16789 -16788 0
16789 16787 16788 0
-15470 19 0
-15470 22 0
15470 -19 -22 0
-15471 -19 0
-15471 -22 0
15471 19 22 0
-15472 -15470 0
-15472 -15471 0
15472 15470 15471 0
-16808 28 0
-16808 15472 0
16808 -28 -15472 0
-16809 -28 0
-16809 -15472 0
16809 28 15472 0
-16810 -16808 0
-16810 -16809 0
16810 16808 16809 0
-16811 16789 0
-16811 16810 0
16811 -16789 -16810 0
-16812 -16789 0
-16812 -16810 0
16812 16789 16810 0
-16813 -16811 0
-16813 -16812 0
16813 16811 16812 0
-16820 94 0
-16820 11638 0
16820 -94 -11638 0
-16821 -94 0
-16821 -11638 0
16821 94 11638 0
-16822 -16820 0
-16822 -16821 0
16822 16820 16821 0
-16832 16813 0
-16832 16822 0
16832 -16813 -16822 0
-16833 -16813 0
-16833 -16822 0
16833 16813 16822 0
-16834 -16832 0
-16834 -16833 0
16834 16832 16833 0
-16835 8 0
-16835 8290 0
16835 -8 -8290 0
-16836 -8 0
-16836 -8290 0
16836 8 8290 0
-16837 -16835 0
-16837 -16836 0
16837 16835 16836 0
-16838 9949 0
-16838 16837 0
16838 -9949 -16837 0
-16839 -9949 0
-16839 -16837 0
16839 9949 16837 0
-16840 -16838 0
-16840 -16839 0
16840 16838 16839 0
-16850 27 0
-16850 16075 0
16850 -27 -16075 0
-16851 -27 0
-16851 -16075 0
16851 27 16075 0
-16852 -16850 0
-16852 -16851 0
16852 16850 16851 0
-16853 16840 0
-16853 16852 0
16853 -16840 -16852 0
-16854 -16840 0
-16854 -16852 0
16854 16840 16852 0
-16855 -16853 0
-16855 -16854 0
16855 16853 16854 0
-16862 93 0
-16862 11773 0
16862 -93 -11773 0
-16863 -93 0
-16863 -11773 0
16863 93 11773 0
-16864 -16862 0
-16864 -16863 0
16864 16862 16863 0
-16874 16855 0
-16874 16864 0
16874 -16855 -16864 0
-16875 -16855 0
-16875 -16864 0
16875 16855 16864 0
-16876 -16874 0
-16876 -16875 0
16876 16874 16875 0
-16877 9214 0
-16877 9697 0
16877 -9214 -9697 0
-16878 -9214 0
-16878 -9697 0
16878 9214 9697 0
-16879 -16877 0
-16879 -16878 0
16879 16877 16878 0
-16886 20 0
-16886 26 0
16886 -20 -26 0
-16887 -20 0
-16887 -26 0
16887 20 26 0
-16888 -16886 0
-16888 -16887 0
16888 16886 16887 0
-16889 16879 0
-16889 16888 0
16889 -16879 -16888 0
-16890 -16879 0
-16890 -16888 0
16890 16879 16888 0
-16891 -16889 0
-16891 -16890 0
16891 16889 16890 0
-16898 92 0
-16898 11908 0
16898 -92 -11908 0
-16899 -92 0
-16899 -11908 0
16899 92 11908 0
-16900 -16898 0
-16900 -16899 0
16900 16898 16899 0
-16928 16891 0
-16928 16900 0
16928 -16891 -16900 0
-16929 -16891 0
-16929 -16900 0
16929 16891 16900 0
-16930 -16928 0
-16930 -16929 0
16930 16928 16929 0
-16931 15 0
-16931 10117 0
16931 -15 -10117 0
-16932 -15 0
-16932 -10117 0
16932 15 10117 0
-16933 -16931 0
-16933 -16932 0
16933 16931 16932 0
-16934 10675 0
-16934 16933 0
16934 -10675 -16933 0
-16935 -10675 0
-16935 -16933 0
16935 10675 16933 0
-16936 -16934 0
-16936 -16935 0
16936 16934 16935 0
-16943 16615 0
-16943 16936 0
16943 -16615 -16936 0
-16944 -16615 0
-16944 -16936 0
16944 16615 16936 0
-16945 -16943 0
-16945 -16944 0
16945 16943 16944 0
-16949 91 0
-16949 12142 0
16949 -91 -12142 0
-16950 -91 0
-16950 -12142 0
16950 91 12142 0
-16951 -16949 0
-16951 -16950 0
16951 16949 16950 0
-16955 16945 0
-16955 16951 0
16955 -16945 -16951 0
-16956 -16945 0
-16956 -16951 0
16956 16945 16951 0
-16957 -16955 0
-16957 -16956 0
16957 16955 16956 0
-16958 14 0
-16958 12283 0
16958 -14 -12283 0
-16959 -14 0
-16959 -12283 0
16959 14 12283 0
-16960 -16958 0
-16960 -16959 0
16960 16958 16959 0
-16961 12280 0
-16961 16960 0
16961 -12280 -16960 0
-16962 -12280 0
-16962 -16960 0
16962 12280 16960 0
-16963 -16961 0
-16963 -16962 0
16963 16961 16962 0
-16970 16681 0
-16970 16963 0
16970 -16681 -16963 0
-16971 -16681 0
-16971 -16963 0
16971 16681 16963 0
-16972 -16970 0
-16972 -16971 0
16972 16970 16971 0
-16982 90 0
-16982 12436 0
16982 -90 -12436 0
-16983 -90 0
-16983 -12436 0
16983 90 12436 0
-16984 -16982 0
-16984 -16983 0
16984 16982 16983 0
-17000 16972 0
-17000 16984 0
17000 -16972 -16984 0
-17001 -16972 0
-17001 -16984 0
17001 16972 16984 0
-17002 -17000 0
-17002 -17001 0
17002 17000 17001 0
-17003 10 0
-17003 9214 0
17003 -10 -9214 0
-17004 -10 0
-17004 -9214 0
17004 10 9214 0
-17005 -17003 0
-17005 -17004 0
17005 17003 17004 0
-17006 12601 0
-17006 17005 0
17006 -12601 -17005 0
-17007 -12601 0
-17007 -17005 0
17007 12601 17005 0
-17008 -17006 0
-17008 -17007 0
17008 17006 17007 0
-17009 23 0
-17009 17008 0
17009 -23 -17008 0
-17010 -23 0
-17010 -17008 0
17010 23 17008 0
-17011 -17009 0
-17011 -17010 0
17011 17009 17010 0
-17012 89 0
-17012 12718 0
17012 -89 -12718 0
-17013 -89 0
-17013 -12718 0
17013 89 12718 0
-17014 -17012 0
-17014 -17013 0
17014 17012 17013 0
-17045 17011 0
-17045 17014 0
17045 -17011 -17014 0
-17046 -17011 0
-17046 -17014 0
17046 17011 17014 0
-17047 -17045 0
-17047 -17046 0
17047 17045 17046 0
-12287 14 0
-12287 16 0
12287 -14 -16 0
-12288 -14 0
-12288 -16 0
12288 14 16 0
-12289 -12287 0
-12289 -12288 0
12289 12287 12288 0
-17048 13 0
-17048 12289 0
17048 -13 -12289 0
-17049 -13 0
-17049 -12289 0
17049 13 12289 0
-17050 -17048 0
-17050 -17049 0
17050 17048 17049 0
-17051 12895 0
-17051 17050 0
17051 -12895 -17050 0
-17052 -12895 0
-17052 -17050 0
17052 12895 17050 0
-17053 -17051 0
-17053 -17052 0
17053 17051 17052 0
-17057 22 0
-17057 17053 0
17057 -22 -17053 0
-17058 -22 0
-17058 -17053 0
17058 22 17053 0
-17059 -17057 0
-17059 -17058 0
17059 17057 17058 0
-17063 88 0
-17063 13000 0
17063 -88 -13000 0
-17064 -88 0
-17064 -13000 0
17064 88 13000 0
-17065 -17063 0
-17065 -17064 0
17065 17063 17064 0
-17093 17059 0
-17093 17065 0
17093 -17059 -17065 0
-17094 -17059 0
-17094 -17065 0
17094 17059 17065 0
-17095 -17093 0
-17095 -17094 0
17095 17093 17094 0
-17096 8224 0
-17096 13171 0
17096 -8224 -13171 0
-17097 -8224 0
-17097 -13171 0
17097 8224 13171 0
-17098 -17096 0
-17098 -17097 0
17098 17096 17097 0
-17099 21 0
-17099 17098 0
17099 -21 -17098 0
-17100 -21 0
-17100 -17098 0
17100 21 17098 0
-17101 -17099 0
-17101 -17100 0
17101 17099 17100 0
-17105 87 0
-17105 13303 0
17105 -87 -13303 0
-17106 -87 0
-17106 -13303 0
17106 87 13303 0
-17107 -17105 0
-17107 -17106 0
17107 17105 17106 0
-17132 17101 0
-17132 17107 0
17132 -17101 -17107 0
-17133 -17101 0
-17133 -17107 0
17133 17101 17107 0
-17134 -17132 0
-17134 -17133 0
17134 17132 17133 0
-17135 13699 0
-17135 16933 0
17135 -13699 -16933 0
-17136 -13699 0
-17136 -16933 0
17136 13699 16933 0
-17137 -17135 0
-17137 -17136 0
17137 17135 17136 0
-17141 19 0
-17141 17137 0
17141 -19 -17137 0
-17142 -19 0
-17142 -17137 0
17142 19 17137 0
-17143 -17141 0
-17143 -17142 0
17143 17141 17142 0
-17147 85 0
-17147 13789 0
17147 -85 -13789 0
-17148 -85 0
-17148 -13789 0
17148 85 13789 0
-17149 -17147 0
-17149 -17148 0
17149 17147 17148 0
-17159 17143 0
-17159 17149 0
17159 -17143 -17149 0
-17160 -17143 0
-17160 -17149 0
17160 17143 17149 0
-17161 -17159 0
-17161 -17160 0
17161 17159 17160 0
-17162 13897 0
-17162 16960 0
17162 -13897 -16960 0
-17163 -13897 0
-17163 -16960 0
17163 13897 16960 0
-17164 -17162 0
-17164 -17163 0
17164 17162 17163 0
-17171 18 0
-17171 17164 0
17171 -18 -17164 0
-17172 -18 0
-17172 -17164 0
17172 18 17164 0
-17173 -17171 0
-17173 -17172 0
17173 17171 17172 0
-17186 84 0
-17186 13999 0
17186 -84 -13999 0
-17187 -84 0
-17187 -13999 0
17187 84 13999 0
-17188 -17186 0
-17188 -17187 0
17188 17186 17187 0
-17207 17173 0
-17207 17188 0
17207 -17173 -17188 0
-17208 -17173 0
-17208 -17188 0
17208 17173 17188 0
-17209 -17207 0
-17209 -17208 0
17209 17207 17208 0
-17210 6 0
-17210 8 0
17210 -6 -8 0
-17211 -6 0
-17211 -8 0
17211 6 8 0
-17212 -17210 0
-17212 -17211 0
17212 17210 17211 0
-17213 4 0
-17213 17212 0
17213 -4 -17212 0
-17214 -4 0
-17214 -17212 0
17214 4 17212 0
-17215 -17213 0
-17215 -17214 0
17215 17213 17214 0
-17219 17005 0
-17219 17215 0
17219 -17005 -17215 0
-17220 -17005 0
-17220 -17215 0
17220 17005 17215 0
-17221 -17219 0
-17221 -17220 0
17221 17219 17220 0
-17243 83 0
-17243 14239 0
17243 -83 -14239 0
-17244 -83 0
-17244 -14239 0
17244 83 14239 0
-17245 -17243 0
-17245 -17244 0
17245 17243 17244 0
-17255 17221 0
-17255 17245 0
17255 -17221 -17245 0
-17256 -17221 0
-17256 -17245 0
17256 17221 17245 0
-17257 -17255 0
-17257 -17256 0
17257 17255 17256 0
-17258 7 0
-17258 8158 0
17258 -7 -8158 0
-17259 -7 0
-17259 -8158 0
17259 7 8158 0
-17260 -17258 0
-17260 -17259 0
17260 17258 17259 0
-17261 11251 0
-17261 17260 0
17261 -11251 -17260 0
-17262 -11251 0
-17262 -17260 0
17262 11251 17260 0
-17263 -17261 0
-17263 -17262 0
17263 17261 17262 0
-17267 8246 0
-17267 12289 0
17267 -8246 -12289 0
-17268 -8246 0
-17268 -12289 0
17268 8246 12289 0
-17269 -17267 0
-17269 -17268 0
17269 17267 17268 0
-17270 17263 0
-17270 17269 0
17270 -17263 -17269 0
-17271 -17263 0
-17271 -17269 0
17271 17263 17269 0
-17272 -17270 0
-17272 -17271 0
17272 17270 17271 0
-17294 82 0
-17294 14473 0
17294 -82 -14473 0
-17295 -82 0
-17295 -14473 0
17295 82 14473 0
-17296 -17294 0
-17296 -17295 0
17296 17294 17295 0
-17297 17272 0
-17297 17296 0
17297 -17272 -17296 0
-17298 -17272 0
-17298 -17296 0
17298 17272 17296 0
-17299 -17297 0
-17299 -17298 0
17299 17297 17298 0
-17300 2 0
-17300 8378 0
17300 -2 -8378 0
-17301 -2 0
-17301 -8378 0
17301 2 8378 0
-17302 -17300 0
-17302 -17301 0
17302 17300 17301 0
-17303 8677 0
-17303 17302 0
17303 -8677 -17302 0
-17304 -8677 0
-17304 -17302 0
17304 8677 17302 0
-17305 -17303 0
-17305 -17304 0
17305 17303 17304 0
-17312 8698 0
-17312 17305 0
17312 -8698 -17305 0
-17313 -8698 0
-17313 -17305 0
17313 8698 17305 0
-17314 -17312 0
-17314 -17313 0
17314 17312 17313 0
-17321 79 0
-17321 11281 0
17321 -79 -11281 0
-17322 -79 0
-17322 -11281 0
17322 79 11281 0
-17323 -17321 0
-17323 -17322 0
17323 17321 17322 0
-17324 17314 0
-17324 17323 0
17324 -17314 -17323 0
-17325 -17314 0
-17325 -17323 0
17325 17314 17323 0
-17326 -17324 0
-17326 -17325 0
17326 17324 17325 0
-17327 5 0
-17327 8290 0
17327 -5 -8290 0
-17328 -5 0
-17328 -8290 0
17328 5 8290 0
-17329 -17327 0
-17329 -17328 0
17329 17327 17328 0
-17333 9694 0
-17333 17329 0
17333 -9694 -17329 0
-17334 -9694 0
-17334 -17329 0
17334 9694 17329 0
-17335 -17333 0
-17335 -17334 0
17335 17333 17334 0
-17339 8224 0
-17339 17335 0
17339 -8224 -17335 0
-17340 -8224 0
-17340 -17335 0
17340 8224 17335 0
-17341 -17339 0
-17341 -17340 0
17341 17339 17340 0
-17348 78 0
-17348 11092 0
17348 -78 -11092 0
-17349 -78 0
-17349 -11092 0
17349 78 11092 0
-17350 -17348 0
-17350 -17349 0
17350 17348 17349 0
-17351 17341 0
-17351 17350 0
17351 -17341 -17350 0
-17352 -17341 0
-17352 -17350 0
17352 17341 17350 0
-17353 -17351 0
-17353 -17352 0
17353 17351 17352 0
-17354 16 0
-17354 10117 0
17354 -16 -10117 0
-17355 -16 0
-17355 -10117 0
17355 16 10117 0
-17356 -17354 0
-17356 -17355 0
17356 17354 17355 0
-17357 4 0
-17357 17356 0
17357 -4 -17356 0
-17358 -4 0
-17358 -17356 0
17358 4 17356 0
-17359 -17357 0
-17359 -17358 0
17359 17357 17358 0
-17360 22 0
-17360 17359 0
17360 -22 -17359 0
-17361 -22 0
-17361 -17359 0
17361 22 17359 0
-17362 -17360 0
-17362 -17361 0
17362 17360 17361 0
-17363 9445 0
-17363 12043 0
17363 -9445 -12043 0
-17364 -9445 0
-17364 -12043 0
17364 9445 12043 0
-17365 -17363 0
-17365 -17364 0
17365 17363 17364 0
-17384 12997 0
-17384 17365 0
17384 -12997 -17365 0
-17385 -12997 0
-17385 -17365 0
17385 12997 17365 0
-17386 -17384 0
-17386 -17385 0
17386 17384 17385 0
-17387 17362 0
-17387 17386 0
17387 -17362 -17386 0
-17388 -17362 0
-17388 -17386 0
17388 17362 17386 0
-17389 -17387 0
-17389 -17388 0
17389 17387 17388 0
-17417 73 0
-17417 17389 0
17417 -73 -17389 0
-17418 -73 0
-17418 -17389 0
17418 73 17389 0
-17419 -17417 0
-17419 -17418 0
17419 17417 17418 0
-8435 12 0
-8435 15 0
8435 -12 -15 0
-8436 -12 0
-8436 -15 0
8436 12 15 0
-8437 -8435 0
-8437 -8436 0
8437 8435 8436 0
-17420 3 0
-17420 9 0
17420 -3 -9 0
-17421 -3 0
-17421 -9 0
17421 3 9 0
-17422 -17420 0
-17422 -17421 0
17422 17420 17421 0
-17423 8437 0
-17423 17422 0
17423 -8437 -17422 0
-17424 -8437 0
-17424 -17422 0
17424 8437 17422 0
-17425 -17423 0
-17425 -17424 0
17425 17423 17424 0
-17429 21 0
-17429 17425 0
17429 -21 -17425 0
-17430 -21 0
-17430 -17425 0
17430 21 17425 0
-17431 -17429 0
-17431 -17430 0
17431 17429 17430 0
-17432 12331 0
-17432 13198 0
17432 -12331 -13198 0
-17433 -12331 0
-17433 -13198 0
17433 12331 13198 0
-17434 -17432 0
-17434 -17433 0
17434 17432 17433 0
-17453 13300 0
-17453 17434 0
17453 -13300 -17434 0
-17454 -13300 0
-17454 -17434 0
17454 13300 17434 0
-17455 -17453 0
-17455 -17454 0
17455 17453 17454 0
-17456 17431 0
-17456 17455 0
17456 -17431 -17455 0
-17457 -17431 0
-17457 -17455 0
17457 17431 17455 0
-17458 -17456 0
-17458 -17457 0
17458 17456 17457 0
-17486 72 0
-17486 17458 0
17486 -72 -17458 0
-17487 -72 0
-17487 -17458 0
17487 72 17458 0
-17488 -17486 0
-17488 -17487 0
17488 17486 17487 0
-17489 9949 0
-17489 11593 0
17489 -9949 -11593 0
-17490 -9949 0
-17490 -11593 0
17490 9949 11593 0
-17491 -17489 0
-17491 -17490 0
17491 17489 17490 0
-17495 20 0
-17495 17491 0
17495 -20 -17491 0
-17496 -20 0
-17496 -17491 0
17496 20 17491 0
-17497 -17495 0
-17497 -17496 0
17497 17495 17496 0
-17498 8716 0
-17498 12631 0
17498 -8716 -12631 0
-17499 -8716 0
-17499 -12631 0
17499 8716 12631 0
-17500 -17498 0
-17500 -17499 0
17500 17498 17499 0
-17519 13570 0
-17519 17500 0
17519 -13570 -17500 0
-17520 -13570 0
-17520 -17500 0
17520 13570 17500 0
-17521 -17519 0
-17521 -17520 0
17521 17519 17520 0
-17522 17497 0
-17522 17521 0
17522 -17497 -17521 0
-17523 -17497 0
-17523 -17521 0
17523 17497 17521 0
-17524 -17522 0
-17524 -17523 0
17524 17522 17523 0
-17552 71 0
-17552 17524 0
17552 -71 -17524 0
-17553 -71 0
-17553 -17524 0
17553 71 17524 0
-17554 -17552 0
-17554 -17553 0
17554 17552 17553 0
-17555 7 0
-17555 10117 0
17555 -7 -10117 0
-17556 -7 0
-17556 -10117 0
17556 7 10117 0
-17557 -17555 0
-17557 -17556 0
17557 17555 17556 0
-17558 16615 0
-17558 17557 0
17558 -16615 -17557 0
-17559 -16615 0
-17559 -17557 0
17559 16615 17557 0
-17560 -17558 0
-17560 -17559 0
17560 17558 17559 0
-17561 34 0
-17561 12130 0
17561 -34 -12130 0
-17562 -34 0
-17562 -12130 0
17562 34 12130 0
-17563 -17561 0
-17563 -17562 0
17563 17561 17562 0
-17582 12139 0
-17582 17563 0
17582 -12139 -17563 0
-17583 -12139 0
-17583 -17563 0
17583 12139 17563 0
-17584 -17582 0
-17584 -17583 0
17584 17582 17583 0
-17585 17560 0
-17585 17584 0
17585 -17560 -17584 0
-17586 -17560 0
-17586 -17584 0
17586 17560 17584 0
-17587 -17585 0
-17587 -17586 0
17587 17585 17586 0
-17618 70 0
-17618 17587 0
17618 -70 -17587 0
-17619 -70 0
-17619 -17587 0
17619 70 17587 0
-17620 -17618 0
-17620 -17619 0
17620 17618 17619 0
-17621 12 0
-17621 10489 0
17621 -12 -10489 0
-17622 -12 0
-17622 -10489 0
17622 12 10489 0
-17623 -17621 0
-17623 -17622 0
17623 17621 17622 0
-17630 33 0
-17630 16681 0
17630 -33 -16681 0
-17631 -33 0
-17631 -16681 0
17631 33 16681 0
-17632 -17630 0
-17632 -17631 0
17632 17630 17631 0
-17633 17623 0
-17633 17632 0
17633 -17623 -17632 0
-17634 -17623 0
-17634 -17632 0
17634 17623 17632 0
-17635 -17633 0
-17635 -17634 0
17635 17633 17634 0
-17627 48 0
-17627 14599 0
17627 -48 -14599 0
-17628 -48 0
-17628 -14599 0
17628 48 14599 0
-17629 -17627 0
-17629 -17628 0
17629 17627 17628 0
-17663 12433 0
-17663 17629 0
17663 -12433 -17629 0
-17664 -12433 0
-17664 -17629 0
17664 12433 17629 0
-17665 -17663 0
-17665 -17664 0
17665 17663 17664 0
-17666 17635 0
-17666 17665 0
17666 -17635 -17665 0
-17667 -17635 0
-17667 -17665 0
17667 17635 17665 0
-17668 -17666 0
-17668 -17667 0
17668 17666 17667 0
-17696 69 0
-17696 17668 0
17696 -69 -17668 0
-17697 -69 0
-17697 -17668 0
17697 69 17668 0
-17698 -17696 0
-17698 -17697 0
17698 17696 17697 0
-17699 5 0
-17699 8 0
17699 -5 -8 0
-17700 -5 0
-17700 -8 0
17700 5 8 0
-17701 -17699 0
-17701 -17700 0
17701 17699 17700 0
-17702 11 0
-17702 17 0
17702 -11 -17 0
-17703 -11 0
-17703 -17 0
17703 11 17 0
-17704 -17702 0
-17704 -17703 0
17704 17702 17703 0
-17705 17701 0
-17705 17704 0
17705 -17701 -17704 0
-17706 -17701 0
-17706 -17704 0
17706 17701 17704 0
-17707 -17705 0
-17707 -17706 0
17707 17705 17706 0
-17714 23 0
-17714 32 0
17714 -23 -32 0
-17715 -23 0
-17715 -32 0
17715 23 32 0
-17716 -17714 0
-17716 -17715 0
17716 17714 17715 0
-17717 17707 0
-17717 17716 0
17717 -17707 -17716 0
-17718 -17707 0
-17718 -17716 0
17718 17707 17716 0
-17719 -17717 0
-17719 -17718 0
17719 17717 17718 0
-17708 41 0
-17708 12631 0
17708 -41 -12631 0
-17709 -41 0
-17709 -12631 0
17709 41 12631 0
-17710 -17708 0
-17710 -17709 0
17710 17708 17709 0
-17747 12715 0
-17747 17710 0
17747 -12715 -17710 0
-17748 -12715 0
-17748 -17710 0
17748 12715 17710 0
-17749 -17747 0
-17749 -17748 0
17749 17747 17748 0
-17750 17719 0
-17750 17749 0
17750 -17719 -17749 0
-17751 -17719 0
-17751 -17749 0
17751 17719 17749 0
-17752 -17750 0
-17752 -17751 0
17752 17750 17751 0
-17777 68 0
-17777 17752 0
17777 -68 -17752 0
-17778 -68 0
-17778 -17752 0
17778 68 17752 0
-17779 -17777 0
-17779 -17778 0
17779 17777 17778 0
-9701 13 0
-9701 16 0
9701 -13 -16 0
-9702 -13 0
-9702 -16 0
9702 13 16 0
-9703 -9701 0
-9703 -9702 0
9703 9701 9702 0
-17783 4 0
-17783 9703 0
17783 -4 -9703 0
-17784 -4 0
-17784 -9703 0
17784 4 9703 0
-17785 -17783 0
-17785 -17784 0
17785 17783 17784 0
-17801 16633 0
-17801 17785 0
17801 -16633 -17785 0
-17802 -16633 0
-17802 -17785 0
17802 16633 17785 0
-17803 -17801 0
-17803 -17802 0
17803 17801 17802 0
-17804 40 0
-17804 49 0
17804 -40 -49 0
-17805 -40 0
-17805 -49 0
17805 40 49 0
-17806 -17804 0
-17806 -17805 0
17806 17804 17805 0
-17780 52 0
-17780 55 0
17780 -52 -55 0
-17781 -52 0
-17781 -55 0
17781 52 55 0
-17782 -17780 0
-17782 -17781 0
17782 17780 17781 0
-17828 61 0
-17828 17782 0
17828 -61 -17782 0
-17829 -61 0
-17829 -17782 0
17829 61 17782 0
-17830 -17828 0
-17830 -17829 0
17830 17828 17829 0
-17840 17806 0
-17840 17830 0
17840 -17806 -17830 0
-17841 -17806 0
-17841 -17830 0
17841 17806 17830 0
-17842 -17840 0
-17842 -17841 0
17842 17840 17841 0
-17843 17803 0
-17843 17842 0
17843 -17803 -17842 0
-17844 -17803 0
-17844 -17842 0
17844 17803 17842 0
-17845 -17843 0
-17845 -17844 0
17845 17843 17844 0
-17876 67 0
-17876 17845 0
17876 -67 -17845 0
-17877 -67 0
-17877 -17845 0
17877 67 17845 0
-17878 -17876 0
-17878 -17877 0
17878 17876 17877 0
-17882 3 0
-17882 8437 0
17882 -3 -8437 0
-17883 -3 0
-17883 -8437 0
17883 3 8437 0
-17884 -17882 0
-17884 -17883 0
17884 17882 17883 0
-17900 16696 0
-17900 17884 0
17900 -16696 -17884 0
-17901 -16696 0
-17901 -17884 0
17901 16696 17884 0
-17902 -17900 0
-17902 -17901 0
17902 17900 17901 0
-17903 39 0
-17903 48 0
17903 -39 -48 0
-17904 -39 0
-17904 -48 0
17904 39 48 0
-17905 -17903 0
-17905 -17904 0
17905 17903 17904 0
-17879 51 0
-17879 54 0
17879 -51 -54 0
-17880 -51 0
-17880 -54 0
17880 51 54 0
-17881 -17879 0
-17881 -17880 0
17881 17879 17880 0
-17927 60 0
-17927 17881 0
17927 -60 -17881 0
-17928 -60 0
-17928 -17881 0
17928 60 17881 0
-17929 -17927 0
-17929 -17928 0
17929 17927 17928 0
-17939 17905 0
-17939 17929 0
17939 -17905 -17929 0
-17940 -17905 0
-17940 -17929 0
17940 17905 17929 0
-17941 -17939 0
-17941 -17940 0
17941 17939 17940 0
-17942 17902 0
-17942 17941 0
17942 -17902 -17941 0
-17943 -17902 0
-17943 -17941 0
17943 17902 17941 0
-17944 -17942 0
-17944 -17943 0
17944 17942 17943 0
-17975 66 0
-17975 17944 0
17975 -66 -17944 0
-17976 -66 0
-17976 -17944 0
17976 66 17944 0
-17977 -17975 0
-17977 -17976 0
17977 17975 17976 0
-17981 11 0
-17981 10507 0
17981 -11 -10507 0
-17982 -11 0
-17982 -10507 0
17982 11 10507 0
-17983 -17981 0
-17983 -17982 0
17983 17981 17982 0
-17984 2 0
-17984 17983 0
17984 -2 -17983 0
-17985 -2 0
-17985 -17983 0
17985 2 17983 0
-17986 -17984 0
-17986 -17985 0
17986 17984 17985 0
-17999 16402 0
-17999 17986 0
17999 -16402 -17986 0
-18000 -16402 0
-18000 -17986 0
18000 16402 17986 0
-18001 -17999 0
-18001 -18000 0
18001 17999 18000 0
-18002 38 0
-18002 47 0
18002 -38 -47 0
-18003 -38 0
-18003 -47 0
18003 38 47 0
-18004 -18002 0
-18004 -18003 0
18004 18002 18003 0
-17978 50 0
-17978 53 0
17978 -50 -53 0
-17979 -50 0
-17979 -53 0
17979 50 53 0
-17980 -17978 0
-17980 -17979 0
17980 17978 17979 0
-17996 59 0
-17996 65 0
17996 -59 -65 0
-17997 -59 0
-17997 -65 0
17997 59 65 0
-17998 -17996 0
-17998 -17997 0
17998 17996 17997 0
-18029 17980 0
-18029 17998 0
18029 -17980 -17998 0
-18030 -17980 0
-18030 -17998 0
18030 17980 17998 0
-18031 -18029 0
-18031 -18030 0
18031 18029 18030 0
-18038 18004 0
-18038 18031 0
18038 -18004 -18031 0
-18039 -18004 0
-18039 -18031 0
18039 18004 18031 0
-18040 -18038 0
-18040 -18039 0
18040 18038 18039 0
-18041 18001 0
-18041 18040 0
18041 -18001 -18040 0
-18042 -18001 0
-18042 -18040 0
18042 18001 18040 0
-18043 -18041 0
-18043 -18042 0
18043 18041 18042 0
-18074 10 0
-18074 16 0
18074 -10 -16 0
-18075 -10 0
-18075 -16 0
18075 10 16 0
-18076 -18074 0
-18076 -18075 0
18076 18074 18075 0
-18077 7 0
-18077 18076 0
18077 -7 -18076 0
-18078 -7 0
-18078 -18076 0
18078 7 18076 0
-18079 -18077 0
-18079 -18078 0
18079 18077 18078 0
-18092 16810 0
-18092 18079 0
18092 -16810 -18079 0
-18093 -16810 0
-18093 -18079 0
18093 16810 18079 0
-18094 -18092 0
-18094 -18093 0
18094 18092 18093 0
-18089 58 0
-18089 64 0
18089 -58 -64 0
-18090 -58 0
-18090 -64 0
18090 58 64 0
-18091 -18089 0
-18091 -18090 0
18091 18089 18090 0
-18113 17782 0
-18113 18091 0
18113 -17782 -18091 0
-18114 -17782 0
-18114 -18091 0
18114 17782 18091 0
-18115 -18113 0
-18115 -18114 0
18115 18113 18114 0
-18125 10702 0
-18125 18115 0
18125 -10702 -18115 0
-18126 -10702 0
-18126 -18115 0
18126 10702 18115 0
-18127 -18125 0
-18127 -18126 0
18127 18125 18126 0
-18128 18094 0
-18128 18127 0
18128 -18094 -18127 0
-18129 -18094 0
-18129 -18127 0
18129 18094 18127 0
-18130 -18128 0
-18130 -18129 0
18130 18128 18129 0
-18158 15 0
-18158 10489 0
18158 -15 -10489 0
-18159 -15 0
-18159 -10489 0
18159 15 10489 0
-18160 -18158 0
-18160 -18159 0
18160 18158 18159 0
-18176 16852 0
-18176 18160 0
18176 -16852 -18160 0
-18177 -16852 0
-18177 -18160 0
18177 16852 18160 0
-18178 -18176 0
-18178 -18177 0
18178 18176 18177 0
-18155 54 0
-18155 57 0
18155 -54 -57 0
-18156 -54 0
-18156 -57 0
18156 54 57 0
-18157 -18155 0
-18157 -18156 0
18157 18155 18156 0
-18167 51 0
-18167 18157 0
18167 -51 -18157 0
-18168 -51 0
-18168 -18157 0
18168 51 18157 0
-18169 -18167 0
-18169 -18168 0
18169 18167 18168 0
-18200 63 0
-18200 18169 0
18200 -63 -18169 0
-18201 -63 0
-18201 -18169 0
18201 63 18169 0
-18202 -18200 0
-18202 -18201 0
18202 18200 18201 0
-18209 14599 0
-18209 18202 0
18209 -14599 -18202 0
-18210 -14599 0
-18210 -18202 0
18210 14599 18202 0
-18211 -18209 0
-18211 -18210 0
18211 18209 18210 0
-18212 18178 0
-18212 18211 0
18212 -18178 -18211 0
-18213 -18178 0
-18213 -18211 0
18213 18178 18211 0
-18214 -18212 0
-18214 -18213 0
18214 18212 18213 0
-18239 10507 0
-18239 17701 0
18239 -10507 -17701 0
-18240 -10507 0
-18240 -17701 0
18240 10507 17701 0
-18241 -18239 0
-18241 -18240 0
18241 18239 18240 0
-18257 16888 0
-18257 18241 0
18257 -16888 -18241 0
-18258 -16888 0
-18258 -18241 0
18258 16888 18241 0
-18259 -18257 0
-18259 -18258 0
18259 18257 18258 0
-9446 41 0
-9446 44 0
9446 -41 -44 0
-9447 -41 0
-9447 -44 0
9447 41 44 0
-9448 -9446 0
-9448 -9447 0
9448 9446 9447 0
-18251 56 0
-18251 17980 0
18251 -56 -17980 0
-18252 -56 0
-18252 -17980 0
18252 56 17980 0
-18253 -18251 0
-18253 -18252 0
18253 18251 18252 0
-18284 62 0
-18284 18253 0
18284 -62 -18253 0
-18285 -62 0
-18285 -18253 0
18285 62 18253 0
-18286 -18284 0
-18286 -18285 0
18286 18284 18285 0
-18290 9448 0
-18290 18286 0
18290 -9448 -18286 0
-18291 -9448 0
-18291 -18286 0
18291 9448 18286 0
-18292 -18290 0
-18292 -18291 0
18292 18290 18291 0
-18293 18259 0
-18293 18292 0
18293 -18259 -18292 0
-18294 -18259 0
-18294 -18292 0
18294 18259 18292 0
-18295 -18293 0
-18295 -18294 0
18295 18293 18294 0
-18314 -18214 0
-18314 -18295 0
18314 18214 18295 0
-18315 -18130 0
-18315 18314 0
18315 18130 -18314 0
-18316 -18043 0
-18316 18315 0
18316 18043 -18315 0
-18317 -17977 0
-18317 18316 0
18317 17977 -18316 0
-18318 -17878 0
-18318 18317 0
18318 17878 -18317 0
-18319 -17779 0
-18319 18318 0
18319 17779 -18318 0
-18320 -17698 0
-18320 18319 0
18320 17698 -18319 0
-18321 -17620 0
-18321 18320 0
18321 17620 -18320 0
-18322 -17554 0
-18322 18321 0
18322 17554 -18321 0
-18323 -17488 0
-18323 18322 0
18323 17488 -18322 0
-18324 -17419 0
-18324 18323 0
18324 17419 -18323 0
-18325 -17353 0
-18325 18324 0
18325 17353 -18324 0
-18326 -17326 0
-18326 18325 0
18326 17326 -18325 0
-18327 -17299 0
-18327 18326 0
18327 17299 -18326 0
-18328 -17257 0
-18328 18327 0
18328 17257 -18327 0
-18329 -17209 0
-18329 18328 0
18329 17209 -18328 0
-18330 -17161 0
-18330 18329 0
18330 17161 -18329 0
-18331 -8418 0
-18331 18330 0
18331 8418 -18330 0
-18332 -17134 0
-18332 18331 0
18332 17134 -18331 0
-18333 -17095 0
-18333 18332 0
18333 17095 -18332 0
-18334 -17047 0
-18334 18333 0
18334 17047 -18333 0
-18335 -17002 0
-18335 18334 0
18335 17002 -18334 0
-18336 -16957 0
-18336 18335 0
18336 16957 -18335 0
-18337 -16930 0
-18337 18336 0
18337 16930 -18336 0
-18338 -16876 0
-18338 18337 0
18338 16876 -18337 0
-18339 -16834 0
-18339 18338 0
18339 16834 -18338 0
-18340 -16783 0
-18340 18339 0
18340 16783 -18339 0
-18341 -16729 0
-18341 18340 0
18341 16729 -18340 0
-18342 -16672 0
-18342 18341 0
18342 16672 -18341 0
-18343 -16600 0
-18343 18342 0
18343 16600 -18342 0
-18344 -16555 0
-18344 18343 0
18344 16555 -18343 0
-18345 -16501 0
-18345 18344 0
18345 16501 -18344 0
-18346 -16435 0
-18346 18345 0
18346 16435 -18345 0
-18347 -16363 0
-18347 18346 0
18347 16363 -18346 0
-18348 -16303 0
-18348 18347 0
18348 16303 -18347 0
-18349 -16252 0
-18349 18348 0
18349 16252 -18348 0
-18350 -16165 0
-18350 18349 0
18350 16165 -18349 0
-18351 -16072 0
-18351 18350 0
18351 16072 -18350 0
-18352 -15985 0
-18352 18351 0
18352 15985 -18351 0
-18353 -15889 0
-18353 18352 0
18353 15889 -18352 0
-18354 -15802 0
-18354 18353 0
18354 15802 -18353 0
-18355 -15721 0
-18355 18354 0
18355 15721 -18354 0
-18356 -15604 0
-18356 18355 0
18356 15604 -18355 0
-18357 -15466 0
-18357 18356 0
18357 15466 -18356 0
-18358 -15346 0
-18358 18357 0
18358 15346 -18357 0
-18359 -15205 0
-18359 18358 0
18359 15205 -18358 0
-18360 -15055 0
-18360 18359 0
18360 15055 -18359 0
-18361 -14920 0
-18361 18360 0
18361 14920 -18360 0
-18362 -14767 0
-18362 18361 0
18362 14767 -18361 0
-18363 -14578 0
-18363 18362 0
18363 14578 -18362 0
-18364 -14380 0
-18364 18363 0
18364 14380 -18363 0
-18365 -14131 0
-18365 18364 0
18365 14131 -18364 0
-18366 -13894 0
-18366 18365 0
18366 13894 -18365 0
-18367 -13696 0
-18367 18366 0
18367 13696 -18366 0
-18368 -13468 0
-18368 18367 0
18368 13468 -18367 0
-18369 -13168 0
-18369 18368 0
18369 13168 -18368 0
-18370 -12892 0
-18370 18369 0
18370 12892 -18369 0
-18371 -12598 0
-18371 18370 0
18371 12598 -18370 0
-18372 -12277 0
-18372 18371 0
18372 12277 -18371 0
-18373 -12007 0
-18373 18372 0
18373 12007 -18372 0
-18374 -11857 0
-18374 18373 0
18374 11857 -18373 0
-18375 11716 0
-18375 18374 0
18375 -11716 -18374 0
-18376 11590 0
-18376 18375 0
18376 -11590 -18375 0
-18377 11428 0
-18377 18376 0
18377 -11428 -18376 0
-18378 11248 0
-18378 18377 0
18378 -11248 -18377 0
-18379 11068 0
-18379 18378 0
18379 -11068 -18378 0
-18380 10888 0
-18380 18379 0
18380 -10888 -18379 0
-18381 10672 0
-18381 18380 0
18381 -10672 -18380 0
-18382 10486 0
-18382 18381 0
18382 -10486 -18381 0
-18383 10297 0
-18383 18382 0
18383 -10297 -18382 0
-18384 10105 0
-18384 18383 0
18384 -10105 -18383 0
-18385 9937 0
-18385 18384 0
18385 -9937 -18384 0
-18386 9688 0
-18386 18385 0
18386 -9688 -18385 0
-18387 9433 0
-18387 18386 0
18387 -9433 -18386 0
-18388 9208 0
-18388 18387 0
18388 -9208 -18387 0
-18389 8950 0
-18389 18388 0
18389 -8950 -18388 0
-18390 8674 0
-18390 18389 0
18390 -8674 -18389 0
-18391 8419 0
-18391 -18390 0
18391 -8419 18390 0
-18426 -225 0
-18426 233 0
18426 225 -233 0
-18421 -224 0
-18421 232 0
18421 224 -232 0
-18416 -223 0
-18416 231 0
18416 223 -231 0
-18411 -222 0
-18411 230 0
18411 222 -230 0
-18406 -221 0
-18406 229 0
18406 221 -229 0
-18401 -220 0
-18401 228 0
18401 220 -228 0
-18396 -219 0
-18396 227 0
18396 219 -227 0
-18392 -218 0
-18392 226 0
18392 218 -226 0
-18393 218 0
-18393 -226 0
18393 -218 226 0
-18394 -18392 0
-18394 -18393 0
18394 18392 18393 0
-18395 -18392 0
-18395 -18394 0
18395 18392 18394 0
-18397 219 0
-18397 -227 0
18397 -219 227 0
-18398 -18396 0
-18398 -18397 0
18398 18396 18397 0
-18399 -18395 0
-18399 18398 0
18399 18395 -18398 0
-18400 -18396 0
-18400 -18399 0
18400 18396 18399 0
-18402 220 0
-18402 -228 0
18402 -220 228 0
-18403 -18401 0
-18403 -18402 0
18403 18401 18402 0
-18404 -18400 0
-18404 18403 0
18404 18400 -18403 0
-18405 -18401 0
-18405 -18404 0
18405 18401 18404 0
-18407 221 0
-18407 -229 0
18407 -221 229 0
-18408 -18406 0
-18408 -18407 0
18408 18406 18407 0
-18409 -18405 0
-18409 18408 0
18409 18405 -18408 0
-18410 -18406 0
-18410 -18409 0
18410 18406 18409 0
-18412 222 0
-18412 -230 0
18412 -222 230 0
-18413 -18411 0
-18413 -18412 0
18413 18411 18412 0
-18414 -18410 0
-18414 18413 0
18414 18410 -18413 0
-18415 -18411 0
-18415 -18414 0
18415 18411 18414 0
-18417 223 0
-18417 -231 0
18417 -223 231 0
-18418 -18416 0
-18418 -18417 0
18418 18416 18417 0
-18419 -18415 0
-18419 18418 0
18419 18415 -18418 0
-18420 -18416 0
-18420 -18419 0
18420 18416 18419 0
-18422 224 0
-18422 -232 0
18422 -224 232 0
-18423 -18421 0
-18423 -18422 0
18423 18421 18422 0
-18424 -18420 0
-18424 18423 0
18424 18420 -18423 0
-18425 -18421 0
-18425 -18424 0
18425 18421 18424 0
-18427 225 0
-18427 -233 0
18427 -225 233 0
-18428 -18426 0
-18428 -18427 0
18428 18426 18427 0
-18429 -18425 0
-18429 18428 0
18429 18425 -18428 0
-18430 -18426 0
-18430 -18429 0
18430 18426 18429 0
-18431 18391 0
-18431 -18430 0
18431 -18391 18430 0
-18466 -217 0
-18466 225 0
18466 217 -225 0
-18461 -216 0
-18461 224 0
18461 216 -224 0
-18456 -215 0
-18456 223 0
18456 215 -223 0
-18451 -214 0
-18451 222 0
18451 214 -222 0
-18446 -213 0
-18446 221 0
18446 213 -221 0
-18441 -212 0
-18441 220 0
18441 212 -220 0
-18436 -211 0
-18436 219 0
18436 211 -219 0
-18432 -210 0
-18432 218 0
18432 210 -218 0
-18433 210 0
-18433 -218 0
18433 -210 218 0
-18434 -18432 0
-18434 -18433 0
18434 18432 18433 0
-18435 -18432 0
-18435 -18434 0
18435 18432 18434 0
-18437 211 0
-18437 -219 0
18437 -211 219 0
-18438 -18436 0
-18438 -18437 0
18438 18436 18437 0
-18439 -18435 0
-18439 18438 0
18439 18435 -18438 0
-18440 -18436 0
-18440 -18439 0
18440 18436 18439 0
-18442 212 0
-18442 -220 0
18442 -212 220 0
-18443 -18441 0
-18443 -18442 0
18443 18441 18442 0
-18444 -18440 0
-18444 18443 0
18444 18440 -18443 0
-18445 -18441 0
-18445 -18444 0
18445 18441 18444 0
-18447 213 0
-18447 -221 0
18447 -213 221 0
-18448 -18446 0
-18448 -18447 0
18448 18446 18447 0
-18449 -18445 0
-18449 18448 0
18449 18445 -18448 0
-18450 -18446 0
-18450 -18449 0
18450 18446 18449 0
-18452 214 0
-18452 -222 0
18452 -214 222 0
-18453 -18451 0
-18453 -18452 0
18453 18451 18452 0
-18454 -18450 0
-18454 18453 0
18454 18450 -18453 0
-18455 -18451 0
-18455 -18454 0
18455 18451 18454 0
-18457 215 0
-18457 -223 0
18457 -215 223 0
-18458 -18456 0
-18458 -18457 0
18458 18456 18457 0
-18459 -18455 0
-18459 18458 0
18459 18455 -18458 0
-18460 -18456 0
-18460 -18459 0
18460 18456 18459 0
-18462 216 0
-18462 -224 0
18462 -216 224 0
-18463 -18461 0
-18463 -18462 0
18463 18461 18462 0
-18464 -18460 0
-18464 18463 0
18464 18460 -18463 0
-18465 -18461 0
-18465 -18464 0
18465 18461 18464 0
-18467 217 0
-18467 -225 0
18467 -217 225 0
-18468 -18466 0
-18468 -18467 0
18468 18466 18467 0
-18469 -18465 0
-18469 18468 0
18469 18465 -18468 0
-18470 -18466 0
-18470 -18469 0
18470 18466 18469 0
-18471 18431 0
-18471 -18470 0
18471 -18431 18470 0
-18506 -209 0
-18506 217 0
18506 209 -217 0
-18501 -208 0
-18501 216 0
18501 208 -216 0
-18496 -207 0
-18496 215 0
18496 207 -215 0
-18491 -206 0
-18491 214 0
18491 206 -214 0
-18486 -205 0
-18486 213 0
18486 205 -213 0
-18481 -204 0
-18481 212 0
18481 204 -212 0
-18476 -203 0
-18476 211 0
18476 203 -211 0
-18472 -202 0
-18472 210 0
18472 202 -210 0
-18473 202 0
-18473 -210 0
18473 -202 210 0
-18474 -18472 0
-18474 -18473 0
18474 18472 18473 0
-18475 -18472 0
-18475 -18474 0
18475 18472 18474 0
-18477 203 0
-18477 -211 0
18477 -203 211 0
-18478 -18476 0
-18478 -18477 0
18478 18476 18477 0
-18479 -18475 0
-18479 18478 0
18479 18475 -18478 0
-18480 -18476 0
-18480 -18479 0
18480 18476 18479 0
-18482 204 0
-18482 -212 0
18482 -204 212 0
-18483 -18481 0
-18483 -18482 0
18483 18481 18482 0
-18484 -18480 0
-18484 18483 0
18484 18480 -18483 0
-18485 -18481 0
-18485 -18484 0
18485 18481 18484 0
-18487 205 0
-18487 -213 0
18487 -205 213 0
-18488 -18486 0
-18488 -18487 0
18488 18486 18487 0
-18489 -18485 0
-18489 18488 0
18489 18485 -18488 0
-18490 -18486 0
-18490 -18489 0
18490 18486 18489 0
-18492 206 0
-18492 -214 0
18492 -206 214 0
-18493 -18491 0
-18493 -18492 0
18493 18491 18492 0
-18494 -18490 0
-18494 18493 0
18494 18490 -18493 0
-18495 -18491 0
-18495 -18494 0
18495 18491 18494 0
-18497 207 0
-18497 -215 0
18497 -207 215 0
-18498 -18496 0
-18498 -18497 0
18498 18496 18497 0
-18499 -18495 0
-18499 18498 0
18499 18495 -18498 0
-18500 -18496 0
-18500 -18499 0
18500 18496 18499 0
-18502 208 0
-18502 -216 0
18502 -208 216 0
-18503 -18501 0
-18503 -18502 0
18503 18501 18502 0
-18504 -18500 0
-18504 18503 0
18504 18500 -18503 0
-18505 -18501 0
-18505 -18504 0
18505 18501 18504 0
-18507 209 0
-18507 -217 0
18507 -209 217 0
-18508 -18506 0
-18508 -18507 0
18508 18506 18507 0
-18509 -18505 0
-18509 18508 0
18509 18505 -18508 0
-18510 -18506 0
-18510 -18509 0
18510 18506 18509 0
-18511 18471 0
-18511 -18510 0
18511 -18471 18510 0
-18546 -201 0
-18546 209 0
18546 201 -209 0
-18541 -200 0
-18541 208 0
18541 200 -208 0
-18536 -199 0
-18536 207 0
18536 199 -207 0
-18531 -198 0
-18531 206 0
18531 198 -206 0
-18526 -197 0
-18526 205 0
18526 197 -205 0
-18521 -196 0
-18521 204 0
18521 196 -204 0
-18516 -195 0
-18516 203 0
18516 195 -203 0
-18512 -194 0
-18512 202 0
18512 194 -202 0
-18513 194 0
-18513 -202 0
18513 -194 202 0
-18514 -18512 0
-18514 -18513 0
18514 18512 18513 0
-18515 -18512 0
-18515 -18514 0
18515 18512 18514 0
-18517 195 0
-18517 -203 0
18517 -195 203 0
-18518 -18516 0
-18518 -18517 0
18518 18516 18517 0
-18519 -18515 0
-18519 18518 0
18519 18515 -18518 0
-18520 -18516 0
-18520 -18519 0
18520 18516 18519 0
-18522 196 0
-18522 -204 0
18522 -196 204 0
-18523 -18521 0
-18523 -18522 0
18523 18521 18522 0
-18524 -18520 0
-18524 18523 0
18524 18520 -18523 0
-18525 -18521 0
-18525 -18524 0
18525 18521 18524 0
-18527 197 0
-18527 -205 0
18527 -197 205 0
-18528 -18526 0
-18528 -18527 0
18528 18526 18527 0
-18529 -18525 0
-18529 18528 0
18529 18525 -18528 0
-18530 -18526 0
-18530 -18529 0
18530 18526 18529 0
-18532 198 0
-18532 -206 0
18532 -198 206 0
-18533 -18531 0
-18533 -18532 0
18533 18531 18532 0
-18534 -18530 0
-18534 18533 0
18534 18530 -18533 0
-18535 -18531 0
-18535 -18534 0
18535 18531 18534 0
-18537 199 0
-18537 -207 0
18537 -199 207 0
-18538 -18536 0
-18538 -18537 0
18538 18536 18537 0
-18539 -18535 0
-18539 18538 0
18539 18535 -18538 0
-18540 -18536 0
-18540 -18539 0
18540 18536 18539 0
-18542 200 0
-18542 -208 0
18542 -200 208 0
-18543 -18541 0
-18543 -18542 0
18543 18541 18542 0
-18544 -18540 0
-18544 18543 0
18544 18540 -18543 0
-18545 -18541 0
-18545 -18544 0
18545 18541 18544 0
-18547 201 0
-18547 -209 0
18547 -201 209 0
-18548 -18546 0
-18548 -18547 0
18548 18546 18547 0
-18549 -18545 0
-18549 18548 0
18549 18545 -18548 0
-18550 -18546 0
-18550 -18549 0
18550 18546 18549 0
-18551 18511 0
-18551 -18550 0
18551 -18511 18550 0
-18586 -193 0
-18586 201 0
18586 193 -201 0
-18581 -192 0
-18581 200 0
18581 192 -200 0
-18576 -191 0
-18576 199 0
18576 191 -199 0
-18571 -190 0
-18571 198 0
18571 190 -198 0
-18566 -189 0
-18566 197 0
18566 189 -197 0
-18561 -188 0
-18561 196 0
18561 188 -196 0
-18556 -187 0
-18556 195 0
18556 187 -195 0
-18552 -186 0
-18552 194 0
18552 186 -194 0
-18553 186 0
-18553 -194 0
18553 -186 194 0
-18554 -18552 0
-18554 -18553 0
18554 18552 18553 0
-18555 -18552 0
-18555 -18554 0
18555 18552 18554 0
-18557 187 0
-18557 -195 0
18557 -187 195 0
-18558 -18556 0
-18558 -18557 0
18558 18556 18557 0
-18559 -18555 0
-18559 18558 0
18559 18555 -18558 0
-18560 -18556 0
-18560 -18559 0
18560 18556 18559 0
-18562 188 0
-18562 -196 0
18562 -188 196 0
-18563 -18561 0
-18563 -18562 0
18563 18561 18562 0
-18564 -18560 0
-18564 18563 0
18564 18560 -18563 0
-18565 -18561 0
-18565 -18564 0
18565 18561 18564 0
-18567 189 0
-18567 -197 0
18567 -189 197 0
-18568 -18566 0
-18568 -18567 0
18568 18566 18567 0
-18569 -18565 0
-18569 18568 0
18569 18565 -18568 0
-18570 -18566 0
-18570 -18569 0
18570 18566 18569 0
-18572 190 0
-18572 -198 0
18572 -190 198 0
-18573 -18571 0
-18573 -18572 0
18573 18571 18572 0
-18574 -18570 0
-18574 18573 0
18574 18570 -18573 0
-18575 -18571 0
-18575 -18574 0
18575 18571 18574 0
-18577 191 0
-18577 -199 0
18577 -191 199 0
-18578 -18576 0
-18578 -18577 0
18578 18576 18577 0
-18579 -18575 0
-18579 18578 0
18579 18575 -18578 0
-18580 -18576 0
-18580 -18579 0
18580 18576 18579 0
-18582 192 0
-18582 -200 0
18582 -192 200 0
-18583 -18581 0
-18583 -18582 0
18583 18581 18582 0
-18584 -18580 0
-18584 18583 0
18584 18580 -18583 0
-18585 -18581 0
-18585 -18584 0
18585 18581 18584 0
-18587 193 0
-18587 -201 0
18587 -193 201 0
-18588 -18586 0
-18588 -18587 0
18588 18586 18587 0
-18589 -18585 0
-18589 18588 0
18589 18585 -18588 0
-18590 -18586 0
-18590 -18589 0
18590 18586 18589 0
-18591 18551 0
-18591 -18590 0
18591 -18551 18590 0
-18626 -185 0
-18626 193 0
18626 185 -193 0
-18621 -184 0
-18621 192 0
18621 184 -192 0
-18616 -183 0
-18616 191 0
18616 183 -191 0
-18611 -182 0
-18611 190 0
18611 182 -190 0
-18606 -181 0
-18606 189 0
18606 181 -189 0
-18601 -180 0
-18601 188 0
18601 180 -188 0
-18596 -179 0
-18596 187 0
18596 179 -187 0
-18592 -178 0
-18592 186 0
18592 178 -186 0
-18593 178 0
-18593 -186 0
18593 -178 186 0
-18594 -18592 0
-18594 -18593 0
18594 18592 18593 0
-18595 -18592 0
-18595 -18594 0
18595 18592 18594 0
-18597 179 0
-18597 -187 0
18597 -179 187 0
-18598 -18596 0
-18598 -18597 0
18598 18596 18597 0
-18599 -18595 0
-18599 18598 0
18599 18595 -18598 0
-18600 -18596 0
-18600 -18599 0
18600 18596 18599 0
-18602 180 0
-18602 -188 0
18602 -180 188 0
-18603 -18601 0
-18603 -18602 0
18603 18601 18602 0
-18604 -18600 0
-18604 18603 0
18604 18600 -18603 0
-18605 -18601 0
-18605 -18604 0
18605 18601 18604 0
-18607 181 0
-18607 -189 0
18607 -181 189 0
-18608 -18606 0
-18608 -18607 0
18608 18606 18607 0
-18609 -18605 0
-18609 18608 0
18609 18605 -18608 0
-18610 -18606 0
-18610 -18609 0
18610 18606 18609 0
-18612 182 0
-18612 -190 0
18612 -182 190 0
-18613 -18611 0
-18613 -18612 0
18613 18611 18612 0
-18614 -18610 0
-18614 18613 0
18614 18610 -18613 0
-18615 -18611 0
-18615 -18614 0
18615 18611 18614 0
-18617 183 0
-18617 -191 0
18617 -183 191 0
-18618 -18616 0
-18618 -18617 0
18618 18616 18617 0
-18619 -18615 0
-18619 18618 0
18619 18615 -18618 0
-18620 -18616 0
-18620 -18619 0
18620 18616 18619 0
-18622 184 0
-18622 -192 0
18622 -184 192 0
-18623 -18621 0
-18623 -18622 0
18623 18621 18622 0
-18624 -18620 0
-18624 18623 0
18624 18620 -18623 0
-18625 -18621 0
-18625 -18624 0
18625 18621 18624 0
-18627 185 0
-18627 -193 0
18627 -185 193 0
-18628 -18626 0
-18628 -18627 0
18628 18626 18627 0
-18629 -18625 0
-18629 18628 0
18629 18625 -18628 0
-18630 -18626 0
-18630 -18629 0
18630 18626 18629 0
-18631 18591 0
-18631 -18630 0
18631 -18591 18630 0
-18666 -177 0
-18666 185 0
18666 177 -185 0
-18661 -176 0
-18661 184 0
18661 176 -184 0
-18656 -175 0
-18656 183 0
18656 175 -183 0
-18651 -174 0
-18651 182 0
18651 174 -182 0
-18646 -173 0
-18646 181 0
18646 173 -181 0
-18641 -172 0
-18641 180 0
18641 172 -180 0
-18636 -171 0
-18636 179 0
18636 171 -179 0
-18632 -170 0
-18632 178 0
18632 170 -178 0
-18633 170 0
-18633 -178 0
18633 -170 178 0
-18634 -18632 0
-18634 -18633 0
18634 18632 18633 0
-18635 -18632 0
-18635 -18634 0
18635 18632 18634 0
-18637 171 0
-18637 -179 0
18637 -171 179 0
-18638 -18636 0
-18638 -18637 0
18638 18636 18637 0
-18639 -18635 0
-18639 18638 0
18639 18635 -18638 0
-18640 -18636 0
-18640 -18639 0
18640 18636 18639 0
-18642 172 0
-18642 -180 0
18642 -172 180 0
-18643 -18641 0
-18643 -18642 0
18643 18641 18642 0
-18644 -18640 0
-18644 18643 0
18644 18640 -18643 0
-18645 -18641 0
-18645 -18644 0
18645 18641 18644 0
-18647 173 0
-18647 -181 0
18647 -173 181 0
-18648 -18646 0
-18648 -18647 0
18648 18646 18647 0
-18649 -18645 0
-18649 18648 0
18649 18645 -18648 0
-18650 -18646 0
-18650 -18649 0
18650 18646 18649 0
-18652 174 0
-18652 -182 0
18652 -174 182 0
-18653 -18651 0
-18653 -18652 0
18653 18651 18652 0
-18654 -18650 0
-18654 18653 0
18654 18650 -18653 0
-18655 -18651 0
-18655 -18654 0
18655 18651 18654 0
-18657 175 0
-18657 -183 0
18657 -175 183 0
-18658 -18656 0
-18658 -18657 0
18658 18656 18657 0
-18659 -18655 0
-18659 18658 0
18659 18655 -18658 0
-18660 -18656 0
-18660 -18659 0
18660 18656 18659 0
-18662 176 0
-18662 -184 0
18662 -176 184 0
-18663 -18661 0
-18663 -18662 0
18663 18661 18662 0
-18664 -18660 0
-18664 18663 0
18664 18660 -18663 0
-18665 -18661 0
-18665 -18664 0
18665 18661 18664 0
-18667 177 0
-18667 -185 0
18667 -177 185 0
-18668 -18666 0
-18668 -18667 0
18668 18666 18667 0
-18669 -18665 0
-18669 18668 0
18669 18665 -18668 0
-18670 -18666 0
-18670 -18669 0
18670 18666 18669 0
-18671 18631 0
-18671 -18670 0
18671 -18631 18670 0
-18706 -169 0
-18706 177 0
18706 169 -177 0
-18701 -168 0
-18701 176 0
18701 168 -176 0
-18696 -167 0
-18696 175 0
18696 167 -175 0
-18691 -166 0
-18691 174 0
18691 166 -174 0
-18686 -165 0
-18686 173 0
18686 165 -173 0
-18681 -164 0
-18681 172 0
18681 164 -172 0
-18676 -163 0
-18676 171 0
18676 163 -171 0
-18672 -162 0
-18672 170 0
18672 162 -170 0
-18673 162 0
-18673 -170 0
18673 -162 170 0
-18674 -18672 0
-18674 -18673 0
18674 18672 18673 0
-18675 -18672 0
-18675 -18674 0
18675 18672 18674 0
-18677 163 0
-18677 -171 0
18677 -163 171 0
-18678 -18676 0
-18678 -18677 0
18678 18676 18677 0
-18679 -18675 0
-18679 18678 0
18679 18675 -18678 0
-18680 -18676 0
-18680 -18679 0
18680 18676 18679 0
-18682 164 0
-18682 -172 0
18682 -164 172 0
-18683 -18681 0
-18683 -18682 0
18683 18681 18682 0
-18684 -18680 0
-18684 18683 0
18684 18680 -18683 0
-18685 -18681 0
-18685 -18684 0
18685 18681 18684 0
-18687 165 0
-18687 -173 0
18687 -165 173 0
-18688 -18686 0
-18688 -18687 0
18688 18686 18687 0
-18689 -18685 0
-18689 18688 0
18689 18685 -18688 0
-18690 -18686 0
-18690 -18689 0
18690 18686 18689 0
-18692 166 0
-18692 -174 0
18692 -166 174 0
-18693 -18691 0
-18693 -18692 0
18693 18691 18692 0
-18694 -18690 0
-18694 18693 0
18694 18690 -18693 0
-18695 -18691 0
-18695 -18694 0
18695 18691 18694 0
-18697 167 0
-18697 -175 0
18697 -167 175 0
-18698 -18696 0
-18698 -18697 0
18698 18696 18697 0
-18699 -18695 0
-18699 18698 0
18699 18695 -18698 0
-18700 -18696 0
-18700 -18699 0
18700 18696 18699 0
-18702 168 0
-18702 -176 0
18702 -168 176 0
-18703 -18701 0
-18703 -18702 0
18703 18701 18702 0
-18704 -18700 0
-18704 18703 0
18704 18700 -18703 0
-18705 -18701 0
-18705 -18704 0
18705 18701 18704 0
-18707 169 0
-18707 -177 0
18707 -169 177 0
-18708 -18706 0
-18708 -18707 0
18708 18706 18707 0
-18709 -18705 0
-18709 18708 0
18709 18705 -18708 0
-18710 -18706 0
-18710 -18709 0
18710 18706 18709 0
-18711 18671 0
-18711 -18710 0
18711 -18671 18710 0
-18746 -161 0
-18746 169 0
18746 161 -169 0
-18741 -160 0
-18741 168 0
18741 160 -168 0
-18736 -159 0
-18736 167 0
18736 159 -167 0
-18731 -158 0
-18731 166 0
18731 158 -166 0
-18726 -157 0
-18726 165 0
18726 157 -165 0
-18721 -156 0
-18721 164 0
18721 156 -164 0
-18716 -155 0
-18716 163 0
18716 155 -163 0
-18712 -154 0
-18712 162 0
18712 154 -162 0
-18713 154 0
-18713 -162 0
18713 -154 162 0
-18714 -18712 0
-18714 -18713 0
18714 18712 18713 0
-18715 -18712 0
-18715 -18714 0
18715 18712 18714 0
-18717 155 0
-18717 -163 0
18717 -155 163 0
-18718 -18716 0
-18718 -18717 0
18718 18716 18717 0
-18719 -18715 0
-18719 18718 0
18719 18715 -18718 0
-18720 -18716 0
-18720 -18719 0
18720 18716 18719 0
-18722 156 0
-18722 -164 0
18722 -156 164 0
-18723 -18721 0
-18723 -18722 0
18723 18721 18722 0
-18724 -18720 0
-18724 18723 0
18724 18720 -18723 0
-18725 -18721 0
-18725 -18724 0
18725 18721 18724 0
-18727 157 0
-18727 -165 0
18727 -157 165 0
-18728 -18726 0
-18728 -18727 0
18728 18726 18727 0
-18729 -18725 0
-18729 18728 0
18729 18725 -18728 0
-18730 -18726 0
-18730 -18729 0
18730 18726 18729 0
-18732 158 0
-18732 -166 0
18732 -158 166 0
-18733 -18731 0
-18733 -18732 0
18733 18731 18732 0
-18734 -18730 0
-18734 18733 0
18734 18730 -18733 0
-18735 -18731 0
-18735 -18734 0
18735 18731 18734 0
-18737 159 0
-18737 -167 0
18737 -159 167 0
-18738 -18736 0
-18738 -18737 0
18738 18736 18737 0
-18739 -18735 0
-18739 18738 0
18739 18735 -18738 0
-18740 -18736 0
-18740 -18739 0
18740 18736 18739 0
-18742 160 0
-18742 -168 0
18742 -160 168 0
-18743 -18741 0
-18743 -18742 0
18743 18741 18742 0
-18744 -18740 0
-18744 18743 0
18744 18740 -18743 0
-18745 -18741 0
-18745 -18744 0
18745 18741 18744 0
-18747 161 0
-18747 -169 0
18747 -161 169 0
-18748 -18746 0
-18748 -18747 0
18748 18746 18747 0
-18749 -18745 0
-18749 18748 0
18749 18745 -18748 0
-18750 -18746 0
-18750 -18749 0
18750 18746 18749 0
-18751 18711 0
-18751 -18750 0
18751 -18711 18750 0
-18786 -153 0
-18786 161 0
18786 153 -161 0
-18781 -152 0
-18781 160 0
18781 152 -160 0
-18776 -151 0
-18776 159 0
18776 151 -159 0
-18771 -150 0
-18771 158 0
18771 150 -158 0
-18766 -149 0
-18766 157 0
18766 149 -157 0
-18761 -148 0
-18761 156 0
18761 148 -156 0
-18756 -147 0
-18756 155 0
18756 147 -155 0
-18752 -146 0
-18752 154 0
18752 146 -154 0
-18753 146 0
-18753 -154 0
18753 -146 154 0
-18754 -18752 0
-18754 -18753 0
18754 18752 18753 0
-18755 -18752 0
-18755 -18754 0
18755 18752 18754 0
-18757 147 0
-18757 -155 0
18757 -147 155 0
-18758 -18756 0
-18758 -18757 0
18758 18756 18757 0
-18759 -18755 0
-18759 18758 0
18759 18755 -18758 0
-18760 -18756 0
-18760 -18759 0
18760 18756 18759 0
-18762 148 0
-18762 -156 0
18762 -148 156 0
-18763 -18761 0
-18763 -18762 0
18763 18761 18762 0
-18764 -18760 0
-18764 18763 0
18764 18760 -18763 0
-18765 -18761 0
-18765 -18764 0
18765 18761 18764 0
-18767 149 0
-18767 -157 0
18767 -149 157 0
-18768 -18766 0
-18768 -18767 0
18768 18766 18767 0
-18769 -18765 0
-18769 18768 0
18769 18765 -18768 0
-18770 -18766 0
-18770 -18769 0
18770 18766 18769 0
-18772 150 0
-18772 -158 0
18772 -150 158 0
-18773 -18771 0
-18773 -18772 0
18773 18771 18772 0
-18774 -18770 0
-18774 18773 0
18774 18770 -18773 0
-18775 -18771 0
-18775 -18774 0
18775 18771 18774 0
-18777 151 0
-18777 -159 0
18777 -151 159 0
-18778 -18776 0
-18778 -18777 0
18778 18776 18777 0
-18779 -18775 0
-18779 18778 0
18779 18775 -18778 0
-18780 -18776 0
-18780 -18779 0
18780 18776 18779 0
-18782 152 0
-18782 -160 0
18782 -152 160 0
-18783 -18781 0
-18783 -18782 0
18783 18781 18782 0
-18784 -18780 0
-18784 18783 0
18784 18780 -18783 0
-18785 -18781 0
-18785 -18784 0
18785 18781 18784 0
-18787 153 0
-18787 -161 0
18787 -153 161 0
-18788 -18786 0
-18788 -18787 0
18788 18786 18787 0
-18789 -18785 0
-18789 18788 0
18789 18785 -18788 0
-18790 -18786 0
-18790 -18789 0
18790 18786 18789 0
-18791 18751 0
-18791 -18790 0
18791 -18751 18790 0
18791 0
