p cnf 52311 52087
181 -52191 0
-181 52191 0
301 -52311 0
-301 52311 0
300 -52310 0
-300 52310 0
299 -52309 0
-299 52309 0
298 -52308 0
-298 52308 0
297 -52307 0
-297 52307 0
296 -52306 0
-296 52306 0
294 -52304 0
-294 52304 0
295 -52305 0
-295 52305 0
-305 294 0
-305 295 0
305 -294 -295 0
-309 -296 0
-309 305 0
309 296 -305 0
-317 -297 0
-317 309 0
317 297 -309 0
-349 298 0
-349 317 0
349 -298 -317 0
-413 299 0
-413 349 0
413 -299 -349 0
-477 -300 0
-477 413 0
477 300 -413 0
-733 301 0
-733 477 0
733 -301 -477 0
293 -52303 0
-293 52303 0
292 -52302 0
-292 52302 0
291 -52301 0
-291 52301 0
290 -52300 0
-290 52300 0
289 -52299 0
-289 52299 0
288 -52298 0
-288 52298 0
286 -52296 0
-286 52296 0
287 -52297 0
-287 52297 0
-737 286 0
-737 287 0
737 -286 -287 0
-741 -288 0
-741 737 0
741 288 -737 0
-749 -289 0
-749 741 0
749 289 -741 0
-781 290 0
-781 749 0
781 -290 -749 0
-845 291 0
-845 781 0
845 -291 -781 0
-909 -292 0
-909 845 0
909 292 -845 0
-1165 293 0
-1165 909 0
1165 -293 -909 0
285 -52295 0
-285 52295 0
284 -52294 0
-284 52294 0
283 -52293 0
-283 52293 0
282 -52292 0
-282 52292 0
281 -52291 0
-281 52291 0
280 -52290 0
-280 52290 0
278 -52288 0
-278 52288 0
279 -52289 0
-279 52289 0
-1169 278 0
-1169 279 0
1169 -278 -279 0
-1173 -280 0
-1173 1169 0
1173 280 -1169 0
-1181 -281 0
-1181 1173 0
1181 281 -1173 0
-1213 282 0
-1213 1181 0
1213 -282 -1181 0
-1277 283 0
-1277 1213 0
1277 -283 -1213 0
-1341 -284 0
-1341 1277 0
1341 284 -1277 0
-1597 285 0
-1597 1341 0
1597 -285 -1341 0
277 -52287 0
-277 52287 0
276 -52286 0
-276 52286 0
275 -52285 0
-275 52285 0
274 -52284 0
-274 52284 0
273 -52283 0
-273 52283 0
272 -52282 0
-272 52282 0
270 -52280 0
-270 52280 0
271 -52281 0
-271 52281 0
-1601 270 0
-1601 271 0
1601 -270 -271 0
-1605 -272 0
-1605 1601 0
1605 272 -1601 0
-1613 -273 0
-1613 1605 0
1613 273 -1605 0
-1645 274 0
-1645 1613 0
1645 -274 -1613 0
-1709 275 0
-1709 1645 0
1709 -275 -1645 0
-1773 -276 0
-1773 1709 0
1773 276 -1709 0
-2029 277 0
-2029 1773 0
2029 -277 -1773 0
269 -52279 0
-269 52279 0
268 -52278 0
-268 52278 0
267 -52277 0
-267 52277 0
266 -52276 0
-266 52276 0
265 -52275 0
-265 52275 0
264 -52274 0
-264 52274 0
262 -52272 0
-262 52272 0
263 -52273 0
-263 52273 0
-2033 262 0
-2033 263 0
2033 -262 -263 0
-2037 -264 0
-2037 2033 0
2037 264 -2033 0
-2045 -265 0
-2045 2037 0
2045 265 -2037 0
-2077 266 0
-2077 2045 0
2077 -266 -2045 0
-2141 267 0
-2141 2077 0
2141 -267 -2077 0
-2205 -268 0
-2205 2141 0
2205 268 -2141 0
-2461 269 0
-2461 2205 0
2461 -269 -2205 0
261 -52271 0
-261 52271 0
260 -52270 0
-260 52270 0
259 -52269 0
-259 52269 0
258 -52268 0
-258 52268 0
257 -52267 0
-257 52267 0
256 -52266 0
-256 52266 0
254 -52264 0
-254 52264 0
255 -52265 0
-255 52265 0
-2465 254 0
-2465 255 0
2465 -254 -255 0
-2469 -256 0
-2469 2465 0
2469 256 -2465 0
-2477 -257 0
-2477 2469 0
2477 257 -2469 0
-2509 258 0
-2509 2477 0
2509 -258 -2477 0
-2573 259 0
-2573 2509 0
2573 -259 -2509 0
-2637 -260 0
-2637 2573 0
2637 260 -2573 0
-2893 261 0
-2893 2637 0
2893 -261 -2637 0
253 -52263 0
-253 52263 0
252 -52262 0
-252 52262 0
251 -52261 0
-251 52261 0
250 -52260 0
-250 52260 0
249 -52259 0
-249 52259 0
248 -52258 0
-248 52258 0
246 -52256 0
-246 52256 0
247 -52257 0
-247 52257 0
-2897 246 0
-2897 247 0
2897 -246 -247 0
-2901 -248 0
-2901 2897 0
2901 248 -2897 0
-2909 -249 0
-2909 2901 0
2909 249 -2901 0
-2941 250 0
-2941 2909 0
2941 -250 -2909 0
-3005 251 0
-3005 2941 0
3005 -251 -2941 0
-3069 -252 0
-3069 3005 0
3069 252 -3005 0
-3325 253 0
-3325 3069 0
3325 -253 -3069 0
245 -52255 0
-245 52255 0
244 -52254 0
-244 52254 0
243 -52253 0
-243 52253 0
242 -52252 0
-242 52252 0
241 -52251 0
-241 52251 0
240 -52250 0
-240 52250 0
238 -52248 0
-238 52248 0
239 -52249 0
-239 52249 0
-3329 238 0
-3329 239 0
3329 -238 -239 0
-3333 -240 0
-3333 3329 0
3333 240 -3329 0
-3341 -241 0
-3341 3333 0
3341 241 -3333 0
-3373 242 0
-3373 3341 0
3373 -242 -3341 0
-3437 243 0
-3437 3373 0
3437 -243 -3373 0
-3501 -244 0
-3501 3437 0
3501 244 -3437 0
-3757 245 0
-3757 3501 0
3757 -245 -3501 0
237 -52247 0
-237 52247 0
236 -52246 0
-236 52246 0
235 -52245 0
-235 52245 0
234 -52244 0
-234 52244 0
233 -52243 0
-233 52243 0
232 -52242 0
-232 52242 0
230 -52240 0
-230 52240 0
231 -52241 0
-231 52241 0
-3761 230 0
-3761 231 0
3761 -230 -231 0
-3765 -232 0
-3765 3761 0
3765 232 -3761 0
-3773 -233 0
-3773 3765 0
3773 233 -3765 0
-3805 234 0
-3805 3773 0
3805 -234 -3773 0
-3869 235 0
-3869 3805 0
3869 -235 -3805 0
-3933 -236 0
-3933 3869 0
3933 236 -3869 0
-4189 237 0
-4189 3933 0
4189 -237 -3933 0
229 -52239 0
-229 52239 0
228 -52238 0
-228 52238 0
227 -52237 0
-227 52237 0
226 -52236 0
-226 52236 0
225 -52235 0
-225 52235 0
224 -52234 0
-224 52234 0
222 -52232 0
-222 52232 0
223 -52233 0
-223 52233 0
-4193 222 0
-4193 223 0
4193 -222 -223 0
-4197 -224 0
-4197 4193 0
4197 224 -4193 0
-4205 -225 0
-4205 4197 0
4205 225 -4197 0
-4237 226 0
-4237 4205 0
4237 -226 -4205 0
-4301 227 0
-4301 4237 0
4301 -227 -4237 0
-4365 -228 0
-4365 4301 0
4365 228 -4301 0
-4621 229 0
-4621 4365 0
4621 -229 -4365 0
221 -52231 0
-221 52231 0
220 -52230 0
-220 52230 0
219 -52229 0
-219 52229 0
218 -52228 0
-218 52228 0
217 -52227 0
-217 52227 0
216 -52226 0
-216 52226 0
214 -52224 0
-214 52224 0
215 -52225 0
-215 52225 0
-4625 214 0
-4625 215 0
4625 -214 -215 0
-4629 -216 0
-4629 4625 0
4629 216 -4625 0
-4637 -217 0
-4637 4629 0
4637 217 -4629 0
-4669 218 0
-4669 4637 0
4669 -218 -4637 0
-4733 219 0
-4733 4669 0
4733 -219 -4669 0
-4797 -220 0
-4797 4733 0
4797 220 -4733 0
-5053 221 0
-5053 4797 0
5053 -221 -4797 0
213 -52223 0
-213 52223 0
212 -52222 0
-212 52222 0
211 -52221 0
-211 52221 0
210 -52220 0
-210 52220 0
209 -52219 0
-209 52219 0
208 -52218 0
-208 52218 0
206 -52216 0
-206 52216 0
207 -52217 0
-207 52217 0
-5057 206 0
-5057 207 0
5057 -206 -207 0
-5061 -208 0
-5061 5057 0
5061 208 -5057 0
-5069 -209 0
-5069 5061 0
5069 209 -5061 0
-5101 210 0
-5101 5069 0
5101 -210 -5069 0
-5165 211 0
-5165 5101 0
5165 -211 -5101 0
-5229 -212 0
-5229 5165 0
5229 212 -5165 0
-5485 213 0
-5485 5229 0
5485 -213 -5229 0
205 -52215 0
-205 52215 0
204 -52214 0
-204 52214 0
203 -52213 0
-203 52213 0
202 -52212 0
-202 52212 0
201 -52211 0
-201 52211 0
200 -52210 0
-200 52210 0
198 -52208 0
-198 52208 0
199 -52209 0
-199 52209 0
-5489 198 0
-5489 199 0
5489 -198 -199 0
-5493 -200 0
-5493 5489 0
5493 200 -5489 0
-5501 -201 0
-5501 5493 0
5501 201 -5493 0
-5533 202 0
-5533 5501 0
5533 -202 -5501 0
-5597 203 0
-5597 5533 0
5597 -203 -5533 0
-5661 -204 0
-5661 5597 0
5661 204 -5597 0
-5917 205 0
-5917 5661 0
5917 -205 -5661 0
197 -52207 0
-197 52207 0
196 -52206 0
-196 52206 0
195 -52205 0
-195 52205 0
194 -52204 0
-194 52204 0
193 -52203 0
-193 52203 0
192 -52202 0
-192 52202 0
190 -52200 0
-190 52200 0
191 -52201 0
-191 52201 0
-5921 190 0
-5921 191 0
5921 -190 -191 0
-5925 -192 0
-5925 5921 0
5925 192 -5921 0
-5933 -193 0
-5933 5925 0
5933 193 -5925 0
-5965 194 0
-5965 5933 0
5965 -194 -5933 0
-6029 195 0
-6029 5965 0
6029 -195 -5965 0
-6093 -196 0
-6093 6029 0
6093 196 -6029 0
-6349 197 0
-6349 6093 0
6349 -197 -6093 0
189 -52199 0
-189 52199 0
188 -52198 0
-188 52198 0
187 -52197 0
-187 52197 0
186 -52196 0
-186 52196 0
185 -52195 0
-185 52195 0
184 -52194 0
-184 52194 0
182 -52192 0
-182 52192 0
183 -52193 0
-183 52193 0
-6353 182 0
-6353 183 0
6353 -182 -183 0
-6357 -184 0
-6357 6353 0
6357 184 -6353 0
-6365 -185 0
-6365 6357 0
6365 185 -6357 0
-6397 186 0
-6397 6365 0
6397 -186 -6365 0
-6461 187 0
-6461 6397 0
6461 -187 -6397 0
-6525 -188 0
-6525 6461 0
6525 188 -6461 0
-6781 189 0
-6781 6525 0
6781 -189 -6525 0
-6961 -6349 0
-6961 -6781 0
6961 6349 6781 0
-7141 -5917 0
-7141 6961 0
7141 5917 -6961 0
-7321 -5485 0
-7321 7141 0
7321 5485 -7141 0
-7501 -5053 0
-7501 7321 0
7501 5053 -7321 0
-7681 -4621 0
-7681 7501 0
7681 4621 -7501 0
-7861 -4189 0
-7861 7681 0
7861 4189 -7681 0
-8041 -3757 0
-8041 7861 0
8041 3757 -7861 0
-8221 -3325 0
-8221 8041 0
8221 3325 -8041 0
-8401 -2893 0
-8401 8221 0
8401 2893 -8221 0
-8581 -2461 0
-8581 8401 0
8581 2461 -8401 0
-8761 -2029 0
-8761 8581 0
8761 2029 -8581 0
-8941 -1597 0
-8941 8761 0
8941 1597 -8761 0
-9121 -1165 0
-9121 8941 0
9121 1165 -8941 0
-9301 -733 0
-9301 9121 0
9301 733 -9121 0
-9839 181 0
-9839 9301 0
9839 -181 -9301 0
-9840 -181 0
-9840 -9301 0
9840 181 9301 0
-9841 -9839 0
-9841 -9840 0
9841 9839 9840 0
180 -52190 0
-180 52190 0
-304 -294 0
-304 295 0
304 294 -295 0
-308 -296 0
-308 304 0
308 296 -304 0
-316 -297 0
-316 308 0
316 297 -308 0
-348 298 0
-348 316 0
348 -298 -316 0
-412 299 0
-412 348 0
412 -299 -348 0
-476 -300 0
-476 412 0
476 300 -412 0
-732 301 0
-732 476 0
732 -301 -476 0
-736 -286 0
-736 287 0
736 286 -287 0
-740 -288 0
-740 736 0
740 288 -736 0
-748 -289 0
-748 740 0
748 289 -740 0
-780 290 0
-780 748 0
780 -290 -748 0
-844 291 0
-844 780 0
844 -291 -780 0
-908 -292 0
-908 844 0
908 292 -844 0
-1164 293 0
-1164 908 0
1164 -293 -908 0
-1168 -278 0
-1168 279 0
1168 278 -279 0
-1172 -280 0
-1172 1168 0
1172 280 -1168 0
-1180 -281 0
-1180 1172 0
1180 281 -1172 0
-1212 282 0
-1212 1180 0
1212 -282 -1180 0
-1276 283 0
-1276 1212 0
1276 -283 -1212 0
-1340 -284 0
-1340 1276 0
1340 284 -1276 0
-1596 285 0
-1596 1340 0
1596 -285 -1340 0
-1600 -270 0
-1600 271 0
1600 270 -271 0
-1604 -272 0
-1604 1600 0
1604 272 -1600 0
-1612 -273 0
-1612 1604 0
1612 273 -1604 0
-1644 274 0
-1644 1612 0
1644 -274 -1612 0
-1708 275 0
-1708 1644 0
1708 -275 -1644 0
-1772 -276 0
-1772 1708 0
1772 276 -1708 0
-2028 277 0
-2028 1772 0
2028 -277 -1772 0
-2032 -262 0
-2032 263 0
2032 262 -263 0
-2036 -264 0
-2036 2032 0
2036 264 -2032 0
-2044 -265 0
-2044 2036 0
2044 265 -2036 0
-2076 266 0
-2076 2044 0
2076 -266 -2044 0
-2140 267 0
-2140 2076 0
2140 -267 -2076 0
-2204 -268 0
-2204 2140 0
2204 268 -2140 0
-2460 269 0
-2460 2204 0
2460 -269 -2204 0
-2464 -254 0
-2464 255 0
2464 254 -255 0
-2468 -256 0
-2468 2464 0
2468 256 -2464 0
-2476 -257 0
-2476 2468 0
2476 257 -2468 0
-2508 258 0
-2508 2476 0
2508 -258 -2476 0
-2572 259 0
-2572 2508 0
2572 -259 -2508 0
-2636 -260 0
-2636 2572 0
2636 260 -2572 0
-2892 261 0
-2892 2636 0
2892 -261 -2636 0
-2896 -246 0
-2896 247 0
2896 246 -247 0
-2900 -248 0
-2900 2896 0
2900 248 -2896 0
-2908 -249 0
-2908 2900 0
2908 249 -2900 0
-2940 250 0
-2940 2908 0
2940 -250 -2908 0
-3004 251 0
-3004 2940 0
3004 -251 -2940 0
-3068 -252 0
-3068 3004 0
3068 252 -3004 0
-3324 253 0
-3324 3068 0
3324 -253 -3068 0
-3328 -238 0
-3328 239 0
3328 238 -239 0
-3332 -240 0
-3332 3328 0
3332 240 -3328 0
-3340 -241 0
-3340 3332 0
3340 241 -3332 0
-3372 242 0
-3372 3340 0
3372 -242 -3340 0
-3436 243 0
-3436 3372 0
3436 -243 -3372 0
-3500 -244 0
-3500 3436 0
3500 244 -3436 0
-3756 245 0
-3756 3500 0
3756 -245 -3500 0
-3760 -230 0
-3760 231 0
3760 230 -231 0
-3764 -232 0
-3764 3760 0
3764 232 -3760 0
-3772 -233 0
-3772 3764 0
3772 233 -3764 0
-3804 234 0
-3804 3772 0
3804 -234 -3772 0
-3868 235 0
-3868 3804 0
3868 -235 -3804 0
-3932 -236 0
-3932 3868 0
3932 236 -3868 0
-4188 237 0
-4188 3932 0
4188 -237 -3932 0
-4192 -222 0
-4192 223 0
4192 222 -223 0
-4196 -224 0
-4196 4192 0
4196 224 -4192 0
-4204 -225 0
-4204 4196 0
4204 225 -4196 0
-4236 226 0
-4236 4204 0
4236 -226 -4204 0
-4300 227 0
-4300 4236 0
4300 -227 -4236 0
-4364 -228 0
-4364 4300 0
4364 228 -4300 0
-4620 229 0
-4620 4364 0
4620 -229 -4364 0
-4624 -214 0
-4624 215 0
4624 214 -215 0
-4628 -216 0
-4628 4624 0
4628 216 -4624 0
-4636 -217 0
-4636 4628 0
4636 217 -4628 0
-4668 218 0
-4668 4636 0
4668 -218 -4636 0
-4732 219 0
-4732 4668 0
4732 -219 -4668 0
-4796 -220 0
-4796 4732 0
4796 220 -4732 0
-5052 221 0
-5052 4796 0
5052 -221 -4796 0
-5056 -206 0
-5056 207 0
5056 206 -207 0
-5060 -208 0
-5060 5056 0
5060 208 -5056 0
-5068 -209 0
-5068 5060 0
5068 209 -5060 0
-5100 210 0
-5100 5068 0
5100 -210 -5068 0
-5164 211 0
-5164 5100 0
5164 -211 -5100 0
-5228 -212 0
-5228 5164 0
5228 212 -5164 0
-5484 213 0
-5484 5228 0
5484 -213 -5228 0
-5488 -198 0
-5488 199 0
5488 198 -199 0
-5492 -200 0
-5492 5488 0
5492 200 -5488 0
-5500 -201 0
-5500 5492 0
5500 201 -5492 0
-5532 202 0
-5532 5500 0
5532 -202 -5500 0
-5596 203 0
-5596 5532 0
5596 -203 -5532 0
-5660 -204 0
-5660 5596 0
5660 204 -5596 0
-5916 205 0
-5916 5660 0
5916 -205 -5660 0
-5920 -190 0
-5920 191 0
5920 190 -191 0
-5924 -192 0
-5924 5920 0
5924 192 -5920 0
-5932 -193 0
-5932 5924 0
5932 193 -5924 0
-5964 194 0
-5964 5932 0
5964 -194 -5932 0
-6028 195 0
-6028 5964 0
6028 -195 -5964 0
-6092 -196 0
-6092 6028 0
6092 196 -6028 0
-6348 197 0
-6348 6092 0
6348 -197 -6092 0
-6352 -182 0
-6352 183 0
6352 182 -183 0
-6356 -184 0
-6356 6352 0
6356 184 -6352 0
-6364 -185 0
-6364 6356 0
6364 185 -6356 0
-6396 186 0
-6396 6364 0
6396 -186 -6364 0
-6460 187 0
-6460 6396 0
6460 -187 -6396 0
-6524 -188 0
-6524 6460 0
6524 188 -6460 0
-6780 189 0
-6780 6524 0
6780 -189 -6524 0
-6960 -6348 0
-6960 -6780 0
6960 6348 6780 0
-7140 -5916 0
-7140 6960 0
7140 5916 -6960 0
-7320 -5484 0
-7320 7140 0
7320 5484 -7140 0
-7500 -5052 0
-7500 7320 0
7500 5052 -7320 0
-7680 -4620 0
-7680 7500 0
7680 4620 -7500 0
-7860 -4188 0
-7860 7680 0
7860 4188 -7680 0
-8040 -3756 0
-8040 7860 0
8040 3756 -7860 0
-8220 -3324 0
-8220 8040 0
8220 3324 -8040 0
-8400 -2892 0
-8400 8220 0
8400 2892 -8220 0
-8580 -2460 0
-8580 8400 0
8580 2460 -8400 0
-8760 -2028 0
-8760 8580 0
8760 2028 -8580 0
-8940 -1596 0
-8940 8760 0
8940 1596 -8760 0
-9120 -1164 0
-9120 8940 0
9120 1164 -8940 0
-9300 -732 0
-9300 9120 0
9300 732 -9120 0
-9836 180 0
-9836 9300 0
9836 -180 -9300 0
-9837 -180 0
-9837 -9300 0
9837 180 9300 0
-9838 -9836 0
-9838 -9837 0
9838 9836 9837 0
179 -52189 0
-179 52189 0
-303 294 0
-303 -295 0
303 -294 295 0
-307 -296 0
-307 303 0
307 296 -303 0
-315 -297 0
-315 307 0
315 297 -307 0
-347 298 0
-347 315 0
347 -298 -315 0
-411 299 0
-411 347 0
411 -299 -347 0
-475 -300 0
-475 411 0
475 300 -411 0
-731 301 0
-731 475 0
731 -301 -475 0
-735 286 0
-735 -287 0
735 -286 287 0
-739 -288 0
-739 735 0
739 288 -735 0
-747 -289 0
-747 739 0
747 289 -739 0
-779 290 0
-779 747 0
779 -290 -747 0
-843 291 0
-843 779 0
843 -291 -779 0
-907 -292 0
-907 843 0
907 292 -843 0
-1163 293 0
-1163 907 0
1163 -293 -907 0
-1167 278 0
-1167 -279 0
1167 -278 279 0
-1171 -280 0
-1171 1167 0
1171 280 -1167 0
-1179 -281 0
-1179 1171 0
1179 281 -1171 0
-1211 282 0
-1211 1179 0
1211 -282 -1179 0
-1275 283 0
-1275 1211 0
1275 -283 -1211 0
-1339 -284 0
-1339 1275 0
1339 284 -1275 0
-1595 285 0
-1595 1339 0
1595 -285 -1339 0
-1599 270 0
-1599 -271 0
1599 -270 271 0
-1603 -272 0
-1603 1599 0
1603 272 -1599 0
-1611 -273 0
-1611 1603 0
1611 273 -1603 0
-1643 274 0
-1643 1611 0
1643 -274 -1611 0
-1707 275 0
-1707 1643 0
1707 -275 -1643 0
-1771 -276 0
-1771 1707 0
1771 276 -1707 0
-2027 277 0
-2027 1771 0
2027 -277 -1771 0
-2031 262 0
-2031 -263 0
2031 -262 263 0
-2035 -264 0
-2035 2031 0
2035 264 -2031 0
-2043 -265 0
-2043 2035 0
2043 265 -2035 0
-2075 266 0
-2075 2043 0
2075 -266 -2043 0
-2139 267 0
-2139 2075 0
2139 -267 -2075 0
-2203 -268 0
-2203 2139 0
2203 268 -2139 0
-2459 269 0
-2459 2203 0
2459 -269 -2203 0
-2463 254 0
-2463 -255 0
2463 -254 255 0
-2467 -256 0
-2467 2463 0
2467 256 -2463 0
-2475 -257 0
-2475 2467 0
2475 257 -2467 0
-2507 258 0
-2507 2475 0
2507 -258 -2475 0
-2571 259 0
-2571 2507 0
2571 -259 -2507 0
-2635 -260 0
-2635 2571 0
2635 260 -2571 0
-2891 261 0
-2891 2635 0
2891 -261 -2635 0
-2895 246 0
-2895 -247 0
2895 -246 247 0
-2899 -248 0
-2899 2895 0
2899 248 -2895 0
-2907 -249 0
-2907 2899 0
2907 249 -2899 0
-2939 250 0
-2939 2907 0
2939 -250 -2907 0
-3003 251 0
-3003 2939 0
3003 -251 -2939 0
-3067 -252 0
-3067 3003 0
3067 252 -3003 0
-3323 253 0
-3323 3067 0
3323 -253 -3067 0
-3327 238 0
-3327 -239 0
3327 -238 239 0
-3331 -240 0
-3331 3327 0
3331 240 -3327 0
-3339 -241 0
-3339 3331 0
3339 241 -3331 0
-3371 242 0
-3371 3339 0
3371 -242 -3339 0
-3435 243 0
-3435 3371 0
3435 -243 -3371 0
-3499 -244 0
-3499 3435 0
3499 244 -3435 0
-3755 245 0
-3755 3499 0
3755 -245 -3499 0
-3759 230 0
-3759 -231 0
3759 -230 231 0
-3763 -232 0
-3763 3759 0
3763 232 -3759 0
-3771 -233 0
-3771 3763 0
3771 233 -3763 0
-3803 234 0
-3803 3771 0
3803 -234 -3771 0
-3867 235 0
-3867 3803 0
3867 -235 -3803 0
-3931 -236 0
-3931 3867 0
3931 236 -3867 0
-4187 237 0
-4187 3931 0
4187 -237 -3931 0
-4191 222 0
-4191 -223 0
4191 -222 223 0
-4195 -224 0
-4195 4191 0
4195 224 -4191 0
-4203 -225 0
-4203 4195 0
4203 225 -4195 0
-4235 226 0
-4235 4203 0
4235 -226 -4203 0
-4299 227 0
-4299 4235 0
4299 -227 -4235 0
-4363 -228 0
-4363 4299 0
4363 228 -4299 0
-4619 229 0
-4619 4363 0
4619 -229 -4363 0
-4623 214 0
-4623 -215 0
4623 -214 215 0
-4627 -216 0
-4627 4623 0
4627 216 -4623 0
-4635 -217 0
-4635 4627 0
4635 217 -4627 0
-4667 218 0
-4667 4635 0
4667 -218 -4635 0
-4731 219 0
-4731 4667 0
4731 -219 -4667 0
-4795 -220 0
-4795 4731 0
4795 220 -4731 0
-5051 221 0
-5051 4795 0
5051 -221 -4795 0
-5055 206 0
-5055 -207 0
5055 -206 207 0
-5059 -208 0
-5059 5055 0
5059 208 -5055 0
-5067 -209 0
-5067 5059 0
5067 209 -5059 0
-5099 210 0
-5099 5067 0
5099 -210 -5067 0
-5163 211 0
-5163 5099 0
5163 -211 -5099 0
-5227 -212 0
-5227 5163 0
5227 212 -5163 0
-5483 213 0
-5483 5227 0
5483 -213 -5227 0
-5487 198 0
-5487 -199 0
5487 -198 199 0
-5491 -200 0
-5491 5487 0
5491 200 -5487 0
-5499 -201 0
-5499 5491 0
5499 201 -5491 0
-5531 202 0
-5531 5499 0
5531 -202 -5499 0
-5595 203 0
-5595 5531 0
5595 -203 -5531 0
-5659 -204 0
-5659 5595 0
5659 204 -5595 0
-5915 205 0
-5915 5659 0
5915 -205 -5659 0
-5919 190 0
-5919 -191 0
5919 -190 191 0
-5923 -192 0
-5923 5919 0
5923 192 -5919 0
-5931 -193 0
-5931 5923 0
5931 193 -5923 0
-5963 194 0
-5963 5931 0
5963 -194 -5931 0
-6027 195 0
-6027 5963 0
6027 -195 -5963 0
-6091 -196 0
-6091 6027 0
6091 196 -6027 0
-6347 197 0
-6347 6091 0
6347 -197 -6091 0
-6351 182 0
-6351 -183 0
6351 -182 183 0
-6355 -184 0
-6355 6351 0
6355 184 -6351 0
-6363 -185 0
-6363 6355 0
6363 185 -6355 0
-6395 186 0
-6395 6363 0
6395 -186 -6363 0
-6459 187 0
-6459 6395 0
6459 -187 -6395 0
-6523 -188 0
-6523 6459 0
6523 188 -6459 0
-6779 189 0
-6779 6523 0
6779 -189 -6523 0
-6959 -6347 0
-6959 -6779 0
6959 6347 6779 0
-7139 -5915 0
-7139 6959 0
7139 5915 -6959 0
-7319 -5483 0
-7319 7139 0
7319 5483 -7139 0
-7499 -5051 0
-7499 7319 0
7499 5051 -7319 0
-7679 -4619 0
-7679 7499 0
7679 4619 -7499 0
-7859 -4187 0
-7859 7679 0
7859 4187 -7679 0
-8039 -3755 0
-8039 7859 0
8039 3755 -7859 0
-8219 -3323 0
-8219 8039 0
8219 3323 -8039 0
-8399 -2891 0
-8399 8219 0
8399 2891 -8219 0
-8579 -2459 0
-8579 8399 0
8579 2459 -8399 0
-8759 -2027 0
-8759 8579 0
8759 2027 -8579 0
-8939 -1595 0
-8939 8759 0
8939 1595 -8759 0
-9119 -1163 0
-9119 8939 0
9119 1163 -8939 0
-9299 -731 0
-9299 9119 0
9299 731 -9119 0
-9833 179 0
-9833 9299 0
9833 -179 -9299 0
-9834 -179 0
-9834 -9299 0
9834 179 9299 0
-9835 -9833 0
-9835 -9834 0
9835 9833 9834 0
178 -52188 0
-178 52188 0
-302 -294 0
-302 -295 0
302 294 295 0
-306 -296 0
-306 302 0
306 296 -302 0
-314 -297 0
-314 306 0
314 297 -306 0
-346 298 0
-346 314 0
346 -298 -314 0
-410 299 0
-410 346 0
410 -299 -346 0
-474 -300 0
-474 410 0
474 300 -410 0
-730 301 0
-730 474 0
730 -301 -474 0
-734 -286 0
-734 -287 0
734 286 287 0
-738 -288 0
-738 734 0
738 288 -734 0
-746 -289 0
-746 738 0
746 289 -738 0
-778 290 0
-778 746 0
778 -290 -746 0
-842 291 0
-842 778 0
842 -291 -778 0
-906 -292 0
-906 842 0
906 292 -842 0
-1162 293 0
-1162 906 0
1162 -293 -906 0
-1166 -278 0
-1166 -279 0
1166 278 279 0
-1170 -280 0
-1170 1166 0
1170 280 -1166 0
-1178 -281 0
-1178 1170 0
1178 281 -1170 0
-1210 282 0
-1210 1178 0
1210 -282 -1178 0
-1274 283 0
-1274 1210 0
1274 -283 -1210 0
-1338 -284 0
-1338 1274 0
1338 284 -1274 0
-1594 285 0
-1594 1338 0
1594 -285 -1338 0
-1598 -270 0
-1598 -271 0
1598 270 271 0
-1602 -272 0
-1602 1598 0
1602 272 -1598 0
-1610 -273 0
-1610 1602 0
1610 273 -1602 0
-1642 274 0
-1642 1610 0
1642 -274 -1610 0
-1706 275 0
-1706 1642 0
1706 -275 -1642 0
-1770 -276 0
-1770 1706 0
1770 276 -1706 0
-2026 277 0
-2026 1770 0
2026 -277 -1770 0
-2030 -262 0
-2030 -263 0
2030 262 263 0
-2034 -264 0
-2034 2030 0
2034 264 -2030 0
-2042 -265 0
-2042 2034 0
2042 265 -2034 0
-2074 266 0
-2074 2042 0
2074 -266 -2042 0
-2138 267 0
-2138 2074 0
2138 -267 -2074 0
-2202 -268 0
-2202 2138 0
2202 268 -2138 0
-2458 269 0
-2458 2202 0
2458 -269 -2202 0
-2462 -254 0
-2462 -255 0
2462 254 255 0
-2466 -256 0
-2466 2462 0
2466 256 -2462 0
-2474 -257 0
-2474 2466 0
2474 257 -2466 0
-2506 258 0
-2506 2474 0
2506 -258 -2474 0
-2570 259 0
-2570 2506 0
2570 -259 -2506 0
-2634 -260 0
-2634 2570 0
2634 260 -2570 0
-2890 261 0
-2890 2634 0
2890 -261 -2634 0
-2894 -246 0
-2894 -247 0
2894 246 247 0
-2898 -248 0
-2898 2894 0
2898 248 -2894 0
-2906 -249 0
-2906 2898 0
2906 249 -2898 0
-2938 250 0
-2938 2906 0
2938 -250 -2906 0
-3002 251 0
-3002 2938 0
3002 -251 -2938 0
-3066 -252 0
-3066 3002 0
3066 252 -3002 0
-3322 253 0
-3322 3066 0
3322 -253 -3066 0
-3326 -238 0
-3326 -239 0
3326 238 239 0
-3330 -240 0
-3330 3326 0
3330 240 -3326 0
-3338 -241 0
-3338 3330 0
3338 241 -3330 0
-3370 242 0
-3370 3338 0
3370 -242 -3338 0
-3434 243 0
-3434 3370 0
3434 -243 -3370 0
-3498 -244 0
-3498 3434 0
3498 244 -3434 0
-3754 245 0
-3754 3498 0
3754 -245 -3498 0
-3758 -230 0
-3758 -231 0
3758 230 231 0
-3762 -232 0
-3762 3758 0
3762 232 -3758 0
-3770 -233 0
-3770 3762 0
3770 233 -3762 0
-3802 234 0
-3802 3770 0
3802 -234 -3770 0
-3866 235 0
-3866 3802 0
3866 -235 -3802 0
-3930 -236 0
-3930 3866 0
3930 236 -3866 0
-4186 237 0
-4186 3930 0
4186 -237 -3930 0
-4190 -222 0
-4190 -223 0
4190 222 223 0
-4194 -224 0
-4194 4190 0
4194 224 -4190 0
-4202 -225 0
-4202 4194 0
4202 225 -4194 0
-4234 226 0
-4234 4202 0
4234 -226 -4202 0
-4298 227 0
-4298 4234 0
4298 -227 -4234 0
-4362 -228 0
-4362 4298 0
4362 228 -4298 0
-4618 229 0
-4618 4362 0
4618 -229 -4362 0
-4622 -214 0
-4622 -215 0
4622 214 215 0
-4626 -216 0
-4626 4622 0
4626 216 -4622 0
-4634 -217 0
-4634 4626 0
4634 217 -4626 0
-4666 218 0
-4666 4634 0
4666 -218 -4634 0
-4730 219 0
-4730 4666 0
4730 -219 -4666 0
-4794 -220 0
-4794 4730 0
4794 220 -4730 0
-5050 221 0
-5050 4794 0
5050 -221 -4794 0
-5054 -206 0
-5054 -207 0
5054 206 207 0
-5058 -208 0
-5058 5054 0
5058 208 -5054 0
-5066 -209 0
-5066 5058 0
5066 209 -5058 0
-5098 210 0
-5098 5066 0
5098 -210 -5066 0
-5162 211 0
-5162 5098 0
5162 -211 -5098 0
-5226 -212 0
-5226 5162 0
5226 212 -5162 0
-5482 213 0
-5482 5226 0
5482 -213 -5226 0
-5486 -198 0
-5486 -199 0
5486 198 199 0
-5490 -200 0
-5490 5486 0
5490 200 -5486 0
-5498 -201 0
-5498 5490 0
5498 201 -5490 0
-5530 202 0
-5530 5498 0
5530 -202 -5498 0
-5594 203 0
-5594 5530 0
5594 -203 -5530 0
-5658 -204 0
-5658 5594 0
5658 204 -5594 0
-5914 205 0
-5914 5658 0
5914 -205 -5658 0
-5918 -190 0
-5918 -191 0
5918 190 191 0
-5922 -192 0
-5922 5918 0
5922 192 -5918 0
-5930 -193 0
-5930 5922 0
5930 193 -5922 0
-5962 194 0
-5962 5930 0
5962 -194 -5930 0
-6026 195 0
-6026 5962 0
6026 -195 -5962 0
-6090 -196 0
-6090 6026 0
6090 196 -6026 0
-6346 197 0
-6346 6090 0
6346 -197 -6090 0
-6350 -182 0
-6350 -183 0
6350 182 183 0
-6354 -184 0
-6354 6350 0
6354 184 -6350 0
-6362 -185 0
-6362 6354 0
6362 185 -6354 0
-6394 186 0
-6394 6362 0
6394 -186 -6362 0
-6458 187 0
-6458 6394 0
6458 -187 -6394 0
-6522 -188 0
-6522 6458 0
6522 188 -6458 0
-6778 189 0
-6778 6522 0
6778 -189 -6522 0
-6958 -6346 0
-6958 -6778 0
6958 6346 6778 0
-7138 -5914 0
-7138 6958 0
7138 5914 -6958 0
-7318 -5482 0
-7318 7138 0
7318 5482 -7138 0
-7498 -5050 0
-7498 7318 0
7498 5050 -7318 0
-7678 -4618 0
-7678 7498 0
7678 4618 -7498 0
-7858 -4186 0
-7858 7678 0
7858 4186 -7678 0
-8038 -3754 0
-8038 7858 0
8038 3754 -7858 0
-8218 -3322 0
-8218 8038 0
8218 3322 -8038 0
-8398 -2890 0
-8398 8218 0
8398 2890 -8218 0
-8578 -2458 0
-8578 8398 0
8578 2458 -8398 0
-8758 -2026 0
-8758 8578 0
8758 2026 -8578 0
-8938 -1594 0
-8938 8758 0
8938 1594 -8758 0
-9118 -1162 0
-9118 8938 0
9118 1162 -8938 0
-9298 -730 0
-9298 9118 0
9298 730 -9118 0
-9830 178 0
-9830 9298 0
9830 -178 -9298 0
-9831 -178 0
-9831 -9298 0
9831 178 9298 0
-9832 -9830 0
-9832 -9831 0
9832 9830 9831 0
177 -52187 0
-177 52187 0
-313 296 0
-313 305 0
313 -296 -305 0
-329 297 0
-329 313 0
329 -297 -313 0
-345 -298 0
-345 329 0
345 298 -329 0
-409 299 0
-409 345 0
409 -299 -345 0
-473 -300 0
-473 409 0
473 300 -409 0
-729 301 0
-729 473 0
729 -301 -473 0
-745 288 0
-745 737 0
745 -288 -737 0
-761 289 0
-761 745 0
761 -289 -745 0
-777 -290 0
-777 761 0
777 290 -761 0
-841 291 0
-841 777 0
841 -291 -777 0
-905 -292 0
-905 841 0
905 292 -841 0
-1161 293 0
-1161 905 0
1161 -293 -905 0
-1177 280 0
-1177 1169 0
1177 -280 -1169 0
-1193 281 0
-1193 1177 0
1193 -281 -1177 0
-1209 -282 0
-1209 1193 0
1209 282 -1193 0
-1273 283 0
-1273 1209 0
1273 -283 -1209 0
-1337 -284 0
-1337 1273 0
1337 284 -1273 0
-1593 285 0
-1593 1337 0
1593 -285 -1337 0
-1609 272 0
-1609 1601 0
1609 -272 -1601 0
-1625 273 0
-1625 1609 0
1625 -273 -1609 0
-1641 -274 0
-1641 1625 0
1641 274 -1625 0
-1705 275 0
-1705 1641 0
1705 -275 -1641 0
-1769 -276 0
-1769 1705 0
1769 276 -1705 0
-2025 277 0
-2025 1769 0
2025 -277 -1769 0
-2041 264 0
-2041 2033 0
2041 -264 -2033 0
-2057 265 0
-2057 2041 0
2057 -265 -2041 0
-2073 -266 0
-2073 2057 0
2073 266 -2057 0
-2137 267 0
-2137 2073 0
2137 -267 -2073 0
-2201 -268 0
-2201 2137 0
2201 268 -2137 0
-2457 269 0
-2457 2201 0
2457 -269 -2201 0
-2473 256 0
-2473 2465 0
2473 -256 -2465 0
-2489 257 0
-2489 2473 0
2489 -257 -2473 0
-2505 -258 0
-2505 2489 0
2505 258 -2489 0
-2569 259 0
-2569 2505 0
2569 -259 -2505 0
-2633 -260 0
-2633 2569 0
2633 260 -2569 0
-2889 261 0
-2889 2633 0
2889 -261 -2633 0
-2905 248 0
-2905 2897 0
2905 -248 -2897 0
-2921 249 0
-2921 2905 0
2921 -249 -2905 0
-2937 -250 0
-2937 2921 0
2937 250 -2921 0
-3001 251 0
-3001 2937 0
3001 -251 -2937 0
-3065 -252 0
-3065 3001 0
3065 252 -3001 0
-3321 253 0
-3321 3065 0
3321 -253 -3065 0
-3337 240 0
-3337 3329 0
3337 -240 -3329 0
-3353 241 0
-3353 3337 0
3353 -241 -3337 0
-3369 -242 0
-3369 3353 0
3369 242 -3353 0
-3433 243 0
-3433 3369 0
3433 -243 -3369 0
-3497 -244 0
-3497 3433 0
3497 244 -3433 0
-3753 245 0
-3753 3497 0
3753 -245 -3497 0
-3769 232 0
-3769 3761 0
3769 -232 -3761 0
-3785 233 0
-3785 3769 0
3785 -233 -3769 0
-3801 -234 0
-3801 3785 0
3801 234 -3785 0
-3865 235 0
-3865 3801 0
3865 -235 -3801 0
-3929 -236 0
-3929 3865 0
3929 236 -3865 0
-4185 237 0
-4185 3929 0
4185 -237 -3929 0
-4201 224 0
-4201 4193 0
4201 -224 -4193 0
-4217 225 0
-4217 4201 0
4217 -225 -4201 0
-4233 -226 0
-4233 4217 0
4233 226 -4217 0
-4297 227 0
-4297 4233 0
4297 -227 -4233 0
-4361 -228 0
-4361 4297 0
4361 228 -4297 0
-4617 229 0
-4617 4361 0
4617 -229 -4361 0
-4633 216 0
-4633 4625 0
4633 -216 -4625 0
-4649 217 0
-4649 4633 0
4649 -217 -4633 0
-4665 -218 0
-4665 4649 0
4665 218 -4649 0
-4729 219 0
-4729 4665 0
4729 -219 -4665 0
-4793 -220 0
-4793 4729 0
4793 220 -4729 0
-5049 221 0
-5049 4793 0
5049 -221 -4793 0
-5065 208 0
-5065 5057 0
5065 -208 -5057 0
-5081 209 0
-5081 5065 0
5081 -209 -5065 0
-5097 -210 0
-5097 5081 0
5097 210 -5081 0
-5161 211 0
-5161 5097 0
5161 -211 -5097 0
-5225 -212 0
-5225 5161 0
5225 212 -5161 0
-5481 213 0
-5481 5225 0
5481 -213 -5225 0
-5497 200 0
-5497 5489 0
5497 -200 -5489 0
-5513 201 0
-5513 5497 0
5513 -201 -5497 0
-5529 -202 0
-5529 5513 0
5529 202 -5513 0
-5593 203 0
-5593 5529 0
5593 -203 -5529 0
-5657 -204 0
-5657 5593 0
5657 204 -5593 0
-5913 205 0
-5913 5657 0
5913 -205 -5657 0
-5929 192 0
-5929 5921 0
5929 -192 -5921 0
-5945 193 0
-5945 5929 0
5945 -193 -5929 0
-5961 -194 0
-5961 5945 0
5961 194 -5945 0
-6025 195 0
-6025 5961 0
6025 -195 -5961 0
-6089 -196 0
-6089 6025 0
6089 196 -6025 0
-6345 197 0
-6345 6089 0
6345 -197 -6089 0
-6361 184 0
-6361 6353 0
6361 -184 -6353 0
-6377 185 0
-6377 6361 0
6377 -185 -6361 0
-6393 -186 0
-6393 6377 0
6393 186 -6377 0
-6457 187 0
-6457 6393 0
6457 -187 -6393 0
-6521 -188 0
-6521 6457 0
6521 188 -6457 0
-6777 189 0
-6777 6521 0
6777 -189 -6521 0
-6957 -6345 0
-6957 -6777 0
6957 6345 6777 0
-7137 -5913 0
-7137 6957 0
7137 5913 -6957 0
-7317 -5481 0
-7317 7137 0
7317 5481 -7137 0
-7497 -5049 0
-7497 7317 0
7497 5049 -7317 0
-7677 -4617 0
-7677 7497 0
7677 4617 -7497 0
-7857 -4185 0
-7857 7677 0
7857 4185 -7677 0
-8037 -3753 0
-8037 7857 0
8037 3753 -7857 0
-8217 -3321 0
-8217 8037 0
8217 3321 -8037 0
-8397 -2889 0
-8397 8217 0
8397 2889 -8217 0
-8577 -2457 0
-8577 8397 0
8577 2457 -8397 0
-8757 -2025 0
-8757 8577 0
8757 2025 -8577 0
-8937 -1593 0
-8937 8757 0
8937 1593 -8757 0
-9117 -1161 0
-9117 8937 0
9117 1161 -8937 0
-9297 -729 0
-9297 9117 0
9297 729 -9117 0
-9827 177 0
-9827 9297 0
9827 -177 -9297 0
-9828 -177 0
-9828 -9297 0
9828 177 9297 0
-9829 -9827 0
-9829 -9828 0
9829 9827 9828 0
176 -52186 0
-176 52186 0
-312 296 0
-312 304 0
312 -296 -304 0
-328 297 0
-328 312 0
328 -297 -312 0
-344 -298 0
-344 328 0
344 298 -328 0
-408 299 0
-408 344 0
408 -299 -344 0
-472 -300 0
-472 408 0
472 300 -408 0
-728 301 0
-728 472 0
728 -301 -472 0
-744 288 0
-744 736 0
744 -288 -736 0
-760 289 0
-760 744 0
760 -289 -744 0
-776 -290 0
-776 760 0
776 290 -760 0
-840 291 0
-840 776 0
840 -291 -776 0
-904 -292 0
-904 840 0
904 292 -840 0
-1160 293 0
-1160 904 0
1160 -293 -904 0
-1176 280 0
-1176 1168 0
1176 -280 -1168 0
-1192 281 0
-1192 1176 0
1192 -281 -1176 0
-1208 -282 0
-1208 1192 0
1208 282 -1192 0
-1272 283 0
-1272 1208 0
1272 -283 -1208 0
-1336 -284 0
-1336 1272 0
1336 284 -1272 0
-1592 285 0
-1592 1336 0
1592 -285 -1336 0
-1608 272 0
-1608 1600 0
1608 -272 -1600 0
-1624 273 0
-1624 1608 0
1624 -273 -1608 0
-1640 -274 0
-1640 1624 0
1640 274 -1624 0
-1704 275 0
-1704 1640 0
1704 -275 -1640 0
-1768 -276 0
-1768 1704 0
1768 276 -1704 0
-2024 277 0
-2024 1768 0
2024 -277 -1768 0
-2040 264 0
-2040 2032 0
2040 -264 -2032 0
-2056 265 0
-2056 2040 0
2056 -265 -2040 0
-2072 -266 0
-2072 2056 0
2072 266 -2056 0
-2136 267 0
-2136 2072 0
2136 -267 -2072 0
-2200 -268 0
-2200 2136 0
2200 268 -2136 0
-2456 269 0
-2456 2200 0
2456 -269 -2200 0
-2472 256 0
-2472 2464 0
2472 -256 -2464 0
-2488 257 0
-2488 2472 0
2488 -257 -2472 0
-2504 -258 0
-2504 2488 0
2504 258 -2488 0
-2568 259 0
-2568 2504 0
2568 -259 -2504 0
-2632 -260 0
-2632 2568 0
2632 260 -2568 0
-2888 261 0
-2888 2632 0
2888 -261 -2632 0
-2904 248 0
-2904 2896 0
2904 -248 -2896 0
-2920 249 0
-2920 2904 0
2920 -249 -2904 0
-2936 -250 0
-2936 2920 0
2936 250 -2920 0
-3000 251 0
-3000 2936 0
3000 -251 -2936 0
-3064 -252 0
-3064 3000 0
3064 252 -3000 0
-3320 253 0
-3320 3064 0
3320 -253 -3064 0
-3336 240 0
-3336 3328 0
3336 -240 -3328 0
-3352 241 0
-3352 3336 0
3352 -241 -3336 0
-3368 -242 0
-3368 3352 0
3368 242 -3352 0
-3432 243 0
-3432 3368 0
3432 -243 -3368 0
-3496 -244 0
-3496 3432 0
3496 244 -3432 0
-3752 245 0
-3752 3496 0
3752 -245 -3496 0
-3768 232 0
-3768 3760 0
3768 -232 -3760 0
-3784 233 0
-3784 3768 0
3784 -233 -3768 0
-3800 -234 0
-3800 3784 0
3800 234 -3784 0
-3864 235 0
-3864 3800 0
3864 -235 -3800 0
-3928 -236 0
-3928 3864 0
3928 236 -3864 0
-4184 237 0
-4184 3928 0
4184 -237 -3928 0
-4200 224 0
-4200 4192 0
4200 -224 -4192 0
-4216 225 0
-4216 4200 0
4216 -225 -4200 0
-4232 -226 0
-4232 4216 0
4232 226 -4216 0
-4296 227 0
-4296 4232 0
4296 -227 -4232 0
-4360 -228 0
-4360 4296 0
4360 228 -4296 0
-4616 229 0
-4616 4360 0
4616 -229 -4360 0
-4632 216 0
-4632 4624 0
4632 -216 -4624 0
-4648 217 0
-4648 4632 0
4648 -217 -4632 0
-4664 -218 0
-4664 4648 0
4664 218 -4648 0
-4728 219 0
-4728 4664 0
4728 -219 -4664 0
-4792 -220 0
-4792 4728 0
4792 220 -4728 0
-5048 221 0
-5048 4792 0
5048 -221 -4792 0
-5064 208 0
-5064 5056 0
5064 -208 -5056 0
-5080 209 0
-5080 5064 0
5080 -209 -5064 0
-5096 -210 0
-5096 5080 0
5096 210 -5080 0
-5160 211 0
-5160 5096 0
5160 -211 -5096 0
-5224 -212 0
-5224 5160 0
5224 212 -5160 0
-5480 213 0
-5480 5224 0
5480 -213 -5224 0
-5496 200 0
-5496 5488 0
5496 -200 -5488 0
-5512 201 0
-5512 5496 0
5512 -201 -5496 0
-5528 -202 0
-5528 5512 0
5528 202 -5512 0
-5592 203 0
-5592 5528 0
5592 -203 -5528 0
-5656 -204 0
-5656 5592 0
5656 204 -5592 0
-5912 205 0
-5912 5656 0
5912 -205 -5656 0
-5928 192 0
-5928 5920 0
5928 -192 -5920 0
-5944 193 0
-5944 5928 0
5944 -193 -5928 0
-5960 -194 0
-5960 5944 0
5960 194 -5944 0
-6024 195 0
-6024 5960 0
6024 -195 -5960 0
-6088 -196 0
-6088 6024 0
6088 196 -6024 0
-6344 197 0
-6344 6088 0
6344 -197 -6088 0
-6360 184 0
-6360 6352 0
6360 -184 -6352 0
-6376 185 0
-6376 6360 0
6376 -185 -6360 0
-6392 -186 0
-6392 6376 0
6392 186 -6376 0
-6456 187 0
-6456 6392 0
6456 -187 -6392 0
-6520 -188 0
-6520 6456 0
6520 188 -6456 0
-6776 189 0
-6776 6520 0
6776 -189 -6520 0
-6956 -6344 0
-6956 -6776 0
6956 6344 6776 0
-7136 -5912 0
-7136 6956 0
7136 5912 -6956 0
-7316 -5480 0
-7316 7136 0
7316 5480 -7136 0
-7496 -5048 0
-7496 7316 0
7496 5048 -7316 0
-7676 -4616 0
-7676 7496 0
7676 4616 -7496 0
-7856 -4184 0
-7856 7676 0
7856 4184 -7676 0
-8036 -3752 0
-8036 7856 0
8036 3752 -7856 0
-8216 -3320 0
-8216 8036 0
8216 3320 -8036 0
-8396 -2888 0
-8396 8216 0
8396 2888 -8216 0
-8576 -2456 0
-8576 8396 0
8576 2456 -8396 0
-8756 -2024 0
-8756 8576 0
8756 2024 -8576 0
-8936 -1592 0
-8936 8756 0
8936 1592 -8756 0
-9116 -1160 0
-9116 8936 0
9116 1160 -8936 0
-9296 -728 0
-9296 9116 0
9296 728 -9116 0
-9824 176 0
-9824 9296 0
9824 -176 -9296 0
-9825 -176 0
-9825 -9296 0
9825 176 9296 0
-9826 -9824 0
-9826 -9825 0
9826 9824 9825 0
175 -52185 0
-175 52185 0
-311 296 0
-311 303 0
311 -296 -303 0
-327 297 0
-327 311 0
327 -297 -311 0
-343 -298 0
-343 327 0
343 298 -327 0
-407 299 0
-407 343 0
407 -299 -343 0
-471 -300 0
-471 407 0
471 300 -407 0
-727 301 0
-727 471 0
727 -301 -471 0
-743 288 0
-743 735 0
743 -288 -735 0
-759 289 0
-759 743 0
759 -289 -743 0
-775 -290 0
-775 759 0
775 290 -759 0
-839 291 0
-839 775 0
839 -291 -775 0
-903 -292 0
-903 839 0
903 292 -839 0
-1159 293 0
-1159 903 0
1159 -293 -903 0
-1175 280 0
-1175 1167 0
1175 -280 -1167 0
-1191 281 0
-1191 1175 0
1191 -281 -1175 0
-1207 -282 0
-1207 1191 0
1207 282 -1191 0
-1271 283 0
-1271 1207 0
1271 -283 -1207 0
-1335 -284 0
-1335 1271 0
1335 284 -1271 0
-1591 285 0
-1591 1335 0
1591 -285 -1335 0
-1607 272 0
-1607 1599 0
1607 -272 -1599 0
-1623 273 0
-1623 1607 0
1623 -273 -1607 0
-1639 -274 0
-1639 1623 0
1639 274 -1623 0
-1703 275 0
-1703 1639 0
1703 -275 -1639 0
-1767 -276 0
-1767 1703 0
1767 276 -1703 0
-2023 277 0
-2023 1767 0
2023 -277 -1767 0
-2039 264 0
-2039 2031 0
2039 -264 -2031 0
-2055 265 0
-2055 2039 0
2055 -265 -2039 0
-2071 -266 0
-2071 2055 0
2071 266 -2055 0
-2135 267 0
-2135 2071 0
2135 -267 -2071 0
-2199 -268 0
-2199 2135 0
2199 268 -2135 0
-2455 269 0
-2455 2199 0
2455 -269 -2199 0
-2471 256 0
-2471 2463 0
2471 -256 -2463 0
-2487 257 0
-2487 2471 0
2487 -257 -2471 0
-2503 -258 0
-2503 2487 0
2503 258 -2487 0
-2567 259 0
-2567 2503 0
2567 -259 -2503 0
-2631 -260 0
-2631 2567 0
2631 260 -2567 0
-2887 261 0
-2887 2631 0
2887 -261 -2631 0
-2903 248 0
-2903 2895 0
2903 -248 -2895 0
-2919 249 0
-2919 2903 0
2919 -249 -2903 0
-2935 -250 0
-2935 2919 0
2935 250 -2919 0
-2999 251 0
-2999 2935 0
2999 -251 -2935 0
-3063 -252 0
-3063 2999 0
3063 252 -2999 0
-3319 253 0
-3319 3063 0
3319 -253 -3063 0
-3335 240 0
-3335 3327 0
3335 -240 -3327 0
-3351 241 0
-3351 3335 0
3351 -241 -3335 0
-3367 -242 0
-3367 3351 0
3367 242 -3351 0
-3431 243 0
-3431 3367 0
3431 -243 -3367 0
-3495 -244 0
-3495 3431 0
3495 244 -3431 0
-3751 245 0
-3751 3495 0
3751 -245 -3495 0
-3767 232 0
-3767 3759 0
3767 -232 -3759 0
-3783 233 0
-3783 3767 0
3783 -233 -3767 0
-3799 -234 0
-3799 3783 0
3799 234 -3783 0
-3863 235 0
-3863 3799 0
3863 -235 -3799 0
-3927 -236 0
-3927 3863 0
3927 236 -3863 0
-4183 237 0
-4183 3927 0
4183 -237 -3927 0
-4199 224 0
-4199 4191 0
4199 -224 -4191 0
-4215 225 0
-4215 4199 0
4215 -225 -4199 0
-4231 -226 0
-4231 4215 0
4231 226 -4215 0
-4295 227 0
-4295 4231 0
4295 -227 -4231 0
-4359 -228 0
-4359 4295 0
4359 228 -4295 0
-4615 229 0
-4615 4359 0
4615 -229 -4359 0
-4631 216 0
-4631 4623 0
4631 -216 -4623 0
-4647 217 0
-4647 4631 0
4647 -217 -4631 0
-4663 -218 0
-4663 4647 0
4663 218 -4647 0
-4727 219 0
-4727 4663 0
4727 -219 -4663 0
-4791 -220 0
-4791 4727 0
4791 220 -4727 0
-5047 221 0
-5047 4791 0
5047 -221 -4791 0
-5063 208 0
-5063 5055 0
5063 -208 -5055 0
-5079 209 0
-5079 5063 0
5079 -209 -5063 0
-5095 -210 0
-5095 5079 0
5095 210 -5079 0
-5159 211 0
-5159 5095 0
5159 -211 -5095 0
-5223 -212 0
-5223 5159 0
5223 212 -5159 0
-5479 213 0
-5479 5223 0
5479 -213 -5223 0
-5495 200 0
-5495 5487 0
5495 -200 -5487 0
-5511 201 0
-5511 5495 0
5511 -201 -5495 0
-5527 -202 0
-5527 5511 0
5527 202 -5511 0
-5591 203 0
-5591 5527 0
5591 -203 -5527 0
-5655 -204 0
-5655 5591 0
5655 204 -5591 0
-5911 205 0
-5911 5655 0
5911 -205 -5655 0
-5927 192 0
-5927 5919 0
5927 -192 -5919 0
-5943 193 0
-5943 5927 0
5943 -193 -5927 0
-5959 -194 0
-5959 5943 0
5959 194 -5943 0
-6023 195 0
-6023 5959 0
6023 -195 -5959 0
-6087 -196 0
-6087 6023 0
6087 196 -6023 0
-6343 197 0
-6343 6087 0
6343 -197 -6087 0
-6359 184 0
-6359 6351 0
6359 -184 -6351 0
-6375 185 0
-6375 6359 0
6375 -185 -6359 0
-6391 -186 0
-6391 6375 0
6391 186 -6375 0
-6455 187 0
-6455 6391 0
6455 -187 -6391 0
-6519 -188 0
-6519 6455 0
6519 188 -6455 0
-6775 189 0
-6775 6519 0
6775 -189 -6519 0
-6955 -6343 0
-6955 -6775 0
6955 6343 6775 0
-7135 -5911 0
-7135 6955 0
7135 5911 -6955 0
-7315 -5479 0
-7315 7135 0
7315 5479 -7135 0
-7495 -5047 0
-7495 7315 0
7495 5047 -7315 0
-7675 -4615 0
-7675 7495 0
7675 4615 -7495 0
-7855 -4183 0
-7855 7675 0
7855 4183 -7675 0
-8035 -3751 0
-8035 7855 0
8035 3751 -7855 0
-8215 -3319 0
-8215 8035 0
8215 3319 -8035 0
-8395 -2887 0
-8395 8215 0
8395 2887 -8215 0
-8575 -2455 0
-8575 8395 0
8575 2455 -8395 0
-8755 -2023 0
-8755 8575 0
8755 2023 -8575 0
-8935 -1591 0
-8935 8755 0
8935 1591 -8755 0
-9115 -1159 0
-9115 8935 0
9115 1159 -8935 0
-9295 -727 0
-9295 9115 0
9295 727 -9115 0
-9821 175 0
-9821 9295 0
9821 -175 -9295 0
-9822 -175 0
-9822 -9295 0
9822 175 9295 0
-9823 -9821 0
-9823 -9822 0
9823 9821 9822 0
174 -52184 0
-174 52184 0
-310 296 0
-310 302 0
310 -296 -302 0
-326 297 0
-326 310 0
326 -297 -310 0
-342 -298 0
-342 326 0
342 298 -326 0
-406 299 0
-406 342 0
406 -299 -342 0
-470 -300 0
-470 406 0
470 300 -406 0
-726 301 0
-726 470 0
726 -301 -470 0
-742 288 0
-742 734 0
742 -288 -734 0
-758 289 0
-758 742 0
758 -289 -742 0
-774 -290 0
-774 758 0
774 290 -758 0
-838 291 0
-838 774 0
838 -291 -774 0
-902 -292 0
-902 838 0
902 292 -838 0
-1158 293 0
-1158 902 0
1158 -293 -902 0
-1174 280 0
-1174 1166 0
1174 -280 -1166 0
-1190 281 0
-1190 1174 0
1190 -281 -1174 0
-1206 -282 0
-1206 1190 0
1206 282 -1190 0
-1270 283 0
-1270 1206 0
1270 -283 -1206 0
-1334 -284 0
-1334 1270 0
1334 284 -1270 0
-1590 285 0
-1590 1334 0
1590 -285 -1334 0
-1606 272 0
-1606 1598 0
1606 -272 -1598 0
-1622 273 0
-1622 1606 0
1622 -273 -1606 0
-1638 -274 0
-1638 1622 0
1638 274 -1622 0
-1702 275 0
-1702 1638 0
1702 -275 -1638 0
-1766 -276 0
-1766 1702 0
1766 276 -1702 0
-2022 277 0
-2022 1766 0
2022 -277 -1766 0
-2038 264 0
-2038 2030 0
2038 -264 -2030 0
-2054 265 0
-2054 2038 0
2054 -265 -2038 0
-2070 -266 0
-2070 2054 0
2070 266 -2054 0
-2134 267 0
-2134 2070 0
2134 -267 -2070 0
-2198 -268 0
-2198 2134 0
2198 268 -2134 0
-2454 269 0
-2454 2198 0
2454 -269 -2198 0
-2470 256 0
-2470 2462 0
2470 -256 -2462 0
-2486 257 0
-2486 2470 0
2486 -257 -2470 0
-2502 -258 0
-2502 2486 0
2502 258 -2486 0
-2566 259 0
-2566 2502 0
2566 -259 -2502 0
-2630 -260 0
-2630 2566 0
2630 260 -2566 0
-2886 261 0
-2886 2630 0
2886 -261 -2630 0
-2902 248 0
-2902 2894 0
2902 -248 -2894 0
-2918 249 0
-2918 2902 0
2918 -249 -2902 0
-2934 -250 0
-2934 2918 0
2934 250 -2918 0
-2998 251 0
-2998 2934 0
2998 -251 -2934 0
-3062 -252 0
-3062 2998 0
3062 252 -2998 0
-3318 253 0
-3318 3062 0
3318 -253 -3062 0
-3334 240 0
-3334 3326 0
3334 -240 -3326 0
-3350 241 0
-3350 3334 0
3350 -241 -3334 0
-3366 -242 0
-3366 3350 0
3366 242 -3350 0
-3430 243 0
-3430 3366 0
3430 -243 -3366 0
-3494 -244 0
-3494 3430 0
3494 244 -3430 0
-3750 245 0
-3750 3494 0
3750 -245 -3494 0
-3766 232 0
-3766 3758 0
3766 -232 -3758 0
-3782 233 0
-3782 3766 0
3782 -233 -3766 0
-3798 -234 0
-3798 3782 0
3798 234 -3782 0
-3862 235 0
-3862 3798 0
3862 -235 -3798 0
-3926 -236 0
-3926 3862 0
3926 236 -3862 0
-4182 237 0
-4182 3926 0
4182 -237 -3926 0
-4198 224 0
-4198 4190 0
4198 -224 -4190 0
-4214 225 0
-4214 4198 0
4214 -225 -4198 0
-4230 -226 0
-4230 4214 0
4230 226 -4214 0
-4294 227 0
-4294 4230 0
4294 -227 -4230 0
-4358 -228 0
-4358 4294 0
4358 228 -4294 0
-4614 229 0
-4614 4358 0
4614 -229 -4358 0
-4630 216 0
-4630 4622 0
4630 -216 -4622 0
-4646 217 0
-4646 4630 0
4646 -217 -4630 0
-4662 -218 0
-4662 4646 0
4662 218 -4646 0
-4726 219 0
-4726 4662 0
4726 -219 -4662 0
-4790 -220 0
-4790 4726 0
4790 220 -4726 0
-5046 221 0
-5046 4790 0
5046 -221 -4790 0
-5062 208 0
-5062 5054 0
5062 -208 -5054 0
-5078 209 0
-5078 5062 0
5078 -209 -5062 0
-5094 -210 0
-5094 5078 0
5094 210 -5078 0
-5158 211 0
-5158 5094 0
5158 -211 -5094 0
-5222 -212 0
-5222 5158 0
5222 212 -5158 0
-5478 213 0
-5478 5222 0
5478 -213 -5222 0
-5494 200 0
-5494 5486 0
5494 -200 -5486 0
-5510 201 0
-5510 5494 0
5510 -201 -5494 0
-5526 -202 0
-5526 5510 0
5526 202 -5510 0
-5590 203 0
-5590 5526 0
5590 -203 -5526 0
-5654 -204 0
-5654 5590 0
5654 204 -5590 0
-5910 205 0
-5910 5654 0
5910 -205 -5654 0
-5926 192 0
-5926 5918 0
5926 -192 -5918 0
-5942 193 0
-5942 5926 0
5942 -193 -5926 0
-5958 -194 0
-5958 5942 0
5958 194 -5942 0
-6022 195 0
-6022 5958 0
6022 -195 -5958 0
-6086 -196 0
-6086 6022 0
6086 196 -6022 0
-6342 197 0
-6342 6086 0
6342 -197 -6086 0
-6358 184 0
-6358 6350 0
6358 -184 -6350 0
-6374 185 0
-6374 6358 0
6374 -185 -6358 0
-6390 -186 0
-6390 6374 0
6390 186 -6374 0
-6454 187 0
-6454 6390 0
6454 -187 -6390 0
-6518 -188 0
-6518 6454 0
6518 188 -6454 0
-6774 189 0
-6774 6518 0
6774 -189 -6518 0
-6954 -6342 0
-6954 -6774 0
6954 6342 6774 0
-7134 -5910 0
-7134 6954 0
7134 5910 -6954 0
-7314 -5478 0
-7314 7134 0
7314 5478 -7134 0
-7494 -5046 0
-7494 7314 0
7494 5046 -7314 0
-7674 -4614 0
-7674 7494 0
7674 4614 -7494 0
-7854 -4182 0
-7854 7674 0
7854 4182 -7674 0
-8034 -3750 0
-8034 7854 0
8034 3750 -7854 0
-8214 -3318 0
-8214 8034 0
8214 3318 -8034 0
-8394 -2886 0
-8394 8214 0
8394 2886 -8214 0
-8574 -2454 0
-8574 8394 0
8574 2454 -8394 0
-8754 -2022 0
-8754 8574 0
8754 2022 -8574 0
-8934 -1590 0
-8934 8754 0
8934 1590 -8754 0
-9114 -1158 0
-9114 8934 0
9114 1158 -8934 0
-9294 -726 0
-9294 9114 0
9294 726 -9114 0
-9818 174 0
-9818 9294 0
9818 -174 -9294 0
-9819 -174 0
-9819 -9294 0
9819 174 9294 0
-9820 -9818 0
-9820 -9819 0
9820 9818 9819 0
173 -52183 0
-173 52183 0
-325 297 0
-325 309 0
325 -297 -309 0
-341 -298 0
-341 325 0
341 298 -325 0
-405 299 0
-405 341 0
405 -299 -341 0
-469 -300 0
-469 405 0
469 300 -405 0
-725 301 0
-725 469 0
725 -301 -469 0
-757 289 0
-757 741 0
757 -289 -741 0
-773 -290 0
-773 757 0
773 290 -757 0
-837 291 0
-837 773 0
837 -291 -773 0
-901 -292 0
-901 837 0
901 292 -837 0
-1157 293 0
-1157 901 0
1157 -293 -901 0
-1189 281 0
-1189 1173 0
1189 -281 -1173 0
-1205 -282 0
-1205 1189 0
1205 282 -1189 0
-1269 283 0
-1269 1205 0
1269 -283 -1205 0
-1333 -284 0
-1333 1269 0
1333 284 -1269 0
-1589 285 0
-1589 1333 0
1589 -285 -1333 0
-1621 273 0
-1621 1605 0
1621 -273 -1605 0
-1637 -274 0
-1637 1621 0
1637 274 -1621 0
-1701 275 0
-1701 1637 0
1701 -275 -1637 0
-1765 -276 0
-1765 1701 0
1765 276 -1701 0
-2021 277 0
-2021 1765 0
2021 -277 -1765 0
-2053 265 0
-2053 2037 0
2053 -265 -2037 0
-2069 -266 0
-2069 2053 0
2069 266 -2053 0
-2133 267 0
-2133 2069 0
2133 -267 -2069 0
-2197 -268 0
-2197 2133 0
2197 268 -2133 0
-2453 269 0
-2453 2197 0
2453 -269 -2197 0
-2485 257 0
-2485 2469 0
2485 -257 -2469 0
-2501 -258 0
-2501 2485 0
2501 258 -2485 0
-2565 259 0
-2565 2501 0
2565 -259 -2501 0
-2629 -260 0
-2629 2565 0
2629 260 -2565 0
-2885 261 0
-2885 2629 0
2885 -261 -2629 0
-2917 249 0
-2917 2901 0
2917 -249 -2901 0
-2933 -250 0
-2933 2917 0
2933 250 -2917 0
-2997 251 0
-2997 2933 0
2997 -251 -2933 0
-3061 -252 0
-3061 2997 0
3061 252 -2997 0
-3317 253 0
-3317 3061 0
3317 -253 -3061 0
-3349 241 0
-3349 3333 0
3349 -241 -3333 0
-3365 -242 0
-3365 3349 0
3365 242 -3349 0
-3429 243 0
-3429 3365 0
3429 -243 -3365 0
-3493 -244 0
-3493 3429 0
3493 244 -3429 0
-3749 245 0
-3749 3493 0
3749 -245 -3493 0
-3781 233 0
-3781 3765 0
3781 -233 -3765 0
-3797 -234 0
-3797 3781 0
3797 234 -3781 0
-3861 235 0
-3861 3797 0
3861 -235 -3797 0
-3925 -236 0
-3925 3861 0
3925 236 -3861 0
-4181 237 0
-4181 3925 0
4181 -237 -3925 0
-4213 225 0
-4213 4197 0
4213 -225 -4197 0
-4229 -226 0
-4229 4213 0
4229 226 -4213 0
-4293 227 0
-4293 4229 0
4293 -227 -4229 0
-4357 -228 0
-4357 4293 0
4357 228 -4293 0
-4613 229 0
-4613 4357 0
4613 -229 -4357 0
-4645 217 0
-4645 4629 0
4645 -217 -4629 0
-4661 -218 0
-4661 4645 0
4661 218 -4645 0
-4725 219 0
-4725 4661 0
4725 -219 -4661 0
-4789 -220 0
-4789 4725 0
4789 220 -4725 0
-5045 221 0
-5045 4789 0
5045 -221 -4789 0
-5077 209 0
-5077 5061 0
5077 -209 -5061 0
-5093 -210 0
-5093 5077 0
5093 210 -5077 0
-5157 211 0
-5157 5093 0
5157 -211 -5093 0
-5221 -212 0
-5221 5157 0
5221 212 -5157 0
-5477 213 0
-5477 5221 0
5477 -213 -5221 0
-5509 201 0
-5509 5493 0
5509 -201 -5493 0
-5525 -202 0
-5525 5509 0
5525 202 -5509 0
-5589 203 0
-5589 5525 0
5589 -203 -5525 0
-5653 -204 0
-5653 5589 0
5653 204 -5589 0
-5909 205 0
-5909 5653 0
5909 -205 -5653 0
-5941 193 0
-5941 5925 0
5941 -193 -5925 0
-5957 -194 0
-5957 5941 0
5957 194 -5941 0
-6021 195 0
-6021 5957 0
6021 -195 -5957 0
-6085 -196 0
-6085 6021 0
6085 196 -6021 0
-6341 197 0
-6341 6085 0
6341 -197 -6085 0
-6373 185 0
-6373 6357 0
6373 -185 -6357 0
-6389 -186 0
-6389 6373 0
6389 186 -6373 0
-6453 187 0
-6453 6389 0
6453 -187 -6389 0
-6517 -188 0
-6517 6453 0
6517 188 -6453 0
-6773 189 0
-6773 6517 0
6773 -189 -6517 0
-6953 -6341 0
-6953 -6773 0
6953 6341 6773 0
-7133 -5909 0
-7133 6953 0
7133 5909 -6953 0
-7313 -5477 0
-7313 7133 0
7313 5477 -7133 0
-7493 -5045 0
-7493 7313 0
7493 5045 -7313 0
-7673 -4613 0
-7673 7493 0
7673 4613 -7493 0
-7853 -4181 0
-7853 7673 0
7853 4181 -7673 0
-8033 -3749 0
-8033 7853 0
8033 3749 -7853 0
-8213 -3317 0
-8213 8033 0
8213 3317 -8033 0
-8393 -2885 0
-8393 8213 0
8393 2885 -8213 0
-8573 -2453 0
-8573 8393 0
8573 2453 -8393 0
-8753 -2021 0
-8753 8573 0
8753 2021 -8573 0
-8933 -1589 0
-8933 8753 0
8933 1589 -8753 0
-9113 -1157 0
-9113 8933 0
9113 1157 -8933 0
-9293 -725 0
-9293 9113 0
9293 725 -9113 0
-9815 173 0
-9815 9293 0
9815 -173 -9293 0
-9816 -173 0
-9816 -9293 0
9816 173 9293 0
-9817 -9815 0
-9817 -9816 0
9817 9815 9816 0
172 -52182 0
-172 52182 0
-324 297 0
-324 308 0
324 -297 -308 0
-340 -298 0
-340 324 0
340 298 -324 0
-404 299 0
-404 340 0
404 -299 -340 0
-468 -300 0
-468 404 0
468 300 -404 0
-724 301 0
-724 468 0
724 -301 -468 0
-756 289 0
-756 740 0
756 -289 -740 0
-772 -290 0
-772 756 0
772 290 -756 0
-836 291 0
-836 772 0
836 -291 -772 0
-900 -292 0
-900 836 0
900 292 -836 0
-1156 293 0
-1156 900 0
1156 -293 -900 0
-1188 281 0
-1188 1172 0
1188 -281 -1172 0
-1204 -282 0
-1204 1188 0
1204 282 -1188 0
-1268 283 0
-1268 1204 0
1268 -283 -1204 0
-1332 -284 0
-1332 1268 0
1332 284 -1268 0
-1588 285 0
-1588 1332 0
1588 -285 -1332 0
-1620 273 0
-1620 1604 0
1620 -273 -1604 0
-1636 -274 0
-1636 1620 0
1636 274 -1620 0
-1700 275 0
-1700 1636 0
1700 -275 -1636 0
-1764 -276 0
-1764 1700 0
1764 276 -1700 0
-2020 277 0
-2020 1764 0
2020 -277 -1764 0
-2052 265 0
-2052 2036 0
2052 -265 -2036 0
-2068 -266 0
-2068 2052 0
2068 266 -2052 0
-2132 267 0
-2132 2068 0
2132 -267 -2068 0
-2196 -268 0
-2196 2132 0
2196 268 -2132 0
-2452 269 0
-2452 2196 0
2452 -269 -2196 0
-2484 257 0
-2484 2468 0
2484 -257 -2468 0
-2500 -258 0
-2500 2484 0
2500 258 -2484 0
-2564 259 0
-2564 2500 0
2564 -259 -2500 0
-2628 -260 0
-2628 2564 0
2628 260 -2564 0
-2884 261 0
-2884 2628 0
2884 -261 -2628 0
-2916 249 0
-2916 2900 0
2916 -249 -2900 0
-2932 -250 0
-2932 2916 0
2932 250 -2916 0
-2996 251 0
-2996 2932 0
2996 -251 -2932 0
-3060 -252 0
-3060 2996 0
3060 252 -2996 0
-3316 253 0
-3316 3060 0
3316 -253 -3060 0
-3348 241 0
-3348 3332 0
3348 -241 -3332 0
-3364 -242 0
-3364 3348 0
3364 242 -3348 0
-3428 243 0
-3428 3364 0
3428 -243 -3364 0
-3492 -244 0
-3492 3428 0
3492 244 -3428 0
-3748 245 0
-3748 3492 0
3748 -245 -3492 0
-3780 233 0
-3780 3764 0
3780 -233 -3764 0
-3796 -234 0
-3796 3780 0
3796 234 -3780 0
-3860 235 0
-3860 3796 0
3860 -235 -3796 0
-3924 -236 0
-3924 3860 0
3924 236 -3860 0
-4180 237 0
-4180 3924 0
4180 -237 -3924 0
-4212 225 0
-4212 4196 0
4212 -225 -4196 0
-4228 -226 0
-4228 4212 0
4228 226 -4212 0
-4292 227 0
-4292 4228 0
4292 -227 -4228 0
-4356 -228 0
-4356 4292 0
4356 228 -4292 0
-4612 229 0
-4612 4356 0
4612 -229 -4356 0
-4644 217 0
-4644 4628 0
4644 -217 -4628 0
-4660 -218 0
-4660 4644 0
4660 218 -4644 0
-4724 219 0
-4724 4660 0
4724 -219 -4660 0
-4788 -220 0
-4788 4724 0
4788 220 -4724 0
-5044 221 0
-5044 4788 0
5044 -221 -4788 0
-5076 209 0
-5076 5060 0
5076 -209 -5060 0
-5092 -210 0
-5092 5076 0
5092 210 -5076 0
-5156 211 0
-5156 5092 0
5156 -211 -5092 0
-5220 -212 0
-5220 5156 0
5220 212 -5156 0
-5476 213 0
-5476 5220 0
5476 -213 -5220 0
-5508 201 0
-5508 5492 0
5508 -201 -5492 0
-5524 -202 0
-5524 5508 0
5524 202 -5508 0
-5588 203 0
-5588 5524 0
5588 -203 -5524 0
-5652 -204 0
-5652 5588 0
5652 204 -5588 0
-5908 205 0
-5908 5652 0
5908 -205 -5652 0
-5940 193 0
-5940 5924 0
5940 -193 -5924 0
-5956 -194 0
-5956 5940 0
5956 194 -5940 0
-6020 195 0
-6020 5956 0
6020 -195 -5956 0
-6084 -196 0
-6084 6020 0
6084 196 -6020 0
-6340 197 0
-6340 6084 0
6340 -197 -6084 0
-6372 185 0
-6372 6356 0
6372 -185 -6356 0
-6388 -186 0
-6388 6372 0
6388 186 -6372 0
-6452 187 0
-6452 6388 0
6452 -187 -6388 0
-6516 -188 0
-6516 6452 0
6516 188 -6452 0
-6772 189 0
-6772 6516 0
6772 -189 -6516 0
-6952 -6340 0
-6952 -6772 0
6952 6340 6772 0
-7132 -5908 0
-7132 6952 0
7132 5908 -6952 0
-7312 -5476 0
-7312 7132 0
7312 5476 -7132 0
-7492 -5044 0
-7492 7312 0
7492 5044 -7312 0
-7672 -4612 0
-7672 7492 0
7672 4612 -7492 0
-7852 -4180 0
-7852 7672 0
7852 4180 -7672 0
-8032 -3748 0
-8032 7852 0
8032 3748 -7852 0
-8212 -3316 0
-8212 8032 0
8212 3316 -8032 0
-8392 -2884 0
-8392 8212 0
8392 2884 -8212 0
-8572 -2452 0
-8572 8392 0
8572 2452 -8392 0
-8752 -2020 0
-8752 8572 0
8752 2020 -8572 0
-8932 -1588 0
-8932 8752 0
8932 1588 -8752 0
-9112 -1156 0
-9112 8932 0
9112 1156 -8932 0
-9292 -724 0
-9292 9112 0
9292 724 -9112 0
-9812 172 0
-9812 9292 0
9812 -172 -9292 0
-9813 -172 0
-9813 -9292 0
9813 172 9292 0
-9814 -9812 0
-9814 -9813 0
9814 9812 9813 0
171 -52181 0
-171 52181 0
-323 297 0
-323 307 0
323 -297 -307 0
-339 -298 0
-339 323 0
339 298 -323 0
-403 299 0
-403 339 0
403 -299 -339 0
-467 -300 0
-467 403 0
467 300 -403 0
-723 301 0
-723 467 0
723 -301 -467 0
-755 289 0
-755 739 0
755 -289 -739 0
-771 -290 0
-771 755 0
771 290 -755 0
-835 291 0
-835 771 0
835 -291 -771 0
-899 -292 0
-899 835 0
899 292 -835 0
-1155 293 0
-1155 899 0
1155 -293 -899 0
-1187 281 0
-1187 1171 0
1187 -281 -1171 0
-1203 -282 0
-1203 1187 0
1203 282 -1187 0
-1267 283 0
-1267 1203 0
1267 -283 -1203 0
-1331 -284 0
-1331 1267 0
1331 284 -1267 0
-1587 285 0
-1587 1331 0
1587 -285 -1331 0
-1619 273 0
-1619 1603 0
1619 -273 -1603 0
-1635 -274 0
-1635 1619 0
1635 274 -1619 0
-1699 275 0
-1699 1635 0
1699 -275 -1635 0
-1763 -276 0
-1763 1699 0
1763 276 -1699 0
-2019 277 0
-2019 1763 0
2019 -277 -1763 0
-2051 265 0
-2051 2035 0
2051 -265 -2035 0
-2067 -266 0
-2067 2051 0
2067 266 -2051 0
-2131 267 0
-2131 2067 0
2131 -267 -2067 0
-2195 -268 0
-2195 2131 0
2195 268 -2131 0
-2451 269 0
-2451 2195 0
2451 -269 -2195 0
-2483 257 0
-2483 2467 0
2483 -257 -2467 0
-2499 -258 0
-2499 2483 0
2499 258 -2483 0
-2563 259 0
-2563 2499 0
2563 -259 -2499 0
-2627 -260 0
-2627 2563 0
2627 260 -2563 0
-2883 261 0
-2883 2627 0
2883 -261 -2627 0
-2915 249 0
-2915 2899 0
2915 -249 -2899 0
-2931 -250 0
-2931 2915 0
2931 250 -2915 0
-2995 251 0
-2995 2931 0
2995 -251 -2931 0
-3059 -252 0
-3059 2995 0
3059 252 -2995 0
-3315 253 0
-3315 3059 0
3315 -253 -3059 0
-3347 241 0
-3347 3331 0
3347 -241 -3331 0
-3363 -242 0
-3363 3347 0
3363 242 -3347 0
-3427 243 0
-3427 3363 0
3427 -243 -3363 0
-3491 -244 0
-3491 3427 0
3491 244 -3427 0
-3747 245 0
-3747 3491 0
3747 -245 -3491 0
-3779 233 0
-3779 3763 0
3779 -233 -3763 0
-3795 -234 0
-3795 3779 0
3795 234 -3779 0
-3859 235 0
-3859 3795 0
3859 -235 -3795 0
-3923 -236 0
-3923 3859 0
3923 236 -3859 0
-4179 237 0
-4179 3923 0
4179 -237 -3923 0
-4211 225 0
-4211 4195 0
4211 -225 -4195 0
-4227 -226 0
-4227 4211 0
4227 226 -4211 0
-4291 227 0
-4291 4227 0
4291 -227 -4227 0
-4355 -228 0
-4355 4291 0
4355 228 -4291 0
-4611 229 0
-4611 4355 0
4611 -229 -4355 0
-4643 217 0
-4643 4627 0
4643 -217 -4627 0
-4659 -218 0
-4659 4643 0
4659 218 -4643 0
-4723 219 0
-4723 4659 0
4723 -219 -4659 0
-4787 -220 0
-4787 4723 0
4787 220 -4723 0
-5043 221 0
-5043 4787 0
5043 -221 -4787 0
-5075 209 0
-5075 5059 0
5075 -209 -5059 0
-5091 -210 0
-5091 5075 0
5091 210 -5075 0
-5155 211 0
-5155 5091 0
5155 -211 -5091 0
-5219 -212 0
-5219 5155 0
5219 212 -5155 0
-5475 213 0
-5475 5219 0
5475 -213 -5219 0
-5507 201 0
-5507 5491 0
5507 -201 -5491 0
-5523 -202 0
-5523 5507 0
5523 202 -5507 0
-5587 203 0
-5587 5523 0
5587 -203 -5523 0
-5651 -204 0
-5651 5587 0
5651 204 -5587 0
-5907 205 0
-5907 5651 0
5907 -205 -5651 0
-5939 193 0
-5939 5923 0
5939 -193 -5923 0
-5955 -194 0
-5955 5939 0
5955 194 -5939 0
-6019 195 0
-6019 5955 0
6019 -195 -5955 0
-6083 -196 0
-6083 6019 0
6083 196 -6019 0
-6339 197 0
-6339 6083 0
6339 -197 -6083 0
-6371 185 0
-6371 6355 0
6371 -185 -6355 0
-6387 -186 0
-6387 6371 0
6387 186 -6371 0
-6451 187 0
-6451 6387 0
6451 -187 -6387 0
-6515 -188 0
-6515 6451 0
6515 188 -6451 0
-6771 189 0
-6771 6515 0
6771 -189 -6515 0
-6951 -6339 0
-6951 -6771 0
6951 6339 6771 0
-7131 -5907 0
-7131 6951 0
7131 5907 -6951 0
-7311 -5475 0
-7311 7131 0
7311 5475 -7131 0
-7491 -5043 0
-7491 7311 0
7491 5043 -7311 0
-7671 -4611 0
-7671 7491 0
7671 4611 -7491 0
-7851 -4179 0
-7851 7671 0
7851 4179 -7671 0
-8031 -3747 0
-8031 7851 0
8031 3747 -7851 0
-8211 -3315 0
-8211 8031 0
8211 3315 -8031 0
-8391 -2883 0
-8391 8211 0
8391 2883 -8211 0
-8571 -2451 0
-8571 8391 0
8571 2451 -8391 0
-8751 -2019 0
-8751 8571 0
8751 2019 -8571 0
-8931 -1587 0
-8931 8751 0
8931 1587 -8751 0
-9111 -1155 0
-9111 8931 0
9111 1155 -8931 0
-9291 -723 0
-9291 9111 0
9291 723 -9111 0
-9809 171 0
-9809 9291 0
9809 -171 -9291 0
-9810 -171 0
-9810 -9291 0
9810 171 9291 0
-9811 -9809 0
-9811 -9810 0
9811 9809 9810 0
170 -52180 0
-170 52180 0
-322 297 0
-322 306 0
322 -297 -306 0
-338 -298 0
-338 322 0
338 298 -322 0
-402 299 0
-402 338 0
402 -299 -338 0
-466 -300 0
-466 402 0
466 300 -402 0
-722 301 0
-722 466 0
722 -301 -466 0
-754 289 0
-754 738 0
754 -289 -738 0
-770 -290 0
-770 754 0
770 290 -754 0
-834 291 0
-834 770 0
834 -291 -770 0
-898 -292 0
-898 834 0
898 292 -834 0
-1154 293 0
-1154 898 0
1154 -293 -898 0
-1186 281 0
-1186 1170 0
1186 -281 -1170 0
-1202 -282 0
-1202 1186 0
1202 282 -1186 0
-1266 283 0
-1266 1202 0
1266 -283 -1202 0
-1330 -284 0
-1330 1266 0
1330 284 -1266 0
-1586 285 0
-1586 1330 0
1586 -285 -1330 0
-1618 273 0
-1618 1602 0
1618 -273 -1602 0
-1634 -274 0
-1634 1618 0
1634 274 -1618 0
-1698 275 0
-1698 1634 0
1698 -275 -1634 0
-1762 -276 0
-1762 1698 0
1762 276 -1698 0
-2018 277 0
-2018 1762 0
2018 -277 -1762 0
-2050 265 0
-2050 2034 0
2050 -265 -2034 0
-2066 -266 0
-2066 2050 0
2066 266 -2050 0
-2130 267 0
-2130 2066 0
2130 -267 -2066 0
-2194 -268 0
-2194 2130 0
2194 268 -2130 0
-2450 269 0
-2450 2194 0
2450 -269 -2194 0
-2482 257 0
-2482 2466 0
2482 -257 -2466 0
-2498 -258 0
-2498 2482 0
2498 258 -2482 0
-2562 259 0
-2562 2498 0
2562 -259 -2498 0
-2626 -260 0
-2626 2562 0
2626 260 -2562 0
-2882 261 0
-2882 2626 0
2882 -261 -2626 0
-2914 249 0
-2914 2898 0
2914 -249 -2898 0
-2930 -250 0
-2930 2914 0
2930 250 -2914 0
-2994 251 0
-2994 2930 0
2994 -251 -2930 0
-3058 -252 0
-3058 2994 0
3058 252 -2994 0
-3314 253 0
-3314 3058 0
3314 -253 -3058 0
-3346 241 0
-3346 3330 0
3346 -241 -3330 0
-3362 -242 0
-3362 3346 0
3362 242 -3346 0
-3426 243 0
-3426 3362 0
3426 -243 -3362 0
-3490 -244 0
-3490 3426 0
3490 244 -3426 0
-3746 245 0
-3746 3490 0
3746 -245 -3490 0
-3778 233 0
-3778 3762 0
3778 -233 -3762 0
-3794 -234 0
-3794 3778 0
3794 234 -3778 0
-3858 235 0
-3858 3794 0
3858 -235 -3794 0
-3922 -236 0
-3922 3858 0
3922 236 -3858 0
-4178 237 0
-4178 3922 0
4178 -237 -3922 0
-4210 225 0
-4210 4194 0
4210 -225 -4194 0
-4226 -226 0
-4226 4210 0
4226 226 -4210 0
-4290 227 0
-4290 4226 0
4290 -227 -4226 0
-4354 -228 0
-4354 4290 0
4354 228 -4290 0
-4610 229 0
-4610 4354 0
4610 -229 -4354 0
-4642 217 0
-4642 4626 0
4642 -217 -4626 0
-4658 -218 0
-4658 4642 0
4658 218 -4642 0
-4722 219 0
-4722 4658 0
4722 -219 -4658 0
-4786 -220 0
-4786 4722 0
4786 220 -4722 0
-5042 221 0
-5042 4786 0
5042 -221 -4786 0
-5074 209 0
-5074 5058 0
5074 -209 -5058 0
-5090 -210 0
-5090 5074 0
5090 210 -5074 0
-5154 211 0
-5154 5090 0
5154 -211 -5090 0
-5218 -212 0
-5218 5154 0
5218 212 -5154 0
-5474 213 0
-5474 5218 0
5474 -213 -5218 0
-5506 201 0
-5506 5490 0
5506 -201 -5490 0
-5522 -202 0
-5522 5506 0
5522 202 -5506 0
-5586 203 0
-5586 5522 0
5586 -203 -5522 0
-5650 -204 0
-5650 5586 0
5650 204 -5586 0
-5906 205 0
-5906 5650 0
5906 -205 -5650 0
-5938 193 0
-5938 5922 0
5938 -193 -5922 0
-5954 -194 0
-5954 5938 0
5954 194 -5938 0
-6018 195 0
-6018 5954 0
6018 -195 -5954 0
-6082 -196 0
-6082 6018 0
6082 196 -6018 0
-6338 197 0
-6338 6082 0
6338 -197 -6082 0
-6370 185 0
-6370 6354 0
6370 -185 -6354 0
-6386 -186 0
-6386 6370 0
6386 186 -6370 0
-6450 187 0
-6450 6386 0
6450 -187 -6386 0
-6514 -188 0
-6514 6450 0
6514 188 -6450 0
-6770 189 0
-6770 6514 0
6770 -189 -6514 0
-6950 -6338 0
-6950 -6770 0
6950 6338 6770 0
-7130 -5906 0
-7130 6950 0
7130 5906 -6950 0
-7310 -5474 0
-7310 7130 0
7310 5474 -7130 0
-7490 -5042 0
-7490 7310 0
7490 5042 -7310 0
-7670 -4610 0
-7670 7490 0
7670 4610 -7490 0
-7850 -4178 0
-7850 7670 0
7850 4178 -7670 0
-8030 -3746 0
-8030 7850 0
8030 3746 -7850 0
-8210 -3314 0
-8210 8030 0
8210 3314 -8030 0
-8390 -2882 0
-8390 8210 0
8390 2882 -8210 0
-8570 -2450 0
-8570 8390 0
8570 2450 -8390 0
-8750 -2018 0
-8750 8570 0
8750 2018 -8570 0
-8930 -1586 0
-8930 8750 0
8930 1586 -8750 0
-9110 -1154 0
-9110 8930 0
9110 1154 -8930 0
-9290 -722 0
-9290 9110 0
9290 722 -9110 0
-9806 170 0
-9806 9290 0
9806 -170 -9290 0
-9807 -170 0
-9807 -9290 0
9807 170 9290 0
-9808 -9806 0
-9808 -9807 0
9808 9806 9807 0
169 -52179 0
-169 52179 0
-321 -297 0
-321 313 0
321 297 -313 0
-337 -298 0
-337 321 0
337 298 -321 0
-401 299 0
-401 337 0
401 -299 -337 0
-465 -300 0
-465 401 0
465 300 -401 0
-721 301 0
-721 465 0
721 -301 -465 0
-753 -289 0
-753 745 0
753 289 -745 0
-769 -290 0
-769 753 0
769 290 -753 0
-833 291 0
-833 769 0
833 -291 -769 0
-897 -292 0
-897 833 0
897 292 -833 0
-1153 293 0
-1153 897 0
1153 -293 -897 0
-1185 -281 0
-1185 1177 0
1185 281 -1177 0
-1201 -282 0
-1201 1185 0
1201 282 -1185 0
-1265 283 0
-1265 1201 0
1265 -283 -1201 0
-1329 -284 0
-1329 1265 0
1329 284 -1265 0
-1585 285 0
-1585 1329 0
1585 -285 -1329 0
-1617 -273 0
-1617 1609 0
1617 273 -1609 0
-1633 -274 0
-1633 1617 0
1633 274 -1617 0
-1697 275 0
-1697 1633 0
1697 -275 -1633 0
-1761 -276 0
-1761 1697 0
1761 276 -1697 0
-2017 277 0
-2017 1761 0
2017 -277 -1761 0
-2049 -265 0
-2049 2041 0
2049 265 -2041 0
-2065 -266 0
-2065 2049 0
2065 266 -2049 0
-2129 267 0
-2129 2065 0
2129 -267 -2065 0
-2193 -268 0
-2193 2129 0
2193 268 -2129 0
-2449 269 0
-2449 2193 0
2449 -269 -2193 0
-2481 -257 0
-2481 2473 0
2481 257 -2473 0
-2497 -258 0
-2497 2481 0
2497 258 -2481 0
-2561 259 0
-2561 2497 0
2561 -259 -2497 0
-2625 -260 0
-2625 2561 0
2625 260 -2561 0
-2881 261 0
-2881 2625 0
2881 -261 -2625 0
-2913 -249 0
-2913 2905 0
2913 249 -2905 0
-2929 -250 0
-2929 2913 0
2929 250 -2913 0
-2993 251 0
-2993 2929 0
2993 -251 -2929 0
-3057 -252 0
-3057 2993 0
3057 252 -2993 0
-3313 253 0
-3313 3057 0
3313 -253 -3057 0
-3345 -241 0
-3345 3337 0
3345 241 -3337 0
-3361 -242 0
-3361 3345 0
3361 242 -3345 0
-3425 243 0
-3425 3361 0
3425 -243 -3361 0
-3489 -244 0
-3489 3425 0
3489 244 -3425 0
-3745 245 0
-3745 3489 0
3745 -245 -3489 0
-3777 -233 0
-3777 3769 0
3777 233 -3769 0
-3793 -234 0
-3793 3777 0
3793 234 -3777 0
-3857 235 0
-3857 3793 0
3857 -235 -3793 0
-3921 -236 0
-3921 3857 0
3921 236 -3857 0
-4177 237 0
-4177 3921 0
4177 -237 -3921 0
-4209 -225 0
-4209 4201 0
4209 225 -4201 0
-4225 -226 0
-4225 4209 0
4225 226 -4209 0
-4289 227 0
-4289 4225 0
4289 -227 -4225 0
-4353 -228 0
-4353 4289 0
4353 228 -4289 0
-4609 229 0
-4609 4353 0
4609 -229 -4353 0
-4641 -217 0
-4641 4633 0
4641 217 -4633 0
-4657 -218 0
-4657 4641 0
4657 218 -4641 0
-4721 219 0
-4721 4657 0
4721 -219 -4657 0
-4785 -220 0
-4785 4721 0
4785 220 -4721 0
-5041 221 0
-5041 4785 0
5041 -221 -4785 0
-5073 -209 0
-5073 5065 0
5073 209 -5065 0
-5089 -210 0
-5089 5073 0
5089 210 -5073 0
-5153 211 0
-5153 5089 0
5153 -211 -5089 0
-5217 -212 0
-5217 5153 0
5217 212 -5153 0
-5473 213 0
-5473 5217 0
5473 -213 -5217 0
-5505 -201 0
-5505 5497 0
5505 201 -5497 0
-5521 -202 0
-5521 5505 0
5521 202 -5505 0
-5585 203 0
-5585 5521 0
5585 -203 -5521 0
-5649 -204 0
-5649 5585 0
5649 204 -5585 0
-5905 205 0
-5905 5649 0
5905 -205 -5649 0
-5937 -193 0
-5937 5929 0
5937 193 -5929 0
-5953 -194 0
-5953 5937 0
5953 194 -5937 0
-6017 195 0
-6017 5953 0
6017 -195 -5953 0
-6081 -196 0
-6081 6017 0
6081 196 -6017 0
-6337 197 0
-6337 6081 0
6337 -197 -6081 0
-6369 -185 0
-6369 6361 0
6369 185 -6361 0
-6385 -186 0
-6385 6369 0
6385 186 -6369 0
-6449 187 0
-6449 6385 0
6449 -187 -6385 0
-6513 -188 0
-6513 6449 0
6513 188 -6449 0
-6769 189 0
-6769 6513 0
6769 -189 -6513 0
-6949 -6337 0
-6949 -6769 0
6949 6337 6769 0
-7129 -5905 0
-7129 6949 0
7129 5905 -6949 0
-7309 -5473 0
-7309 7129 0
7309 5473 -7129 0
-7489 -5041 0
-7489 7309 0
7489 5041 -7309 0
-7669 -4609 0
-7669 7489 0
7669 4609 -7489 0
-7849 -4177 0
-7849 7669 0
7849 4177 -7669 0
-8029 -3745 0
-8029 7849 0
8029 3745 -7849 0
-8209 -3313 0
-8209 8029 0
8209 3313 -8029 0
-8389 -2881 0
-8389 8209 0
8389 2881 -8209 0
-8569 -2449 0
-8569 8389 0
8569 2449 -8389 0
-8749 -2017 0
-8749 8569 0
8749 2017 -8569 0
-8929 -1585 0
-8929 8749 0
8929 1585 -8749 0
-9109 -1153 0
-9109 8929 0
9109 1153 -8929 0
-9289 -721 0
-9289 9109 0
9289 721 -9109 0
-9803 169 0
-9803 9289 0
9803 -169 -9289 0
-9804 -169 0
-9804 -9289 0
9804 169 9289 0
-9805 -9803 0
-9805 -9804 0
9805 9803 9804 0
168 -52178 0
-168 52178 0
-320 -297 0
-320 312 0
320 297 -312 0
-336 -298 0
-336 320 0
336 298 -320 0
-400 299 0
-400 336 0
400 -299 -336 0
-464 -300 0
-464 400 0
464 300 -400 0
-720 301 0
-720 464 0
720 -301 -464 0
-752 -289 0
-752 744 0
752 289 -744 0
-768 -290 0
-768 752 0
768 290 -752 0
-832 291 0
-832 768 0
832 -291 -768 0
-896 -292 0
-896 832 0
896 292 -832 0
-1152 293 0
-1152 896 0
1152 -293 -896 0
-1184 -281 0
-1184 1176 0
1184 281 -1176 0
-1200 -282 0
-1200 1184 0
1200 282 -1184 0
-1264 283 0
-1264 1200 0
1264 -283 -1200 0
-1328 -284 0
-1328 1264 0
1328 284 -1264 0
-1584 285 0
-1584 1328 0
1584 -285 -1328 0
-1616 -273 0
-1616 1608 0
1616 273 -1608 0
-1632 -274 0
-1632 1616 0
1632 274 -1616 0
-1696 275 0
-1696 1632 0
1696 -275 -1632 0
-1760 -276 0
-1760 1696 0
1760 276 -1696 0
-2016 277 0
-2016 1760 0
2016 -277 -1760 0
-2048 -265 0
-2048 2040 0
2048 265 -2040 0
-2064 -266 0
-2064 2048 0
2064 266 -2048 0
-2128 267 0
-2128 2064 0
2128 -267 -2064 0
-2192 -268 0
-2192 2128 0
2192 268 -2128 0
-2448 269 0
-2448 2192 0
2448 -269 -2192 0
-2480 -257 0
-2480 2472 0
2480 257 -2472 0
-2496 -258 0
-2496 2480 0
2496 258 -2480 0
-2560 259 0
-2560 2496 0
2560 -259 -2496 0
-2624 -260 0
-2624 2560 0
2624 260 -2560 0
-2880 261 0
-2880 2624 0
2880 -261 -2624 0
-2912 -249 0
-2912 2904 0
2912 249 -2904 0
-2928 -250 0
-2928 2912 0
2928 250 -2912 0
-2992 251 0
-2992 2928 0
2992 -251 -2928 0
-3056 -252 0
-3056 2992 0
3056 252 -2992 0
-3312 253 0
-3312 3056 0
3312 -253 -3056 0
-3344 -241 0
-3344 3336 0
3344 241 -3336 0
-3360 -242 0
-3360 3344 0
3360 242 -3344 0
-3424 243 0
-3424 3360 0
3424 -243 -3360 0
-3488 -244 0
-3488 3424 0
3488 244 -3424 0
-3744 245 0
-3744 3488 0
3744 -245 -3488 0
-3776 -233 0
-3776 3768 0
3776 233 -3768 0
-3792 -234 0
-3792 3776 0
3792 234 -3776 0
-3856 235 0
-3856 3792 0
3856 -235 -3792 0
-3920 -236 0
-3920 3856 0
3920 236 -3856 0
-4176 237 0
-4176 3920 0
4176 -237 -3920 0
-4208 -225 0
-4208 4200 0
4208 225 -4200 0
-4224 -226 0
-4224 4208 0
4224 226 -4208 0
-4288 227 0
-4288 4224 0
4288 -227 -4224 0
-4352 -228 0
-4352 4288 0
4352 228 -4288 0
-4608 229 0
-4608 4352 0
4608 -229 -4352 0
-4640 -217 0
-4640 4632 0
4640 217 -4632 0
-4656 -218 0
-4656 4640 0
4656 218 -4640 0
-4720 219 0
-4720 4656 0
4720 -219 -4656 0
-4784 -220 0
-4784 4720 0
4784 220 -4720 0
-5040 221 0
-5040 4784 0
5040 -221 -4784 0
-5072 -209 0
-5072 5064 0
5072 209 -5064 0
-5088 -210 0
-5088 5072 0
5088 210 -5072 0
-5152 211 0
-5152 5088 0
5152 -211 -5088 0
-5216 -212 0
-5216 5152 0
5216 212 -5152 0
-5472 213 0
-5472 5216 0
5472 -213 -5216 0
-5504 -201 0
-5504 5496 0
5504 201 -5496 0
-5520 -202 0
-5520 5504 0
5520 202 -5504 0
-5584 203 0
-5584 5520 0
5584 -203 -5520 0
-5648 -204 0
-5648 5584 0
5648 204 -5584 0
-5904 205 0
-5904 5648 0
5904 -205 -5648 0
-5936 -193 0
-5936 5928 0
5936 193 -5928 0
-5952 -194 0
-5952 5936 0
5952 194 -5936 0
-6016 195 0
-6016 5952 0
6016 -195 -5952 0
-6080 -196 0
-6080 6016 0
6080 196 -6016 0
-6336 197 0
-6336 6080 0
6336 -197 -6080 0
-6368 -185 0
-6368 6360 0
6368 185 -6360 0
-6384 -186 0
-6384 6368 0
6384 186 -6368 0
-6448 187 0
-6448 6384 0
6448 -187 -6384 0
-6512 -188 0
-6512 6448 0
6512 188 -6448 0
-6768 189 0
-6768 6512 0
6768 -189 -6512 0
-6948 -6336 0
-6948 -6768 0
6948 6336 6768 0
-7128 -5904 0
-7128 6948 0
7128 5904 -6948 0
-7308 -5472 0
-7308 7128 0
7308 5472 -7128 0
-7488 -5040 0
-7488 7308 0
7488 5040 -7308 0
-7668 -4608 0
-7668 7488 0
7668 4608 -7488 0
-7848 -4176 0
-7848 7668 0
7848 4176 -7668 0
-8028 -3744 0
-8028 7848 0
8028 3744 -7848 0
-8208 -3312 0
-8208 8028 0
8208 3312 -8028 0
-8388 -2880 0
-8388 8208 0
8388 2880 -8208 0
-8568 -2448 0
-8568 8388 0
8568 2448 -8388 0
-8748 -2016 0
-8748 8568 0
8748 2016 -8568 0
-8928 -1584 0
-8928 8748 0
8928 1584 -8748 0
-9108 -1152 0
-9108 8928 0
9108 1152 -8928 0
-9288 -720 0
-9288 9108 0
9288 720 -9108 0
-9800 168 0
-9800 9288 0
9800 -168 -9288 0
-9801 -168 0
-9801 -9288 0
9801 168 9288 0
-9802 -9800 0
-9802 -9801 0
9802 9800 9801 0
167 -52177 0
-167 52177 0
-319 -297 0
-319 311 0
319 297 -311 0
-335 -298 0
-335 319 0
335 298 -319 0
-399 299 0
-399 335 0
399 -299 -335 0
-463 -300 0
-463 399 0
463 300 -399 0
-719 301 0
-719 463 0
719 -301 -463 0
-751 -289 0
-751 743 0
751 289 -743 0
-767 -290 0
-767 751 0
767 290 -751 0
-831 291 0
-831 767 0
831 -291 -767 0
-895 -292 0
-895 831 0
895 292 -831 0
-1151 293 0
-1151 895 0
1151 -293 -895 0
-1183 -281 0
-1183 1175 0
1183 281 -1175 0
-1199 -282 0
-1199 1183 0
1199 282 -1183 0
-1263 283 0
-1263 1199 0
1263 -283 -1199 0
-1327 -284 0
-1327 1263 0
1327 284 -1263 0
-1583 285 0
-1583 1327 0
1583 -285 -1327 0
-1615 -273 0
-1615 1607 0
1615 273 -1607 0
-1631 -274 0
-1631 1615 0
1631 274 -1615 0
-1695 275 0
-1695 1631 0
1695 -275 -1631 0
-1759 -276 0
-1759 1695 0
1759 276 -1695 0
-2015 277 0
-2015 1759 0
2015 -277 -1759 0
-2047 -265 0
-2047 2039 0
2047 265 -2039 0
-2063 -266 0
-2063 2047 0
2063 266 -2047 0
-2127 267 0
-2127 2063 0
2127 -267 -2063 0
-2191 -268 0
-2191 2127 0
2191 268 -2127 0
-2447 269 0
-2447 2191 0
2447 -269 -2191 0
-2479 -257 0
-2479 2471 0
2479 257 -2471 0
-2495 -258 0
-2495 2479 0
2495 258 -2479 0
-2559 259 0
-2559 2495 0
2559 -259 -2495 0
-2623 -260 0
-2623 2559 0
2623 260 -2559 0
-2879 261 0
-2879 2623 0
2879 -261 -2623 0
-2911 -249 0
-2911 2903 0
2911 249 -2903 0
-2927 -250 0
-2927 2911 0
2927 250 -2911 0
-2991 251 0
-2991 2927 0
2991 -251 -2927 0
-3055 -252 0
-3055 2991 0
3055 252 -2991 0
-3311 253 0
-3311 3055 0
3311 -253 -3055 0
-3343 -241 0
-3343 3335 0
3343 241 -3335 0
-3359 -242 0
-3359 3343 0
3359 242 -3343 0
-3423 243 0
-3423 3359 0
3423 -243 -3359 0
-3487 -244 0
-3487 3423 0
3487 244 -3423 0
-3743 245 0
-3743 3487 0
3743 -245 -3487 0
-3775 -233 0
-3775 3767 0
3775 233 -3767 0
-3791 -234 0
-3791 3775 0
3791 234 -3775 0
-3855 235 0
-3855 3791 0
3855 -235 -3791 0
-3919 -236 0
-3919 3855 0
3919 236 -3855 0
-4175 237 0
-4175 3919 0
4175 -237 -3919 0
-4207 -225 0
-4207 4199 0
4207 225 -4199 0
-4223 -226 0
-4223 4207 0
4223 226 -4207 0
-4287 227 0
-4287 4223 0
4287 -227 -4223 0
-4351 -228 0
-4351 4287 0
4351 228 -4287 0
-4607 229 0
-4607 4351 0
4607 -229 -4351 0
-4639 -217 0
-4639 4631 0
4639 217 -4631 0
-4655 -218 0
-4655 4639 0
4655 218 -4639 0
-4719 219 0
-4719 4655 0
4719 -219 -4655 0
-4783 -220 0
-4783 4719 0
4783 220 -4719 0
-5039 221 0
-5039 4783 0
5039 -221 -4783 0
-5071 -209 0
-5071 5063 0
5071 209 -5063 0
-5087 -210 0
-5087 5071 0
5087 210 -5071 0
-5151 211 0
-5151 5087 0
5151 -211 -5087 0
-5215 -212 0
-5215 5151 0
5215 212 -5151 0
-5471 213 0
-5471 5215 0
5471 -213 -5215 0
-5503 -201 0
-5503 5495 0
5503 201 -5495 0
-5519 -202 0
-5519 5503 0
5519 202 -5503 0
-5583 203 0
-5583 5519 0
5583 -203 -5519 0
-5647 -204 0
-5647 5583 0
5647 204 -5583 0
-5903 205 0
-5903 5647 0
5903 -205 -5647 0
-5935 -193 0
-5935 5927 0
5935 193 -5927 0
-5951 -194 0
-5951 5935 0
5951 194 -5935 0
-6015 195 0
-6015 5951 0
6015 -195 -5951 0
-6079 -196 0
-6079 6015 0
6079 196 -6015 0
-6335 197 0
-6335 6079 0
6335 -197 -6079 0
-6367 -185 0
-6367 6359 0
6367 185 -6359 0
-6383 -186 0
-6383 6367 0
6383 186 -6367 0
-6447 187 0
-6447 6383 0
6447 -187 -6383 0
-6511 -188 0
-6511 6447 0
6511 188 -6447 0
-6767 189 0
-6767 6511 0
6767 -189 -6511 0
-6947 -6335 0
-6947 -6767 0
6947 6335 6767 0
-7127 -5903 0
-7127 6947 0
7127 5903 -6947 0
-7307 -5471 0
-7307 7127 0
7307 5471 -7127 0
-7487 -5039 0
-7487 7307 0
7487 5039 -7307 0
-7667 -4607 0
-7667 7487 0
7667 4607 -7487 0
-7847 -4175 0
-7847 7667 0
7847 4175 -7667 0
-8027 -3743 0
-8027 7847 0
8027 3743 -7847 0
-8207 -3311 0
-8207 8027 0
8207 3311 -8027 0
-8387 -2879 0
-8387 8207 0
8387 2879 -8207 0
-8567 -2447 0
-8567 8387 0
8567 2447 -8387 0
-8747 -2015 0
-8747 8567 0
8747 2015 -8567 0
-8927 -1583 0
-8927 8747 0
8927 1583 -8747 0
-9107 -1151 0
-9107 8927 0
9107 1151 -8927 0
-9287 -719 0
-9287 9107 0
9287 719 -9107 0
-9797 167 0
-9797 9287 0
9797 -167 -9287 0
-9798 -167 0
-9798 -9287 0
9798 167 9287 0
-9799 -9797 0
-9799 -9798 0
9799 9797 9798 0
166 -52176 0
-166 52176 0
-318 -297 0
-318 310 0
318 297 -310 0
-334 -298 0
-334 318 0
334 298 -318 0
-398 299 0
-398 334 0
398 -299 -334 0
-462 -300 0
-462 398 0
462 300 -398 0
-718 301 0
-718 462 0
718 -301 -462 0
-750 -289 0
-750 742 0
750 289 -742 0
-766 -290 0
-766 750 0
766 290 -750 0
-830 291 0
-830 766 0
830 -291 -766 0
-894 -292 0
-894 830 0
894 292 -830 0
-1150 293 0
-1150 894 0
1150 -293 -894 0
-1182 -281 0
-1182 1174 0
1182 281 -1174 0
-1198 -282 0
-1198 1182 0
1198 282 -1182 0
-1262 283 0
-1262 1198 0
1262 -283 -1198 0
-1326 -284 0
-1326 1262 0
1326 284 -1262 0
-1582 285 0
-1582 1326 0
1582 -285 -1326 0
-1614 -273 0
-1614 1606 0
1614 273 -1606 0
-1630 -274 0
-1630 1614 0
1630 274 -1614 0
-1694 275 0
-1694 1630 0
1694 -275 -1630 0
-1758 -276 0
-1758 1694 0
1758 276 -1694 0
-2014 277 0
-2014 1758 0
2014 -277 -1758 0
-2046 -265 0
-2046 2038 0
2046 265 -2038 0
-2062 -266 0
-2062 2046 0
2062 266 -2046 0
-2126 267 0
-2126 2062 0
2126 -267 -2062 0
-2190 -268 0
-2190 2126 0
2190 268 -2126 0
-2446 269 0
-2446 2190 0
2446 -269 -2190 0
-2478 -257 0
-2478 2470 0
2478 257 -2470 0
-2494 -258 0
-2494 2478 0
2494 258 -2478 0
-2558 259 0
-2558 2494 0
2558 -259 -2494 0
-2622 -260 0
-2622 2558 0
2622 260 -2558 0
-2878 261 0
-2878 2622 0
2878 -261 -2622 0
-2910 -249 0
-2910 2902 0
2910 249 -2902 0
-2926 -250 0
-2926 2910 0
2926 250 -2910 0
-2990 251 0
-2990 2926 0
2990 -251 -2926 0
-3054 -252 0
-3054 2990 0
3054 252 -2990 0
-3310 253 0
-3310 3054 0
3310 -253 -3054 0
-3342 -241 0
-3342 3334 0
3342 241 -3334 0
-3358 -242 0
-3358 3342 0
3358 242 -3342 0
-3422 243 0
-3422 3358 0
3422 -243 -3358 0
-3486 -244 0
-3486 3422 0
3486 244 -3422 0
-3742 245 0
-3742 3486 0
3742 -245 -3486 0
-3774 -233 0
-3774 3766 0
3774 233 -3766 0
-3790 -234 0
-3790 3774 0
3790 234 -3774 0
-3854 235 0
-3854 3790 0
3854 -235 -3790 0
-3918 -236 0
-3918 3854 0
3918 236 -3854 0
-4174 237 0
-4174 3918 0
4174 -237 -3918 0
-4206 -225 0
-4206 4198 0
4206 225 -4198 0
-4222 -226 0
-4222 4206 0
4222 226 -4206 0
-4286 227 0
-4286 4222 0
4286 -227 -4222 0
-4350 -228 0
-4350 4286 0
4350 228 -4286 0
-4606 229 0
-4606 4350 0
4606 -229 -4350 0
-4638 -217 0
-4638 4630 0
4638 217 -4630 0
-4654 -218 0
-4654 4638 0
4654 218 -4638 0
-4718 219 0
-4718 4654 0
4718 -219 -4654 0
-4782 -220 0
-4782 4718 0
4782 220 -4718 0
-5038 221 0
-5038 4782 0
5038 -221 -4782 0
-5070 -209 0
-5070 5062 0
5070 209 -5062 0
-5086 -210 0
-5086 5070 0
5086 210 -5070 0
-5150 211 0
-5150 5086 0
5150 -211 -5086 0
-5214 -212 0
-5214 5150 0
5214 212 -5150 0
-5470 213 0
-5470 5214 0
5470 -213 -5214 0
-5502 -201 0
-5502 5494 0
5502 201 -5494 0
-5518 -202 0
-5518 5502 0
5518 202 -5502 0
-5582 203 0
-5582 5518 0
5582 -203 -5518 0
-5646 -204 0
-5646 5582 0
5646 204 -5582 0
-5902 205 0
-5902 5646 0
5902 -205 -5646 0
-5934 -193 0
-5934 5926 0
5934 193 -5926 0
-5950 -194 0
-5950 5934 0
5950 194 -5934 0
-6014 195 0
-6014 5950 0
6014 -195 -5950 0
-6078 -196 0
-6078 6014 0
6078 196 -6014 0
-6334 197 0
-6334 6078 0
6334 -197 -6078 0
-6366 -185 0
-6366 6358 0
6366 185 -6358 0
-6382 -186 0
-6382 6366 0
6382 186 -6366 0
-6446 187 0
-6446 6382 0
6446 -187 -6382 0
-6510 -188 0
-6510 6446 0
6510 188 -6446 0
-6766 189 0
-6766 6510 0
6766 -189 -6510 0
-6946 -6334 0
-6946 -6766 0
6946 6334 6766 0
-7126 -5902 0
-7126 6946 0
7126 5902 -6946 0
-7306 -5470 0
-7306 7126 0
7306 5470 -7126 0
-7486 -5038 0
-7486 7306 0
7486 5038 -7306 0
-7666 -4606 0
-7666 7486 0
7666 4606 -7486 0
-7846 -4174 0
-7846 7666 0
7846 4174 -7666 0
-8026 -3742 0
-8026 7846 0
8026 3742 -7846 0
-8206 -3310 0
-8206 8026 0
8206 3310 -8026 0
-8386 -2878 0
-8386 8206 0
8386 2878 -8206 0
-8566 -2446 0
-8566 8386 0
8566 2446 -8386 0
-8746 -2014 0
-8746 8566 0
8746 2014 -8566 0
-8926 -1582 0
-8926 8746 0
8926 1582 -8746 0
-9106 -1150 0
-9106 8926 0
9106 1150 -8926 0
-9286 -718 0
-9286 9106 0
9286 718 -9106 0
-9794 166 0
-9794 9286 0
9794 -166 -9286 0
-9795 -166 0
-9795 -9286 0
9795 166 9286 0
-9796 -9794 0
-9796 -9795 0
9796 9794 9795 0
165 -52175 0
-165 52175 0
-333 -298 0
-333 317 0
333 298 -317 0
-397 299 0
-397 333 0
397 -299 -333 0
-461 -300 0
-461 397 0
461 300 -397 0
-717 301 0
-717 461 0
717 -301 -461 0
-765 -290 0
-765 749 0
765 290 -749 0
-829 291 0
-829 765 0
829 -291 -765 0
-893 -292 0
-893 829 0
893 292 -829 0
-1149 293 0
-1149 893 0
1149 -293 -893 0
-1197 -282 0
-1197 1181 0
1197 282 -1181 0
-1261 283 0
-1261 1197 0
1261 -283 -1197 0
-1325 -284 0
-1325 1261 0
1325 284 -1261 0
-1581 285 0
-1581 1325 0
1581 -285 -1325 0
-1629 -274 0
-1629 1613 0
1629 274 -1613 0
-1693 275 0
-1693 1629 0
1693 -275 -1629 0
-1757 -276 0
-1757 1693 0
1757 276 -1693 0
-2013 277 0
-2013 1757 0
2013 -277 -1757 0
-2061 -266 0
-2061 2045 0
2061 266 -2045 0
-2125 267 0
-2125 2061 0
2125 -267 -2061 0
-2189 -268 0
-2189 2125 0
2189 268 -2125 0
-2445 269 0
-2445 2189 0
2445 -269 -2189 0
-2493 -258 0
-2493 2477 0
2493 258 -2477 0
-2557 259 0
-2557 2493 0
2557 -259 -2493 0
-2621 -260 0
-2621 2557 0
2621 260 -2557 0
-2877 261 0
-2877 2621 0
2877 -261 -2621 0
-2925 -250 0
-2925 2909 0
2925 250 -2909 0
-2989 251 0
-2989 2925 0
2989 -251 -2925 0
-3053 -252 0
-3053 2989 0
3053 252 -2989 0
-3309 253 0
-3309 3053 0
3309 -253 -3053 0
-3357 -242 0
-3357 3341 0
3357 242 -3341 0
-3421 243 0
-3421 3357 0
3421 -243 -3357 0
-3485 -244 0
-3485 3421 0
3485 244 -3421 0
-3741 245 0
-3741 3485 0
3741 -245 -3485 0
-3789 -234 0
-3789 3773 0
3789 234 -3773 0
-3853 235 0
-3853 3789 0
3853 -235 -3789 0
-3917 -236 0
-3917 3853 0
3917 236 -3853 0
-4173 237 0
-4173 3917 0
4173 -237 -3917 0
-4221 -226 0
-4221 4205 0
4221 226 -4205 0
-4285 227 0
-4285 4221 0
4285 -227 -4221 0
-4349 -228 0
-4349 4285 0
4349 228 -4285 0
-4605 229 0
-4605 4349 0
4605 -229 -4349 0
-4653 -218 0
-4653 4637 0
4653 218 -4637 0
-4717 219 0
-4717 4653 0
4717 -219 -4653 0
-4781 -220 0
-4781 4717 0
4781 220 -4717 0
-5037 221 0
-5037 4781 0
5037 -221 -4781 0
-5085 -210 0
-5085 5069 0
5085 210 -5069 0
-5149 211 0
-5149 5085 0
5149 -211 -5085 0
-5213 -212 0
-5213 5149 0
5213 212 -5149 0
-5469 213 0
-5469 5213 0
5469 -213 -5213 0
-5517 -202 0
-5517 5501 0
5517 202 -5501 0
-5581 203 0
-5581 5517 0
5581 -203 -5517 0
-5645 -204 0
-5645 5581 0
5645 204 -5581 0
-5901 205 0
-5901 5645 0
5901 -205 -5645 0
-5949 -194 0
-5949 5933 0
5949 194 -5933 0
-6013 195 0
-6013 5949 0
6013 -195 -5949 0
-6077 -196 0
-6077 6013 0
6077 196 -6013 0
-6333 197 0
-6333 6077 0
6333 -197 -6077 0
-6381 -186 0
-6381 6365 0
6381 186 -6365 0
-6445 187 0
-6445 6381 0
6445 -187 -6381 0
-6509 -188 0
-6509 6445 0
6509 188 -6445 0
-6765 189 0
-6765 6509 0
6765 -189 -6509 0
-6945 -6333 0
-6945 -6765 0
6945 6333 6765 0
-7125 -5901 0
-7125 6945 0
7125 5901 -6945 0
-7305 -5469 0
-7305 7125 0
7305 5469 -7125 0
-7485 -5037 0
-7485 7305 0
7485 5037 -7305 0
-7665 -4605 0
-7665 7485 0
7665 4605 -7485 0
-7845 -4173 0
-7845 7665 0
7845 4173 -7665 0
-8025 -3741 0
-8025 7845 0
8025 3741 -7845 0
-8205 -3309 0
-8205 8025 0
8205 3309 -8025 0
-8385 -2877 0
-8385 8205 0
8385 2877 -8205 0
-8565 -2445 0
-8565 8385 0
8565 2445 -8385 0
-8745 -2013 0
-8745 8565 0
8745 2013 -8565 0
-8925 -1581 0
-8925 8745 0
8925 1581 -8745 0
-9105 -1149 0
-9105 8925 0
9105 1149 -8925 0
-9285 -717 0
-9285 9105 0
9285 717 -9105 0
-9791 165 0
-9791 9285 0
9791 -165 -9285 0
-9792 -165 0
-9792 -9285 0
9792 165 9285 0
-9793 -9791 0
-9793 -9792 0
9793 9791 9792 0
164 -52174 0
-164 52174 0
-332 -298 0
-332 316 0
332 298 -316 0
-396 299 0
-396 332 0
396 -299 -332 0
-460 -300 0
-460 396 0
460 300 -396 0
-716 301 0
-716 460 0
716 -301 -460 0
-764 -290 0
-764 748 0
764 290 -748 0
-828 291 0
-828 764 0
828 -291 -764 0
-892 -292 0
-892 828 0
892 292 -828 0
-1148 293 0
-1148 892 0
1148 -293 -892 0
-1196 -282 0
-1196 1180 0
1196 282 -1180 0
-1260 283 0
-1260 1196 0
1260 -283 -1196 0
-1324 -284 0
-1324 1260 0
1324 284 -1260 0
-1580 285 0
-1580 1324 0
1580 -285 -1324 0
-1628 -274 0
-1628 1612 0
1628 274 -1612 0
-1692 275 0
-1692 1628 0
1692 -275 -1628 0
-1756 -276 0
-1756 1692 0
1756 276 -1692 0
-2012 277 0
-2012 1756 0
2012 -277 -1756 0
-2060 -266 0
-2060 2044 0
2060 266 -2044 0
-2124 267 0
-2124 2060 0
2124 -267 -2060 0
-2188 -268 0
-2188 2124 0
2188 268 -2124 0
-2444 269 0
-2444 2188 0
2444 -269 -2188 0
-2492 -258 0
-2492 2476 0
2492 258 -2476 0
-2556 259 0
-2556 2492 0
2556 -259 -2492 0
-2620 -260 0
-2620 2556 0
2620 260 -2556 0
-2876 261 0
-2876 2620 0
2876 -261 -2620 0
-2924 -250 0
-2924 2908 0
2924 250 -2908 0
-2988 251 0
-2988 2924 0
2988 -251 -2924 0
-3052 -252 0
-3052 2988 0
3052 252 -2988 0
-3308 253 0
-3308 3052 0
3308 -253 -3052 0
-3356 -242 0
-3356 3340 0
3356 242 -3340 0
-3420 243 0
-3420 3356 0
3420 -243 -3356 0
-3484 -244 0
-3484 3420 0
3484 244 -3420 0
-3740 245 0
-3740 3484 0
3740 -245 -3484 0
-3788 -234 0
-3788 3772 0
3788 234 -3772 0
-3852 235 0
-3852 3788 0
3852 -235 -3788 0
-3916 -236 0
-3916 3852 0
3916 236 -3852 0
-4172 237 0
-4172 3916 0
4172 -237 -3916 0
-4220 -226 0
-4220 4204 0
4220 226 -4204 0
-4284 227 0
-4284 4220 0
4284 -227 -4220 0
-4348 -228 0
-4348 4284 0
4348 228 -4284 0
-4604 229 0
-4604 4348 0
4604 -229 -4348 0
-4652 -218 0
-4652 4636 0
4652 218 -4636 0
-4716 219 0
-4716 4652 0
4716 -219 -4652 0
-4780 -220 0
-4780 4716 0
4780 220 -4716 0
-5036 221 0
-5036 4780 0
5036 -221 -4780 0
-5084 -210 0
-5084 5068 0
5084 210 -5068 0
-5148 211 0
-5148 5084 0
5148 -211 -5084 0
-5212 -212 0
-5212 5148 0
5212 212 -5148 0
-5468 213 0
-5468 5212 0
5468 -213 -5212 0
-5516 -202 0
-5516 5500 0
5516 202 -5500 0
-5580 203 0
-5580 5516 0
5580 -203 -5516 0
-5644 -204 0
-5644 5580 0
5644 204 -5580 0
-5900 205 0
-5900 5644 0
5900 -205 -5644 0
-5948 -194 0
-5948 5932 0
5948 194 -5932 0
-6012 195 0
-6012 5948 0
6012 -195 -5948 0
-6076 -196 0
-6076 6012 0
6076 196 -6012 0
-6332 197 0
-6332 6076 0
6332 -197 -6076 0
-6380 -186 0
-6380 6364 0
6380 186 -6364 0
-6444 187 0
-6444 6380 0
6444 -187 -6380 0
-6508 -188 0
-6508 6444 0
6508 188 -6444 0
-6764 189 0
-6764 6508 0
6764 -189 -6508 0
-6944 -6332 0
-6944 -6764 0
6944 6332 6764 0
-7124 -5900 0
-7124 6944 0
7124 5900 -6944 0
-7304 -5468 0
-7304 7124 0
7304 5468 -7124 0
-7484 -5036 0
-7484 7304 0
7484 5036 -7304 0
-7664 -4604 0
-7664 7484 0
7664 4604 -7484 0
-7844 -4172 0
-7844 7664 0
7844 4172 -7664 0
-8024 -3740 0
-8024 7844 0
8024 3740 -7844 0
-8204 -3308 0
-8204 8024 0
8204 3308 -8024 0
-8384 -2876 0
-8384 8204 0
8384 2876 -8204 0
-8564 -2444 0
-8564 8384 0
8564 2444 -8384 0
-8744 -2012 0
-8744 8564 0
8744 2012 -8564 0
-8924 -1580 0
-8924 8744 0
8924 1580 -8744 0
-9104 -1148 0
-9104 8924 0
9104 1148 -8924 0
-9284 -716 0
-9284 9104 0
9284 716 -9104 0
-9788 164 0
-9788 9284 0
9788 -164 -9284 0
-9789 -164 0
-9789 -9284 0
9789 164 9284 0
-9790 -9788 0
-9790 -9789 0
9790 9788 9789 0
163 -52173 0
-163 52173 0
-331 -298 0
-331 315 0
331 298 -315 0
-395 299 0
-395 331 0
395 -299 -331 0
-459 -300 0
-459 395 0
459 300 -395 0
-715 301 0
-715 459 0
715 -301 -459 0
-763 -290 0
-763 747 0
763 290 -747 0
-827 291 0
-827 763 0
827 -291 -763 0
-891 -292 0
-891 827 0
891 292 -827 0
-1147 293 0
-1147 891 0
1147 -293 -891 0
-1195 -282 0
-1195 1179 0
1195 282 -1179 0
-1259 283 0
-1259 1195 0
1259 -283 -1195 0
-1323 -284 0
-1323 1259 0
1323 284 -1259 0
-1579 285 0
-1579 1323 0
1579 -285 -1323 0
-1627 -274 0
-1627 1611 0
1627 274 -1611 0
-1691 275 0
-1691 1627 0
1691 -275 -1627 0
-1755 -276 0
-1755 1691 0
1755 276 -1691 0
-2011 277 0
-2011 1755 0
2011 -277 -1755 0
-2059 -266 0
-2059 2043 0
2059 266 -2043 0
-2123 267 0
-2123 2059 0
2123 -267 -2059 0
-2187 -268 0
-2187 2123 0
2187 268 -2123 0
-2443 269 0
-2443 2187 0
2443 -269 -2187 0
-2491 -258 0
-2491 2475 0
2491 258 -2475 0
-2555 259 0
-2555 2491 0
2555 -259 -2491 0
-2619 -260 0
-2619 2555 0
2619 260 -2555 0
-2875 261 0
-2875 2619 0
2875 -261 -2619 0
-2923 -250 0
-2923 2907 0
2923 250 -2907 0
-2987 251 0
-2987 2923 0
2987 -251 -2923 0
-3051 -252 0
-3051 2987 0
3051 252 -2987 0
-3307 253 0
-3307 3051 0
3307 -253 -3051 0
-3355 -242 0
-3355 3339 0
3355 242 -3339 0
-3419 243 0
-3419 3355 0
3419 -243 -3355 0
-3483 -244 0
-3483 3419 0
3483 244 -3419 0
-3739 245 0
-3739 3483 0
3739 -245 -3483 0
-3787 -234 0
-3787 3771 0
3787 234 -3771 0
-3851 235 0
-3851 3787 0
3851 -235 -3787 0
-3915 -236 0
-3915 3851 0
3915 236 -3851 0
-4171 237 0
-4171 3915 0
4171 -237 -3915 0
-4219 -226 0
-4219 4203 0
4219 226 -4203 0
-4283 227 0
-4283 4219 0
4283 -227 -4219 0
-4347 -228 0
-4347 4283 0
4347 228 -4283 0
-4603 229 0
-4603 4347 0
4603 -229 -4347 0
-4651 -218 0
-4651 4635 0
4651 218 -4635 0
-4715 219 0
-4715 4651 0
4715 -219 -4651 0
-4779 -220 0
-4779 4715 0
4779 220 -4715 0
-5035 221 0
-5035 4779 0
5035 -221 -4779 0
-5083 -210 0
-5083 5067 0
5083 210 -5067 0
-5147 211 0
-5147 5083 0
5147 -211 -5083 0
-5211 -212 0
-5211 5147 0
5211 212 -5147 0
-5467 213 0
-5467 5211 0
5467 -213 -5211 0
-5515 -202 0
-5515 5499 0
5515 202 -5499 0
-5579 203 0
-5579 5515 0
5579 -203 -5515 0
-5643 -204 0
-5643 5579 0
5643 204 -5579 0
-5899 205 0
-5899 5643 0
5899 -205 -5643 0
-5947 -194 0
-5947 5931 0
5947 194 -5931 0
-6011 195 0
-6011 5947 0
6011 -195 -5947 0
-6075 -196 0
-6075 6011 0
6075 196 -6011 0
-6331 197 0
-6331 6075 0
6331 -197 -6075 0
-6379 -186 0
-6379 6363 0
6379 186 -6363 0
-6443 187 0
-6443 6379 0
6443 -187 -6379 0
-6507 -188 0
-6507 6443 0
6507 188 -6443 0
-6763 189 0
-6763 6507 0
6763 -189 -6507 0
-6943 -6331 0
-6943 -6763 0
6943 6331 6763 0
-7123 -5899 0
-7123 6943 0
7123 5899 -6943 0
-7303 -5467 0
-7303 7123 0
7303 5467 -7123 0
-7483 -5035 0
-7483 7303 0
7483 5035 -7303 0
-7663 -4603 0
-7663 7483 0
7663 4603 -7483 0
-7843 -4171 0
-7843 7663 0
7843 4171 -7663 0
-8023 -3739 0
-8023 7843 0
8023 3739 -7843 0
-8203 -3307 0
-8203 8023 0
8203 3307 -8023 0
-8383 -2875 0
-8383 8203 0
8383 2875 -8203 0
-8563 -2443 0
-8563 8383 0
8563 2443 -8383 0
-8743 -2011 0
-8743 8563 0
8743 2011 -8563 0
-8923 -1579 0
-8923 8743 0
8923 1579 -8743 0
-9103 -1147 0
-9103 8923 0
9103 1147 -8923 0
-9283 -715 0
-9283 9103 0
9283 715 -9103 0
-9785 163 0
-9785 9283 0
9785 -163 -9283 0
-9786 -163 0
-9786 -9283 0
9786 163 9283 0
-9787 -9785 0
-9787 -9786 0
9787 9785 9786 0
162 -52172 0
-162 52172 0
-330 -298 0
-330 314 0
330 298 -314 0
-394 299 0
-394 330 0
394 -299 -330 0
-458 -300 0
-458 394 0
458 300 -394 0
-714 301 0
-714 458 0
714 -301 -458 0
-762 -290 0
-762 746 0
762 290 -746 0
-826 291 0
-826 762 0
826 -291 -762 0
-890 -292 0
-890 826 0
890 292 -826 0
-1146 293 0
-1146 890 0
1146 -293 -890 0
-1194 -282 0
-1194 1178 0
1194 282 -1178 0
-1258 283 0
-1258 1194 0
1258 -283 -1194 0
-1322 -284 0
-1322 1258 0
1322 284 -1258 0
-1578 285 0
-1578 1322 0
1578 -285 -1322 0
-1626 -274 0
-1626 1610 0
1626 274 -1610 0
-1690 275 0
-1690 1626 0
1690 -275 -1626 0
-1754 -276 0
-1754 1690 0
1754 276 -1690 0
-2010 277 0
-2010 1754 0
2010 -277 -1754 0
-2058 -266 0
-2058 2042 0
2058 266 -2042 0
-2122 267 0
-2122 2058 0
2122 -267 -2058 0
-2186 -268 0
-2186 2122 0
2186 268 -2122 0
-2442 269 0
-2442 2186 0
2442 -269 -2186 0
-2490 -258 0
-2490 2474 0
2490 258 -2474 0
-2554 259 0
-2554 2490 0
2554 -259 -2490 0
-2618 -260 0
-2618 2554 0
2618 260 -2554 0
-2874 261 0
-2874 2618 0
2874 -261 -2618 0
-2922 -250 0
-2922 2906 0
2922 250 -2906 0
-2986 251 0
-2986 2922 0
2986 -251 -2922 0
-3050 -252 0
-3050 2986 0
3050 252 -2986 0
-3306 253 0
-3306 3050 0
3306 -253 -3050 0
-3354 -242 0
-3354 3338 0
3354 242 -3338 0
-3418 243 0
-3418 3354 0
3418 -243 -3354 0
-3482 -244 0
-3482 3418 0
3482 244 -3418 0
-3738 245 0
-3738 3482 0
3738 -245 -3482 0
-3786 -234 0
-3786 3770 0
3786 234 -3770 0
-3850 235 0
-3850 3786 0
3850 -235 -3786 0
-3914 -236 0
-3914 3850 0
3914 236 -3850 0
-4170 237 0
-4170 3914 0
4170 -237 -3914 0
-4218 -226 0
-4218 4202 0
4218 226 -4202 0
-4282 227 0
-4282 4218 0
4282 -227 -4218 0
-4346 -228 0
-4346 4282 0
4346 228 -4282 0
-4602 229 0
-4602 4346 0
4602 -229 -4346 0
-4650 -218 0
-4650 4634 0
4650 218 -4634 0
-4714 219 0
-4714 4650 0
4714 -219 -4650 0
-4778 -220 0
-4778 4714 0
4778 220 -4714 0
-5034 221 0
-5034 4778 0
5034 -221 -4778 0
-5082 -210 0
-5082 5066 0
5082 210 -5066 0
-5146 211 0
-5146 5082 0
5146 -211 -5082 0
-5210 -212 0
-5210 5146 0
5210 212 -5146 0
-5466 213 0
-5466 5210 0
5466 -213 -5210 0
-5514 -202 0
-5514 5498 0
5514 202 -5498 0
-5578 203 0
-5578 5514 0
5578 -203 -5514 0
-5642 -204 0
-5642 5578 0
5642 204 -5578 0
-5898 205 0
-5898 5642 0
5898 -205 -5642 0
-5946 -194 0
-5946 5930 0
5946 194 -5930 0
-6010 195 0
-6010 5946 0
6010 -195 -5946 0
-6074 -196 0
-6074 6010 0
6074 196 -6010 0
-6330 197 0
-6330 6074 0
6330 -197 -6074 0
-6378 -186 0
-6378 6362 0
6378 186 -6362 0
-6442 187 0
-6442 6378 0
6442 -187 -6378 0
-6506 -188 0
-6506 6442 0
6506 188 -6442 0
-6762 189 0
-6762 6506 0
6762 -189 -6506 0
-6942 -6330 0
-6942 -6762 0
6942 6330 6762 0
-7122 -5898 0
-7122 6942 0
7122 5898 -6942 0
-7302 -5466 0
-7302 7122 0
7302 5466 -7122 0
-7482 -5034 0
-7482 7302 0
7482 5034 -7302 0
-7662 -4602 0
-7662 7482 0
7662 4602 -7482 0
-7842 -4170 0
-7842 7662 0
7842 4170 -7662 0
-8022 -3738 0
-8022 7842 0
8022 3738 -7842 0
-8202 -3306 0
-8202 8022 0
8202 3306 -8022 0
-8382 -2874 0
-8382 8202 0
8382 2874 -8202 0
-8562 -2442 0
-8562 8382 0
8562 2442 -8382 0
-8742 -2010 0
-8742 8562 0
8742 2010 -8562 0
-8922 -1578 0
-8922 8742 0
8922 1578 -8742 0
-9102 -1146 0
-9102 8922 0
9102 1146 -8922 0
-9282 -714 0
-9282 9102 0
9282 714 -9102 0
-9782 162 0
-9782 9282 0
9782 -162 -9282 0
-9783 -162 0
-9783 -9282 0
9783 162 9282 0
-9784 -9782 0
-9784 -9783 0
9784 9782 9783 0
161 -52171 0
-161 52171 0
-361 298 0
-361 329 0
361 -298 -329 0
-393 -299 0
-393 361 0
393 299 -361 0
-457 -300 0
-457 393 0
457 300 -393 0
-713 301 0
-713 457 0
713 -301 -457 0
-793 290 0
-793 761 0
793 -290 -761 0
-825 -291 0
-825 793 0
825 291 -793 0
-889 -292 0
-889 825 0
889 292 -825 0
-1145 293 0
-1145 889 0
1145 -293 -889 0
-1225 282 0
-1225 1193 0
1225 -282 -1193 0
-1257 -283 0
-1257 1225 0
1257 283 -1225 0
-1321 -284 0
-1321 1257 0
1321 284 -1257 0
-1577 285 0
-1577 1321 0
1577 -285 -1321 0
-1657 274 0
-1657 1625 0
1657 -274 -1625 0
-1689 -275 0
-1689 1657 0
1689 275 -1657 0
-1753 -276 0
-1753 1689 0
1753 276 -1689 0
-2009 277 0
-2009 1753 0
2009 -277 -1753 0
-2089 266 0
-2089 2057 0
2089 -266 -2057 0
-2121 -267 0
-2121 2089 0
2121 267 -2089 0
-2185 -268 0
-2185 2121 0
2185 268 -2121 0
-2441 269 0
-2441 2185 0
2441 -269 -2185 0
-2521 258 0
-2521 2489 0
2521 -258 -2489 0
-2553 -259 0
-2553 2521 0
2553 259 -2521 0
-2617 -260 0
-2617 2553 0
2617 260 -2553 0
-2873 261 0
-2873 2617 0
2873 -261 -2617 0
-2953 250 0
-2953 2921 0
2953 -250 -2921 0
-2985 -251 0
-2985 2953 0
2985 251 -2953 0
-3049 -252 0
-3049 2985 0
3049 252 -2985 0
-3305 253 0
-3305 3049 0
3305 -253 -3049 0
-3385 242 0
-3385 3353 0
3385 -242 -3353 0
-3417 -243 0
-3417 3385 0
3417 243 -3385 0
-3481 -244 0
-3481 3417 0
3481 244 -3417 0
-3737 245 0
-3737 3481 0
3737 -245 -3481 0
-3817 234 0
-3817 3785 0
3817 -234 -3785 0
-3849 -235 0
-3849 3817 0
3849 235 -3817 0
-3913 -236 0
-3913 3849 0
3913 236 -3849 0
-4169 237 0
-4169 3913 0
4169 -237 -3913 0
-4249 226 0
-4249 4217 0
4249 -226 -4217 0
-4281 -227 0
-4281 4249 0
4281 227 -4249 0
-4345 -228 0
-4345 4281 0
4345 228 -4281 0
-4601 229 0
-4601 4345 0
4601 -229 -4345 0
-4681 218 0
-4681 4649 0
4681 -218 -4649 0
-4713 -219 0
-4713 4681 0
4713 219 -4681 0
-4777 -220 0
-4777 4713 0
4777 220 -4713 0
-5033 221 0
-5033 4777 0
5033 -221 -4777 0
-5113 210 0
-5113 5081 0
5113 -210 -5081 0
-5145 -211 0
-5145 5113 0
5145 211 -5113 0
-5209 -212 0
-5209 5145 0
5209 212 -5145 0
-5465 213 0
-5465 5209 0
5465 -213 -5209 0
-5545 202 0
-5545 5513 0
5545 -202 -5513 0
-5577 -203 0
-5577 5545 0
5577 203 -5545 0
-5641 -204 0
-5641 5577 0
5641 204 -5577 0
-5897 205 0
-5897 5641 0
5897 -205 -5641 0
-5977 194 0
-5977 5945 0
5977 -194 -5945 0
-6009 -195 0
-6009 5977 0
6009 195 -5977 0
-6073 -196 0
-6073 6009 0
6073 196 -6009 0
-6329 197 0
-6329 6073 0
6329 -197 -6073 0
-6409 186 0
-6409 6377 0
6409 -186 -6377 0
-6441 -187 0
-6441 6409 0
6441 187 -6409 0
-6505 -188 0
-6505 6441 0
6505 188 -6441 0
-6761 189 0
-6761 6505 0
6761 -189 -6505 0
-6941 -6329 0
-6941 -6761 0
6941 6329 6761 0
-7121 -5897 0
-7121 6941 0
7121 5897 -6941 0
-7301 -5465 0
-7301 7121 0
7301 5465 -7121 0
-7481 -5033 0
-7481 7301 0
7481 5033 -7301 0
-7661 -4601 0
-7661 7481 0
7661 4601 -7481 0
-7841 -4169 0
-7841 7661 0
7841 4169 -7661 0
-8021 -3737 0
-8021 7841 0
8021 3737 -7841 0
-8201 -3305 0
-8201 8021 0
8201 3305 -8021 0
-8381 -2873 0
-8381 8201 0
8381 2873 -8201 0
-8561 -2441 0
-8561 8381 0
8561 2441 -8381 0
-8741 -2009 0
-8741 8561 0
8741 2009 -8561 0
-8921 -1577 0
-8921 8741 0
8921 1577 -8741 0
-9101 -1145 0
-9101 8921 0
9101 1145 -8921 0
-9281 -713 0
-9281 9101 0
9281 713 -9101 0
-9779 161 0
-9779 9281 0
9779 -161 -9281 0
-9780 -161 0
-9780 -9281 0
9780 161 9281 0
-9781 -9779 0
-9781 -9780 0
9781 9779 9780 0
160 -52170 0
-160 52170 0
-360 298 0
-360 328 0
360 -298 -328 0
-392 -299 0
-392 360 0
392 299 -360 0
-456 -300 0
-456 392 0
456 300 -392 0
-712 301 0
-712 456 0
712 -301 -456 0
-792 290 0
-792 760 0
792 -290 -760 0
-824 -291 0
-824 792 0
824 291 -792 0
-888 -292 0
-888 824 0
888 292 -824 0
-1144 293 0
-1144 888 0
1144 -293 -888 0
-1224 282 0
-1224 1192 0
1224 -282 -1192 0
-1256 -283 0
-1256 1224 0
1256 283 -1224 0
-1320 -284 0
-1320 1256 0
1320 284 -1256 0
-1576 285 0
-1576 1320 0
1576 -285 -1320 0
-1656 274 0
-1656 1624 0
1656 -274 -1624 0
-1688 -275 0
-1688 1656 0
1688 275 -1656 0
-1752 -276 0
-1752 1688 0
1752 276 -1688 0
-2008 277 0
-2008 1752 0
2008 -277 -1752 0
-2088 266 0
-2088 2056 0
2088 -266 -2056 0
-2120 -267 0
-2120 2088 0
2120 267 -2088 0
-2184 -268 0
-2184 2120 0
2184 268 -2120 0
-2440 269 0
-2440 2184 0
2440 -269 -2184 0
-2520 258 0
-2520 2488 0
2520 -258 -2488 0
-2552 -259 0
-2552 2520 0
2552 259 -2520 0
-2616 -260 0
-2616 2552 0
2616 260 -2552 0
-2872 261 0
-2872 2616 0
2872 -261 -2616 0
-2952 250 0
-2952 2920 0
2952 -250 -2920 0
-2984 -251 0
-2984 2952 0
2984 251 -2952 0
-3048 -252 0
-3048 2984 0
3048 252 -2984 0
-3304 253 0
-3304 3048 0
3304 -253 -3048 0
-3384 242 0
-3384 3352 0
3384 -242 -3352 0
-3416 -243 0
-3416 3384 0
3416 243 -3384 0
-3480 -244 0
-3480 3416 0
3480 244 -3416 0
-3736 245 0
-3736 3480 0
3736 -245 -3480 0
-3816 234 0
-3816 3784 0
3816 -234 -3784 0
-3848 -235 0
-3848 3816 0
3848 235 -3816 0
-3912 -236 0
-3912 3848 0
3912 236 -3848 0
-4168 237 0
-4168 3912 0
4168 -237 -3912 0
-4248 226 0
-4248 4216 0
4248 -226 -4216 0
-4280 -227 0
-4280 4248 0
4280 227 -4248 0
-4344 -228 0
-4344 4280 0
4344 228 -4280 0
-4600 229 0
-4600 4344 0
4600 -229 -4344 0
-4680 218 0
-4680 4648 0
4680 -218 -4648 0
-4712 -219 0
-4712 4680 0
4712 219 -4680 0
-4776 -220 0
-4776 4712 0
4776 220 -4712 0
-5032 221 0
-5032 4776 0
5032 -221 -4776 0
-5112 210 0
-5112 5080 0
5112 -210 -5080 0
-5144 -211 0
-5144 5112 0
5144 211 -5112 0
-5208 -212 0
-5208 5144 0
5208 212 -5144 0
-5464 213 0
-5464 5208 0
5464 -213 -5208 0
-5544 202 0
-5544 5512 0
5544 -202 -5512 0
-5576 -203 0
-5576 5544 0
5576 203 -5544 0
-5640 -204 0
-5640 5576 0
5640 204 -5576 0
-5896 205 0
-5896 5640 0
5896 -205 -5640 0
-5976 194 0
-5976 5944 0
5976 -194 -5944 0
-6008 -195 0
-6008 5976 0
6008 195 -5976 0
-6072 -196 0
-6072 6008 0
6072 196 -6008 0
-6328 197 0
-6328 6072 0
6328 -197 -6072 0
-6408 186 0
-6408 6376 0
6408 -186 -6376 0
-6440 -187 0
-6440 6408 0
6440 187 -6408 0
-6504 -188 0
-6504 6440 0
6504 188 -6440 0
-6760 189 0
-6760 6504 0
6760 -189 -6504 0
-6940 -6328 0
-6940 -6760 0
6940 6328 6760 0
-7120 -5896 0
-7120 6940 0
7120 5896 -6940 0
-7300 -5464 0
-7300 7120 0
7300 5464 -7120 0
-7480 -5032 0
-7480 7300 0
7480 5032 -7300 0
-7660 -4600 0
-7660 7480 0
7660 4600 -7480 0
-7840 -4168 0
-7840 7660 0
7840 4168 -7660 0
-8020 -3736 0
-8020 7840 0
8020 3736 -7840 0
-8200 -3304 0
-8200 8020 0
8200 3304 -8020 0
-8380 -2872 0
-8380 8200 0
8380 2872 -8200 0
-8560 -2440 0
-8560 8380 0
8560 2440 -8380 0
-8740 -2008 0
-8740 8560 0
8740 2008 -8560 0
-8920 -1576 0
-8920 8740 0
8920 1576 -8740 0
-9100 -1144 0
-9100 8920 0
9100 1144 -8920 0
-9280 -712 0
-9280 9100 0
9280 712 -9100 0
-9776 160 0
-9776 9280 0
9776 -160 -9280 0
-9777 -160 0
-9777 -9280 0
9777 160 9280 0
-9778 -9776 0
-9778 -9777 0
9778 9776 9777 0
159 -52169 0
-159 52169 0
-359 298 0
-359 327 0
359 -298 -327 0
-391 -299 0
-391 359 0
391 299 -359 0
-455 -300 0
-455 391 0
455 300 -391 0
-711 301 0
-711 455 0
711 -301 -455 0
-791 290 0
-791 759 0
791 -290 -759 0
-823 -291 0
-823 791 0
823 291 -791 0
-887 -292 0
-887 823 0
887 292 -823 0
-1143 293 0
-1143 887 0
1143 -293 -887 0
-1223 282 0
-1223 1191 0
1223 -282 -1191 0
-1255 -283 0
-1255 1223 0
1255 283 -1223 0
-1319 -284 0
-1319 1255 0
1319 284 -1255 0
-1575 285 0
-1575 1319 0
1575 -285 -1319 0
-1655 274 0
-1655 1623 0
1655 -274 -1623 0
-1687 -275 0
-1687 1655 0
1687 275 -1655 0
-1751 -276 0
-1751 1687 0
1751 276 -1687 0
-2007 277 0
-2007 1751 0
2007 -277 -1751 0
-2087 266 0
-2087 2055 0
2087 -266 -2055 0
-2119 -267 0
-2119 2087 0
2119 267 -2087 0
-2183 -268 0
-2183 2119 0
2183 268 -2119 0
-2439 269 0
-2439 2183 0
2439 -269 -2183 0
-2519 258 0
-2519 2487 0
2519 -258 -2487 0
-2551 -259 0
-2551 2519 0
2551 259 -2519 0
-2615 -260 0
-2615 2551 0
2615 260 -2551 0
-2871 261 0
-2871 2615 0
2871 -261 -2615 0
-2951 250 0
-2951 2919 0
2951 -250 -2919 0
-2983 -251 0
-2983 2951 0
2983 251 -2951 0
-3047 -252 0
-3047 2983 0
3047 252 -2983 0
-3303 253 0
-3303 3047 0
3303 -253 -3047 0
-3383 242 0
-3383 3351 0
3383 -242 -3351 0
-3415 -243 0
-3415 3383 0
3415 243 -3383 0
-3479 -244 0
-3479 3415 0
3479 244 -3415 0
-3735 245 0
-3735 3479 0
3735 -245 -3479 0
-3815 234 0
-3815 3783 0
3815 -234 -3783 0
-3847 -235 0
-3847 3815 0
3847 235 -3815 0
-3911 -236 0
-3911 3847 0
3911 236 -3847 0
-4167 237 0
-4167 3911 0
4167 -237 -3911 0
-4247 226 0
-4247 4215 0
4247 -226 -4215 0
-4279 -227 0
-4279 4247 0
4279 227 -4247 0
-4343 -228 0
-4343 4279 0
4343 228 -4279 0
-4599 229 0
-4599 4343 0
4599 -229 -4343 0
-4679 218 0
-4679 4647 0
4679 -218 -4647 0
-4711 -219 0
-4711 4679 0
4711 219 -4679 0
-4775 -220 0
-4775 4711 0
4775 220 -4711 0
-5031 221 0
-5031 4775 0
5031 -221 -4775 0
-5111 210 0
-5111 5079 0
5111 -210 -5079 0
-5143 -211 0
-5143 5111 0
5143 211 -5111 0
-5207 -212 0
-5207 5143 0
5207 212 -5143 0
-5463 213 0
-5463 5207 0
5463 -213 -5207 0
-5543 202 0
-5543 5511 0
5543 -202 -5511 0
-5575 -203 0
-5575 5543 0
5575 203 -5543 0
-5639 -204 0
-5639 5575 0
5639 204 -5575 0
-5895 205 0
-5895 5639 0
5895 -205 -5639 0
-5975 194 0
-5975 5943 0
5975 -194 -5943 0
-6007 -195 0
-6007 5975 0
6007 195 -5975 0
-6071 -196 0
-6071 6007 0
6071 196 -6007 0
-6327 197 0
-6327 6071 0
6327 -197 -6071 0
-6407 186 0
-6407 6375 0
6407 -186 -6375 0
-6439 -187 0
-6439 6407 0
6439 187 -6407 0
-6503 -188 0
-6503 6439 0
6503 188 -6439 0
-6759 189 0
-6759 6503 0
6759 -189 -6503 0
-6939 -6327 0
-6939 -6759 0
6939 6327 6759 0
-7119 -5895 0
-7119 6939 0
7119 5895 -6939 0
-7299 -5463 0
-7299 7119 0
7299 5463 -7119 0
-7479 -5031 0
-7479 7299 0
7479 5031 -7299 0
-7659 -4599 0
-7659 7479 0
7659 4599 -7479 0
-7839 -4167 0
-7839 7659 0
7839 4167 -7659 0
-8019 -3735 0
-8019 7839 0
8019 3735 -7839 0
-8199 -3303 0
-8199 8019 0
8199 3303 -8019 0
-8379 -2871 0
-8379 8199 0
8379 2871 -8199 0
-8559 -2439 0
-8559 8379 0
8559 2439 -8379 0
-8739 -2007 0
-8739 8559 0
8739 2007 -8559 0
-8919 -1575 0
-8919 8739 0
8919 1575 -8739 0
-9099 -1143 0
-9099 8919 0
9099 1143 -8919 0
-9279 -711 0
-9279 9099 0
9279 711 -9099 0
-9773 159 0
-9773 9279 0
9773 -159 -9279 0
-9774 -159 0
-9774 -9279 0
9774 159 9279 0
-9775 -9773 0
-9775 -9774 0
9775 9773 9774 0
158 -52168 0
-158 52168 0
-358 298 0
-358 326 0
358 -298 -326 0
-390 -299 0
-390 358 0
390 299 -358 0
-454 -300 0
-454 390 0
454 300 -390 0
-710 301 0
-710 454 0
710 -301 -454 0
-790 290 0
-790 758 0
790 -290 -758 0
-822 -291 0
-822 790 0
822 291 -790 0
-886 -292 0
-886 822 0
886 292 -822 0
-1142 293 0
-1142 886 0
1142 -293 -886 0
-1222 282 0
-1222 1190 0
1222 -282 -1190 0
-1254 -283 0
-1254 1222 0
1254 283 -1222 0
-1318 -284 0
-1318 1254 0
1318 284 -1254 0
-1574 285 0
-1574 1318 0
1574 -285 -1318 0
-1654 274 0
-1654 1622 0
1654 -274 -1622 0
-1686 -275 0
-1686 1654 0
1686 275 -1654 0
-1750 -276 0
-1750 1686 0
1750 276 -1686 0
-2006 277 0
-2006 1750 0
2006 -277 -1750 0
-2086 266 0
-2086 2054 0
2086 -266 -2054 0
-2118 -267 0
-2118 2086 0
2118 267 -2086 0
-2182 -268 0
-2182 2118 0
2182 268 -2118 0
-2438 269 0
-2438 2182 0
2438 -269 -2182 0
-2518 258 0
-2518 2486 0
2518 -258 -2486 0
-2550 -259 0
-2550 2518 0
2550 259 -2518 0
-2614 -260 0
-2614 2550 0
2614 260 -2550 0
-2870 261 0
-2870 2614 0
2870 -261 -2614 0
-2950 250 0
-2950 2918 0
2950 -250 -2918 0
-2982 -251 0
-2982 2950 0
2982 251 -2950 0
-3046 -252 0
-3046 2982 0
3046 252 -2982 0
-3302 253 0
-3302 3046 0
3302 -253 -3046 0
-3382 242 0
-3382 3350 0
3382 -242 -3350 0
-3414 -243 0
-3414 3382 0
3414 243 -3382 0
-3478 -244 0
-3478 3414 0
3478 244 -3414 0
-3734 245 0
-3734 3478 0
3734 -245 -3478 0
-3814 234 0
-3814 3782 0
3814 -234 -3782 0
-3846 -235 0
-3846 3814 0
3846 235 -3814 0
-3910 -236 0
-3910 3846 0
3910 236 -3846 0
-4166 237 0
-4166 3910 0
4166 -237 -3910 0
-4246 226 0
-4246 4214 0
4246 -226 -4214 0
-4278 -227 0
-4278 4246 0
4278 227 -4246 0
-4342 -228 0
-4342 4278 0
4342 228 -4278 0
-4598 229 0
-4598 4342 0
4598 -229 -4342 0
-4678 218 0
-4678 4646 0
4678 -218 -4646 0
-4710 -219 0
-4710 4678 0
4710 219 -4678 0
-4774 -220 0
-4774 4710 0
4774 220 -4710 0
-5030 221 0
-5030 4774 0
5030 -221 -4774 0
-5110 210 0
-5110 5078 0
5110 -210 -5078 0
-5142 -211 0
-5142 5110 0
5142 211 -5110 0
-5206 -212 0
-5206 5142 0
5206 212 -5142 0
-5462 213 0
-5462 5206 0
5462 -213 -5206 0
-5542 202 0
-5542 5510 0
5542 -202 -5510 0
-5574 -203 0
-5574 5542 0
5574 203 -5542 0
-5638 -204 0
-5638 5574 0
5638 204 -5574 0
-5894 205 0
-5894 5638 0
5894 -205 -5638 0
-5974 194 0
-5974 5942 0
5974 -194 -5942 0
-6006 -195 0
-6006 5974 0
6006 195 -5974 0
-6070 -196 0
-6070 6006 0
6070 196 -6006 0
-6326 197 0
-6326 6070 0
6326 -197 -6070 0
-6406 186 0
-6406 6374 0
6406 -186 -6374 0
-6438 -187 0
-6438 6406 0
6438 187 -6406 0
-6502 -188 0
-6502 6438 0
6502 188 -6438 0
-6758 189 0
-6758 6502 0
6758 -189 -6502 0
-6938 -6326 0
-6938 -6758 0
6938 6326 6758 0
-7118 -5894 0
-7118 6938 0
7118 5894 -6938 0
-7298 -5462 0
-7298 7118 0
7298 5462 -7118 0
-7478 -5030 0
-7478 7298 0
7478 5030 -7298 0
-7658 -4598 0
-7658 7478 0
7658 4598 -7478 0
-7838 -4166 0
-7838 7658 0
7838 4166 -7658 0
-8018 -3734 0
-8018 7838 0
8018 3734 -7838 0
-8198 -3302 0
-8198 8018 0
8198 3302 -8018 0
-8378 -2870 0
-8378 8198 0
8378 2870 -8198 0
-8558 -2438 0
-8558 8378 0
8558 2438 -8378 0
-8738 -2006 0
-8738 8558 0
8738 2006 -8558 0
-8918 -1574 0
-8918 8738 0
8918 1574 -8738 0
-9098 -1142 0
-9098 8918 0
9098 1142 -8918 0
-9278 -710 0
-9278 9098 0
9278 710 -9098 0
-9770 158 0
-9770 9278 0
9770 -158 -9278 0
-9771 -158 0
-9771 -9278 0
9771 158 9278 0
-9772 -9770 0
-9772 -9771 0
9772 9770 9771 0
157 -52167 0
-157 52167 0
-357 298 0
-357 325 0
357 -298 -325 0
-389 -299 0
-389 357 0
389 299 -357 0
-453 -300 0
-453 389 0
453 300 -389 0
-709 301 0
-709 453 0
709 -301 -453 0
-789 290 0
-789 757 0
789 -290 -757 0
-821 -291 0
-821 789 0
821 291 -789 0
-885 -292 0
-885 821 0
885 292 -821 0
-1141 293 0
-1141 885 0
1141 -293 -885 0
-1221 282 0
-1221 1189 0
1221 -282 -1189 0
-1253 -283 0
-1253 1221 0
1253 283 -1221 0
-1317 -284 0
-1317 1253 0
1317 284 -1253 0
-1573 285 0
-1573 1317 0
1573 -285 -1317 0
-1653 274 0
-1653 1621 0
1653 -274 -1621 0
-1685 -275 0
-1685 1653 0
1685 275 -1653 0
-1749 -276 0
-1749 1685 0
1749 276 -1685 0
-2005 277 0
-2005 1749 0
2005 -277 -1749 0
-2085 266 0
-2085 2053 0
2085 -266 -2053 0
-2117 -267 0
-2117 2085 0
2117 267 -2085 0
-2181 -268 0
-2181 2117 0
2181 268 -2117 0
-2437 269 0
-2437 2181 0
2437 -269 -2181 0
-2517 258 0
-2517 2485 0
2517 -258 -2485 0
-2549 -259 0
-2549 2517 0
2549 259 -2517 0
-2613 -260 0
-2613 2549 0
2613 260 -2549 0
-2869 261 0
-2869 2613 0
2869 -261 -2613 0
-2949 250 0
-2949 2917 0
2949 -250 -2917 0
-2981 -251 0
-2981 2949 0
2981 251 -2949 0
-3045 -252 0
-3045 2981 0
3045 252 -2981 0
-3301 253 0
-3301 3045 0
3301 -253 -3045 0
-3381 242 0
-3381 3349 0
3381 -242 -3349 0
-3413 -243 0
-3413 3381 0
3413 243 -3381 0
-3477 -244 0
-3477 3413 0
3477 244 -3413 0
-3733 245 0
-3733 3477 0
3733 -245 -3477 0
-3813 234 0
-3813 3781 0
3813 -234 -3781 0
-3845 -235 0
-3845 3813 0
3845 235 -3813 0
-3909 -236 0
-3909 3845 0
3909 236 -3845 0
-4165 237 0
-4165 3909 0
4165 -237 -3909 0
-4245 226 0
-4245 4213 0
4245 -226 -4213 0
-4277 -227 0
-4277 4245 0
4277 227 -4245 0
-4341 -228 0
-4341 4277 0
4341 228 -4277 0
-4597 229 0
-4597 4341 0
4597 -229 -4341 0
-4677 218 0
-4677 4645 0
4677 -218 -4645 0
-4709 -219 0
-4709 4677 0
4709 219 -4677 0
-4773 -220 0
-4773 4709 0
4773 220 -4709 0
-5029 221 0
-5029 4773 0
5029 -221 -4773 0
-5109 210 0
-5109 5077 0
5109 -210 -5077 0
-5141 -211 0
-5141 5109 0
5141 211 -5109 0
-5205 -212 0
-5205 5141 0
5205 212 -5141 0
-5461 213 0
-5461 5205 0
5461 -213 -5205 0
-5541 202 0
-5541 5509 0
5541 -202 -5509 0
-5573 -203 0
-5573 5541 0
5573 203 -5541 0
-5637 -204 0
-5637 5573 0
5637 204 -5573 0
-5893 205 0
-5893 5637 0
5893 -205 -5637 0
-5973 194 0
-5973 5941 0
5973 -194 -5941 0
-6005 -195 0
-6005 5973 0
6005 195 -5973 0
-6069 -196 0
-6069 6005 0
6069 196 -6005 0
-6325 197 0
-6325 6069 0
6325 -197 -6069 0
-6405 186 0
-6405 6373 0
6405 -186 -6373 0
-6437 -187 0
-6437 6405 0
6437 187 -6405 0
-6501 -188 0
-6501 6437 0
6501 188 -6437 0
-6757 189 0
-6757 6501 0
6757 -189 -6501 0
-6937 -6325 0
-6937 -6757 0
6937 6325 6757 0
-7117 -5893 0
-7117 6937 0
7117 5893 -6937 0
-7297 -5461 0
-7297 7117 0
7297 5461 -7117 0
-7477 -5029 0
-7477 7297 0
7477 5029 -7297 0
-7657 -4597 0
-7657 7477 0
7657 4597 -7477 0
-7837 -4165 0
-7837 7657 0
7837 4165 -7657 0
-8017 -3733 0
-8017 7837 0
8017 3733 -7837 0
-8197 -3301 0
-8197 8017 0
8197 3301 -8017 0
-8377 -2869 0
-8377 8197 0
8377 2869 -8197 0
-8557 -2437 0
-8557 8377 0
8557 2437 -8377 0
-8737 -2005 0
-8737 8557 0
8737 2005 -8557 0
-8917 -1573 0
-8917 8737 0
8917 1573 -8737 0
-9097 -1141 0
-9097 8917 0
9097 1141 -8917 0
-9277 -709 0
-9277 9097 0
9277 709 -9097 0
-9767 157 0
-9767 9277 0
9767 -157 -9277 0
-9768 -157 0
-9768 -9277 0
9768 157 9277 0
-9769 -9767 0
-9769 -9768 0
9769 9767 9768 0
156 -52166 0
-156 52166 0
-356 298 0
-356 324 0
356 -298 -324 0
-388 -299 0
-388 356 0
388 299 -356 0
-452 -300 0
-452 388 0
452 300 -388 0
-708 301 0
-708 452 0
708 -301 -452 0
-788 290 0
-788 756 0
788 -290 -756 0
-820 -291 0
-820 788 0
820 291 -788 0
-884 -292 0
-884 820 0
884 292 -820 0
-1140 293 0
-1140 884 0
1140 -293 -884 0
-1220 282 0
-1220 1188 0
1220 -282 -1188 0
-1252 -283 0
-1252 1220 0
1252 283 -1220 0
-1316 -284 0
-1316 1252 0
1316 284 -1252 0
-1572 285 0
-1572 1316 0
1572 -285 -1316 0
-1652 274 0
-1652 1620 0
1652 -274 -1620 0
-1684 -275 0
-1684 1652 0
1684 275 -1652 0
-1748 -276 0
-1748 1684 0
1748 276 -1684 0
-2004 277 0
-2004 1748 0
2004 -277 -1748 0
-2084 266 0
-2084 2052 0
2084 -266 -2052 0
-2116 -267 0
-2116 2084 0
2116 267 -2084 0
-2180 -268 0
-2180 2116 0
2180 268 -2116 0
-2436 269 0
-2436 2180 0
2436 -269 -2180 0
-2516 258 0
-2516 2484 0
2516 -258 -2484 0
-2548 -259 0
-2548 2516 0
2548 259 -2516 0
-2612 -260 0
-2612 2548 0
2612 260 -2548 0
-2868 261 0
-2868 2612 0
2868 -261 -2612 0
-2948 250 0
-2948 2916 0
2948 -250 -2916 0
-2980 -251 0
-2980 2948 0
2980 251 -2948 0
-3044 -252 0
-3044 2980 0
3044 252 -2980 0
-3300 253 0
-3300 3044 0
3300 -253 -3044 0
-3380 242 0
-3380 3348 0
3380 -242 -3348 0
-3412 -243 0
-3412 3380 0
3412 243 -3380 0
-3476 -244 0
-3476 3412 0
3476 244 -3412 0
-3732 245 0
-3732 3476 0
3732 -245 -3476 0
-3812 234 0
-3812 3780 0
3812 -234 -3780 0
-3844 -235 0
-3844 3812 0
3844 235 -3812 0
-3908 -236 0
-3908 3844 0
3908 236 -3844 0
-4164 237 0
-4164 3908 0
4164 -237 -3908 0
-4244 226 0
-4244 4212 0
4244 -226 -4212 0
-4276 -227 0
-4276 4244 0
4276 227 -4244 0
-4340 -228 0
-4340 4276 0
4340 228 -4276 0
-4596 229 0
-4596 4340 0
4596 -229 -4340 0
-4676 218 0
-4676 4644 0
4676 -218 -4644 0
-4708 -219 0
-4708 4676 0
4708 219 -4676 0
-4772 -220 0
-4772 4708 0
4772 220 -4708 0
-5028 221 0
-5028 4772 0
5028 -221 -4772 0
-5108 210 0
-5108 5076 0
5108 -210 -5076 0
-5140 -211 0
-5140 5108 0
5140 211 -5108 0
-5204 -212 0
-5204 5140 0
5204 212 -5140 0
-5460 213 0
-5460 5204 0
5460 -213 -5204 0
-5540 202 0
-5540 5508 0
5540 -202 -5508 0
-5572 -203 0
-5572 5540 0
5572 203 -5540 0
-5636 -204 0
-5636 5572 0
5636 204 -5572 0
-5892 205 0
-5892 5636 0
5892 -205 -5636 0
-5972 194 0
-5972 5940 0
5972 -194 -5940 0
-6004 -195 0
-6004 5972 0
6004 195 -5972 0
-6068 -196 0
-6068 6004 0
6068 196 -6004 0
-6324 197 0
-6324 6068 0
6324 -197 -6068 0
-6404 186 0
-6404 6372 0
6404 -186 -6372 0
-6436 -187 0
-6436 6404 0
6436 187 -6404 0
-6500 -188 0
-6500 6436 0
6500 188 -6436 0
-6756 189 0
-6756 6500 0
6756 -189 -6500 0
-6936 -6324 0
-6936 -6756 0
6936 6324 6756 0
-7116 -5892 0
-7116 6936 0
7116 5892 -6936 0
-7296 -5460 0
-7296 7116 0
7296 5460 -7116 0
-7476 -5028 0
-7476 7296 0
7476 5028 -7296 0
-7656 -4596 0
-7656 7476 0
7656 4596 -7476 0
-7836 -4164 0
-7836 7656 0
7836 4164 -7656 0
-8016 -3732 0
-8016 7836 0
8016 3732 -7836 0
-8196 -3300 0
-8196 8016 0
8196 3300 -8016 0
-8376 -2868 0
-8376 8196 0
8376 2868 -8196 0
-8556 -2436 0
-8556 8376 0
8556 2436 -8376 0
-8736 -2004 0
-8736 8556 0
8736 2004 -8556 0
-8916 -1572 0
-8916 8736 0
8916 1572 -8736 0
-9096 -1140 0
-9096 8916 0
9096 1140 -8916 0
-9276 -708 0
-9276 9096 0
9276 708 -9096 0
-9764 156 0
-9764 9276 0
9764 -156 -9276 0
-9765 -156 0
-9765 -9276 0
9765 156 9276 0
-9766 -9764 0
-9766 -9765 0
9766 9764 9765 0
155 -52165 0
-155 52165 0
-355 298 0
-355 323 0
355 -298 -323 0
-387 -299 0
-387 355 0
387 299 -355 0
-451 -300 0
-451 387 0
451 300 -387 0
-707 301 0
-707 451 0
707 -301 -451 0
-787 290 0
-787 755 0
787 -290 -755 0
-819 -291 0
-819 787 0
819 291 -787 0
-883 -292 0
-883 819 0
883 292 -819 0
-1139 293 0
-1139 883 0
1139 -293 -883 0
-1219 282 0
-1219 1187 0
1219 -282 -1187 0
-1251 -283 0
-1251 1219 0
1251 283 -1219 0
-1315 -284 0
-1315 1251 0
1315 284 -1251 0
-1571 285 0
-1571 1315 0
1571 -285 -1315 0
-1651 274 0
-1651 1619 0
1651 -274 -1619 0
-1683 -275 0
-1683 1651 0
1683 275 -1651 0
-1747 -276 0
-1747 1683 0
1747 276 -1683 0
-2003 277 0
-2003 1747 0
2003 -277 -1747 0
-2083 266 0
-2083 2051 0
2083 -266 -2051 0
-2115 -267 0
-2115 2083 0
2115 267 -2083 0
-2179 -268 0
-2179 2115 0
2179 268 -2115 0
-2435 269 0
-2435 2179 0
2435 -269 -2179 0
-2515 258 0
-2515 2483 0
2515 -258 -2483 0
-2547 -259 0
-2547 2515 0
2547 259 -2515 0
-2611 -260 0
-2611 2547 0
2611 260 -2547 0
-2867 261 0
-2867 2611 0
2867 -261 -2611 0
-2947 250 0
-2947 2915 0
2947 -250 -2915 0
-2979 -251 0
-2979 2947 0
2979 251 -2947 0
-3043 -252 0
-3043 2979 0
3043 252 -2979 0
-3299 253 0
-3299 3043 0
3299 -253 -3043 0
-3379 242 0
-3379 3347 0
3379 -242 -3347 0
-3411 -243 0
-3411 3379 0
3411 243 -3379 0
-3475 -244 0
-3475 3411 0
3475 244 -3411 0
-3731 245 0
-3731 3475 0
3731 -245 -3475 0
-3811 234 0
-3811 3779 0
3811 -234 -3779 0
-3843 -235 0
-3843 3811 0
3843 235 -3811 0
-3907 -236 0
-3907 3843 0
3907 236 -3843 0
-4163 237 0
-4163 3907 0
4163 -237 -3907 0
-4243 226 0
-4243 4211 0
4243 -226 -4211 0
-4275 -227 0
-4275 4243 0
4275 227 -4243 0
-4339 -228 0
-4339 4275 0
4339 228 -4275 0
-4595 229 0
-4595 4339 0
4595 -229 -4339 0
-4675 218 0
-4675 4643 0
4675 -218 -4643 0
-4707 -219 0
-4707 4675 0
4707 219 -4675 0
-4771 -220 0
-4771 4707 0
4771 220 -4707 0
-5027 221 0
-5027 4771 0
5027 -221 -4771 0
-5107 210 0
-5107 5075 0
5107 -210 -5075 0
-5139 -211 0
-5139 5107 0
5139 211 -5107 0
-5203 -212 0
-5203 5139 0
5203 212 -5139 0
-5459 213 0
-5459 5203 0
5459 -213 -5203 0
-5539 202 0
-5539 5507 0
5539 -202 -5507 0
-5571 -203 0
-5571 5539 0
5571 203 -5539 0
-5635 -204 0
-5635 5571 0
5635 204 -5571 0
-5891 205 0
-5891 5635 0
5891 -205 -5635 0
-5971 194 0
-5971 5939 0
5971 -194 -5939 0
-6003 -195 0
-6003 5971 0
6003 195 -5971 0
-6067 -196 0
-6067 6003 0
6067 196 -6003 0
-6323 197 0
-6323 6067 0
6323 -197 -6067 0
-6403 186 0
-6403 6371 0
6403 -186 -6371 0
-6435 -187 0
-6435 6403 0
6435 187 -6403 0
-6499 -188 0
-6499 6435 0
6499 188 -6435 0
-6755 189 0
-6755 6499 0
6755 -189 -6499 0
-6935 -6323 0
-6935 -6755 0
6935 6323 6755 0
-7115 -5891 0
-7115 6935 0
7115 5891 -6935 0
-7295 -5459 0
-7295 7115 0
7295 5459 -7115 0
-7475 -5027 0
-7475 7295 0
7475 5027 -7295 0
-7655 -4595 0
-7655 7475 0
7655 4595 -7475 0
-7835 -4163 0
-7835 7655 0
7835 4163 -7655 0
-8015 -3731 0
-8015 7835 0
8015 3731 -7835 0
-8195 -3299 0
-8195 8015 0
8195 3299 -8015 0
-8375 -2867 0
-8375 8195 0
8375 2867 -8195 0
-8555 -2435 0
-8555 8375 0
8555 2435 -8375 0
-8735 -2003 0
-8735 8555 0
8735 2003 -8555 0
-8915 -1571 0
-8915 8735 0
8915 1571 -8735 0
-9095 -1139 0
-9095 8915 0
9095 1139 -8915 0
-9275 -707 0
-9275 9095 0
9275 707 -9095 0
-9761 155 0
-9761 9275 0
9761 -155 -9275 0
-9762 -155 0
-9762 -9275 0
9762 155 9275 0
-9763 -9761 0
-9763 -9762 0
9763 9761 9762 0
154 -52164 0
-154 52164 0
-354 298 0
-354 322 0
354 -298 -322 0
-386 -299 0
-386 354 0
386 299 -354 0
-450 -300 0
-450 386 0
450 300 -386 0
-706 301 0
-706 450 0
706 -301 -450 0
-786 290 0
-786 754 0
786 -290 -754 0
-818 -291 0
-818 786 0
818 291 -786 0
-882 -292 0
-882 818 0
882 292 -818 0
-1138 293 0
-1138 882 0
1138 -293 -882 0
-1218 282 0
-1218 1186 0
1218 -282 -1186 0
-1250 -283 0
-1250 1218 0
1250 283 -1218 0
-1314 -284 0
-1314 1250 0
1314 284 -1250 0
-1570 285 0
-1570 1314 0
1570 -285 -1314 0
-1650 274 0
-1650 1618 0
1650 -274 -1618 0
-1682 -275 0
-1682 1650 0
1682 275 -1650 0
-1746 -276 0
-1746 1682 0
1746 276 -1682 0
-2002 277 0
-2002 1746 0
2002 -277 -1746 0
-2082 266 0
-2082 2050 0
2082 -266 -2050 0
-2114 -267 0
-2114 2082 0
2114 267 -2082 0
-2178 -268 0
-2178 2114 0
2178 268 -2114 0
-2434 269 0
-2434 2178 0
2434 -269 -2178 0
-2514 258 0
-2514 2482 0
2514 -258 -2482 0
-2546 -259 0
-2546 2514 0
2546 259 -2514 0
-2610 -260 0
-2610 2546 0
2610 260 -2546 0
-2866 261 0
-2866 2610 0
2866 -261 -2610 0
-2946 250 0
-2946 2914 0
2946 -250 -2914 0
-2978 -251 0
-2978 2946 0
2978 251 -2946 0
-3042 -252 0
-3042 2978 0
3042 252 -2978 0
-3298 253 0
-3298 3042 0
3298 -253 -3042 0
-3378 242 0
-3378 3346 0
3378 -242 -3346 0
-3410 -243 0
-3410 3378 0
3410 243 -3378 0
-3474 -244 0
-3474 3410 0
3474 244 -3410 0
-3730 245 0
-3730 3474 0
3730 -245 -3474 0
-3810 234 0
-3810 3778 0
3810 -234 -3778 0
-3842 -235 0
-3842 3810 0
3842 235 -3810 0
-3906 -236 0
-3906 3842 0
3906 236 -3842 0
-4162 237 0
-4162 3906 0
4162 -237 -3906 0
-4242 226 0
-4242 4210 0
4242 -226 -4210 0
-4274 -227 0
-4274 4242 0
4274 227 -4242 0
-4338 -228 0
-4338 4274 0
4338 228 -4274 0
-4594 229 0
-4594 4338 0
4594 -229 -4338 0
-4674 218 0
-4674 4642 0
4674 -218 -4642 0
-4706 -219 0
-4706 4674 0
4706 219 -4674 0
-4770 -220 0
-4770 4706 0
4770 220 -4706 0
-5026 221 0
-5026 4770 0
5026 -221 -4770 0
-5106 210 0
-5106 5074 0
5106 -210 -5074 0
-5138 -211 0
-5138 5106 0
5138 211 -5106 0
-5202 -212 0
-5202 5138 0
5202 212 -5138 0
-5458 213 0
-5458 5202 0
5458 -213 -5202 0
-5538 202 0
-5538 5506 0
5538 -202 -5506 0
-5570 -203 0
-5570 5538 0
5570 203 -5538 0
-5634 -204 0
-5634 5570 0
5634 204 -5570 0
-5890 205 0
-5890 5634 0
5890 -205 -5634 0
-5970 194 0
-5970 5938 0
5970 -194 -5938 0
-6002 -195 0
-6002 5970 0
6002 195 -5970 0
-6066 -196 0
-6066 6002 0
6066 196 -6002 0
-6322 197 0
-6322 6066 0
6322 -197 -6066 0
-6402 186 0
-6402 6370 0
6402 -186 -6370 0
-6434 -187 0
-6434 6402 0
6434 187 -6402 0
-6498 -188 0
-6498 6434 0
6498 188 -6434 0
-6754 189 0
-6754 6498 0
6754 -189 -6498 0
-6934 -6322 0
-6934 -6754 0
6934 6322 6754 0
-7114 -5890 0
-7114 6934 0
7114 5890 -6934 0
-7294 -5458 0
-7294 7114 0
7294 5458 -7114 0
-7474 -5026 0
-7474 7294 0
7474 5026 -7294 0
-7654 -4594 0
-7654 7474 0
7654 4594 -7474 0
-7834 -4162 0
-7834 7654 0
7834 4162 -7654 0
-8014 -3730 0
-8014 7834 0
8014 3730 -7834 0
-8194 -3298 0
-8194 8014 0
8194 3298 -8014 0
-8374 -2866 0
-8374 8194 0
8374 2866 -8194 0
-8554 -2434 0
-8554 8374 0
8554 2434 -8374 0
-8734 -2002 0
-8734 8554 0
8734 2002 -8554 0
-8914 -1570 0
-8914 8734 0
8914 1570 -8734 0
-9094 -1138 0
-9094 8914 0
9094 1138 -8914 0
-9274 -706 0
-9274 9094 0
9274 706 -9094 0
-9758 154 0
-9758 9274 0
9758 -154 -9274 0
-9759 -154 0
-9759 -9274 0
9759 154 9274 0
-9760 -9758 0
-9760 -9759 0
9760 9758 9759 0
153 -52163 0
-153 52163 0
-353 298 0
-353 321 0
353 -298 -321 0
-385 -299 0
-385 353 0
385 299 -353 0
-449 -300 0
-449 385 0
449 300 -385 0
-705 301 0
-705 449 0
705 -301 -449 0
-785 290 0
-785 753 0
785 -290 -753 0
-817 -291 0
-817 785 0
817 291 -785 0
-881 -292 0
-881 817 0
881 292 -817 0
-1137 293 0
-1137 881 0
1137 -293 -881 0
-1217 282 0
-1217 1185 0
1217 -282 -1185 0
-1249 -283 0
-1249 1217 0
1249 283 -1217 0
-1313 -284 0
-1313 1249 0
1313 284 -1249 0
-1569 285 0
-1569 1313 0
1569 -285 -1313 0
-1649 274 0
-1649 1617 0
1649 -274 -1617 0
-1681 -275 0
-1681 1649 0
1681 275 -1649 0
-1745 -276 0
-1745 1681 0
1745 276 -1681 0
-2001 277 0
-2001 1745 0
2001 -277 -1745 0
-2081 266 0
-2081 2049 0
2081 -266 -2049 0
-2113 -267 0
-2113 2081 0
2113 267 -2081 0
-2177 -268 0
-2177 2113 0
2177 268 -2113 0
-2433 269 0
-2433 2177 0
2433 -269 -2177 0
-2513 258 0
-2513 2481 0
2513 -258 -2481 0
-2545 -259 0
-2545 2513 0
2545 259 -2513 0
-2609 -260 0
-2609 2545 0
2609 260 -2545 0
-2865 261 0
-2865 2609 0
2865 -261 -2609 0
-2945 250 0
-2945 2913 0
2945 -250 -2913 0
-2977 -251 0
-2977 2945 0
2977 251 -2945 0
-3041 -252 0
-3041 2977 0
3041 252 -2977 0
-3297 253 0
-3297 3041 0
3297 -253 -3041 0
-3377 242 0
-3377 3345 0
3377 -242 -3345 0
-3409 -243 0
-3409 3377 0
3409 243 -3377 0
-3473 -244 0
-3473 3409 0
3473 244 -3409 0
-3729 245 0
-3729 3473 0
3729 -245 -3473 0
-3809 234 0
-3809 3777 0
3809 -234 -3777 0
-3841 -235 0
-3841 3809 0
3841 235 -3809 0
-3905 -236 0
-3905 3841 0
3905 236 -3841 0
-4161 237 0
-4161 3905 0
4161 -237 -3905 0
-4241 226 0
-4241 4209 0
4241 -226 -4209 0
-4273 -227 0
-4273 4241 0
4273 227 -4241 0
-4337 -228 0
-4337 4273 0
4337 228 -4273 0
-4593 229 0
-4593 4337 0
4593 -229 -4337 0
-4673 218 0
-4673 4641 0
4673 -218 -4641 0
-4705 -219 0
-4705 4673 0
4705 219 -4673 0
-4769 -220 0
-4769 4705 0
4769 220 -4705 0
-5025 221 0
-5025 4769 0
5025 -221 -4769 0
-5105 210 0
-5105 5073 0
5105 -210 -5073 0
-5137 -211 0
-5137 5105 0
5137 211 -5105 0
-5201 -212 0
-5201 5137 0
5201 212 -5137 0
-5457 213 0
-5457 5201 0
5457 -213 -5201 0
-5537 202 0
-5537 5505 0
5537 -202 -5505 0
-5569 -203 0
-5569 5537 0
5569 203 -5537 0
-5633 -204 0
-5633 5569 0
5633 204 -5569 0
-5889 205 0
-5889 5633 0
5889 -205 -5633 0
-5969 194 0
-5969 5937 0
5969 -194 -5937 0
-6001 -195 0
-6001 5969 0
6001 195 -5969 0
-6065 -196 0
-6065 6001 0
6065 196 -6001 0
-6321 197 0
-6321 6065 0
6321 -197 -6065 0
-6401 186 0
-6401 6369 0
6401 -186 -6369 0
-6433 -187 0
-6433 6401 0
6433 187 -6401 0
-6497 -188 0
-6497 6433 0
6497 188 -6433 0
-6753 189 0
-6753 6497 0
6753 -189 -6497 0
-6933 -6321 0
-6933 -6753 0
6933 6321 6753 0
-7113 -5889 0
-7113 6933 0
7113 5889 -6933 0
-7293 -5457 0
-7293 7113 0
7293 5457 -7113 0
-7473 -5025 0
-7473 7293 0
7473 5025 -7293 0
-7653 -4593 0
-7653 7473 0
7653 4593 -7473 0
-7833 -4161 0
-7833 7653 0
7833 4161 -7653 0
-8013 -3729 0
-8013 7833 0
8013 3729 -7833 0
-8193 -3297 0
-8193 8013 0
8193 3297 -8013 0
-8373 -2865 0
-8373 8193 0
8373 2865 -8193 0
-8553 -2433 0
-8553 8373 0
8553 2433 -8373 0
-8733 -2001 0
-8733 8553 0
8733 2001 -8553 0
-8913 -1569 0
-8913 8733 0
8913 1569 -8733 0
-9093 -1137 0
-9093 8913 0
9093 1137 -8913 0
-9273 -705 0
-9273 9093 0
9273 705 -9093 0
-9755 153 0
-9755 9273 0
9755 -153 -9273 0
-9756 -153 0
-9756 -9273 0
9756 153 9273 0
-9757 -9755 0
-9757 -9756 0
9757 9755 9756 0
152 -52162 0
-152 52162 0
-352 298 0
-352 320 0
352 -298 -320 0
-384 -299 0
-384 352 0
384 299 -352 0
-448 -300 0
-448 384 0
448 300 -384 0
-704 301 0
-704 448 0
704 -301 -448 0
-784 290 0
-784 752 0
784 -290 -752 0
-816 -291 0
-816 784 0
816 291 -784 0
-880 -292 0
-880 816 0
880 292 -816 0
-1136 293 0
-1136 880 0
1136 -293 -880 0
-1216 282 0
-1216 1184 0
1216 -282 -1184 0
-1248 -283 0
-1248 1216 0
1248 283 -1216 0
-1312 -284 0
-1312 1248 0
1312 284 -1248 0
-1568 285 0
-1568 1312 0
1568 -285 -1312 0
-1648 274 0
-1648 1616 0
1648 -274 -1616 0
-1680 -275 0
-1680 1648 0
1680 275 -1648 0
-1744 -276 0
-1744 1680 0
1744 276 -1680 0
-2000 277 0
-2000 1744 0
2000 -277 -1744 0
-2080 266 0
-2080 2048 0
2080 -266 -2048 0
-2112 -267 0
-2112 2080 0
2112 267 -2080 0
-2176 -268 0
-2176 2112 0
2176 268 -2112 0
-2432 269 0
-2432 2176 0
2432 -269 -2176 0
-2512 258 0
-2512 2480 0
2512 -258 -2480 0
-2544 -259 0
-2544 2512 0
2544 259 -2512 0
-2608 -260 0
-2608 2544 0
2608 260 -2544 0
-2864 261 0
-2864 2608 0
2864 -261 -2608 0
-2944 250 0
-2944 2912 0
2944 -250 -2912 0
-2976 -251 0
-2976 2944 0
2976 251 -2944 0
-3040 -252 0
-3040 2976 0
3040 252 -2976 0
-3296 253 0
-3296 3040 0
3296 -253 -3040 0
-3376 242 0
-3376 3344 0
3376 -242 -3344 0
-3408 -243 0
-3408 3376 0
3408 243 -3376 0
-3472 -244 0
-3472 3408 0
3472 244 -3408 0
-3728 245 0
-3728 3472 0
3728 -245 -3472 0
-3808 234 0
-3808 3776 0
3808 -234 -3776 0
-3840 -235 0
-3840 3808 0
3840 235 -3808 0
-3904 -236 0
-3904 3840 0
3904 236 -3840 0
-4160 237 0
-4160 3904 0
4160 -237 -3904 0
-4240 226 0
-4240 4208 0
4240 -226 -4208 0
-4272 -227 0
-4272 4240 0
4272 227 -4240 0
-4336 -228 0
-4336 4272 0
4336 228 -4272 0
-4592 229 0
-4592 4336 0
4592 -229 -4336 0
-4672 218 0
-4672 4640 0
4672 -218 -4640 0
-4704 -219 0
-4704 4672 0
4704 219 -4672 0
-4768 -220 0
-4768 4704 0
4768 220 -4704 0
-5024 221 0
-5024 4768 0
5024 -221 -4768 0
-5104 210 0
-5104 5072 0
5104 -210 -5072 0
-5136 -211 0
-5136 5104 0
5136 211 -5104 0
-5200 -212 0
-5200 5136 0
5200 212 -5136 0
-5456 213 0
-5456 5200 0
5456 -213 -5200 0
-5536 202 0
-5536 5504 0
5536 -202 -5504 0
-5568 -203 0
-5568 5536 0
5568 203 -5536 0
-5632 -204 0
-5632 5568 0
5632 204 -5568 0
-5888 205 0
-5888 5632 0
5888 -205 -5632 0
-5968 194 0
-5968 5936 0
5968 -194 -5936 0
-6000 -195 0
-6000 5968 0
6000 195 -5968 0
-6064 -196 0
-6064 6000 0
6064 196 -6000 0
-6320 197 0
-6320 6064 0
6320 -197 -6064 0
-6400 186 0
-6400 6368 0
6400 -186 -6368 0
-6432 -187 0
-6432 6400 0
6432 187 -6400 0
-6496 -188 0
-6496 6432 0
6496 188 -6432 0
-6752 189 0
-6752 6496 0
6752 -189 -6496 0
-6932 -6320 0
-6932 -6752 0
6932 6320 6752 0
-7112 -5888 0
-7112 6932 0
7112 5888 -6932 0
-7292 -5456 0
-7292 7112 0
7292 5456 -7112 0
-7472 -5024 0
-7472 7292 0
7472 5024 -7292 0
-7652 -4592 0
-7652 7472 0
7652 4592 -7472 0
-7832 -4160 0
-7832 7652 0
7832 4160 -7652 0
-8012 -3728 0
-8012 7832 0
8012 3728 -7832 0
-8192 -3296 0
-8192 8012 0
8192 3296 -8012 0
-8372 -2864 0
-8372 8192 0
8372 2864 -8192 0
-8552 -2432 0
-8552 8372 0
8552 2432 -8372 0
-8732 -2000 0
-8732 8552 0
8732 2000 -8552 0
-8912 -1568 0
-8912 8732 0
8912 1568 -8732 0
-9092 -1136 0
-9092 8912 0
9092 1136 -8912 0
-9272 -704 0
-9272 9092 0
9272 704 -9092 0
-9752 152 0
-9752 9272 0
9752 -152 -9272 0
-9753 -152 0
-9753 -9272 0
9753 152 9272 0
-9754 -9752 0
-9754 -9753 0
9754 9752 9753 0
151 -52161 0
-151 52161 0
-351 298 0
-351 319 0
351 -298 -319 0
-383 -299 0
-383 351 0
383 299 -351 0
-447 -300 0
-447 383 0
447 300 -383 0
-703 301 0
-703 447 0
703 -301 -447 0
-783 290 0
-783 751 0
783 -290 -751 0
-815 -291 0
-815 783 0
815 291 -783 0
-879 -292 0
-879 815 0
879 292 -815 0
-1135 293 0
-1135 879 0
1135 -293 -879 0
-1215 282 0
-1215 1183 0
1215 -282 -1183 0
-1247 -283 0
-1247 1215 0
1247 283 -1215 0
-1311 -284 0
-1311 1247 0
1311 284 -1247 0
-1567 285 0
-1567 1311 0
1567 -285 -1311 0
-1647 274 0
-1647 1615 0
1647 -274 -1615 0
-1679 -275 0
-1679 1647 0
1679 275 -1647 0
-1743 -276 0
-1743 1679 0
1743 276 -1679 0
-1999 277 0
-1999 1743 0
1999 -277 -1743 0
-2079 266 0
-2079 2047 0
2079 -266 -2047 0
-2111 -267 0
-2111 2079 0
2111 267 -2079 0
-2175 -268 0
-2175 2111 0
2175 268 -2111 0
-2431 269 0
-2431 2175 0
2431 -269 -2175 0
-2511 258 0
-2511 2479 0
2511 -258 -2479 0
-2543 -259 0
-2543 2511 0
2543 259 -2511 0
-2607 -260 0
-2607 2543 0
2607 260 -2543 0
-2863 261 0
-2863 2607 0
2863 -261 -2607 0
-2943 250 0
-2943 2911 0
2943 -250 -2911 0
-2975 -251 0
-2975 2943 0
2975 251 -2943 0
-3039 -252 0
-3039 2975 0
3039 252 -2975 0
-3295 253 0
-3295 3039 0
3295 -253 -3039 0
-3375 242 0
-3375 3343 0
3375 -242 -3343 0
-3407 -243 0
-3407 3375 0
3407 243 -3375 0
-3471 -244 0
-3471 3407 0
3471 244 -3407 0
-3727 245 0
-3727 3471 0
3727 -245 -3471 0
-3807 234 0
-3807 3775 0
3807 -234 -3775 0
-3839 -235 0
-3839 3807 0
3839 235 -3807 0
-3903 -236 0
-3903 3839 0
3903 236 -3839 0
-4159 237 0
-4159 3903 0
4159 -237 -3903 0
-4239 226 0
-4239 4207 0
4239 -226 -4207 0
-4271 -227 0
-4271 4239 0
4271 227 -4239 0
-4335 -228 0
-4335 4271 0
4335 228 -4271 0
-4591 229 0
-4591 4335 0
4591 -229 -4335 0
-4671 218 0
-4671 4639 0
4671 -218 -4639 0
-4703 -219 0
-4703 4671 0
4703 219 -4671 0
-4767 -220 0
-4767 4703 0
4767 220 -4703 0
-5023 221 0
-5023 4767 0
5023 -221 -4767 0
-5103 210 0
-5103 5071 0
5103 -210 -5071 0
-5135 -211 0
-5135 5103 0
5135 211 -5103 0
-5199 -212 0
-5199 5135 0
5199 212 -5135 0
-5455 213 0
-5455 5199 0
5455 -213 -5199 0
-5535 202 0
-5535 5503 0
5535 -202 -5503 0
-5567 -203 0
-5567 5535 0
5567 203 -5535 0
-5631 -204 0
-5631 5567 0
5631 204 -5567 0
-5887 205 0
-5887 5631 0
5887 -205 -5631 0
-5967 194 0
-5967 5935 0
5967 -194 -5935 0
-5999 -195 0
-5999 5967 0
5999 195 -5967 0
-6063 -196 0
-6063 5999 0
6063 196 -5999 0
-6319 197 0
-6319 6063 0
6319 -197 -6063 0
-6399 186 0
-6399 6367 0
6399 -186 -6367 0
-6431 -187 0
-6431 6399 0
6431 187 -6399 0
-6495 -188 0
-6495 6431 0
6495 188 -6431 0
-6751 189 0
-6751 6495 0
6751 -189 -6495 0
-6931 -6319 0
-6931 -6751 0
6931 6319 6751 0
-7111 -5887 0
-7111 6931 0
7111 5887 -6931 0
-7291 -5455 0
-7291 7111 0
7291 5455 -7111 0
-7471 -5023 0
-7471 7291 0
7471 5023 -7291 0
-7651 -4591 0
-7651 7471 0
7651 4591 -7471 0
-7831 -4159 0
-7831 7651 0
7831 4159 -7651 0
-8011 -3727 0
-8011 7831 0
8011 3727 -7831 0
-8191 -3295 0
-8191 8011 0
8191 3295 -8011 0
-8371 -2863 0
-8371 8191 0
8371 2863 -8191 0
-8551 -2431 0
-8551 8371 0
8551 2431 -8371 0
-8731 -1999 0
-8731 8551 0
8731 1999 -8551 0
-8911 -1567 0
-8911 8731 0
8911 1567 -8731 0
-9091 -1135 0
-9091 8911 0
9091 1135 -8911 0
-9271 -703 0
-9271 9091 0
9271 703 -9091 0
-9749 151 0
-9749 9271 0
9749 -151 -9271 0
-9750 -151 0
-9750 -9271 0
9750 151 9271 0
-9751 -9749 0
-9751 -9750 0
9751 9749 9750 0
150 -52160 0
-150 52160 0
-350 298 0
-350 318 0
350 -298 -318 0
-382 -299 0
-382 350 0
382 299 -350 0
-446 -300 0
-446 382 0
446 300 -382 0
-702 301 0
-702 446 0
702 -301 -446 0
-782 290 0
-782 750 0
782 -290 -750 0
-814 -291 0
-814 782 0
814 291 -782 0
-878 -292 0
-878 814 0
878 292 -814 0
-1134 293 0
-1134 878 0
1134 -293 -878 0
-1214 282 0
-1214 1182 0
1214 -282 -1182 0
-1246 -283 0
-1246 1214 0
1246 283 -1214 0
-1310 -284 0
-1310 1246 0
1310 284 -1246 0
-1566 285 0
-1566 1310 0
1566 -285 -1310 0
-1646 274 0
-1646 1614 0
1646 -274 -1614 0
-1678 -275 0
-1678 1646 0
1678 275 -1646 0
-1742 -276 0
-1742 1678 0
1742 276 -1678 0
-1998 277 0
-1998 1742 0
1998 -277 -1742 0
-2078 266 0
-2078 2046 0
2078 -266 -2046 0
-2110 -267 0
-2110 2078 0
2110 267 -2078 0
-2174 -268 0
-2174 2110 0
2174 268 -2110 0
-2430 269 0
-2430 2174 0
2430 -269 -2174 0
-2510 258 0
-2510 2478 0
2510 -258 -2478 0
-2542 -259 0
-2542 2510 0
2542 259 -2510 0
-2606 -260 0
-2606 2542 0
2606 260 -2542 0
-2862 261 0
-2862 2606 0
2862 -261 -2606 0
-2942 250 0
-2942 2910 0
2942 -250 -2910 0
-2974 -251 0
-2974 2942 0
2974 251 -2942 0
-3038 -252 0
-3038 2974 0
3038 252 -2974 0
-3294 253 0
-3294 3038 0
3294 -253 -3038 0
-3374 242 0
-3374 3342 0
3374 -242 -3342 0
-3406 -243 0
-3406 3374 0
3406 243 -3374 0
-3470 -244 0
-3470 3406 0
3470 244 -3406 0
-3726 245 0
-3726 3470 0
3726 -245 -3470 0
-3806 234 0
-3806 3774 0
3806 -234 -3774 0
-3838 -235 0
-3838 3806 0
3838 235 -3806 0
-3902 -236 0
-3902 3838 0
3902 236 -3838 0
-4158 237 0
-4158 3902 0
4158 -237 -3902 0
-4238 226 0
-4238 4206 0
4238 -226 -4206 0
-4270 -227 0
-4270 4238 0
4270 227 -4238 0
-4334 -228 0
-4334 4270 0
4334 228 -4270 0
-4590 229 0
-4590 4334 0
4590 -229 -4334 0
-4670 218 0
-4670 4638 0
4670 -218 -4638 0
-4702 -219 0
-4702 4670 0
4702 219 -4670 0
-4766 -220 0
-4766 4702 0
4766 220 -4702 0
-5022 221 0
-5022 4766 0
5022 -221 -4766 0
-5102 210 0
-5102 5070 0
5102 -210 -5070 0
-5134 -211 0
-5134 5102 0
5134 211 -5102 0
-5198 -212 0
-5198 5134 0
5198 212 -5134 0
-5454 213 0
-5454 5198 0
5454 -213 -5198 0
-5534 202 0
-5534 5502 0
5534 -202 -5502 0
-5566 -203 0
-5566 5534 0
5566 203 -5534 0
-5630 -204 0
-5630 5566 0
5630 204 -5566 0
-5886 205 0
-5886 5630 0
5886 -205 -5630 0
-5966 194 0
-5966 5934 0
5966 -194 -5934 0
-5998 -195 0
-5998 5966 0
5998 195 -5966 0
-6062 -196 0
-6062 5998 0
6062 196 -5998 0
-6318 197 0
-6318 6062 0
6318 -197 -6062 0
-6398 186 0
-6398 6366 0
6398 -186 -6366 0
-6430 -187 0
-6430 6398 0
6430 187 -6398 0
-6494 -188 0
-6494 6430 0
6494 188 -6430 0
-6750 189 0
-6750 6494 0
6750 -189 -6494 0
-6930 -6318 0
-6930 -6750 0
6930 6318 6750 0
-7110 -5886 0
-7110 6930 0
7110 5886 -6930 0
-7290 -5454 0
-7290 7110 0
7290 5454 -7110 0
-7470 -5022 0
-7470 7290 0
7470 5022 -7290 0
-7650 -4590 0
-7650 7470 0
7650 4590 -7470 0
-7830 -4158 0
-7830 7650 0
7830 4158 -7650 0
-8010 -3726 0
-8010 7830 0
8010 3726 -7830 0
-8190 -3294 0
-8190 8010 0
8190 3294 -8010 0
-8370 -2862 0
-8370 8190 0
8370 2862 -8190 0
-8550 -2430 0
-8550 8370 0
8550 2430 -8370 0
-8730 -1998 0
-8730 8550 0
8730 1998 -8550 0
-8910 -1566 0
-8910 8730 0
8910 1566 -8730 0
-9090 -1134 0
-9090 8910 0
9090 1134 -8910 0
-9270 -702 0
-9270 9090 0
9270 702 -9090 0
-9746 150 0
-9746 9270 0
9746 -150 -9270 0
-9747 -150 0
-9747 -9270 0
9747 150 9270 0
-9748 -9746 0
-9748 -9747 0
9748 9746 9747 0
149 -52159 0
-149 52159 0
-381 -299 0
-381 349 0
381 299 -349 0
-445 -300 0
-445 381 0
445 300 -381 0
-701 301 0
-701 445 0
701 -301 -445 0
-813 -291 0
-813 781 0
813 291 -781 0
-877 -292 0
-877 813 0
877 292 -813 0
-1133 293 0
-1133 877 0
1133 -293 -877 0
-1245 -283 0
-1245 1213 0
1245 283 -1213 0
-1309 -284 0
-1309 1245 0
1309 284 -1245 0
-1565 285 0
-1565 1309 0
1565 -285 -1309 0
-1677 -275 0
-1677 1645 0
1677 275 -1645 0
-1741 -276 0
-1741 1677 0
1741 276 -1677 0
-1997 277 0
-1997 1741 0
1997 -277 -1741 0
-2109 -267 0
-2109 2077 0
2109 267 -2077 0
-2173 -268 0
-2173 2109 0
2173 268 -2109 0
-2429 269 0
-2429 2173 0
2429 -269 -2173 0
-2541 -259 0
-2541 2509 0
2541 259 -2509 0
-2605 -260 0
-2605 2541 0
2605 260 -2541 0
-2861 261 0
-2861 2605 0
2861 -261 -2605 0
-2973 -251 0
-2973 2941 0
2973 251 -2941 0
-3037 -252 0
-3037 2973 0
3037 252 -2973 0
-3293 253 0
-3293 3037 0
3293 -253 -3037 0
-3405 -243 0
-3405 3373 0
3405 243 -3373 0
-3469 -244 0
-3469 3405 0
3469 244 -3405 0
-3725 245 0
-3725 3469 0
3725 -245 -3469 0
-3837 -235 0
-3837 3805 0
3837 235 -3805 0
-3901 -236 0
-3901 3837 0
3901 236 -3837 0
-4157 237 0
-4157 3901 0
4157 -237 -3901 0
-4269 -227 0
-4269 4237 0
4269 227 -4237 0
-4333 -228 0
-4333 4269 0
4333 228 -4269 0
-4589 229 0
-4589 4333 0
4589 -229 -4333 0
-4701 -219 0
-4701 4669 0
4701 219 -4669 0
-4765 -220 0
-4765 4701 0
4765 220 -4701 0
-5021 221 0
-5021 4765 0
5021 -221 -4765 0
-5133 -211 0
-5133 5101 0
5133 211 -5101 0
-5197 -212 0
-5197 5133 0
5197 212 -5133 0
-5453 213 0
-5453 5197 0
5453 -213 -5197 0
-5565 -203 0
-5565 5533 0
5565 203 -5533 0
-5629 -204 0
-5629 5565 0
5629 204 -5565 0
-5885 205 0
-5885 5629 0
5885 -205 -5629 0
-5997 -195 0
-5997 5965 0
5997 195 -5965 0
-6061 -196 0
-6061 5997 0
6061 196 -5997 0
-6317 197 0
-6317 6061 0
6317 -197 -6061 0
-6429 -187 0
-6429 6397 0
6429 187 -6397 0
-6493 -188 0
-6493 6429 0
6493 188 -6429 0
-6749 189 0
-6749 6493 0
6749 -189 -6493 0
-6929 -6317 0
-6929 -6749 0
6929 6317 6749 0
-7109 -5885 0
-7109 6929 0
7109 5885 -6929 0
-7289 -5453 0
-7289 7109 0
7289 5453 -7109 0
-7469 -5021 0
-7469 7289 0
7469 5021 -7289 0
-7649 -4589 0
-7649 7469 0
7649 4589 -7469 0
-7829 -4157 0
-7829 7649 0
7829 4157 -7649 0
-8009 -3725 0
-8009 7829 0
8009 3725 -7829 0
-8189 -3293 0
-8189 8009 0
8189 3293 -8009 0
-8369 -2861 0
-8369 8189 0
8369 2861 -8189 0
-8549 -2429 0
-8549 8369 0
8549 2429 -8369 0
-8729 -1997 0
-8729 8549 0
8729 1997 -8549 0
-8909 -1565 0
-8909 8729 0
8909 1565 -8729 0
-9089 -1133 0
-9089 8909 0
9089 1133 -8909 0
-9269 -701 0
-9269 9089 0
9269 701 -9089 0
-9743 149 0
-9743 9269 0
9743 -149 -9269 0
-9744 -149 0
-9744 -9269 0
9744 149 9269 0
-9745 -9743 0
-9745 -9744 0
9745 9743 9744 0
148 -52158 0
-148 52158 0
-380 -299 0
-380 348 0
380 299 -348 0
-444 -300 0
-444 380 0
444 300 -380 0
-700 301 0
-700 444 0
700 -301 -444 0
-812 -291 0
-812 780 0
812 291 -780 0
-876 -292 0
-876 812 0
876 292 -812 0
-1132 293 0
-1132 876 0
1132 -293 -876 0
-1244 -283 0
-1244 1212 0
1244 283 -1212 0
-1308 -284 0
-1308 1244 0
1308 284 -1244 0
-1564 285 0
-1564 1308 0
1564 -285 -1308 0
-1676 -275 0
-1676 1644 0
1676 275 -1644 0
-1740 -276 0
-1740 1676 0
1740 276 -1676 0
-1996 277 0
-1996 1740 0
1996 -277 -1740 0
-2108 -267 0
-2108 2076 0
2108 267 -2076 0
-2172 -268 0
-2172 2108 0
2172 268 -2108 0
-2428 269 0
-2428 2172 0
2428 -269 -2172 0
-2540 -259 0
-2540 2508 0
2540 259 -2508 0
-2604 -260 0
-2604 2540 0
2604 260 -2540 0
-2860 261 0
-2860 2604 0
2860 -261 -2604 0
-2972 -251 0
-2972 2940 0
2972 251 -2940 0
-3036 -252 0
-3036 2972 0
3036 252 -2972 0
-3292 253 0
-3292 3036 0
3292 -253 -3036 0
-3404 -243 0
-3404 3372 0
3404 243 -3372 0
-3468 -244 0
-3468 3404 0
3468 244 -3404 0
-3724 245 0
-3724 3468 0
3724 -245 -3468 0
-3836 -235 0
-3836 3804 0
3836 235 -3804 0
-3900 -236 0
-3900 3836 0
3900 236 -3836 0
-4156 237 0
-4156 3900 0
4156 -237 -3900 0
-4268 -227 0
-4268 4236 0
4268 227 -4236 0
-4332 -228 0
-4332 4268 0
4332 228 -4268 0
-4588 229 0
-4588 4332 0
4588 -229 -4332 0
-4700 -219 0
-4700 4668 0
4700 219 -4668 0
-4764 -220 0
-4764 4700 0
4764 220 -4700 0
-5020 221 0
-5020 4764 0
5020 -221 -4764 0
-5132 -211 0
-5132 5100 0
5132 211 -5100 0
-5196 -212 0
-5196 5132 0
5196 212 -5132 0
-5452 213 0
-5452 5196 0
5452 -213 -5196 0
-5564 -203 0
-5564 5532 0
5564 203 -5532 0
-5628 -204 0
-5628 5564 0
5628 204 -5564 0
-5884 205 0
-5884 5628 0
5884 -205 -5628 0
-5996 -195 0
-5996 5964 0
5996 195 -5964 0
-6060 -196 0
-6060 5996 0
6060 196 -5996 0
-6316 197 0
-6316 6060 0
6316 -197 -6060 0
-6428 -187 0
-6428 6396 0
6428 187 -6396 0
-6492 -188 0
-6492 6428 0
6492 188 -6428 0
-6748 189 0
-6748 6492 0
6748 -189 -6492 0
-6928 -6316 0
-6928 -6748 0
6928 6316 6748 0
-7108 -5884 0
-7108 6928 0
7108 5884 -6928 0
-7288 -5452 0
-7288 7108 0
7288 5452 -7108 0
-7468 -5020 0
-7468 7288 0
7468 5020 -7288 0
-7648 -4588 0
-7648 7468 0
7648 4588 -7468 0
-7828 -4156 0
-7828 7648 0
7828 4156 -7648 0
-8008 -3724 0
-8008 7828 0
8008 3724 -7828 0
-8188 -3292 0
-8188 8008 0
8188 3292 -8008 0
-8368 -2860 0
-8368 8188 0
8368 2860 -8188 0
-8548 -2428 0
-8548 8368 0
8548 2428 -8368 0
-8728 -1996 0
-8728 8548 0
8728 1996 -8548 0
-8908 -1564 0
-8908 8728 0
8908 1564 -8728 0
-9088 -1132 0
-9088 8908 0
9088 1132 -8908 0
-9268 -700 0
-9268 9088 0
9268 700 -9088 0
-9740 148 0
-9740 9268 0
9740 -148 -9268 0
-9741 -148 0
-9741 -9268 0
9741 148 9268 0
-9742 -9740 0
-9742 -9741 0
9742 9740 9741 0
147 -52157 0
-147 52157 0
-379 -299 0
-379 347 0
379 299 -347 0
-443 -300 0
-443 379 0
443 300 -379 0
-699 301 0
-699 443 0
699 -301 -443 0
-811 -291 0
-811 779 0
811 291 -779 0
-875 -292 0
-875 811 0
875 292 -811 0
-1131 293 0
-1131 875 0
1131 -293 -875 0
-1243 -283 0
-1243 1211 0
1243 283 -1211 0
-1307 -284 0
-1307 1243 0
1307 284 -1243 0
-1563 285 0
-1563 1307 0
1563 -285 -1307 0
-1675 -275 0
-1675 1643 0
1675 275 -1643 0
-1739 -276 0
-1739 1675 0
1739 276 -1675 0
-1995 277 0
-1995 1739 0
1995 -277 -1739 0
-2107 -267 0
-2107 2075 0
2107 267 -2075 0
-2171 -268 0
-2171 2107 0
2171 268 -2107 0
-2427 269 0
-2427 2171 0
2427 -269 -2171 0
-2539 -259 0
-2539 2507 0
2539 259 -2507 0
-2603 -260 0
-2603 2539 0
2603 260 -2539 0
-2859 261 0
-2859 2603 0
2859 -261 -2603 0
-2971 -251 0
-2971 2939 0
2971 251 -2939 0
-3035 -252 0
-3035 2971 0
3035 252 -2971 0
-3291 253 0
-3291 3035 0
3291 -253 -3035 0
-3403 -243 0
-3403 3371 0
3403 243 -3371 0
-3467 -244 0
-3467 3403 0
3467 244 -3403 0
-3723 245 0
-3723 3467 0
3723 -245 -3467 0
-3835 -235 0
-3835 3803 0
3835 235 -3803 0
-3899 -236 0
-3899 3835 0
3899 236 -3835 0
-4155 237 0
-4155 3899 0
4155 -237 -3899 0
-4267 -227 0
-4267 4235 0
4267 227 -4235 0
-4331 -228 0
-4331 4267 0
4331 228 -4267 0
-4587 229 0
-4587 4331 0
4587 -229 -4331 0
-4699 -219 0
-4699 4667 0
4699 219 -4667 0
-4763 -220 0
-4763 4699 0
4763 220 -4699 0
-5019 221 0
-5019 4763 0
5019 -221 -4763 0
-5131 -211 0
-5131 5099 0
5131 211 -5099 0
-5195 -212 0
-5195 5131 0
5195 212 -5131 0
-5451 213 0
-5451 5195 0
5451 -213 -5195 0
-5563 -203 0
-5563 5531 0
5563 203 -5531 0
-5627 -204 0
-5627 5563 0
5627 204 -5563 0
-5883 205 0
-5883 5627 0
5883 -205 -5627 0
-5995 -195 0
-5995 5963 0
5995 195 -5963 0
-6059 -196 0
-6059 5995 0
6059 196 -5995 0
-6315 197 0
-6315 6059 0
6315 -197 -6059 0
-6427 -187 0
-6427 6395 0
6427 187 -6395 0
-6491 -188 0
-6491 6427 0
6491 188 -6427 0
-6747 189 0
-6747 6491 0
6747 -189 -6491 0
-6927 -6315 0
-6927 -6747 0
6927 6315 6747 0
-7107 -5883 0
-7107 6927 0
7107 5883 -6927 0
-7287 -5451 0
-7287 7107 0
7287 5451 -7107 0
-7467 -5019 0
-7467 7287 0
7467 5019 -7287 0
-7647 -4587 0
-7647 7467 0
7647 4587 -7467 0
-7827 -4155 0
-7827 7647 0
7827 4155 -7647 0
-8007 -3723 0
-8007 7827 0
8007 3723 -7827 0
-8187 -3291 0
-8187 8007 0
8187 3291 -8007 0
-8367 -2859 0
-8367 8187 0
8367 2859 -8187 0
-8547 -2427 0
-8547 8367 0
8547 2427 -8367 0
-8727 -1995 0
-8727 8547 0
8727 1995 -8547 0
-8907 -1563 0
-8907 8727 0
8907 1563 -8727 0
-9087 -1131 0
-9087 8907 0
9087 1131 -8907 0
-9267 -699 0
-9267 9087 0
9267 699 -9087 0
-9737 147 0
-9737 9267 0
9737 -147 -9267 0
-9738 -147 0
-9738 -9267 0
9738 147 9267 0
-9739 -9737 0
-9739 -9738 0
9739 9737 9738 0
146 -52156 0
-146 52156 0
-378 -299 0
-378 346 0
378 299 -346 0
-442 -300 0
-442 378 0
442 300 -378 0
-698 301 0
-698 442 0
698 -301 -442 0
-810 -291 0
-810 778 0
810 291 -778 0
-874 -292 0
-874 810 0
874 292 -810 0
-1130 293 0
-1130 874 0
1130 -293 -874 0
-1242 -283 0
-1242 1210 0
1242 283 -1210 0
-1306 -284 0
-1306 1242 0
1306 284 -1242 0
-1562 285 0
-1562 1306 0
1562 -285 -1306 0
-1674 -275 0
-1674 1642 0
1674 275 -1642 0
-1738 -276 0
-1738 1674 0
1738 276 -1674 0
-1994 277 0
-1994 1738 0
1994 -277 -1738 0
-2106 -267 0
-2106 2074 0
2106 267 -2074 0
-2170 -268 0
-2170 2106 0
2170 268 -2106 0
-2426 269 0
-2426 2170 0
2426 -269 -2170 0
-2538 -259 0
-2538 2506 0
2538 259 -2506 0
-2602 -260 0
-2602 2538 0
2602 260 -2538 0
-2858 261 0
-2858 2602 0
2858 -261 -2602 0
-2970 -251 0
-2970 2938 0
2970 251 -2938 0
-3034 -252 0
-3034 2970 0
3034 252 -2970 0
-3290 253 0
-3290 3034 0
3290 -253 -3034 0
-3402 -243 0
-3402 3370 0
3402 243 -3370 0
-3466 -244 0
-3466 3402 0
3466 244 -3402 0
-3722 245 0
-3722 3466 0
3722 -245 -3466 0
-3834 -235 0
-3834 3802 0
3834 235 -3802 0
-3898 -236 0
-3898 3834 0
3898 236 -3834 0
-4154 237 0
-4154 3898 0
4154 -237 -3898 0
-4266 -227 0
-4266 4234 0
4266 227 -4234 0
-4330 -228 0
-4330 4266 0
4330 228 -4266 0
-4586 229 0
-4586 4330 0
4586 -229 -4330 0
-4698 -219 0
-4698 4666 0
4698 219 -4666 0
-4762 -220 0
-4762 4698 0
4762 220 -4698 0
-5018 221 0
-5018 4762 0
5018 -221 -4762 0
-5130 -211 0
-5130 5098 0
5130 211 -5098 0
-5194 -212 0
-5194 5130 0
5194 212 -5130 0
-5450 213 0
-5450 5194 0
5450 -213 -5194 0
-5562 -203 0
-5562 5530 0
5562 203 -5530 0
-5626 -204 0
-5626 5562 0
5626 204 -5562 0
-5882 205 0
-5882 5626 0
5882 -205 -5626 0
-5994 -195 0
-5994 5962 0
5994 195 -5962 0
-6058 -196 0
-6058 5994 0
6058 196 -5994 0
-6314 197 0
-6314 6058 0
6314 -197 -6058 0
-6426 -187 0
-6426 6394 0
6426 187 -6394 0
-6490 -188 0
-6490 6426 0
6490 188 -6426 0
-6746 189 0
-6746 6490 0
6746 -189 -6490 0
-6926 -6314 0
-6926 -6746 0
6926 6314 6746 0
-7106 -5882 0
-7106 6926 0
7106 5882 -6926 0
-7286 -5450 0
-7286 7106 0
7286 5450 -7106 0
-7466 -5018 0
-7466 7286 0
7466 5018 -7286 0
-7646 -4586 0
-7646 7466 0
7646 4586 -7466 0
-7826 -4154 0
-7826 7646 0
7826 4154 -7646 0
-8006 -3722 0
-8006 7826 0
8006 3722 -7826 0
-8186 -3290 0
-8186 8006 0
8186 3290 -8006 0
-8366 -2858 0
-8366 8186 0
8366 2858 -8186 0
-8546 -2426 0
-8546 8366 0
8546 2426 -8366 0
-8726 -1994 0
-8726 8546 0
8726 1994 -8546 0
-8906 -1562 0
-8906 8726 0
8906 1562 -8726 0
-9086 -1130 0
-9086 8906 0
9086 1130 -8906 0
-9266 -698 0
-9266 9086 0
9266 698 -9086 0
-9734 146 0
-9734 9266 0
9734 -146 -9266 0
-9735 -146 0
-9735 -9266 0
9735 146 9266 0
-9736 -9734 0
-9736 -9735 0
9736 9734 9735 0
145 -52155 0
-145 52155 0
-377 -299 0
-377 345 0
377 299 -345 0
-441 -300 0
-441 377 0
441 300 -377 0
-697 301 0
-697 441 0
697 -301 -441 0
-809 -291 0
-809 777 0
809 291 -777 0
-873 -292 0
-873 809 0
873 292 -809 0
-1129 293 0
-1129 873 0
1129 -293 -873 0
-1241 -283 0
-1241 1209 0
1241 283 -1209 0
-1305 -284 0
-1305 1241 0
1305 284 -1241 0
-1561 285 0
-1561 1305 0
1561 -285 -1305 0
-1673 -275 0
-1673 1641 0
1673 275 -1641 0
-1737 -276 0
-1737 1673 0
1737 276 -1673 0
-1993 277 0
-1993 1737 0
1993 -277 -1737 0
-2105 -267 0
-2105 2073 0
2105 267 -2073 0
-2169 -268 0
-2169 2105 0
2169 268 -2105 0
-2425 269 0
-2425 2169 0
2425 -269 -2169 0
-2537 -259 0
-2537 2505 0
2537 259 -2505 0
-2601 -260 0
-2601 2537 0
2601 260 -2537 0
-2857 261 0
-2857 2601 0
2857 -261 -2601 0
-2969 -251 0
-2969 2937 0
2969 251 -2937 0
-3033 -252 0
-3033 2969 0
3033 252 -2969 0
-3289 253 0
-3289 3033 0
3289 -253 -3033 0
-3401 -243 0
-3401 3369 0
3401 243 -3369 0
-3465 -244 0
-3465 3401 0
3465 244 -3401 0
-3721 245 0
-3721 3465 0
3721 -245 -3465 0
-3833 -235 0
-3833 3801 0
3833 235 -3801 0
-3897 -236 0
-3897 3833 0
3897 236 -3833 0
-4153 237 0
-4153 3897 0
4153 -237 -3897 0
-4265 -227 0
-4265 4233 0
4265 227 -4233 0
-4329 -228 0
-4329 4265 0
4329 228 -4265 0
-4585 229 0
-4585 4329 0
4585 -229 -4329 0
-4697 -219 0
-4697 4665 0
4697 219 -4665 0
-4761 -220 0
-4761 4697 0
4761 220 -4697 0
-5017 221 0
-5017 4761 0
5017 -221 -4761 0
-5129 -211 0
-5129 5097 0
5129 211 -5097 0
-5193 -212 0
-5193 5129 0
5193 212 -5129 0
-5449 213 0
-5449 5193 0
5449 -213 -5193 0
-5561 -203 0
-5561 5529 0
5561 203 -5529 0
-5625 -204 0
-5625 5561 0
5625 204 -5561 0
-5881 205 0
-5881 5625 0
5881 -205 -5625 0
-5993 -195 0
-5993 5961 0
5993 195 -5961 0
-6057 -196 0
-6057 5993 0
6057 196 -5993 0
-6313 197 0
-6313 6057 0
6313 -197 -6057 0
-6425 -187 0
-6425 6393 0
6425 187 -6393 0
-6489 -188 0
-6489 6425 0
6489 188 -6425 0
-6745 189 0
-6745 6489 0
6745 -189 -6489 0
-6925 -6313 0
-6925 -6745 0
6925 6313 6745 0
-7105 -5881 0
-7105 6925 0
7105 5881 -6925 0
-7285 -5449 0
-7285 7105 0
7285 5449 -7105 0
-7465 -5017 0
-7465 7285 0
7465 5017 -7285 0
-7645 -4585 0
-7645 7465 0
7645 4585 -7465 0
-7825 -4153 0
-7825 7645 0
7825 4153 -7645 0
-8005 -3721 0
-8005 7825 0
8005 3721 -7825 0
-8185 -3289 0
-8185 8005 0
8185 3289 -8005 0
-8365 -2857 0
-8365 8185 0
8365 2857 -8185 0
-8545 -2425 0
-8545 8365 0
8545 2425 -8365 0
-8725 -1993 0
-8725 8545 0
8725 1993 -8545 0
-8905 -1561 0
-8905 8725 0
8905 1561 -8725 0
-9085 -1129 0
-9085 8905 0
9085 1129 -8905 0
-9265 -697 0
-9265 9085 0
9265 697 -9085 0
-9731 145 0
-9731 9265 0
9731 -145 -9265 0
-9732 -145 0
-9732 -9265 0
9732 145 9265 0
-9733 -9731 0
-9733 -9732 0
9733 9731 9732 0
144 -52154 0
-144 52154 0
-376 -299 0
-376 344 0
376 299 -344 0
-440 -300 0
-440 376 0
440 300 -376 0
-696 301 0
-696 440 0
696 -301 -440 0
-808 -291 0
-808 776 0
808 291 -776 0
-872 -292 0
-872 808 0
872 292 -808 0
-1128 293 0
-1128 872 0
1128 -293 -872 0
-1240 -283 0
-1240 1208 0
1240 283 -1208 0
-1304 -284 0
-1304 1240 0
1304 284 -1240 0
-1560 285 0
-1560 1304 0
1560 -285 -1304 0
-1672 -275 0
-1672 1640 0
1672 275 -1640 0
-1736 -276 0
-1736 1672 0
1736 276 -1672 0
-1992 277 0
-1992 1736 0
1992 -277 -1736 0
-2104 -267 0
-2104 2072 0
2104 267 -2072 0
-2168 -268 0
-2168 2104 0
2168 268 -2104 0
-2424 269 0
-2424 2168 0
2424 -269 -2168 0
-2536 -259 0
-2536 2504 0
2536 259 -2504 0
-2600 -260 0
-2600 2536 0
2600 260 -2536 0
-2856 261 0
-2856 2600 0
2856 -261 -2600 0
-2968 -251 0
-2968 2936 0
2968 251 -2936 0
-3032 -252 0
-3032 2968 0
3032 252 -2968 0
-3288 253 0
-3288 3032 0
3288 -253 -3032 0
-3400 -243 0
-3400 3368 0
3400 243 -3368 0
-3464 -244 0
-3464 3400 0
3464 244 -3400 0
-3720 245 0
-3720 3464 0
3720 -245 -3464 0
-3832 -235 0
-3832 3800 0
3832 235 -3800 0
-3896 -236 0
-3896 3832 0
3896 236 -3832 0
-4152 237 0
-4152 3896 0
4152 -237 -3896 0
-4264 -227 0
-4264 4232 0
4264 227 -4232 0
-4328 -228 0
-4328 4264 0
4328 228 -4264 0
-4584 229 0
-4584 4328 0
4584 -229 -4328 0
-4696 -219 0
-4696 4664 0
4696 219 -4664 0
-4760 -220 0
-4760 4696 0
4760 220 -4696 0
-5016 221 0
-5016 4760 0
5016 -221 -4760 0
-5128 -211 0
-5128 5096 0
5128 211 -5096 0
-5192 -212 0
-5192 5128 0
5192 212 -5128 0
-5448 213 0
-5448 5192 0
5448 -213 -5192 0
-5560 -203 0
-5560 5528 0
5560 203 -5528 0
-5624 -204 0
-5624 5560 0
5624 204 -5560 0
-5880 205 0
-5880 5624 0
5880 -205 -5624 0
-5992 -195 0
-5992 5960 0
5992 195 -5960 0
-6056 -196 0
-6056 5992 0
6056 196 -5992 0
-6312 197 0
-6312 6056 0
6312 -197 -6056 0
-6424 -187 0
-6424 6392 0
6424 187 -6392 0
-6488 -188 0
-6488 6424 0
6488 188 -6424 0
-6744 189 0
-6744 6488 0
6744 -189 -6488 0
-6924 -6312 0
-6924 -6744 0
6924 6312 6744 0
-7104 -5880 0
-7104 6924 0
7104 5880 -6924 0
-7284 -5448 0
-7284 7104 0
7284 5448 -7104 0
-7464 -5016 0
-7464 7284 0
7464 5016 -7284 0
-7644 -4584 0
-7644 7464 0
7644 4584 -7464 0
-7824 -4152 0
-7824 7644 0
7824 4152 -7644 0
-8004 -3720 0
-8004 7824 0
8004 3720 -7824 0
-8184 -3288 0
-8184 8004 0
8184 3288 -8004 0
-8364 -2856 0
-8364 8184 0
8364 2856 -8184 0
-8544 -2424 0
-8544 8364 0
8544 2424 -8364 0
-8724 -1992 0
-8724 8544 0
8724 1992 -8544 0
-8904 -1560 0
-8904 8724 0
8904 1560 -8724 0
-9084 -1128 0
-9084 8904 0
9084 1128 -8904 0
-9264 -696 0
-9264 9084 0
9264 696 -9084 0
-9728 144 0
-9728 9264 0
9728 -144 -9264 0
-9729 -144 0
-9729 -9264 0
9729 144 9264 0
-9730 -9728 0
-9730 -9729 0
9730 9728 9729 0
143 -52153 0
-143 52153 0
-375 -299 0
-375 343 0
375 299 -343 0
-439 -300 0
-439 375 0
439 300 -375 0
-695 301 0
-695 439 0
695 -301 -439 0
-807 -291 0
-807 775 0
807 291 -775 0
-871 -292 0
-871 807 0
871 292 -807 0
-1127 293 0
-1127 871 0
1127 -293 -871 0
-1239 -283 0
-1239 1207 0
1239 283 -1207 0
-1303 -284 0
-1303 1239 0
1303 284 -1239 0
-1559 285 0
-1559 1303 0
1559 -285 -1303 0
-1671 -275 0
-1671 1639 0
1671 275 -1639 0
-1735 -276 0
-1735 1671 0
1735 276 -1671 0
-1991 277 0
-1991 1735 0
1991 -277 -1735 0
-2103 -267 0
-2103 2071 0
2103 267 -2071 0
-2167 -268 0
-2167 2103 0
2167 268 -2103 0
-2423 269 0
-2423 2167 0
2423 -269 -2167 0
-2535 -259 0
-2535 2503 0
2535 259 -2503 0
-2599 -260 0
-2599 2535 0
2599 260 -2535 0
-2855 261 0
-2855 2599 0
2855 -261 -2599 0
-2967 -251 0
-2967 2935 0
2967 251 -2935 0
-3031 -252 0
-3031 2967 0
3031 252 -2967 0
-3287 253 0
-3287 3031 0
3287 -253 -3031 0
-3399 -243 0
-3399 3367 0
3399 243 -3367 0
-3463 -244 0
-3463 3399 0
3463 244 -3399 0
-3719 245 0
-3719 3463 0
3719 -245 -3463 0
-3831 -235 0
-3831 3799 0
3831 235 -3799 0
-3895 -236 0
-3895 3831 0
3895 236 -3831 0
-4151 237 0
-4151 3895 0
4151 -237 -3895 0
-4263 -227 0
-4263 4231 0
4263 227 -4231 0
-4327 -228 0
-4327 4263 0
4327 228 -4263 0
-4583 229 0
-4583 4327 0
4583 -229 -4327 0
-4695 -219 0
-4695 4663 0
4695 219 -4663 0
-4759 -220 0
-4759 4695 0
4759 220 -4695 0
-5015 221 0
-5015 4759 0
5015 -221 -4759 0
-5127 -211 0
-5127 5095 0
5127 211 -5095 0
-5191 -212 0
-5191 5127 0
5191 212 -5127 0
-5447 213 0
-5447 5191 0
5447 -213 -5191 0
-5559 -203 0
-5559 5527 0
5559 203 -5527 0
-5623 -204 0
-5623 5559 0
5623 204 -5559 0
-5879 205 0
-5879 5623 0
5879 -205 -5623 0
-5991 -195 0
-5991 5959 0
5991 195 -5959 0
-6055 -196 0
-6055 5991 0
6055 196 -5991 0
-6311 197 0
-6311 6055 0
6311 -197 -6055 0
-6423 -187 0
-6423 6391 0
6423 187 -6391 0
-6487 -188 0
-6487 6423 0
6487 188 -6423 0
-6743 189 0
-6743 6487 0
6743 -189 -6487 0
-6923 -6311 0
-6923 -6743 0
6923 6311 6743 0
-7103 -5879 0
-7103 6923 0
7103 5879 -6923 0
-7283 -5447 0
-7283 7103 0
7283 5447 -7103 0
-7463 -5015 0
-7463 7283 0
7463 5015 -7283 0
-7643 -4583 0
-7643 7463 0
7643 4583 -7463 0
-7823 -4151 0
-7823 7643 0
7823 4151 -7643 0
-8003 -3719 0
-8003 7823 0
8003 3719 -7823 0
-8183 -3287 0
-8183 8003 0
8183 3287 -8003 0
-8363 -2855 0
-8363 8183 0
8363 2855 -8183 0
-8543 -2423 0
-8543 8363 0
8543 2423 -8363 0
-8723 -1991 0
-8723 8543 0
8723 1991 -8543 0
-8903 -1559 0
-8903 8723 0
8903 1559 -8723 0
-9083 -1127 0
-9083 8903 0
9083 1127 -8903 0
-9263 -695 0
-9263 9083 0
9263 695 -9083 0
-9725 143 0
-9725 9263 0
9725 -143 -9263 0
-9726 -143 0
-9726 -9263 0
9726 143 9263 0
-9727 -9725 0
-9727 -9726 0
9727 9725 9726 0
142 -52152 0
-142 52152 0
-374 -299 0
-374 342 0
374 299 -342 0
-438 -300 0
-438 374 0
438 300 -374 0
-694 301 0
-694 438 0
694 -301 -438 0
-806 -291 0
-806 774 0
806 291 -774 0
-870 -292 0
-870 806 0
870 292 -806 0
-1126 293 0
-1126 870 0
1126 -293 -870 0
-1238 -283 0
-1238 1206 0
1238 283 -1206 0
-1302 -284 0
-1302 1238 0
1302 284 -1238 0
-1558 285 0
-1558 1302 0
1558 -285 -1302 0
-1670 -275 0
-1670 1638 0
1670 275 -1638 0
-1734 -276 0
-1734 1670 0
1734 276 -1670 0
-1990 277 0
-1990 1734 0
1990 -277 -1734 0
-2102 -267 0
-2102 2070 0
2102 267 -2070 0
-2166 -268 0
-2166 2102 0
2166 268 -2102 0
-2422 269 0
-2422 2166 0
2422 -269 -2166 0
-2534 -259 0
-2534 2502 0
2534 259 -2502 0
-2598 -260 0
-2598 2534 0
2598 260 -2534 0
-2854 261 0
-2854 2598 0
2854 -261 -2598 0
-2966 -251 0
-2966 2934 0
2966 251 -2934 0
-3030 -252 0
-3030 2966 0
3030 252 -2966 0
-3286 253 0
-3286 3030 0
3286 -253 -3030 0
-3398 -243 0
-3398 3366 0
3398 243 -3366 0
-3462 -244 0
-3462 3398 0
3462 244 -3398 0
-3718 245 0
-3718 3462 0
3718 -245 -3462 0
-3830 -235 0
-3830 3798 0
3830 235 -3798 0
-3894 -236 0
-3894 3830 0
3894 236 -3830 0
-4150 237 0
-4150 3894 0
4150 -237 -3894 0
-4262 -227 0
-4262 4230 0
4262 227 -4230 0
-4326 -228 0
-4326 4262 0
4326 228 -4262 0
-4582 229 0
-4582 4326 0
4582 -229 -4326 0
-4694 -219 0
-4694 4662 0
4694 219 -4662 0
-4758 -220 0
-4758 4694 0
4758 220 -4694 0
-5014 221 0
-5014 4758 0
5014 -221 -4758 0
-5126 -211 0
-5126 5094 0
5126 211 -5094 0
-5190 -212 0
-5190 5126 0
5190 212 -5126 0
-5446 213 0
-5446 5190 0
5446 -213 -5190 0
-5558 -203 0
-5558 5526 0
5558 203 -5526 0
-5622 -204 0
-5622 5558 0
5622 204 -5558 0
-5878 205 0
-5878 5622 0
5878 -205 -5622 0
-5990 -195 0
-5990 5958 0
5990 195 -5958 0
-6054 -196 0
-6054 5990 0
6054 196 -5990 0
-6310 197 0
-6310 6054 0
6310 -197 -6054 0
-6422 -187 0
-6422 6390 0
6422 187 -6390 0
-6486 -188 0
-6486 6422 0
6486 188 -6422 0
-6742 189 0
-6742 6486 0
6742 -189 -6486 0
-6922 -6310 0
-6922 -6742 0
6922 6310 6742 0
-7102 -5878 0
-7102 6922 0
7102 5878 -6922 0
-7282 -5446 0
-7282 7102 0
7282 5446 -7102 0
-7462 -5014 0
-7462 7282 0
7462 5014 -7282 0
-7642 -4582 0
-7642 7462 0
7642 4582 -7462 0
-7822 -4150 0
-7822 7642 0
7822 4150 -7642 0
-8002 -3718 0
-8002 7822 0
8002 3718 -7822 0
-8182 -3286 0
-8182 8002 0
8182 3286 -8002 0
-8362 -2854 0
-8362 8182 0
8362 2854 -8182 0
-8542 -2422 0
-8542 8362 0
8542 2422 -8362 0
-8722 -1990 0
-8722 8542 0
8722 1990 -8542 0
-8902 -1558 0
-8902 8722 0
8902 1558 -8722 0
-9082 -1126 0
-9082 8902 0
9082 1126 -8902 0
-9262 -694 0
-9262 9082 0
9262 694 -9082 0
-9722 142 0
-9722 9262 0
9722 -142 -9262 0
-9723 -142 0
-9723 -9262 0
9723 142 9262 0
-9724 -9722 0
-9724 -9723 0
9724 9722 9723 0
141 -52151 0
-141 52151 0
-373 -299 0
-373 341 0
373 299 -341 0
-437 -300 0
-437 373 0
437 300 -373 0
-693 301 0
-693 437 0
693 -301 -437 0
-805 -291 0
-805 773 0
805 291 -773 0
-869 -292 0
-869 805 0
869 292 -805 0
-1125 293 0
-1125 869 0
1125 -293 -869 0
-1237 -283 0
-1237 1205 0
1237 283 -1205 0
-1301 -284 0
-1301 1237 0
1301 284 -1237 0
-1557 285 0
-1557 1301 0
1557 -285 -1301 0
-1669 -275 0
-1669 1637 0
1669 275 -1637 0
-1733 -276 0
-1733 1669 0
1733 276 -1669 0
-1989 277 0
-1989 1733 0
1989 -277 -1733 0
-2101 -267 0
-2101 2069 0
2101 267 -2069 0
-2165 -268 0
-2165 2101 0
2165 268 -2101 0
-2421 269 0
-2421 2165 0
2421 -269 -2165 0
-2533 -259 0
-2533 2501 0
2533 259 -2501 0
-2597 -260 0
-2597 2533 0
2597 260 -2533 0
-2853 261 0
-2853 2597 0
2853 -261 -2597 0
-2965 -251 0
-2965 2933 0
2965 251 -2933 0
-3029 -252 0
-3029 2965 0
3029 252 -2965 0
-3285 253 0
-3285 3029 0
3285 -253 -3029 0
-3397 -243 0
-3397 3365 0
3397 243 -3365 0
-3461 -244 0
-3461 3397 0
3461 244 -3397 0
-3717 245 0
-3717 3461 0
3717 -245 -3461 0
-3829 -235 0
-3829 3797 0
3829 235 -3797 0
-3893 -236 0
-3893 3829 0
3893 236 -3829 0
-4149 237 0
-4149 3893 0
4149 -237 -3893 0
-4261 -227 0
-4261 4229 0
4261 227 -4229 0
-4325 -228 0
-4325 4261 0
4325 228 -4261 0
-4581 229 0
-4581 4325 0
4581 -229 -4325 0
-4693 -219 0
-4693 4661 0
4693 219 -4661 0
-4757 -220 0
-4757 4693 0
4757 220 -4693 0
-5013 221 0
-5013 4757 0
5013 -221 -4757 0
-5125 -211 0
-5125 5093 0
5125 211 -5093 0
-5189 -212 0
-5189 5125 0
5189 212 -5125 0
-5445 213 0
-5445 5189 0
5445 -213 -5189 0
-5557 -203 0
-5557 5525 0
5557 203 -5525 0
-5621 -204 0
-5621 5557 0
5621 204 -5557 0
-5877 205 0
-5877 5621 0
5877 -205 -5621 0
-5989 -195 0
-5989 5957 0
5989 195 -5957 0
-6053 -196 0
-6053 5989 0
6053 196 -5989 0
-6309 197 0
-6309 6053 0
6309 -197 -6053 0
-6421 -187 0
-6421 6389 0
6421 187 -6389 0
-6485 -188 0
-6485 6421 0
6485 188 -6421 0
-6741 189 0
-6741 6485 0
6741 -189 -6485 0
-6921 -6309 0
-6921 -6741 0
6921 6309 6741 0
-7101 -5877 0
-7101 6921 0
7101 5877 -6921 0
-7281 -5445 0
-7281 7101 0
7281 5445 -7101 0
-7461 -5013 0
-7461 7281 0
7461 5013 -7281 0
-7641 -4581 0
-7641 7461 0
7641 4581 -7461 0
-7821 -4149 0
-7821 7641 0
7821 4149 -7641 0
-8001 -3717 0
-8001 7821 0
8001 3717 -7821 0
-8181 -3285 0
-8181 8001 0
8181 3285 -8001 0
-8361 -2853 0
-8361 8181 0
8361 2853 -8181 0
-8541 -2421 0
-8541 8361 0
8541 2421 -8361 0
-8721 -1989 0
-8721 8541 0
8721 1989 -8541 0
-8901 -1557 0
-8901 8721 0
8901 1557 -8721 0
-9081 -1125 0
-9081 8901 0
9081 1125 -8901 0
-9261 -693 0
-9261 9081 0
9261 693 -9081 0
-9719 141 0
-9719 9261 0
9719 -141 -9261 0
-9720 -141 0
-9720 -9261 0
9720 141 9261 0
-9721 -9719 0
-9721 -9720 0
9721 9719 9720 0
140 -52150 0
-140 52150 0
-372 -299 0
-372 340 0
372 299 -340 0
-436 -300 0
-436 372 0
436 300 -372 0
-692 301 0
-692 436 0
692 -301 -436 0
-804 -291 0
-804 772 0
804 291 -772 0
-868 -292 0
-868 804 0
868 292 -804 0
-1124 293 0
-1124 868 0
1124 -293 -868 0
-1236 -283 0
-1236 1204 0
1236 283 -1204 0
-1300 -284 0
-1300 1236 0
1300 284 -1236 0
-1556 285 0
-1556 1300 0
1556 -285 -1300 0
-1668 -275 0
-1668 1636 0
1668 275 -1636 0
-1732 -276 0
-1732 1668 0
1732 276 -1668 0
-1988 277 0
-1988 1732 0
1988 -277 -1732 0
-2100 -267 0
-2100 2068 0
2100 267 -2068 0
-2164 -268 0
-2164 2100 0
2164 268 -2100 0
-2420 269 0
-2420 2164 0
2420 -269 -2164 0
-2532 -259 0
-2532 2500 0
2532 259 -2500 0
-2596 -260 0
-2596 2532 0
2596 260 -2532 0
-2852 261 0
-2852 2596 0
2852 -261 -2596 0
-2964 -251 0
-2964 2932 0
2964 251 -2932 0
-3028 -252 0
-3028 2964 0
3028 252 -2964 0
-3284 253 0
-3284 3028 0
3284 -253 -3028 0
-3396 -243 0
-3396 3364 0
3396 243 -3364 0
-3460 -244 0
-3460 3396 0
3460 244 -3396 0
-3716 245 0
-3716 3460 0
3716 -245 -3460 0
-3828 -235 0
-3828 3796 0
3828 235 -3796 0
-3892 -236 0
-3892 3828 0
3892 236 -3828 0
-4148 237 0
-4148 3892 0
4148 -237 -3892 0
-4260 -227 0
-4260 4228 0
4260 227 -4228 0
-4324 -228 0
-4324 4260 0
4324 228 -4260 0
-4580 229 0
-4580 4324 0
4580 -229 -4324 0
-4692 -219 0
-4692 4660 0
4692 219 -4660 0
-4756 -220 0
-4756 4692 0
4756 220 -4692 0
-5012 221 0
-5012 4756 0
5012 -221 -4756 0
-5124 -211 0
-5124 5092 0
5124 211 -5092 0
-5188 -212 0
-5188 5124 0
5188 212 -5124 0
-5444 213 0
-5444 5188 0
5444 -213 -5188 0
-5556 -203 0
-5556 5524 0
5556 203 -5524 0
-5620 -204 0
-5620 5556 0
5620 204 -5556 0
-5876 205 0
-5876 5620 0
5876 -205 -5620 0
-5988 -195 0
-5988 5956 0
5988 195 -5956 0
-6052 -196 0
-6052 5988 0
6052 196 -5988 0
-6308 197 0
-6308 6052 0
6308 -197 -6052 0
-6420 -187 0
-6420 6388 0
6420 187 -6388 0
-6484 -188 0
-6484 6420 0
6484 188 -6420 0
-6740 189 0
-6740 6484 0
6740 -189 -6484 0
-6920 -6308 0
-6920 -6740 0
6920 6308 6740 0
-7100 -5876 0
-7100 6920 0
7100 5876 -6920 0
-7280 -5444 0
-7280 7100 0
7280 5444 -7100 0
-7460 -5012 0
-7460 7280 0
7460 5012 -7280 0
-7640 -4580 0
-7640 7460 0
7640 4580 -7460 0
-7820 -4148 0
-7820 7640 0
7820 4148 -7640 0
-8000 -3716 0
-8000 7820 0
8000 3716 -7820 0
-8180 -3284 0
-8180 8000 0
8180 3284 -8000 0
-8360 -2852 0
-8360 8180 0
8360 2852 -8180 0
-8540 -2420 0
-8540 8360 0
8540 2420 -8360 0
-8720 -1988 0
-8720 8540 0
8720 1988 -8540 0
-8900 -1556 0
-8900 8720 0
8900 1556 -8720 0
-9080 -1124 0
-9080 8900 0
9080 1124 -8900 0
-9260 -692 0
-9260 9080 0
9260 692 -9080 0
-9716 140 0
-9716 9260 0
9716 -140 -9260 0
-9717 -140 0
-9717 -9260 0
9717 140 9260 0
-9718 -9716 0
-9718 -9717 0
9718 9716 9717 0
139 -52149 0
-139 52149 0
-371 -299 0
-371 339 0
371 299 -339 0
-435 -300 0
-435 371 0
435 300 -371 0
-691 301 0
-691 435 0
691 -301 -435 0
-803 -291 0
-803 771 0
803 291 -771 0
-867 -292 0
-867 803 0
867 292 -803 0
-1123 293 0
-1123 867 0
1123 -293 -867 0
-1235 -283 0
-1235 1203 0
1235 283 -1203 0
-1299 -284 0
-1299 1235 0
1299 284 -1235 0
-1555 285 0
-1555 1299 0
1555 -285 -1299 0
-1667 -275 0
-1667 1635 0
1667 275 -1635 0
-1731 -276 0
-1731 1667 0
1731 276 -1667 0
-1987 277 0
-1987 1731 0
1987 -277 -1731 0
-2099 -267 0
-2099 2067 0
2099 267 -2067 0
-2163 -268 0
-2163 2099 0
2163 268 -2099 0
-2419 269 0
-2419 2163 0
2419 -269 -2163 0
-2531 -259 0
-2531 2499 0
2531 259 -2499 0
-2595 -260 0
-2595 2531 0
2595 260 -2531 0
-2851 261 0
-2851 2595 0
2851 -261 -2595 0
-2963 -251 0
-2963 2931 0
2963 251 -2931 0
-3027 -252 0
-3027 2963 0
3027 252 -2963 0
-3283 253 0
-3283 3027 0
3283 -253 -3027 0
-3395 -243 0
-3395 3363 0
3395 243 -3363 0
-3459 -244 0
-3459 3395 0
3459 244 -3395 0
-3715 245 0
-3715 3459 0
3715 -245 -3459 0
-3827 -235 0
-3827 3795 0
3827 235 -3795 0
-3891 -236 0
-3891 3827 0
3891 236 -3827 0
-4147 237 0
-4147 3891 0
4147 -237 -3891 0
-4259 -227 0
-4259 4227 0
4259 227 -4227 0
-4323 -228 0
-4323 4259 0
4323 228 -4259 0
-4579 229 0
-4579 4323 0
4579 -229 -4323 0
-4691 -219 0
-4691 4659 0
4691 219 -4659 0
-4755 -220 0
-4755 4691 0
4755 220 -4691 0
-5011 221 0
-5011 4755 0
5011 -221 -4755 0
-5123 -211 0
-5123 5091 0
5123 211 -5091 0
-5187 -212 0
-5187 5123 0
5187 212 -5123 0
-5443 213 0
-5443 5187 0
5443 -213 -5187 0
-5555 -203 0
-5555 5523 0
5555 203 -5523 0
-5619 -204 0
-5619 5555 0
5619 204 -5555 0
-5875 205 0
-5875 5619 0
5875 -205 -5619 0
-5987 -195 0
-5987 5955 0
5987 195 -5955 0
-6051 -196 0
-6051 5987 0
6051 196 -5987 0
-6307 197 0
-6307 6051 0
6307 -197 -6051 0
-6419 -187 0
-6419 6387 0
6419 187 -6387 0
-6483 -188 0
-6483 6419 0
6483 188 -6419 0
-6739 189 0
-6739 6483 0
6739 -189 -6483 0
-6919 -6307 0
-6919 -6739 0
6919 6307 6739 0
-7099 -5875 0
-7099 6919 0
7099 5875 -6919 0
-7279 -5443 0
-7279 7099 0
7279 5443 -7099 0
-7459 -5011 0
-7459 7279 0
7459 5011 -7279 0
-7639 -4579 0
-7639 7459 0
7639 4579 -7459 0
-7819 -4147 0
-7819 7639 0
7819 4147 -7639 0
-7999 -3715 0
-7999 7819 0
7999 3715 -7819 0
-8179 -3283 0
-8179 7999 0
8179 3283 -7999 0
-8359 -2851 0
-8359 8179 0
8359 2851 -8179 0
-8539 -2419 0
-8539 8359 0
8539 2419 -8359 0
-8719 -1987 0
-8719 8539 0
8719 1987 -8539 0
-8899 -1555 0
-8899 8719 0
8899 1555 -8719 0
-9079 -1123 0
-9079 8899 0
9079 1123 -8899 0
-9259 -691 0
-9259 9079 0
9259 691 -9079 0
-9713 139 0
-9713 9259 0
9713 -139 -9259 0
-9714 -139 0
-9714 -9259 0
9714 139 9259 0
-9715 -9713 0
-9715 -9714 0
9715 9713 9714 0
138 -52148 0
-138 52148 0
-370 -299 0
-370 338 0
370 299 -338 0
-434 -300 0
-434 370 0
434 300 -370 0
-690 301 0
-690 434 0
690 -301 -434 0
-802 -291 0
-802 770 0
802 291 -770 0
-866 -292 0
-866 802 0
866 292 -802 0
-1122 293 0
-1122 866 0
1122 -293 -866 0
-1234 -283 0
-1234 1202 0
1234 283 -1202 0
-1298 -284 0
-1298 1234 0
1298 284 -1234 0
-1554 285 0
-1554 1298 0
1554 -285 -1298 0
-1666 -275 0
-1666 1634 0
1666 275 -1634 0
-1730 -276 0
-1730 1666 0
1730 276 -1666 0
-1986 277 0
-1986 1730 0
1986 -277 -1730 0
-2098 -267 0
-2098 2066 0
2098 267 -2066 0
-2162 -268 0
-2162 2098 0
2162 268 -2098 0
-2418 269 0
-2418 2162 0
2418 -269 -2162 0
-2530 -259 0
-2530 2498 0
2530 259 -2498 0
-2594 -260 0
-2594 2530 0
2594 260 -2530 0
-2850 261 0
-2850 2594 0
2850 -261 -2594 0
-2962 -251 0
-2962 2930 0
2962 251 -2930 0
-3026 -252 0
-3026 2962 0
3026 252 -2962 0
-3282 253 0
-3282 3026 0
3282 -253 -3026 0
-3394 -243 0
-3394 3362 0
3394 243 -3362 0
-3458 -244 0
-3458 3394 0
3458 244 -3394 0
-3714 245 0
-3714 3458 0
3714 -245 -3458 0
-3826 -235 0
-3826 3794 0
3826 235 -3794 0
-3890 -236 0
-3890 3826 0
3890 236 -3826 0
-4146 237 0
-4146 3890 0
4146 -237 -3890 0
-4258 -227 0
-4258 4226 0
4258 227 -4226 0
-4322 -228 0
-4322 4258 0
4322 228 -4258 0
-4578 229 0
-4578 4322 0
4578 -229 -4322 0
-4690 -219 0
-4690 4658 0
4690 219 -4658 0
-4754 -220 0
-4754 4690 0
4754 220 -4690 0
-5010 221 0
-5010 4754 0
5010 -221 -4754 0
-5122 -211 0
-5122 5090 0
5122 211 -5090 0
-5186 -212 0
-5186 5122 0
5186 212 -5122 0
-5442 213 0
-5442 5186 0
5442 -213 -5186 0
-5554 -203 0
-5554 5522 0
5554 203 -5522 0
-5618 -204 0
-5618 5554 0
5618 204 -5554 0
-5874 205 0
-5874 5618 0
5874 -205 -5618 0
-5986 -195 0
-5986 5954 0
5986 195 -5954 0
-6050 -196 0
-6050 5986 0
6050 196 -5986 0
-6306 197 0
-6306 6050 0
6306 -197 -6050 0
-6418 -187 0
-6418 6386 0
6418 187 -6386 0
-6482 -188 0
-6482 6418 0
6482 188 -6418 0
-6738 189 0
-6738 6482 0
6738 -189 -6482 0
-6918 -6306 0
-6918 -6738 0
6918 6306 6738 0
-7098 -5874 0
-7098 6918 0
7098 5874 -6918 0
-7278 -5442 0
-7278 7098 0
7278 5442 -7098 0
-7458 -5010 0
-7458 7278 0
7458 5010 -7278 0
-7638 -4578 0
-7638 7458 0
7638 4578 -7458 0
-7818 -4146 0
-7818 7638 0
7818 4146 -7638 0
-7998 -3714 0
-7998 7818 0
7998 3714 -7818 0
-8178 -3282 0
-8178 7998 0
8178 3282 -7998 0
-8358 -2850 0
-8358 8178 0
8358 2850 -8178 0
-8538 -2418 0
-8538 8358 0
8538 2418 -8358 0
-8718 -1986 0
-8718 8538 0
8718 1986 -8538 0
-8898 -1554 0
-8898 8718 0
8898 1554 -8718 0
-9078 -1122 0
-9078 8898 0
9078 1122 -8898 0
-9258 -690 0
-9258 9078 0
9258 690 -9078 0
-9710 138 0
-9710 9258 0
9710 -138 -9258 0
-9711 -138 0
-9711 -9258 0
9711 138 9258 0
-9712 -9710 0
-9712 -9711 0
9712 9710 9711 0
137 -52147 0
-137 52147 0
-369 -299 0
-369 337 0
369 299 -337 0
-433 -300 0
-433 369 0
433 300 -369 0
-689 301 0
-689 433 0
689 -301 -433 0
-801 -291 0
-801 769 0
801 291 -769 0
-865 -292 0
-865 801 0
865 292 -801 0
-1121 293 0
-1121 865 0
1121 -293 -865 0
-1233 -283 0
-1233 1201 0
1233 283 -1201 0
-1297 -284 0
-1297 1233 0
1297 284 -1233 0
-1553 285 0
-1553 1297 0
1553 -285 -1297 0
-1665 -275 0
-1665 1633 0
1665 275 -1633 0
-1729 -276 0
-1729 1665 0
1729 276 -1665 0
-1985 277 0
-1985 1729 0
1985 -277 -1729 0
-2097 -267 0
-2097 2065 0
2097 267 -2065 0
-2161 -268 0
-2161 2097 0
2161 268 -2097 0
-2417 269 0
-2417 2161 0
2417 -269 -2161 0
-2529 -259 0
-2529 2497 0
2529 259 -2497 0
-2593 -260 0
-2593 2529 0
2593 260 -2529 0
-2849 261 0
-2849 2593 0
2849 -261 -2593 0
-2961 -251 0
-2961 2929 0
2961 251 -2929 0
-3025 -252 0
-3025 2961 0
3025 252 -2961 0
-3281 253 0
-3281 3025 0
3281 -253 -3025 0
-3393 -243 0
-3393 3361 0
3393 243 -3361 0
-3457 -244 0
-3457 3393 0
3457 244 -3393 0
-3713 245 0
-3713 3457 0
3713 -245 -3457 0
-3825 -235 0
-3825 3793 0
3825 235 -3793 0
-3889 -236 0
-3889 3825 0
3889 236 -3825 0
-4145 237 0
-4145 3889 0
4145 -237 -3889 0
-4257 -227 0
-4257 4225 0
4257 227 -4225 0
-4321 -228 0
-4321 4257 0
4321 228 -4257 0
-4577 229 0
-4577 4321 0
4577 -229 -4321 0
-4689 -219 0
-4689 4657 0
4689 219 -4657 0
-4753 -220 0
-4753 4689 0
4753 220 -4689 0
-5009 221 0
-5009 4753 0
5009 -221 -4753 0
-5121 -211 0
-5121 5089 0
5121 211 -5089 0
-5185 -212 0
-5185 5121 0
5185 212 -5121 0
-5441 213 0
-5441 5185 0
5441 -213 -5185 0
-5553 -203 0
-5553 5521 0
5553 203 -5521 0
-5617 -204 0
-5617 5553 0
5617 204 -5553 0
-5873 205 0
-5873 5617 0
5873 -205 -5617 0
-5985 -195 0
-5985 5953 0
5985 195 -5953 0
-6049 -196 0
-6049 5985 0
6049 196 -5985 0
-6305 197 0
-6305 6049 0
6305 -197 -6049 0
-6417 -187 0
-6417 6385 0
6417 187 -6385 0
-6481 -188 0
-6481 6417 0
6481 188 -6417 0
-6737 189 0
-6737 6481 0
6737 -189 -6481 0
-6917 -6305 0
-6917 -6737 0
6917 6305 6737 0
-7097 -5873 0
-7097 6917 0
7097 5873 -6917 0
-7277 -5441 0
-7277 7097 0
7277 5441 -7097 0
-7457 -5009 0
-7457 7277 0
7457 5009 -7277 0
-7637 -4577 0
-7637 7457 0
7637 4577 -7457 0
-7817 -4145 0
-7817 7637 0
7817 4145 -7637 0
-7997 -3713 0
-7997 7817 0
7997 3713 -7817 0
-8177 -3281 0
-8177 7997 0
8177 3281 -7997 0
-8357 -2849 0
-8357 8177 0
8357 2849 -8177 0
-8537 -2417 0
-8537 8357 0
8537 2417 -8357 0
-8717 -1985 0
-8717 8537 0
8717 1985 -8537 0
-8897 -1553 0
-8897 8717 0
8897 1553 -8717 0
-9077 -1121 0
-9077 8897 0
9077 1121 -8897 0
-9257 -689 0
-9257 9077 0
9257 689 -9077 0
-9707 137 0
-9707 9257 0
9707 -137 -9257 0
-9708 -137 0
-9708 -9257 0
9708 137 9257 0
-9709 -9707 0
-9709 -9708 0
9709 9707 9708 0
136 -52146 0
-136 52146 0
-368 -299 0
-368 336 0
368 299 -336 0
-432 -300 0
-432 368 0
432 300 -368 0
-688 301 0
-688 432 0
688 -301 -432 0
-800 -291 0
-800 768 0
800 291 -768 0
-864 -292 0
-864 800 0
864 292 -800 0
-1120 293 0
-1120 864 0
1120 -293 -864 0
-1232 -283 0
-1232 1200 0
1232 283 -1200 0
-1296 -284 0
-1296 1232 0
1296 284 -1232 0
-1552 285 0
-1552 1296 0
1552 -285 -1296 0
-1664 -275 0
-1664 1632 0
1664 275 -1632 0
-1728 -276 0
-1728 1664 0
1728 276 -1664 0
-1984 277 0
-1984 1728 0
1984 -277 -1728 0
-2096 -267 0
-2096 2064 0
2096 267 -2064 0
-2160 -268 0
-2160 2096 0
2160 268 -2096 0
-2416 269 0
-2416 2160 0
2416 -269 -2160 0
-2528 -259 0
-2528 2496 0
2528 259 -2496 0
-2592 -260 0
-2592 2528 0
2592 260 -2528 0
-2848 261 0
-2848 2592 0
2848 -261 -2592 0
-2960 -251 0
-2960 2928 0
2960 251 -2928 0
-3024 -252 0
-3024 2960 0
3024 252 -2960 0
-3280 253 0
-3280 3024 0
3280 -253 -3024 0
-3392 -243 0
-3392 3360 0
3392 243 -3360 0
-3456 -244 0
-3456 3392 0
3456 244 -3392 0
-3712 245 0
-3712 3456 0
3712 -245 -3456 0
-3824 -235 0
-3824 3792 0
3824 235 -3792 0
-3888 -236 0
-3888 3824 0
3888 236 -3824 0
-4144 237 0
-4144 3888 0
4144 -237 -3888 0
-4256 -227 0
-4256 4224 0
4256 227 -4224 0
-4320 -228 0
-4320 4256 0
4320 228 -4256 0
-4576 229 0
-4576 4320 0
4576 -229 -4320 0
-4688 -219 0
-4688 4656 0
4688 219 -4656 0
-4752 -220 0
-4752 4688 0
4752 220 -4688 0
-5008 221 0
-5008 4752 0
5008 -221 -4752 0
-5120 -211 0
-5120 5088 0
5120 211 -5088 0
-5184 -212 0
-5184 5120 0
5184 212 -5120 0
-5440 213 0
-5440 5184 0
5440 -213 -5184 0
-5552 -203 0
-5552 5520 0
5552 203 -5520 0
-5616 -204 0
-5616 5552 0
5616 204 -5552 0
-5872 205 0
-5872 5616 0
5872 -205 -5616 0
-5984 -195 0
-5984 5952 0
5984 195 -5952 0
-6048 -196 0
-6048 5984 0
6048 196 -5984 0
-6304 197 0
-6304 6048 0
6304 -197 -6048 0
-6416 -187 0
-6416 6384 0
6416 187 -6384 0
-6480 -188 0
-6480 6416 0
6480 188 -6416 0
-6736 189 0
-6736 6480 0
6736 -189 -6480 0
-6916 -6304 0
-6916 -6736 0
6916 6304 6736 0
-7096 -5872 0
-7096 6916 0
7096 5872 -6916 0
-7276 -5440 0
-7276 7096 0
7276 5440 -7096 0
-7456 -5008 0
-7456 7276 0
7456 5008 -7276 0
-7636 -4576 0
-7636 7456 0
7636 4576 -7456 0
-7816 -4144 0
-7816 7636 0
7816 4144 -7636 0
-7996 -3712 0
-7996 7816 0
7996 3712 -7816 0
-8176 -3280 0
-8176 7996 0
8176 3280 -7996 0
-8356 -2848 0
-8356 8176 0
8356 2848 -8176 0
-8536 -2416 0
-8536 8356 0
8536 2416 -8356 0
-8716 -1984 0
-8716 8536 0
8716 1984 -8536 0
-8896 -1552 0
-8896 8716 0
8896 1552 -8716 0
-9076 -1120 0
-9076 8896 0
9076 1120 -8896 0
-9256 -688 0
-9256 9076 0
9256 688 -9076 0
-9704 136 0
-9704 9256 0
9704 -136 -9256 0
-9705 -136 0
-9705 -9256 0
9705 136 9256 0
-9706 -9704 0
-9706 -9705 0
9706 9704 9705 0
135 -52145 0
-135 52145 0
-367 -299 0
-367 335 0
367 299 -335 0
-431 -300 0
-431 367 0
431 300 -367 0
-687 301 0
-687 431 0
687 -301 -431 0
-799 -291 0
-799 767 0
799 291 -767 0
-863 -292 0
-863 799 0
863 292 -799 0
-1119 293 0
-1119 863 0
1119 -293 -863 0
-1231 -283 0
-1231 1199 0
1231 283 -1199 0
-1295 -284 0
-1295 1231 0
1295 284 -1231 0
-1551 285 0
-1551 1295 0
1551 -285 -1295 0
-1663 -275 0
-1663 1631 0
1663 275 -1631 0
-1727 -276 0
-1727 1663 0
1727 276 -1663 0
-1983 277 0
-1983 1727 0
1983 -277 -1727 0
-2095 -267 0
-2095 2063 0
2095 267 -2063 0
-2159 -268 0
-2159 2095 0
2159 268 -2095 0
-2415 269 0
-2415 2159 0
2415 -269 -2159 0
-2527 -259 0
-2527 2495 0
2527 259 -2495 0
-2591 -260 0
-2591 2527 0
2591 260 -2527 0
-2847 261 0
-2847 2591 0
2847 -261 -2591 0
-2959 -251 0
-2959 2927 0
2959 251 -2927 0
-3023 -252 0
-3023 2959 0
3023 252 -2959 0
-3279 253 0
-3279 3023 0
3279 -253 -3023 0
-3391 -243 0
-3391 3359 0
3391 243 -3359 0
-3455 -244 0
-3455 3391 0
3455 244 -3391 0
-3711 245 0
-3711 3455 0
3711 -245 -3455 0
-3823 -235 0
-3823 3791 0
3823 235 -3791 0
-3887 -236 0
-3887 3823 0
3887 236 -3823 0
-4143 237 0
-4143 3887 0
4143 -237 -3887 0
-4255 -227 0
-4255 4223 0
4255 227 -4223 0
-4319 -228 0
-4319 4255 0
4319 228 -4255 0
-4575 229 0
-4575 4319 0
4575 -229 -4319 0
-4687 -219 0
-4687 4655 0
4687 219 -4655 0
-4751 -220 0
-4751 4687 0
4751 220 -4687 0
-5007 221 0
-5007 4751 0
5007 -221 -4751 0
-5119 -211 0
-5119 5087 0
5119 211 -5087 0
-5183 -212 0
-5183 5119 0
5183 212 -5119 0
-5439 213 0
-5439 5183 0
5439 -213 -5183 0
-5551 -203 0
-5551 5519 0
5551 203 -5519 0
-5615 -204 0
-5615 5551 0
5615 204 -5551 0
-5871 205 0
-5871 5615 0
5871 -205 -5615 0
-5983 -195 0
-5983 5951 0
5983 195 -5951 0
-6047 -196 0
-6047 5983 0
6047 196 -5983 0
-6303 197 0
-6303 6047 0
6303 -197 -6047 0
-6415 -187 0
-6415 6383 0
6415 187 -6383 0
-6479 -188 0
-6479 6415 0
6479 188 -6415 0
-6735 189 0
-6735 6479 0
6735 -189 -6479 0
-6915 -6303 0
-6915 -6735 0
6915 6303 6735 0
-7095 -5871 0
-7095 6915 0
7095 5871 -6915 0
-7275 -5439 0
-7275 7095 0
7275 5439 -7095 0
-7455 -5007 0
-7455 7275 0
7455 5007 -7275 0
-7635 -4575 0
-7635 7455 0
7635 4575 -7455 0
-7815 -4143 0
-7815 7635 0
7815 4143 -7635 0
-7995 -3711 0
-7995 7815 0
7995 3711 -7815 0
-8175 -3279 0
-8175 7995 0
8175 3279 -7995 0
-8355 -2847 0
-8355 8175 0
8355 2847 -8175 0
-8535 -2415 0
-8535 8355 0
8535 2415 -8355 0
-8715 -1983 0
-8715 8535 0
8715 1983 -8535 0
-8895 -1551 0
-8895 8715 0
8895 1551 -8715 0
-9075 -1119 0
-9075 8895 0
9075 1119 -8895 0
-9255 -687 0
-9255 9075 0
9255 687 -9075 0
-9701 135 0
-9701 9255 0
9701 -135 -9255 0
-9702 -135 0
-9702 -9255 0
9702 135 9255 0
-9703 -9701 0
-9703 -9702 0
9703 9701 9702 0
134 -52144 0
-134 52144 0
-366 -299 0
-366 334 0
366 299 -334 0
-430 -300 0
-430 366 0
430 300 -366 0
-686 301 0
-686 430 0
686 -301 -430 0
-798 -291 0
-798 766 0
798 291 -766 0
-862 -292 0
-862 798 0
862 292 -798 0
-1118 293 0
-1118 862 0
1118 -293 -862 0
-1230 -283 0
-1230 1198 0
1230 283 -1198 0
-1294 -284 0
-1294 1230 0
1294 284 -1230 0
-1550 285 0
-1550 1294 0
1550 -285 -1294 0
-1662 -275 0
-1662 1630 0
1662 275 -1630 0
-1726 -276 0
-1726 1662 0
1726 276 -1662 0
-1982 277 0
-1982 1726 0
1982 -277 -1726 0
-2094 -267 0
-2094 2062 0
2094 267 -2062 0
-2158 -268 0
-2158 2094 0
2158 268 -2094 0
-2414 269 0
-2414 2158 0
2414 -269 -2158 0
-2526 -259 0
-2526 2494 0
2526 259 -2494 0
-2590 -260 0
-2590 2526 0
2590 260 -2526 0
-2846 261 0
-2846 2590 0
2846 -261 -2590 0
-2958 -251 0
-2958 2926 0
2958 251 -2926 0
-3022 -252 0
-3022 2958 0
3022 252 -2958 0
-3278 253 0
-3278 3022 0
3278 -253 -3022 0
-3390 -243 0
-3390 3358 0
3390 243 -3358 0
-3454 -244 0
-3454 3390 0
3454 244 -3390 0
-3710 245 0
-3710 3454 0
3710 -245 -3454 0
-3822 -235 0
-3822 3790 0
3822 235 -3790 0
-3886 -236 0
-3886 3822 0
3886 236 -3822 0
-4142 237 0
-4142 3886 0
4142 -237 -3886 0
-4254 -227 0
-4254 4222 0
4254 227 -4222 0
-4318 -228 0
-4318 4254 0
4318 228 -4254 0
-4574 229 0
-4574 4318 0
4574 -229 -4318 0
-4686 -219 0
-4686 4654 0
4686 219 -4654 0
-4750 -220 0
-4750 4686 0
4750 220 -4686 0
-5006 221 0
-5006 4750 0
5006 -221 -4750 0
-5118 -211 0
-5118 5086 0
5118 211 -5086 0
-5182 -212 0
-5182 5118 0
5182 212 -5118 0
-5438 213 0
-5438 5182 0
5438 -213 -5182 0
-5550 -203 0
-5550 5518 0
5550 203 -5518 0
-5614 -204 0
-5614 5550 0
5614 204 -5550 0
-5870 205 0
-5870 5614 0
5870 -205 -5614 0
-5982 -195 0
-5982 5950 0
5982 195 -5950 0
-6046 -196 0
-6046 5982 0
6046 196 -5982 0
-6302 197 0
-6302 6046 0
6302 -197 -6046 0
-6414 -187 0
-6414 6382 0
6414 187 -6382 0
-6478 -188 0
-6478 6414 0
6478 188 -6414 0
-6734 189 0
-6734 6478 0
6734 -189 -6478 0
-6914 -6302 0
-6914 -6734 0
6914 6302 6734 0
-7094 -5870 0
-7094 6914 0
7094 5870 -6914 0
-7274 -5438 0
-7274 7094 0
7274 5438 -7094 0
-7454 -5006 0
-7454 7274 0
7454 5006 -7274 0
-7634 -4574 0
-7634 7454 0
7634 4574 -7454 0
-7814 -4142 0
-7814 7634 0
7814 4142 -7634 0
-7994 -3710 0
-7994 7814 0
7994 3710 -7814 0
-8174 -3278 0
-8174 7994 0
8174 3278 -7994 0
-8354 -2846 0
-8354 8174 0
8354 2846 -8174 0
-8534 -2414 0
-8534 8354 0
8534 2414 -8354 0
-8714 -1982 0
-8714 8534 0
8714 1982 -8534 0
-8894 -1550 0
-8894 8714 0
8894 1550 -8714 0
-9074 -1118 0
-9074 8894 0
9074 1118 -8894 0
-9254 -686 0
-9254 9074 0
9254 686 -9074 0
-9698 134 0
-9698 9254 0
9698 -134 -9254 0
-9699 -134 0
-9699 -9254 0
9699 134 9254 0
-9700 -9698 0
-9700 -9699 0
9700 9698 9699 0
133 -52143 0
-133 52143 0
-365 -299 0
-365 333 0
365 299 -333 0
-429 -300 0
-429 365 0
429 300 -365 0
-685 301 0
-685 429 0
685 -301 -429 0
-797 -291 0
-797 765 0
797 291 -765 0
-861 -292 0
-861 797 0
861 292 -797 0
-1117 293 0
-1117 861 0
1117 -293 -861 0
-1229 -283 0
-1229 1197 0
1229 283 -1197 0
-1293 -284 0
-1293 1229 0
1293 284 -1229 0
-1549 285 0
-1549 1293 0
1549 -285 -1293 0
-1661 -275 0
-1661 1629 0
1661 275 -1629 0
-1725 -276 0
-1725 1661 0
1725 276 -1661 0
-1981 277 0
-1981 1725 0
1981 -277 -1725 0
-2093 -267 0
-2093 2061 0
2093 267 -2061 0
-2157 -268 0
-2157 2093 0
2157 268 -2093 0
-2413 269 0
-2413 2157 0
2413 -269 -2157 0
-2525 -259 0
-2525 2493 0
2525 259 -2493 0
-2589 -260 0
-2589 2525 0
2589 260 -2525 0
-2845 261 0
-2845 2589 0
2845 -261 -2589 0
-2957 -251 0
-2957 2925 0
2957 251 -2925 0
-3021 -252 0
-3021 2957 0
3021 252 -2957 0
-3277 253 0
-3277 3021 0
3277 -253 -3021 0
-3389 -243 0
-3389 3357 0
3389 243 -3357 0
-3453 -244 0
-3453 3389 0
3453 244 -3389 0
-3709 245 0
-3709 3453 0
3709 -245 -3453 0
-3821 -235 0
-3821 3789 0
3821 235 -3789 0
-3885 -236 0
-3885 3821 0
3885 236 -3821 0
-4141 237 0
-4141 3885 0
4141 -237 -3885 0
-4253 -227 0
-4253 4221 0
4253 227 -4221 0
-4317 -228 0
-4317 4253 0
4317 228 -4253 0
-4573 229 0
-4573 4317 0
4573 -229 -4317 0
-4685 -219 0
-4685 4653 0
4685 219 -4653 0
-4749 -220 0
-4749 4685 0
4749 220 -4685 0
-5005 221 0
-5005 4749 0
5005 -221 -4749 0
-5117 -211 0
-5117 5085 0
5117 211 -5085 0
-5181 -212 0
-5181 5117 0
5181 212 -5117 0
-5437 213 0
-5437 5181 0
5437 -213 -5181 0
-5549 -203 0
-5549 5517 0
5549 203 -5517 0
-5613 -204 0
-5613 5549 0
5613 204 -5549 0
-5869 205 0
-5869 5613 0
5869 -205 -5613 0
-5981 -195 0
-5981 5949 0
5981 195 -5949 0
-6045 -196 0
-6045 5981 0
6045 196 -5981 0
-6301 197 0
-6301 6045 0
6301 -197 -6045 0
-6413 -187 0
-6413 6381 0
6413 187 -6381 0
-6477 -188 0
-6477 6413 0
6477 188 -6413 0
-6733 189 0
-6733 6477 0
6733 -189 -6477 0
-6913 -6301 0
-6913 -6733 0
6913 6301 6733 0
-7093 -5869 0
-7093 6913 0
7093 5869 -6913 0
-7273 -5437 0
-7273 7093 0
7273 5437 -7093 0
-7453 -5005 0
-7453 7273 0
7453 5005 -7273 0
-7633 -4573 0
-7633 7453 0
7633 4573 -7453 0
-7813 -4141 0
-7813 7633 0
7813 4141 -7633 0
-7993 -3709 0
-7993 7813 0
7993 3709 -7813 0
-8173 -3277 0
-8173 7993 0
8173 3277 -7993 0
-8353 -2845 0
-8353 8173 0
8353 2845 -8173 0
-8533 -2413 0
-8533 8353 0
8533 2413 -8353 0
-8713 -1981 0
-8713 8533 0
8713 1981 -8533 0
-8893 -1549 0
-8893 8713 0
8893 1549 -8713 0
-9073 -1117 0
-9073 8893 0
9073 1117 -8893 0
-9253 -685 0
-9253 9073 0
9253 685 -9073 0
-9695 133 0
-9695 9253 0
9695 -133 -9253 0
-9696 -133 0
-9696 -9253 0
9696 133 9253 0
-9697 -9695 0
-9697 -9696 0
9697 9695 9696 0
132 -52142 0
-132 52142 0
-364 -299 0
-364 332 0
364 299 -332 0
-428 -300 0
-428 364 0
428 300 -364 0
-684 301 0
-684 428 0
684 -301 -428 0
-796 -291 0
-796 764 0
796 291 -764 0
-860 -292 0
-860 796 0
860 292 -796 0
-1116 293 0
-1116 860 0
1116 -293 -860 0
-1228 -283 0
-1228 1196 0
1228 283 -1196 0
-1292 -284 0
-1292 1228 0
1292 284 -1228 0
-1548 285 0
-1548 1292 0
1548 -285 -1292 0
-1660 -275 0
-1660 1628 0
1660 275 -1628 0
-1724 -276 0
-1724 1660 0
1724 276 -1660 0
-1980 277 0
-1980 1724 0
1980 -277 -1724 0
-2092 -267 0
-2092 2060 0
2092 267 -2060 0
-2156 -268 0
-2156 2092 0
2156 268 -2092 0
-2412 269 0
-2412 2156 0
2412 -269 -2156 0
-2524 -259 0
-2524 2492 0
2524 259 -2492 0
-2588 -260 0
-2588 2524 0
2588 260 -2524 0
-2844 261 0
-2844 2588 0
2844 -261 -2588 0
-2956 -251 0
-2956 2924 0
2956 251 -2924 0
-3020 -252 0
-3020 2956 0
3020 252 -2956 0
-3276 253 0
-3276 3020 0
3276 -253 -3020 0
-3388 -243 0
-3388 3356 0
3388 243 -3356 0
-3452 -244 0
-3452 3388 0
3452 244 -3388 0
-3708 245 0
-3708 3452 0
3708 -245 -3452 0
-3820 -235 0
-3820 3788 0
3820 235 -3788 0
-3884 -236 0
-3884 3820 0
3884 236 -3820 0
-4140 237 0
-4140 3884 0
4140 -237 -3884 0
-4252 -227 0
-4252 4220 0
4252 227 -4220 0
-4316 -228 0
-4316 4252 0
4316 228 -4252 0
-4572 229 0
-4572 4316 0
4572 -229 -4316 0
-4684 -219 0
-4684 4652 0
4684 219 -4652 0
-4748 -220 0
-4748 4684 0
4748 220 -4684 0
-5004 221 0
-5004 4748 0
5004 -221 -4748 0
-5116 -211 0
-5116 5084 0
5116 211 -5084 0
-5180 -212 0
-5180 5116 0
5180 212 -5116 0
-5436 213 0
-5436 5180 0
5436 -213 -5180 0
-5548 -203 0
-5548 5516 0
5548 203 -5516 0
-5612 -204 0
-5612 5548 0
5612 204 -5548 0
-5868 205 0
-5868 5612 0
5868 -205 -5612 0
-5980 -195 0
-5980 5948 0
5980 195 -5948 0
-6044 -196 0
-6044 5980 0
6044 196 -5980 0
-6300 197 0
-6300 6044 0
6300 -197 -6044 0
-6412 -187 0
-6412 6380 0
6412 187 -6380 0
-6476 -188 0
-6476 6412 0
6476 188 -6412 0
-6732 189 0
-6732 6476 0
6732 -189 -6476 0
-6912 -6300 0
-6912 -6732 0
6912 6300 6732 0
-7092 -5868 0
-7092 6912 0
7092 5868 -6912 0
-7272 -5436 0
-7272 7092 0
7272 5436 -7092 0
-7452 -5004 0
-7452 7272 0
7452 5004 -7272 0
-7632 -4572 0
-7632 7452 0
7632 4572 -7452 0
-7812 -4140 0
-7812 7632 0
7812 4140 -7632 0
-7992 -3708 0
-7992 7812 0
7992 3708 -7812 0
-8172 -3276 0
-8172 7992 0
8172 3276 -7992 0
-8352 -2844 0
-8352 8172 0
8352 2844 -8172 0
-8532 -2412 0
-8532 8352 0
8532 2412 -8352 0
-8712 -1980 0
-8712 8532 0
8712 1980 -8532 0
-8892 -1548 0
-8892 8712 0
8892 1548 -8712 0
-9072 -1116 0
-9072 8892 0
9072 1116 -8892 0
-9252 -684 0
-9252 9072 0
9252 684 -9072 0
-9692 132 0
-9692 9252 0
9692 -132 -9252 0
-9693 -132 0
-9693 -9252 0
9693 132 9252 0
-9694 -9692 0
-9694 -9693 0
9694 9692 9693 0
131 -52141 0
-131 52141 0
-363 -299 0
-363 331 0
363 299 -331 0
-427 -300 0
-427 363 0
427 300 -363 0
-683 301 0
-683 427 0
683 -301 -427 0
-795 -291 0
-795 763 0
795 291 -763 0
-859 -292 0
-859 795 0
859 292 -795 0
-1115 293 0
-1115 859 0
1115 -293 -859 0
-1227 -283 0
-1227 1195 0
1227 283 -1195 0
-1291 -284 0
-1291 1227 0
1291 284 -1227 0
-1547 285 0
-1547 1291 0
1547 -285 -1291 0
-1659 -275 0
-1659 1627 0
1659 275 -1627 0
-1723 -276 0
-1723 1659 0
1723 276 -1659 0
-1979 277 0
-1979 1723 0
1979 -277 -1723 0
-2091 -267 0
-2091 2059 0
2091 267 -2059 0
-2155 -268 0
-2155 2091 0
2155 268 -2091 0
-2411 269 0
-2411 2155 0
2411 -269 -2155 0
-2523 -259 0
-2523 2491 0
2523 259 -2491 0
-2587 -260 0
-2587 2523 0
2587 260 -2523 0
-2843 261 0
-2843 2587 0
2843 -261 -2587 0
-2955 -251 0
-2955 2923 0
2955 251 -2923 0
-3019 -252 0
-3019 2955 0
3019 252 -2955 0
-3275 253 0
-3275 3019 0
3275 -253 -3019 0
-3387 -243 0
-3387 3355 0
3387 243 -3355 0
-3451 -244 0
-3451 3387 0
3451 244 -3387 0
-3707 245 0
-3707 3451 0
3707 -245 -3451 0
-3819 -235 0
-3819 3787 0
3819 235 -3787 0
-3883 -236 0
-3883 3819 0
3883 236 -3819 0
-4139 237 0
-4139 3883 0
4139 -237 -3883 0
-4251 -227 0
-4251 4219 0
4251 227 -4219 0
-4315 -228 0
-4315 4251 0
4315 228 -4251 0
-4571 229 0
-4571 4315 0
4571 -229 -4315 0
-4683 -219 0
-4683 4651 0
4683 219 -4651 0
-4747 -220 0
-4747 4683 0
4747 220 -4683 0
-5003 221 0
-5003 4747 0
5003 -221 -4747 0
-5115 -211 0
-5115 5083 0
5115 211 -5083 0
-5179 -212 0
-5179 5115 0
5179 212 -5115 0
-5435 213 0
-5435 5179 0
5435 -213 -5179 0
-5547 -203 0
-5547 5515 0
5547 203 -5515 0
-5611 -204 0
-5611 5547 0
5611 204 -5547 0
-5867 205 0
-5867 5611 0
5867 -205 -5611 0
-5979 -195 0
-5979 5947 0
5979 195 -5947 0
-6043 -196 0
-6043 5979 0
6043 196 -5979 0
-6299 197 0
-6299 6043 0
6299 -197 -6043 0
-6411 -187 0
-6411 6379 0
6411 187 -6379 0
-6475 -188 0
-6475 6411 0
6475 188 -6411 0
-6731 189 0
-6731 6475 0
6731 -189 -6475 0
-6911 -6299 0
-6911 -6731 0
6911 6299 6731 0
-7091 -5867 0
-7091 6911 0
7091 5867 -6911 0
-7271 -5435 0
-7271 7091 0
7271 5435 -7091 0
-7451 -5003 0
-7451 7271 0
7451 5003 -7271 0
-7631 -4571 0
-7631 7451 0
7631 4571 -7451 0
-7811 -4139 0
-7811 7631 0
7811 4139 -7631 0
-7991 -3707 0
-7991 7811 0
7991 3707 -7811 0
-8171 -3275 0
-8171 7991 0
8171 3275 -7991 0
-8351 -2843 0
-8351 8171 0
8351 2843 -8171 0
-8531 -2411 0
-8531 8351 0
8531 2411 -8351 0
-8711 -1979 0
-8711 8531 0
8711 1979 -8531 0
-8891 -1547 0
-8891 8711 0
8891 1547 -8711 0
-9071 -1115 0
-9071 8891 0
9071 1115 -8891 0
-9251 -683 0
-9251 9071 0
9251 683 -9071 0
-9689 131 0
-9689 9251 0
9689 -131 -9251 0
-9690 -131 0
-9690 -9251 0
9690 131 9251 0
-9691 -9689 0
-9691 -9690 0
9691 9689 9690 0
130 -52140 0
-130 52140 0
-362 -299 0
-362 330 0
362 299 -330 0
-426 -300 0
-426 362 0
426 300 -362 0
-682 301 0
-682 426 0
682 -301 -426 0
-794 -291 0
-794 762 0
794 291 -762 0
-858 -292 0
-858 794 0
858 292 -794 0
-1114 293 0
-1114 858 0
1114 -293 -858 0
-1226 -283 0
-1226 1194 0
1226 283 -1194 0
-1290 -284 0
-1290 1226 0
1290 284 -1226 0
-1546 285 0
-1546 1290 0
1546 -285 -1290 0
-1658 -275 0
-1658 1626 0
1658 275 -1626 0
-1722 -276 0
-1722 1658 0
1722 276 -1658 0
-1978 277 0
-1978 1722 0
1978 -277 -1722 0
-2090 -267 0
-2090 2058 0
2090 267 -2058 0
-2154 -268 0
-2154 2090 0
2154 268 -2090 0
-2410 269 0
-2410 2154 0
2410 -269 -2154 0
-2522 -259 0
-2522 2490 0
2522 259 -2490 0
-2586 -260 0
-2586 2522 0
2586 260 -2522 0
-2842 261 0
-2842 2586 0
2842 -261 -2586 0
-2954 -251 0
-2954 2922 0
2954 251 -2922 0
-3018 -252 0
-3018 2954 0
3018 252 -2954 0
-3274 253 0
-3274 3018 0
3274 -253 -3018 0
-3386 -243 0
-3386 3354 0
3386 243 -3354 0
-3450 -244 0
-3450 3386 0
3450 244 -3386 0
-3706 245 0
-3706 3450 0
3706 -245 -3450 0
-3818 -235 0
-3818 3786 0
3818 235 -3786 0
-3882 -236 0
-3882 3818 0
3882 236 -3818 0
-4138 237 0
-4138 3882 0
4138 -237 -3882 0
-4250 -227 0
-4250 4218 0
4250 227 -4218 0
-4314 -228 0
-4314 4250 0
4314 228 -4250 0
-4570 229 0
-4570 4314 0
4570 -229 -4314 0
-4682 -219 0
-4682 4650 0
4682 219 -4650 0
-4746 -220 0
-4746 4682 0
4746 220 -4682 0
-5002 221 0
-5002 4746 0
5002 -221 -4746 0
-5114 -211 0
-5114 5082 0
5114 211 -5082 0
-5178 -212 0
-5178 5114 0
5178 212 -5114 0
-5434 213 0
-5434 5178 0
5434 -213 -5178 0
-5546 -203 0
-5546 5514 0
5546 203 -5514 0
-5610 -204 0
-5610 5546 0
5610 204 -5546 0
-5866 205 0
-5866 5610 0
5866 -205 -5610 0
-5978 -195 0
-5978 5946 0
5978 195 -5946 0
-6042 -196 0
-6042 5978 0
6042 196 -5978 0
-6298 197 0
-6298 6042 0
6298 -197 -6042 0
-6410 -187 0
-6410 6378 0
6410 187 -6378 0
-6474 -188 0
-6474 6410 0
6474 188 -6410 0
-6730 189 0
-6730 6474 0
6730 -189 -6474 0
-6910 -6298 0
-6910 -6730 0
6910 6298 6730 0
-7090 -5866 0
-7090 6910 0
7090 5866 -6910 0
-7270 -5434 0
-7270 7090 0
7270 5434 -7090 0
-7450 -5002 0
-7450 7270 0
7450 5002 -7270 0
-7630 -4570 0
-7630 7450 0
7630 4570 -7450 0
-7810 -4138 0
-7810 7630 0
7810 4138 -7630 0
-7990 -3706 0
-7990 7810 0
7990 3706 -7810 0
-8170 -3274 0
-8170 7990 0
8170 3274 -7990 0
-8350 -2842 0
-8350 8170 0
8350 2842 -8170 0
-8530 -2410 0
-8530 8350 0
8530 2410 -8350 0
-8710 -1978 0
-8710 8530 0
8710 1978 -8530 0
-8890 -1546 0
-8890 8710 0
8890 1546 -8710 0
-9070 -1114 0
-9070 8890 0
9070 1114 -8890 0
-9250 -682 0
-9250 9070 0
9250 682 -9070 0
-9686 130 0
-9686 9250 0
9686 -130 -9250 0
-9687 -130 0
-9687 -9250 0
9687 130 9250 0
-9688 -9686 0
-9688 -9687 0
9688 9686 9687 0
129 -52139 0
-129 52139 0
-425 299 0
-425 361 0
425 -299 -361 0
-553 300 0
-553 425 0
553 -300 -425 0
-681 -301 0
-681 553 0
681 301 -553 0
-857 291 0
-857 793 0
857 -291 -793 0
-985 292 0
-985 857 0
985 -292 -857 0
-1113 -293 0
-1113 985 0
1113 293 -985 0
-1289 283 0
-1289 1225 0
1289 -283 -1225 0
-1417 284 0
-1417 1289 0
1417 -284 -1289 0
-1545 -285 0
-1545 1417 0
1545 285 -1417 0
-1721 275 0
-1721 1657 0
1721 -275 -1657 0
-1849 276 0
-1849 1721 0
1849 -276 -1721 0
-1977 -277 0
-1977 1849 0
1977 277 -1849 0
-2153 267 0
-2153 2089 0
2153 -267 -2089 0
-2281 268 0
-2281 2153 0
2281 -268 -2153 0
-2409 -269 0
-2409 2281 0
2409 269 -2281 0
-2585 259 0
-2585 2521 0
2585 -259 -2521 0
-2713 260 0
-2713 2585 0
2713 -260 -2585 0
-2841 -261 0
-2841 2713 0
2841 261 -2713 0
-3017 251 0
-3017 2953 0
3017 -251 -2953 0
-3145 252 0
-3145 3017 0
3145 -252 -3017 0
-3273 -253 0
-3273 3145 0
3273 253 -3145 0
-3449 243 0
-3449 3385 0
3449 -243 -3385 0
-3577 244 0
-3577 3449 0
3577 -244 -3449 0
-3705 -245 0
-3705 3577 0
3705 245 -3577 0
-3881 235 0
-3881 3817 0
3881 -235 -3817 0
-4009 236 0
-4009 3881 0
4009 -236 -3881 0
-4137 -237 0
-4137 4009 0
4137 237 -4009 0
-4313 227 0
-4313 4249 0
4313 -227 -4249 0
-4441 228 0
-4441 4313 0
4441 -228 -4313 0
-4569 -229 0
-4569 4441 0
4569 229 -4441 0
-4745 219 0
-4745 4681 0
4745 -219 -4681 0
-4873 220 0
-4873 4745 0
4873 -220 -4745 0
-5001 -221 0
-5001 4873 0
5001 221 -4873 0
-5177 211 0
-5177 5113 0
5177 -211 -5113 0
-5305 212 0
-5305 5177 0
5305 -212 -5177 0
-5433 -213 0
-5433 5305 0
5433 213 -5305 0
-5609 203 0
-5609 5545 0
5609 -203 -5545 0
-5737 204 0
-5737 5609 0
5737 -204 -5609 0
-5865 -205 0
-5865 5737 0
5865 205 -5737 0
-6041 195 0
-6041 5977 0
6041 -195 -5977 0
-6169 196 0
-6169 6041 0
6169 -196 -6041 0
-6297 -197 0
-6297 6169 0
6297 197 -6169 0
-6473 187 0
-6473 6409 0
6473 -187 -6409 0
-6601 188 0
-6601 6473 0
6601 -188 -6473 0
-6729 -189 0
-6729 6601 0
6729 189 -6601 0
-6909 -6297 0
-6909 -6729 0
6909 6297 6729 0
-7089 -5865 0
-7089 6909 0
7089 5865 -6909 0
-7269 -5433 0
-7269 7089 0
7269 5433 -7089 0
-7449 -5001 0
-7449 7269 0
7449 5001 -7269 0
-7629 -4569 0
-7629 7449 0
7629 4569 -7449 0
-7809 -4137 0
-7809 7629 0
7809 4137 -7629 0
-7989 -3705 0
-7989 7809 0
7989 3705 -7809 0
-8169 -3273 0
-8169 7989 0
8169 3273 -7989 0
-8349 -2841 0
-8349 8169 0
8349 2841 -8169 0
-8529 -2409 0
-8529 8349 0
8529 2409 -8349 0
-8709 -1977 0
-8709 8529 0
8709 1977 -8529 0
-8889 -1545 0
-8889 8709 0
8889 1545 -8709 0
-9069 -1113 0
-9069 8889 0
9069 1113 -8889 0
-9249 -681 0
-9249 9069 0
9249 681 -9069 0
-9683 129 0
-9683 9249 0
9683 -129 -9249 0
-9684 -129 0
-9684 -9249 0
9684 129 9249 0
-9685 -9683 0
-9685 -9684 0
9685 9683 9684 0
128 -52138 0
-128 52138 0
-424 299 0
-424 360 0
424 -299 -360 0
-552 300 0
-552 424 0
552 -300 -424 0
-680 -301 0
-680 552 0
680 301 -552 0
-856 291 0
-856 792 0
856 -291 -792 0
-984 292 0
-984 856 0
984 -292 -856 0
-1112 -293 0
-1112 984 0
1112 293 -984 0
-1288 283 0
-1288 1224 0
1288 -283 -1224 0
-1416 284 0
-1416 1288 0
1416 -284 -1288 0
-1544 -285 0
-1544 1416 0
1544 285 -1416 0
-1720 275 0
-1720 1656 0
1720 -275 -1656 0
-1848 276 0
-1848 1720 0
1848 -276 -1720 0
-1976 -277 0
-1976 1848 0
1976 277 -1848 0
-2152 267 0
-2152 2088 0
2152 -267 -2088 0
-2280 268 0
-2280 2152 0
2280 -268 -2152 0
-2408 -269 0
-2408 2280 0
2408 269 -2280 0
-2584 259 0
-2584 2520 0
2584 -259 -2520 0
-2712 260 0
-2712 2584 0
2712 -260 -2584 0
-2840 -261 0
-2840 2712 0
2840 261 -2712 0
-3016 251 0
-3016 2952 0
3016 -251 -2952 0
-3144 252 0
-3144 3016 0
3144 -252 -3016 0
-3272 -253 0
-3272 3144 0
3272 253 -3144 0
-3448 243 0
-3448 3384 0
3448 -243 -3384 0
-3576 244 0
-3576 3448 0
3576 -244 -3448 0
-3704 -245 0
-3704 3576 0
3704 245 -3576 0
-3880 235 0
-3880 3816 0
3880 -235 -3816 0
-4008 236 0
-4008 3880 0
4008 -236 -3880 0
-4136 -237 0
-4136 4008 0
4136 237 -4008 0
-4312 227 0
-4312 4248 0
4312 -227 -4248 0
-4440 228 0
-4440 4312 0
4440 -228 -4312 0
-4568 -229 0
-4568 4440 0
4568 229 -4440 0
-4744 219 0
-4744 4680 0
4744 -219 -4680 0
-4872 220 0
-4872 4744 0
4872 -220 -4744 0
-5000 -221 0
-5000 4872 0
5000 221 -4872 0
-5176 211 0
-5176 5112 0
5176 -211 -5112 0
-5304 212 0
-5304 5176 0
5304 -212 -5176 0
-5432 -213 0
-5432 5304 0
5432 213 -5304 0
-5608 203 0
-5608 5544 0
5608 -203 -5544 0
-5736 204 0
-5736 5608 0
5736 -204 -5608 0
-5864 -205 0
-5864 5736 0
5864 205 -5736 0
-6040 195 0
-6040 5976 0
6040 -195 -5976 0
-6168 196 0
-6168 6040 0
6168 -196 -6040 0
-6296 -197 0
-6296 6168 0
6296 197 -6168 0
-6472 187 0
-6472 6408 0
6472 -187 -6408 0
-6600 188 0
-6600 6472 0
6600 -188 -6472 0
-6728 -189 0
-6728 6600 0
6728 189 -6600 0
-6908 -6296 0
-6908 -6728 0
6908 6296 6728 0
-7088 -5864 0
-7088 6908 0
7088 5864 -6908 0
-7268 -5432 0
-7268 7088 0
7268 5432 -7088 0
-7448 -5000 0
-7448 7268 0
7448 5000 -7268 0
-7628 -4568 0
-7628 7448 0
7628 4568 -7448 0
-7808 -4136 0
-7808 7628 0
7808 4136 -7628 0
-7988 -3704 0
-7988 7808 0
7988 3704 -7808 0
-8168 -3272 0
-8168 7988 0
8168 3272 -7988 0
-8348 -2840 0
-8348 8168 0
8348 2840 -8168 0
-8528 -2408 0
-8528 8348 0
8528 2408 -8348 0
-8708 -1976 0
-8708 8528 0
8708 1976 -8528 0
-8888 -1544 0
-8888 8708 0
8888 1544 -8708 0
-9068 -1112 0
-9068 8888 0
9068 1112 -8888 0
-9248 -680 0
-9248 9068 0
9248 680 -9068 0
-9680 128 0
-9680 9248 0
9680 -128 -9248 0
-9681 -128 0
-9681 -9248 0
9681 128 9248 0
-9682 -9680 0
-9682 -9681 0
9682 9680 9681 0
127 -52137 0
-127 52137 0
-423 299 0
-423 359 0
423 -299 -359 0
-551 300 0
-551 423 0
551 -300 -423 0
-679 -301 0
-679 551 0
679 301 -551 0
-855 291 0
-855 791 0
855 -291 -791 0
-983 292 0
-983 855 0
983 -292 -855 0
-1111 -293 0
-1111 983 0
1111 293 -983 0
-1287 283 0
-1287 1223 0
1287 -283 -1223 0
-1415 284 0
-1415 1287 0
1415 -284 -1287 0
-1543 -285 0
-1543 1415 0
1543 285 -1415 0
-1719 275 0
-1719 1655 0
1719 -275 -1655 0
-1847 276 0
-1847 1719 0
1847 -276 -1719 0
-1975 -277 0
-1975 1847 0
1975 277 -1847 0
-2151 267 0
-2151 2087 0
2151 -267 -2087 0
-2279 268 0
-2279 2151 0
2279 -268 -2151 0
-2407 -269 0
-2407 2279 0
2407 269 -2279 0
-2583 259 0
-2583 2519 0
2583 -259 -2519 0
-2711 260 0
-2711 2583 0
2711 -260 -2583 0
-2839 -261 0
-2839 2711 0
2839 261 -2711 0
-3015 251 0
-3015 2951 0
3015 -251 -2951 0
-3143 252 0
-3143 3015 0
3143 -252 -3015 0
-3271 -253 0
-3271 3143 0
3271 253 -3143 0
-3447 243 0
-3447 3383 0
3447 -243 -3383 0
-3575 244 0
-3575 3447 0
3575 -244 -3447 0
-3703 -245 0
-3703 3575 0
3703 245 -3575 0
-3879 235 0
-3879 3815 0
3879 -235 -3815 0
-4007 236 0
-4007 3879 0
4007 -236 -3879 0
-4135 -237 0
-4135 4007 0
4135 237 -4007 0
-4311 227 0
-4311 4247 0
4311 -227 -4247 0
-4439 228 0
-4439 4311 0
4439 -228 -4311 0
-4567 -229 0
-4567 4439 0
4567 229 -4439 0
-4743 219 0
-4743 4679 0
4743 -219 -4679 0
-4871 220 0
-4871 4743 0
4871 -220 -4743 0
-4999 -221 0
-4999 4871 0
4999 221 -4871 0
-5175 211 0
-5175 5111 0
5175 -211 -5111 0
-5303 212 0
-5303 5175 0
5303 -212 -5175 0
-5431 -213 0
-5431 5303 0
5431 213 -5303 0
-5607 203 0
-5607 5543 0
5607 -203 -5543 0
-5735 204 0
-5735 5607 0
5735 -204 -5607 0
-5863 -205 0
-5863 5735 0
5863 205 -5735 0
-6039 195 0
-6039 5975 0
6039 -195 -5975 0
-6167 196 0
-6167 6039 0
6167 -196 -6039 0
-6295 -197 0
-6295 6167 0
6295 197 -6167 0
-6471 187 0
-6471 6407 0
6471 -187 -6407 0
-6599 188 0
-6599 6471 0
6599 -188 -6471 0
-6727 -189 0
-6727 6599 0
6727 189 -6599 0
-6907 -6295 0
-6907 -6727 0
6907 6295 6727 0
-7087 -5863 0
-7087 6907 0
7087 5863 -6907 0
-7267 -5431 0
-7267 7087 0
7267 5431 -7087 0
-7447 -4999 0
-7447 7267 0
7447 4999 -7267 0
-7627 -4567 0
-7627 7447 0
7627 4567 -7447 0
-7807 -4135 0
-7807 7627 0
7807 4135 -7627 0
-7987 -3703 0
-7987 7807 0
7987 3703 -7807 0
-8167 -3271 0
-8167 7987 0
8167 3271 -7987 0
-8347 -2839 0
-8347 8167 0
8347 2839 -8167 0
-8527 -2407 0
-8527 8347 0
8527 2407 -8347 0
-8707 -1975 0
-8707 8527 0
8707 1975 -8527 0
-8887 -1543 0
-8887 8707 0
8887 1543 -8707 0
-9067 -1111 0
-9067 8887 0
9067 1111 -8887 0
-9247 -679 0
-9247 9067 0
9247 679 -9067 0
-9677 127 0
-9677 9247 0
9677 -127 -9247 0
-9678 -127 0
-9678 -9247 0
9678 127 9247 0
-9679 -9677 0
-9679 -9678 0
9679 9677 9678 0
126 -52136 0
-126 52136 0
-422 299 0
-422 358 0
422 -299 -358 0
-550 300 0
-550 422 0
550 -300 -422 0
-678 -301 0
-678 550 0
678 301 -550 0
-854 291 0
-854 790 0
854 -291 -790 0
-982 292 0
-982 854 0
982 -292 -854 0
-1110 -293 0
-1110 982 0
1110 293 -982 0
-1286 283 0
-1286 1222 0
1286 -283 -1222 0
-1414 284 0
-1414 1286 0
1414 -284 -1286 0
-1542 -285 0
-1542 1414 0
1542 285 -1414 0
-1718 275 0
-1718 1654 0
1718 -275 -1654 0
-1846 276 0
-1846 1718 0
1846 -276 -1718 0
-1974 -277 0
-1974 1846 0
1974 277 -1846 0
-2150 267 0
-2150 2086 0
2150 -267 -2086 0
-2278 268 0
-2278 2150 0
2278 -268 -2150 0
-2406 -269 0
-2406 2278 0
2406 269 -2278 0
-2582 259 0
-2582 2518 0
2582 -259 -2518 0
-2710 260 0
-2710 2582 0
2710 -260 -2582 0
-2838 -261 0
-2838 2710 0
2838 261 -2710 0
-3014 251 0
-3014 2950 0
3014 -251 -2950 0
-3142 252 0
-3142 3014 0
3142 -252 -3014 0
-3270 -253 0
-3270 3142 0
3270 253 -3142 0
-3446 243 0
-3446 3382 0
3446 -243 -3382 0
-3574 244 0
-3574 3446 0
3574 -244 -3446 0
-3702 -245 0
-3702 3574 0
3702 245 -3574 0
-3878 235 0
-3878 3814 0
3878 -235 -3814 0
-4006 236 0
-4006 3878 0
4006 -236 -3878 0
-4134 -237 0
-4134 4006 0
4134 237 -4006 0
-4310 227 0
-4310 4246 0
4310 -227 -4246 0
-4438 228 0
-4438 4310 0
4438 -228 -4310 0
-4566 -229 0
-4566 4438 0
4566 229 -4438 0
-4742 219 0
-4742 4678 0
4742 -219 -4678 0
-4870 220 0
-4870 4742 0
4870 -220 -4742 0
-4998 -221 0
-4998 4870 0
4998 221 -4870 0
-5174 211 0
-5174 5110 0
5174 -211 -5110 0
-5302 212 0
-5302 5174 0
5302 -212 -5174 0
-5430 -213 0
-5430 5302 0
5430 213 -5302 0
-5606 203 0
-5606 5542 0
5606 -203 -5542 0
-5734 204 0
-5734 5606 0
5734 -204 -5606 0
-5862 -205 0
-5862 5734 0
5862 205 -5734 0
-6038 195 0
-6038 5974 0
6038 -195 -5974 0
-6166 196 0
-6166 6038 0
6166 -196 -6038 0
-6294 -197 0
-6294 6166 0
6294 197 -6166 0
-6470 187 0
-6470 6406 0
6470 -187 -6406 0
-6598 188 0
-6598 6470 0
6598 -188 -6470 0
-6726 -189 0
-6726 6598 0
6726 189 -6598 0
-6906 -6294 0
-6906 -6726 0
6906 6294 6726 0
-7086 -5862 0
-7086 6906 0
7086 5862 -6906 0
-7266 -5430 0
-7266 7086 0
7266 5430 -7086 0
-7446 -4998 0
-7446 7266 0
7446 4998 -7266 0
-7626 -4566 0
-7626 7446 0
7626 4566 -7446 0
-7806 -4134 0
-7806 7626 0
7806 4134 -7626 0
-7986 -3702 0
-7986 7806 0
7986 3702 -7806 0
-8166 -3270 0
-8166 7986 0
8166 3270 -7986 0
-8346 -2838 0
-8346 8166 0
8346 2838 -8166 0
-8526 -2406 0
-8526 8346 0
8526 2406 -8346 0
-8706 -1974 0
-8706 8526 0
8706 1974 -8526 0
-8886 -1542 0
-8886 8706 0
8886 1542 -8706 0
-9066 -1110 0
-9066 8886 0
9066 1110 -8886 0
-9246 -678 0
-9246 9066 0
9246 678 -9066 0
-9674 126 0
-9674 9246 0
9674 -126 -9246 0
-9675 -126 0
-9675 -9246 0
9675 126 9246 0
-9676 -9674 0
-9676 -9675 0
9676 9674 9675 0
125 -52135 0
-125 52135 0
-421 299 0
-421 357 0
421 -299 -357 0
-549 300 0
-549 421 0
549 -300 -421 0
-677 -301 0
-677 549 0
677 301 -549 0
-853 291 0
-853 789 0
853 -291 -789 0
-981 292 0
-981 853 0
981 -292 -853 0
-1109 -293 0
-1109 981 0
1109 293 -981 0
-1285 283 0
-1285 1221 0
1285 -283 -1221 0
-1413 284 0
-1413 1285 0
1413 -284 -1285 0
-1541 -285 0
-1541 1413 0
1541 285 -1413 0
-1717 275 0
-1717 1653 0
1717 -275 -1653 0
-1845 276 0
-1845 1717 0
1845 -276 -1717 0
-1973 -277 0
-1973 1845 0
1973 277 -1845 0
-2149 267 0
-2149 2085 0
2149 -267 -2085 0
-2277 268 0
-2277 2149 0
2277 -268 -2149 0
-2405 -269 0
-2405 2277 0
2405 269 -2277 0
-2581 259 0
-2581 2517 0
2581 -259 -2517 0
-2709 260 0
-2709 2581 0
2709 -260 -2581 0
-2837 -261 0
-2837 2709 0
2837 261 -2709 0
-3013 251 0
-3013 2949 0
3013 -251 -2949 0
-3141 252 0
-3141 3013 0
3141 -252 -3013 0
-3269 -253 0
-3269 3141 0
3269 253 -3141 0
-3445 243 0
-3445 3381 0
3445 -243 -3381 0
-3573 244 0
-3573 3445 0
3573 -244 -3445 0
-3701 -245 0
-3701 3573 0
3701 245 -3573 0
-3877 235 0
-3877 3813 0
3877 -235 -3813 0
-4005 236 0
-4005 3877 0
4005 -236 -3877 0
-4133 -237 0
-4133 4005 0
4133 237 -4005 0
-4309 227 0
-4309 4245 0
4309 -227 -4245 0
-4437 228 0
-4437 4309 0
4437 -228 -4309 0
-4565 -229 0
-4565 4437 0
4565 229 -4437 0
-4741 219 0
-4741 4677 0
4741 -219 -4677 0
-4869 220 0
-4869 4741 0
4869 -220 -4741 0
-4997 -221 0
-4997 4869 0
4997 221 -4869 0
-5173 211 0
-5173 5109 0
5173 -211 -5109 0
-5301 212 0
-5301 5173 0
5301 -212 -5173 0
-5429 -213 0
-5429 5301 0
5429 213 -5301 0
-5605 203 0
-5605 5541 0
5605 -203 -5541 0
-5733 204 0
-5733 5605 0
5733 -204 -5605 0
-5861 -205 0
-5861 5733 0
5861 205 -5733 0
-6037 195 0
-6037 5973 0
6037 -195 -5973 0
-6165 196 0
-6165 6037 0
6165 -196 -6037 0
-6293 -197 0
-6293 6165 0
6293 197 -6165 0
-6469 187 0
-6469 6405 0
6469 -187 -6405 0
-6597 188 0
-6597 6469 0
6597 -188 -6469 0
-6725 -189 0
-6725 6597 0
6725 189 -6597 0
-6905 -6293 0
-6905 -6725 0
6905 6293 6725 0
-7085 -5861 0
-7085 6905 0
7085 5861 -6905 0
-7265 -5429 0
-7265 7085 0
7265 5429 -7085 0
-7445 -4997 0
-7445 7265 0
7445 4997 -7265 0
-7625 -4565 0
-7625 7445 0
7625 4565 -7445 0
-7805 -4133 0
-7805 7625 0
7805 4133 -7625 0
-7985 -3701 0
-7985 7805 0
7985 3701 -7805 0
-8165 -3269 0
-8165 7985 0
8165 3269 -7985 0
-8345 -2837 0
-8345 8165 0
8345 2837 -8165 0
-8525 -2405 0
-8525 8345 0
8525 2405 -8345 0
-8705 -1973 0
-8705 8525 0
8705 1973 -8525 0
-8885 -1541 0
-8885 8705 0
8885 1541 -8705 0
-9065 -1109 0
-9065 8885 0
9065 1109 -8885 0
-9245 -677 0
-9245 9065 0
9245 677 -9065 0
-9671 125 0
-9671 9245 0
9671 -125 -9245 0
-9672 -125 0
-9672 -9245 0
9672 125 9245 0
-9673 -9671 0
-9673 -9672 0
9673 9671 9672 0
124 -52134 0
-124 52134 0
-420 299 0
-420 356 0
420 -299 -356 0
-548 300 0
-548 420 0
548 -300 -420 0
-676 -301 0
-676 548 0
676 301 -548 0
-852 291 0
-852 788 0
852 -291 -788 0
-980 292 0
-980 852 0
980 -292 -852 0
-1108 -293 0
-1108 980 0
1108 293 -980 0
-1284 283 0
-1284 1220 0
1284 -283 -1220 0
-1412 284 0
-1412 1284 0
1412 -284 -1284 0
-1540 -285 0
-1540 1412 0
1540 285 -1412 0
-1716 275 0
-1716 1652 0
1716 -275 -1652 0
-1844 276 0
-1844 1716 0
1844 -276 -1716 0
-1972 -277 0
-1972 1844 0
1972 277 -1844 0
-2148 267 0
-2148 2084 0
2148 -267 -2084 0
-2276 268 0
-2276 2148 0
2276 -268 -2148 0
-2404 -269 0
-2404 2276 0
2404 269 -2276 0
-2580 259 0
-2580 2516 0
2580 -259 -2516 0
-2708 260 0
-2708 2580 0
2708 -260 -2580 0
-2836 -261 0
-2836 2708 0
2836 261 -2708 0
-3012 251 0
-3012 2948 0
3012 -251 -2948 0
-3140 252 0
-3140 3012 0
3140 -252 -3012 0
-3268 -253 0
-3268 3140 0
3268 253 -3140 0
-3444 243 0
-3444 3380 0
3444 -243 -3380 0
-3572 244 0
-3572 3444 0
3572 -244 -3444 0
-3700 -245 0
-3700 3572 0
3700 245 -3572 0
-3876 235 0
-3876 3812 0
3876 -235 -3812 0
-4004 236 0
-4004 3876 0
4004 -236 -3876 0
-4132 -237 0
-4132 4004 0
4132 237 -4004 0
-4308 227 0
-4308 4244 0
4308 -227 -4244 0
-4436 228 0
-4436 4308 0
4436 -228 -4308 0
-4564 -229 0
-4564 4436 0
4564 229 -4436 0
-4740 219 0
-4740 4676 0
4740 -219 -4676 0
-4868 220 0
-4868 4740 0
4868 -220 -4740 0
-4996 -221 0
-4996 4868 0
4996 221 -4868 0
-5172 211 0
-5172 5108 0
5172 -211 -5108 0
-5300 212 0
-5300 5172 0
5300 -212 -5172 0
-5428 -213 0
-5428 5300 0
5428 213 -5300 0
-5604 203 0
-5604 5540 0
5604 -203 -5540 0
-5732 204 0
-5732 5604 0
5732 -204 -5604 0
-5860 -205 0
-5860 5732 0
5860 205 -5732 0
-6036 195 0
-6036 5972 0
6036 -195 -5972 0
-6164 196 0
-6164 6036 0
6164 -196 -6036 0
-6292 -197 0
-6292 6164 0
6292 197 -6164 0
-6468 187 0
-6468 6404 0
6468 -187 -6404 0
-6596 188 0
-6596 6468 0
6596 -188 -6468 0
-6724 -189 0
-6724 6596 0
6724 189 -6596 0
-6904 -6292 0
-6904 -6724 0
6904 6292 6724 0
-7084 -5860 0
-7084 6904 0
7084 5860 -6904 0
-7264 -5428 0
-7264 7084 0
7264 5428 -7084 0
-7444 -4996 0
-7444 7264 0
7444 4996 -7264 0
-7624 -4564 0
-7624 7444 0
7624 4564 -7444 0
-7804 -4132 0
-7804 7624 0
7804 4132 -7624 0
-7984 -3700 0
-7984 7804 0
7984 3700 -7804 0
-8164 -3268 0
-8164 7984 0
8164 3268 -7984 0
-8344 -2836 0
-8344 8164 0
8344 2836 -8164 0
-8524 -2404 0
-8524 8344 0
8524 2404 -8344 0
-8704 -1972 0
-8704 8524 0
8704 1972 -8524 0
-8884 -1540 0
-8884 8704 0
8884 1540 -8704 0
-9064 -1108 0
-9064 8884 0
9064 1108 -8884 0
-9244 -676 0
-9244 9064 0
9244 676 -9064 0
-9668 124 0
-9668 9244 0
9668 -124 -9244 0
-9669 -124 0
-9669 -9244 0
9669 124 9244 0
-9670 -9668 0
-9670 -9669 0
9670 9668 9669 0
123 -52133 0
-123 52133 0
-419 299 0
-419 355 0
419 -299 -355 0
-547 300 0
-547 419 0
547 -300 -419 0
-675 -301 0
-675 547 0
675 301 -547 0
-851 291 0
-851 787 0
851 -291 -787 0
-979 292 0
-979 851 0
979 -292 -851 0
-1107 -293 0
-1107 979 0
1107 293 -979 0
-1283 283 0
-1283 1219 0
1283 -283 -1219 0
-1411 284 0
-1411 1283 0
1411 -284 -1283 0
-1539 -285 0
-1539 1411 0
1539 285 -1411 0
-1715 275 0
-1715 1651 0
1715 -275 -1651 0
-1843 276 0
-1843 1715 0
1843 -276 -1715 0
-1971 -277 0
-1971 1843 0
1971 277 -1843 0
-2147 267 0
-2147 2083 0
2147 -267 -2083 0
-2275 268 0
-2275 2147 0
2275 -268 -2147 0
-2403 -269 0
-2403 2275 0
2403 269 -2275 0
-2579 259 0
-2579 2515 0
2579 -259 -2515 0
-2707 260 0
-2707 2579 0
2707 -260 -2579 0
-2835 -261 0
-2835 2707 0
2835 261 -2707 0
-3011 251 0
-3011 2947 0
3011 -251 -2947 0
-3139 252 0
-3139 3011 0
3139 -252 -3011 0
-3267 -253 0
-3267 3139 0
3267 253 -3139 0
-3443 243 0
-3443 3379 0
3443 -243 -3379 0
-3571 244 0
-3571 3443 0
3571 -244 -3443 0
-3699 -245 0
-3699 3571 0
3699 245 -3571 0
-3875 235 0
-3875 3811 0
3875 -235 -3811 0
-4003 236 0
-4003 3875 0
4003 -236 -3875 0
-4131 -237 0
-4131 4003 0
4131 237 -4003 0
-4307 227 0
-4307 4243 0
4307 -227 -4243 0
-4435 228 0
-4435 4307 0
4435 -228 -4307 0
-4563 -229 0
-4563 4435 0
4563 229 -4435 0
-4739 219 0
-4739 4675 0
4739 -219 -4675 0
-4867 220 0
-4867 4739 0
4867 -220 -4739 0
-4995 -221 0
-4995 4867 0
4995 221 -4867 0
-5171 211 0
-5171 5107 0
5171 -211 -5107 0
-5299 212 0
-5299 5171 0
5299 -212 -5171 0
-5427 -213 0
-5427 5299 0
5427 213 -5299 0
-5603 203 0
-5603 5539 0
5603 -203 -5539 0
-5731 204 0
-5731 5603 0
5731 -204 -5603 0
-5859 -205 0
-5859 5731 0
5859 205 -5731 0
-6035 195 0
-6035 5971 0
6035 -195 -5971 0
-6163 196 0
-6163 6035 0
6163 -196 -6035 0
-6291 -197 0
-6291 6163 0
6291 197 -6163 0
-6467 187 0
-6467 6403 0
6467 -187 -6403 0
-6595 188 0
-6595 6467 0
6595 -188 -6467 0
-6723 -189 0
-6723 6595 0
6723 189 -6595 0
-6903 -6291 0
-6903 -6723 0
6903 6291 6723 0
-7083 -5859 0
-7083 6903 0
7083 5859 -6903 0
-7263 -5427 0
-7263 7083 0
7263 5427 -7083 0
-7443 -4995 0
-7443 7263 0
7443 4995 -7263 0
-7623 -4563 0
-7623 7443 0
7623 4563 -7443 0
-7803 -4131 0
-7803 7623 0
7803 4131 -7623 0
-7983 -3699 0
-7983 7803 0
7983 3699 -7803 0
-8163 -3267 0
-8163 7983 0
8163 3267 -7983 0
-8343 -2835 0
-8343 8163 0
8343 2835 -8163 0
-8523 -2403 0
-8523 8343 0
8523 2403 -8343 0
-8703 -1971 0
-8703 8523 0
8703 1971 -8523 0
-8883 -1539 0
-8883 8703 0
8883 1539 -8703 0
-9063 -1107 0
-9063 8883 0
9063 1107 -8883 0
-9243 -675 0
-9243 9063 0
9243 675 -9063 0
-9665 123 0
-9665 9243 0
9665 -123 -9243 0
-9666 -123 0
-9666 -9243 0
9666 123 9243 0
-9667 -9665 0
-9667 -9666 0
9667 9665 9666 0
122 -52132 0
-122 52132 0
-418 299 0
-418 354 0
418 -299 -354 0
-546 300 0
-546 418 0
546 -300 -418 0
-674 -301 0
-674 546 0
674 301 -546 0
-850 291 0
-850 786 0
850 -291 -786 0
-978 292 0
-978 850 0
978 -292 -850 0
-1106 -293 0
-1106 978 0
1106 293 -978 0
-1282 283 0
-1282 1218 0
1282 -283 -1218 0
-1410 284 0
-1410 1282 0
1410 -284 -1282 0
-1538 -285 0
-1538 1410 0
1538 285 -1410 0
-1714 275 0
-1714 1650 0
1714 -275 -1650 0
-1842 276 0
-1842 1714 0
1842 -276 -1714 0
-1970 -277 0
-1970 1842 0
1970 277 -1842 0
-2146 267 0
-2146 2082 0
2146 -267 -2082 0
-2274 268 0
-2274 2146 0
2274 -268 -2146 0
-2402 -269 0
-2402 2274 0
2402 269 -2274 0
-2578 259 0
-2578 2514 0
2578 -259 -2514 0
-2706 260 0
-2706 2578 0
2706 -260 -2578 0
-2834 -261 0
-2834 2706 0
2834 261 -2706 0
-3010 251 0
-3010 2946 0
3010 -251 -2946 0
-3138 252 0
-3138 3010 0
3138 -252 -3010 0
-3266 -253 0
-3266 3138 0
3266 253 -3138 0
-3442 243 0
-3442 3378 0
3442 -243 -3378 0
-3570 244 0
-3570 3442 0
3570 -244 -3442 0
-3698 -245 0
-3698 3570 0
3698 245 -3570 0
-3874 235 0
-3874 3810 0
3874 -235 -3810 0
-4002 236 0
-4002 3874 0
4002 -236 -3874 0
-4130 -237 0
-4130 4002 0
4130 237 -4002 0
-4306 227 0
-4306 4242 0
4306 -227 -4242 0
-4434 228 0
-4434 4306 0
4434 -228 -4306 0
-4562 -229 0
-4562 4434 0
4562 229 -4434 0
-4738 219 0
-4738 4674 0
4738 -219 -4674 0
-4866 220 0
-4866 4738 0
4866 -220 -4738 0
-4994 -221 0
-4994 4866 0
4994 221 -4866 0
-5170 211 0
-5170 5106 0
5170 -211 -5106 0
-5298 212 0
-5298 5170 0
5298 -212 -5170 0
-5426 -213 0
-5426 5298 0
5426 213 -5298 0
-5602 203 0
-5602 5538 0
5602 -203 -5538 0
-5730 204 0
-5730 5602 0
5730 -204 -5602 0
-5858 -205 0
-5858 5730 0
5858 205 -5730 0
-6034 195 0
-6034 5970 0
6034 -195 -5970 0
-6162 196 0
-6162 6034 0
6162 -196 -6034 0
-6290 -197 0
-6290 6162 0
6290 197 -6162 0
-6466 187 0
-6466 6402 0
6466 -187 -6402 0
-6594 188 0
-6594 6466 0
6594 -188 -6466 0
-6722 -189 0
-6722 6594 0
6722 189 -6594 0
-6902 -6290 0
-6902 -6722 0
6902 6290 6722 0
-7082 -5858 0
-7082 6902 0
7082 5858 -6902 0
-7262 -5426 0
-7262 7082 0
7262 5426 -7082 0
-7442 -4994 0
-7442 7262 0
7442 4994 -7262 0
-7622 -4562 0
-7622 7442 0
7622 4562 -7442 0
-7802 -4130 0
-7802 7622 0
7802 4130 -7622 0
-7982 -3698 0
-7982 7802 0
7982 3698 -7802 0
-8162 -3266 0
-8162 7982 0
8162 3266 -7982 0
-8342 -2834 0
-8342 8162 0
8342 2834 -8162 0
-8522 -2402 0
-8522 8342 0
8522 2402 -8342 0
-8702 -1970 0
-8702 8522 0
8702 1970 -8522 0
-8882 -1538 0
-8882 8702 0
8882 1538 -8702 0
-9062 -1106 0
-9062 8882 0
9062 1106 -8882 0
-9242 -674 0
-9242 9062 0
9242 674 -9062 0
-9662 122 0
-9662 9242 0
9662 -122 -9242 0
-9663 -122 0
-9663 -9242 0
9663 122 9242 0
-9664 -9662 0
-9664 -9663 0
9664 9662 9663 0
121 -52131 0
-121 52131 0
-417 299 0
-417 353 0
417 -299 -353 0
-545 300 0
-545 417 0
545 -300 -417 0
-673 -301 0
-673 545 0
673 301 -545 0
-849 291 0
-849 785 0
849 -291 -785 0
-977 292 0
-977 849 0
977 -292 -849 0
-1105 -293 0
-1105 977 0
1105 293 -977 0
-1281 283 0
-1281 1217 0
1281 -283 -1217 0
-1409 284 0
-1409 1281 0
1409 -284 -1281 0
-1537 -285 0
-1537 1409 0
1537 285 -1409 0
-1713 275 0
-1713 1649 0
1713 -275 -1649 0
-1841 276 0
-1841 1713 0
1841 -276 -1713 0
-1969 -277 0
-1969 1841 0
1969 277 -1841 0
-2145 267 0
-2145 2081 0
2145 -267 -2081 0
-2273 268 0
-2273 2145 0
2273 -268 -2145 0
-2401 -269 0
-2401 2273 0
2401 269 -2273 0
-2577 259 0
-2577 2513 0
2577 -259 -2513 0
-2705 260 0
-2705 2577 0
2705 -260 -2577 0
-2833 -261 0
-2833 2705 0
2833 261 -2705 0
-3009 251 0
-3009 2945 0
3009 -251 -2945 0
-3137 252 0
-3137 3009 0
3137 -252 -3009 0
-3265 -253 0
-3265 3137 0
3265 253 -3137 0
-3441 243 0
-3441 3377 0
3441 -243 -3377 0
-3569 244 0
-3569 3441 0
3569 -244 -3441 0
-3697 -245 0
-3697 3569 0
3697 245 -3569 0
-3873 235 0
-3873 3809 0
3873 -235 -3809 0
-4001 236 0
-4001 3873 0
4001 -236 -3873 0
-4129 -237 0
-4129 4001 0
4129 237 -4001 0
-4305 227 0
-4305 4241 0
4305 -227 -4241 0
-4433 228 0
-4433 4305 0
4433 -228 -4305 0
-4561 -229 0
-4561 4433 0
4561 229 -4433 0
-4737 219 0
-4737 4673 0
4737 -219 -4673 0
-4865 220 0
-4865 4737 0
4865 -220 -4737 0
-4993 -221 0
-4993 4865 0
4993 221 -4865 0
-5169 211 0
-5169 5105 0
5169 -211 -5105 0
-5297 212 0
-5297 5169 0
5297 -212 -5169 0
-5425 -213 0
-5425 5297 0
5425 213 -5297 0
-5601 203 0
-5601 5537 0
5601 -203 -5537 0
-5729 204 0
-5729 5601 0
5729 -204 -5601 0
-5857 -205 0
-5857 5729 0
5857 205 -5729 0
-6033 195 0
-6033 5969 0
6033 -195 -5969 0
-6161 196 0
-6161 6033 0
6161 -196 -6033 0
-6289 -197 0
-6289 6161 0
6289 197 -6161 0
-6465 187 0
-6465 6401 0
6465 -187 -6401 0
-6593 188 0
-6593 6465 0
6593 -188 -6465 0
-6721 -189 0
-6721 6593 0
6721 189 -6593 0
-6901 -6289 0
-6901 -6721 0
6901 6289 6721 0
-7081 -5857 0
-7081 6901 0
7081 5857 -6901 0
-7261 -5425 0
-7261 7081 0
7261 5425 -7081 0
-7441 -4993 0
-7441 7261 0
7441 4993 -7261 0
-7621 -4561 0
-7621 7441 0
7621 4561 -7441 0
-7801 -4129 0
-7801 7621 0
7801 4129 -7621 0
-7981 -3697 0
-7981 7801 0
7981 3697 -7801 0
-8161 -3265 0
-8161 7981 0
8161 3265 -7981 0
-8341 -2833 0
-8341 8161 0
8341 2833 -8161 0
-8521 -2401 0
-8521 8341 0
8521 2401 -8341 0
-8701 -1969 0
-8701 8521 0
8701 1969 -8521 0
-8881 -1537 0
-8881 8701 0
8881 1537 -8701 0
-9061 -1105 0
-9061 8881 0
9061 1105 -8881 0
-9241 -673 0
-9241 9061 0
9241 673 -9061 0
-9659 121 0
-9659 9241 0
9659 -121 -9241 0
-9660 -121 0
-9660 -9241 0
9660 121 9241 0
-9661 -9659 0
-9661 -9660 0
9661 9659 9660 0
120 -52130 0
-120 52130 0
-416 299 0
-416 352 0
416 -299 -352 0
-544 300 0
-544 416 0
544 -300 -416 0
-672 -301 0
-672 544 0
672 301 -544 0
-848 291 0
-848 784 0
848 -291 -784 0
-976 292 0
-976 848 0
976 -292 -848 0
-1104 -293 0
-1104 976 0
1104 293 -976 0
-1280 283 0
-1280 1216 0
1280 -283 -1216 0
-1408 284 0
-1408 1280 0
1408 -284 -1280 0
-1536 -285 0
-1536 1408 0
1536 285 -1408 0
-1712 275 0
-1712 1648 0
1712 -275 -1648 0
-1840 276 0
-1840 1712 0
1840 -276 -1712 0
-1968 -277 0
-1968 1840 0
1968 277 -1840 0
-2144 267 0
-2144 2080 0
2144 -267 -2080 0
-2272 268 0
-2272 2144 0
2272 -268 -2144 0
-2400 -269 0
-2400 2272 0
2400 269 -2272 0
-2576 259 0
-2576 2512 0
2576 -259 -2512 0
-2704 260 0
-2704 2576 0
2704 -260 -2576 0
-2832 -261 0
-2832 2704 0
2832 261 -2704 0
-3008 251 0
-3008 2944 0
3008 -251 -2944 0
-3136 252 0
-3136 3008 0
3136 -252 -3008 0
-3264 -253 0
-3264 3136 0
3264 253 -3136 0
-3440 243 0
-3440 3376 0
3440 -243 -3376 0
-3568 244 0
-3568 3440 0
3568 -244 -3440 0
-3696 -245 0
-3696 3568 0
3696 245 -3568 0
-3872 235 0
-3872 3808 0
3872 -235 -3808 0
-4000 236 0
-4000 3872 0
4000 -236 -3872 0
-4128 -237 0
-4128 4000 0
4128 237 -4000 0
-4304 227 0
-4304 4240 0
4304 -227 -4240 0
-4432 228 0
-4432 4304 0
4432 -228 -4304 0
-4560 -229 0
-4560 4432 0
4560 229 -4432 0
-4736 219 0
-4736 4672 0
4736 -219 -4672 0
-4864 220 0
-4864 4736 0
4864 -220 -4736 0
-4992 -221 0
-4992 4864 0
4992 221 -4864 0
-5168 211 0
-5168 5104 0
5168 -211 -5104 0
-5296 212 0
-5296 5168 0
5296 -212 -5168 0
-5424 -213 0
-5424 5296 0
5424 213 -5296 0
-5600 203 0
-5600 5536 0
5600 -203 -5536 0
-5728 204 0
-5728 5600 0
5728 -204 -5600 0
-5856 -205 0
-5856 5728 0
5856 205 -5728 0
-6032 195 0
-6032 5968 0
6032 -195 -5968 0
-6160 196 0
-6160 6032 0
6160 -196 -6032 0
-6288 -197 0
-6288 6160 0
6288 197 -6160 0
-6464 187 0
-6464 6400 0
6464 -187 -6400 0
-6592 188 0
-6592 6464 0
6592 -188 -6464 0
-6720 -189 0
-6720 6592 0
6720 189 -6592 0
-6900 -6288 0
-6900 -6720 0
6900 6288 6720 0
-7080 -5856 0
-7080 6900 0
7080 5856 -6900 0
-7260 -5424 0
-7260 7080 0
7260 5424 -7080 0
-7440 -4992 0
-7440 7260 0
7440 4992 -7260 0
-7620 -4560 0
-7620 7440 0
7620 4560 -7440 0
-7800 -4128 0
-7800 7620 0
7800 4128 -7620 0
-7980 -3696 0
-7980 7800 0
7980 3696 -7800 0
-8160 -3264 0
-8160 7980 0
8160 3264 -7980 0
-8340 -2832 0
-8340 8160 0
8340 2832 -8160 0
-8520 -2400 0
-8520 8340 0
8520 2400 -8340 0
-8700 -1968 0
-8700 8520 0
8700 1968 -8520 0
-8880 -1536 0
-8880 8700 0
8880 1536 -8700 0
-9060 -1104 0
-9060 8880 0
9060 1104 -8880 0
-9240 -672 0
-9240 9060 0
9240 672 -9060 0
-9656 120 0
-9656 9240 0
9656 -120 -9240 0
-9657 -120 0
-9657 -9240 0
9657 120 9240 0
-9658 -9656 0
-9658 -9657 0
9658 9656 9657 0
119 -52129 0
-119 52129 0
-415 299 0
-415 351 0
415 -299 -351 0
-543 300 0
-543 415 0
543 -300 -415 0
-671 -301 0
-671 543 0
671 301 -543 0
-847 291 0
-847 783 0
847 -291 -783 0
-975 292 0
-975 847 0
975 -292 -847 0
-1103 -293 0
-1103 975 0
1103 293 -975 0
-1279 283 0
-1279 1215 0
1279 -283 -1215 0
-1407 284 0
-1407 1279 0
1407 -284 -1279 0
-1535 -285 0
-1535 1407 0
1535 285 -1407 0
-1711 275 0
-1711 1647 0
1711 -275 -1647 0
-1839 276 0
-1839 1711 0
1839 -276 -1711 0
-1967 -277 0
-1967 1839 0
1967 277 -1839 0
-2143 267 0
-2143 2079 0
2143 -267 -2079 0
-2271 268 0
-2271 2143 0
2271 -268 -2143 0
-2399 -269 0
-2399 2271 0
2399 269 -2271 0
-2575 259 0
-2575 2511 0
2575 -259 -2511 0
-2703 260 0
-2703 2575 0
2703 -260 -2575 0
-2831 -261 0
-2831 2703 0
2831 261 -2703 0
-3007 251 0
-3007 2943 0
3007 -251 -2943 0
-3135 252 0
-3135 3007 0
3135 -252 -3007 0
-3263 -253 0
-3263 3135 0
3263 253 -3135 0
-3439 243 0
-3439 3375 0
3439 -243 -3375 0
-3567 244 0
-3567 3439 0
3567 -244 -3439 0
-3695 -245 0
-3695 3567 0
3695 245 -3567 0
-3871 235 0
-3871 3807 0
3871 -235 -3807 0
-3999 236 0
-3999 3871 0
3999 -236 -3871 0
-4127 -237 0
-4127 3999 0
4127 237 -3999 0
-4303 227 0
-4303 4239 0
4303 -227 -4239 0
-4431 228 0
-4431 4303 0
4431 -228 -4303 0
-4559 -229 0
-4559 4431 0
4559 229 -4431 0
-4735 219 0
-4735 4671 0
4735 -219 -4671 0
-4863 220 0
-4863 4735 0
4863 -220 -4735 0
-4991 -221 0
-4991 4863 0
4991 221 -4863 0
-5167 211 0
-5167 5103 0
5167 -211 -5103 0
-5295 212 0
-5295 5167 0
5295 -212 -5167 0
-5423 -213 0
-5423 5295 0
5423 213 -5295 0
-5599 203 0
-5599 5535 0
5599 -203 -5535 0
-5727 204 0
-5727 5599 0
5727 -204 -5599 0
-5855 -205 0
-5855 5727 0
5855 205 -5727 0
-6031 195 0
-6031 5967 0
6031 -195 -5967 0
-6159 196 0
-6159 6031 0
6159 -196 -6031 0
-6287 -197 0
-6287 6159 0
6287 197 -6159 0
-6463 187 0
-6463 6399 0
6463 -187 -6399 0
-6591 188 0
-6591 6463 0
6591 -188 -6463 0
-6719 -189 0
-6719 6591 0
6719 189 -6591 0
-6899 -6287 0
-6899 -6719 0
6899 6287 6719 0
-7079 -5855 0
-7079 6899 0
7079 5855 -6899 0
-7259 -5423 0
-7259 7079 0
7259 5423 -7079 0
-7439 -4991 0
-7439 7259 0
7439 4991 -7259 0
-7619 -4559 0
-7619 7439 0
7619 4559 -7439 0
-7799 -4127 0
-7799 7619 0
7799 4127 -7619 0
-7979 -3695 0
-7979 7799 0
7979 3695 -7799 0
-8159 -3263 0
-8159 7979 0
8159 3263 -7979 0
-8339 -2831 0
-8339 8159 0
8339 2831 -8159 0
-8519 -2399 0
-8519 8339 0
8519 2399 -8339 0
-8699 -1967 0
-8699 8519 0
8699 1967 -8519 0
-8879 -1535 0
-8879 8699 0
8879 1535 -8699 0
-9059 -1103 0
-9059 8879 0
9059 1103 -8879 0
-9239 -671 0
-9239 9059 0
9239 671 -9059 0
-9653 119 0
-9653 9239 0
9653 -119 -9239 0
-9654 -119 0
-9654 -9239 0
9654 119 9239 0
-9655 -9653 0
-9655 -9654 0
9655 9653 9654 0
118 -52128 0
-118 52128 0
-414 299 0
-414 350 0
414 -299 -350 0
-542 300 0
-542 414 0
542 -300 -414 0
-670 -301 0
-670 542 0
670 301 -542 0
-846 291 0
-846 782 0
846 -291 -782 0
-974 292 0
-974 846 0
974 -292 -846 0
-1102 -293 0
-1102 974 0
1102 293 -974 0
-1278 283 0
-1278 1214 0
1278 -283 -1214 0
-1406 284 0
-1406 1278 0
1406 -284 -1278 0
-1534 -285 0
-1534 1406 0
1534 285 -1406 0
-1710 275 0
-1710 1646 0
1710 -275 -1646 0
-1838 276 0
-1838 1710 0
1838 -276 -1710 0
-1966 -277 0
-1966 1838 0
1966 277 -1838 0
-2142 267 0
-2142 2078 0
2142 -267 -2078 0
-2270 268 0
-2270 2142 0
2270 -268 -2142 0
-2398 -269 0
-2398 2270 0
2398 269 -2270 0
-2574 259 0
-2574 2510 0
2574 -259 -2510 0
-2702 260 0
-2702 2574 0
2702 -260 -2574 0
-2830 -261 0
-2830 2702 0
2830 261 -2702 0
-3006 251 0
-3006 2942 0
3006 -251 -2942 0
-3134 252 0
-3134 3006 0
3134 -252 -3006 0
-3262 -253 0
-3262 3134 0
3262 253 -3134 0
-3438 243 0
-3438 3374 0
3438 -243 -3374 0
-3566 244 0
-3566 3438 0
3566 -244 -3438 0
-3694 -245 0
-3694 3566 0
3694 245 -3566 0
-3870 235 0
-3870 3806 0
3870 -235 -3806 0
-3998 236 0
-3998 3870 0
3998 -236 -3870 0
-4126 -237 0
-4126 3998 0
4126 237 -3998 0
-4302 227 0
-4302 4238 0
4302 -227 -4238 0
-4430 228 0
-4430 4302 0
4430 -228 -4302 0
-4558 -229 0
-4558 4430 0
4558 229 -4430 0
-4734 219 0
-4734 4670 0
4734 -219 -4670 0
-4862 220 0
-4862 4734 0
4862 -220 -4734 0
-4990 -221 0
-4990 4862 0
4990 221 -4862 0
-5166 211 0
-5166 5102 0
5166 -211 -5102 0
-5294 212 0
-5294 5166 0
5294 -212 -5166 0
-5422 -213 0
-5422 5294 0
5422 213 -5294 0
-5598 203 0
-5598 5534 0
5598 -203 -5534 0
-5726 204 0
-5726 5598 0
5726 -204 -5598 0
-5854 -205 0
-5854 5726 0
5854 205 -5726 0
-6030 195 0
-6030 5966 0
6030 -195 -5966 0
-6158 196 0
-6158 6030 0
6158 -196 -6030 0
-6286 -197 0
-6286 6158 0
6286 197 -6158 0
-6462 187 0
-6462 6398 0
6462 -187 -6398 0
-6590 188 0
-6590 6462 0
6590 -188 -6462 0
-6718 -189 0
-6718 6590 0
6718 189 -6590 0
-6898 -6286 0
-6898 -6718 0
6898 6286 6718 0
-7078 -5854 0
-7078 6898 0
7078 5854 -6898 0
-7258 -5422 0
-7258 7078 0
7258 5422 -7078 0
-7438 -4990 0
-7438 7258 0
7438 4990 -7258 0
-7618 -4558 0
-7618 7438 0
7618 4558 -7438 0
-7798 -4126 0
-7798 7618 0
7798 4126 -7618 0
-7978 -3694 0
-7978 7798 0
7978 3694 -7798 0
-8158 -3262 0
-8158 7978 0
8158 3262 -7978 0
-8338 -2830 0
-8338 8158 0
8338 2830 -8158 0
-8518 -2398 0
-8518 8338 0
8518 2398 -8338 0
-8698 -1966 0
-8698 8518 0
8698 1966 -8518 0
-8878 -1534 0
-8878 8698 0
8878 1534 -8698 0
-9058 -1102 0
-9058 8878 0
9058 1102 -8878 0
-9238 -670 0
-9238 9058 0
9238 670 -9058 0
-9650 118 0
-9650 9238 0
9650 -118 -9238 0
-9651 -118 0
-9651 -9238 0
9651 118 9238 0
-9652 -9650 0
-9652 -9651 0
9652 9650 9651 0
117 -52127 0
-117 52127 0
-541 300 0
-541 413 0
541 -300 -413 0
-669 -301 0
-669 541 0
669 301 -541 0
-973 292 0
-973 845 0
973 -292 -845 0
-1101 -293 0
-1101 973 0
1101 293 -973 0
-1405 284 0
-1405 1277 0
1405 -284 -1277 0
-1533 -285 0
-1533 1405 0
1533 285 -1405 0
-1837 276 0
-1837 1709 0
1837 -276 -1709 0
-1965 -277 0
-1965 1837 0
1965 277 -1837 0
-2269 268 0
-2269 2141 0
2269 -268 -2141 0
-2397 -269 0
-2397 2269 0
2397 269 -2269 0
-2701 260 0
-2701 2573 0
2701 -260 -2573 0
-2829 -261 0
-2829 2701 0
2829 261 -2701 0
-3133 252 0
-3133 3005 0
3133 -252 -3005 0
-3261 -253 0
-3261 3133 0
3261 253 -3133 0
-3565 244 0
-3565 3437 0
3565 -244 -3437 0
-3693 -245 0
-3693 3565 0
3693 245 -3565 0
-3997 236 0
-3997 3869 0
3997 -236 -3869 0
-4125 -237 0
-4125 3997 0
4125 237 -3997 0
-4429 228 0
-4429 4301 0
4429 -228 -4301 0
-4557 -229 0
-4557 4429 0
4557 229 -4429 0
-4861 220 0
-4861 4733 0
4861 -220 -4733 0
-4989 -221 0
-4989 4861 0
4989 221 -4861 0
-5293 212 0
-5293 5165 0
5293 -212 -5165 0
-5421 -213 0
-5421 5293 0
5421 213 -5293 0
-5725 204 0
-5725 5597 0
5725 -204 -5597 0
-5853 -205 0
-5853 5725 0
5853 205 -5725 0
-6157 196 0
-6157 6029 0
6157 -196 -6029 0
-6285 -197 0
-6285 6157 0
6285 197 -6157 0
-6589 188 0
-6589 6461 0
6589 -188 -6461 0
-6717 -189 0
-6717 6589 0
6717 189 -6589 0
-6897 -6285 0
-6897 -6717 0
6897 6285 6717 0
-7077 -5853 0
-7077 6897 0
7077 5853 -6897 0
-7257 -5421 0
-7257 7077 0
7257 5421 -7077 0
-7437 -4989 0
-7437 7257 0
7437 4989 -7257 0
-7617 -4557 0
-7617 7437 0
7617 4557 -7437 0
-7797 -4125 0
-7797 7617 0
7797 4125 -7617 0
-7977 -3693 0
-7977 7797 0
7977 3693 -7797 0
-8157 -3261 0
-8157 7977 0
8157 3261 -7977 0
-8337 -2829 0
-8337 8157 0
8337 2829 -8157 0
-8517 -2397 0
-8517 8337 0
8517 2397 -8337 0
-8697 -1965 0
-8697 8517 0
8697 1965 -8517 0
-8877 -1533 0
-8877 8697 0
8877 1533 -8697 0
-9057 -1101 0
-9057 8877 0
9057 1101 -8877 0
-9237 -669 0
-9237 9057 0
9237 669 -9057 0
-9647 117 0
-9647 9237 0
9647 -117 -9237 0
-9648 -117 0
-9648 -9237 0
9648 117 9237 0
-9649 -9647 0
-9649 -9648 0
9649 9647 9648 0
116 -52126 0
-116 52126 0
-540 300 0
-540 412 0
540 -300 -412 0
-668 -301 0
-668 540 0
668 301 -540 0
-972 292 0
-972 844 0
972 -292 -844 0
-1100 -293 0
-1100 972 0
1100 293 -972 0
-1404 284 0
-1404 1276 0
1404 -284 -1276 0
-1532 -285 0
-1532 1404 0
1532 285 -1404 0
-1836 276 0
-1836 1708 0
1836 -276 -1708 0
-1964 -277 0
-1964 1836 0
1964 277 -1836 0
-2268 268 0
-2268 2140 0
2268 -268 -2140 0
-2396 -269 0
-2396 2268 0
2396 269 -2268 0
-2700 260 0
-2700 2572 0
2700 -260 -2572 0
-2828 -261 0
-2828 2700 0
2828 261 -2700 0
-3132 252 0
-3132 3004 0
3132 -252 -3004 0
-3260 -253 0
-3260 3132 0
3260 253 -3132 0
-3564 244 0
-3564 3436 0
3564 -244 -3436 0
-3692 -245 0
-3692 3564 0
3692 245 -3564 0
-3996 236 0
-3996 3868 0
3996 -236 -3868 0
-4124 -237 0
-4124 3996 0
4124 237 -3996 0
-4428 228 0
-4428 4300 0
4428 -228 -4300 0
-4556 -229 0
-4556 4428 0
4556 229 -4428 0
-4860 220 0
-4860 4732 0
4860 -220 -4732 0
-4988 -221 0
-4988 4860 0
4988 221 -4860 0
-5292 212 0
-5292 5164 0
5292 -212 -5164 0
-5420 -213 0
-5420 5292 0
5420 213 -5292 0
-5724 204 0
-5724 5596 0
5724 -204 -5596 0
-5852 -205 0
-5852 5724 0
5852 205 -5724 0
-6156 196 0
-6156 6028 0
6156 -196 -6028 0
-6284 -197 0
-6284 6156 0
6284 197 -6156 0
-6588 188 0
-6588 6460 0
6588 -188 -6460 0
-6716 -189 0
-6716 6588 0
6716 189 -6588 0
-6896 -6284 0
-6896 -6716 0
6896 6284 6716 0
-7076 -5852 0
-7076 6896 0
7076 5852 -6896 0
-7256 -5420 0
-7256 7076 0
7256 5420 -7076 0
-7436 -4988 0
-7436 7256 0
7436 4988 -7256 0
-7616 -4556 0
-7616 7436 0
7616 4556 -7436 0
-7796 -4124 0
-7796 7616 0
7796 4124 -7616 0
-7976 -3692 0
-7976 7796 0
7976 3692 -7796 0
-8156 -3260 0
-8156 7976 0
8156 3260 -7976 0
-8336 -2828 0
-8336 8156 0
8336 2828 -8156 0
-8516 -2396 0
-8516 8336 0
8516 2396 -8336 0
-8696 -1964 0
-8696 8516 0
8696 1964 -8516 0
-8876 -1532 0
-8876 8696 0
8876 1532 -8696 0
-9056 -1100 0
-9056 8876 0
9056 1100 -8876 0
-9236 -668 0
-9236 9056 0
9236 668 -9056 0
-9644 116 0
-9644 9236 0
9644 -116 -9236 0
-9645 -116 0
-9645 -9236 0
9645 116 9236 0
-9646 -9644 0
-9646 -9645 0
9646 9644 9645 0
115 -52125 0
-115 52125 0
-539 300 0
-539 411 0
539 -300 -411 0
-667 -301 0
-667 539 0
667 301 -539 0
-971 292 0
-971 843 0
971 -292 -843 0
-1099 -293 0
-1099 971 0
1099 293 -971 0
-1403 284 0
-1403 1275 0
1403 -284 -1275 0
-1531 -285 0
-1531 1403 0
1531 285 -1403 0
-1835 276 0
-1835 1707 0
1835 -276 -1707 0
-1963 -277 0
-1963 1835 0
1963 277 -1835 0
-2267 268 0
-2267 2139 0
2267 -268 -2139 0
-2395 -269 0
-2395 2267 0
2395 269 -2267 0
-2699 260 0
-2699 2571 0
2699 -260 -2571 0
-2827 -261 0
-2827 2699 0
2827 261 -2699 0
-3131 252 0
-3131 3003 0
3131 -252 -3003 0
-3259 -253 0
-3259 3131 0
3259 253 -3131 0
-3563 244 0
-3563 3435 0
3563 -244 -3435 0
-3691 -245 0
-3691 3563 0
3691 245 -3563 0
-3995 236 0
-3995 3867 0
3995 -236 -3867 0
-4123 -237 0
-4123 3995 0
4123 237 -3995 0
-4427 228 0
-4427 4299 0
4427 -228 -4299 0
-4555 -229 0
-4555 4427 0
4555 229 -4427 0
-4859 220 0
-4859 4731 0
4859 -220 -4731 0
-4987 -221 0
-4987 4859 0
4987 221 -4859 0
-5291 212 0
-5291 5163 0
5291 -212 -5163 0
-5419 -213 0
-5419 5291 0
5419 213 -5291 0
-5723 204 0
-5723 5595 0
5723 -204 -5595 0
-5851 -205 0
-5851 5723 0
5851 205 -5723 0
-6155 196 0
-6155 6027 0
6155 -196 -6027 0
-6283 -197 0
-6283 6155 0
6283 197 -6155 0
-6587 188 0
-6587 6459 0
6587 -188 -6459 0
-6715 -189 0
-6715 6587 0
6715 189 -6587 0
-6895 -6283 0
-6895 -6715 0
6895 6283 6715 0
-7075 -5851 0
-7075 6895 0
7075 5851 -6895 0
-7255 -5419 0
-7255 7075 0
7255 5419 -7075 0
-7435 -4987 0
-7435 7255 0
7435 4987 -7255 0
-7615 -4555 0
-7615 7435 0
7615 4555 -7435 0
-7795 -4123 0
-7795 7615 0
7795 4123 -7615 0
-7975 -3691 0
-7975 7795 0
7975 3691 -7795 0
-8155 -3259 0
-8155 7975 0
8155 3259 -7975 0
-8335 -2827 0
-8335 8155 0
8335 2827 -8155 0
-8515 -2395 0
-8515 8335 0
8515 2395 -8335 0
-8695 -1963 0
-8695 8515 0
8695 1963 -8515 0
-8875 -1531 0
-8875 8695 0
8875 1531 -8695 0
-9055 -1099 0
-9055 8875 0
9055 1099 -8875 0
-9235 -667 0
-9235 9055 0
9235 667 -9055 0
-9641 115 0
-9641 9235 0
9641 -115 -9235 0
-9642 -115 0
-9642 -9235 0
9642 115 9235 0
-9643 -9641 0
-9643 -9642 0
9643 9641 9642 0
114 -52124 0
-114 52124 0
-538 300 0
-538 410 0
538 -300 -410 0
-666 -301 0
-666 538 0
666 301 -538 0
-970 292 0
-970 842 0
970 -292 -842 0
-1098 -293 0
-1098 970 0
1098 293 -970 0
-1402 284 0
-1402 1274 0
1402 -284 -1274 0
-1530 -285 0
-1530 1402 0
1530 285 -1402 0
-1834 276 0
-1834 1706 0
1834 -276 -1706 0
-1962 -277 0
-1962 1834 0
1962 277 -1834 0
-2266 268 0
-2266 2138 0
2266 -268 -2138 0
-2394 -269 0
-2394 2266 0
2394 269 -2266 0
-2698 260 0
-2698 2570 0
2698 -260 -2570 0
-2826 -261 0
-2826 2698 0
2826 261 -2698 0
-3130 252 0
-3130 3002 0
3130 -252 -3002 0
-3258 -253 0
-3258 3130 0
3258 253 -3130 0
-3562 244 0
-3562 3434 0
3562 -244 -3434 0
-3690 -245 0
-3690 3562 0
3690 245 -3562 0
-3994 236 0
-3994 3866 0
3994 -236 -3866 0
-4122 -237 0
-4122 3994 0
4122 237 -3994 0
-4426 228 0
-4426 4298 0
4426 -228 -4298 0
-4554 -229 0
-4554 4426 0
4554 229 -4426 0
-4858 220 0
-4858 4730 0
4858 -220 -4730 0
-4986 -221 0
-4986 4858 0
4986 221 -4858 0
-5290 212 0
-5290 5162 0
5290 -212 -5162 0
-5418 -213 0
-5418 5290 0
5418 213 -5290 0
-5722 204 0
-5722 5594 0
5722 -204 -5594 0
-5850 -205 0
-5850 5722 0
5850 205 -5722 0
-6154 196 0
-6154 6026 0
6154 -196 -6026 0
-6282 -197 0
-6282 6154 0
6282 197 -6154 0
-6586 188 0
-6586 6458 0
6586 -188 -6458 0
-6714 -189 0
-6714 6586 0
6714 189 -6586 0
-6894 -6282 0
-6894 -6714 0
6894 6282 6714 0
-7074 -5850 0
-7074 6894 0
7074 5850 -6894 0
-7254 -5418 0
-7254 7074 0
7254 5418 -7074 0
-7434 -4986 0
-7434 7254 0
7434 4986 -7254 0
-7614 -4554 0
-7614 7434 0
7614 4554 -7434 0
-7794 -4122 0
-7794 7614 0
7794 4122 -7614 0
-7974 -3690 0
-7974 7794 0
7974 3690 -7794 0
-8154 -3258 0
-8154 7974 0
8154 3258 -7974 0
-8334 -2826 0
-8334 8154 0
8334 2826 -8154 0
-8514 -2394 0
-8514 8334 0
8514 2394 -8334 0
-8694 -1962 0
-8694 8514 0
8694 1962 -8514 0
-8874 -1530 0
-8874 8694 0
8874 1530 -8694 0
-9054 -1098 0
-9054 8874 0
9054 1098 -8874 0
-9234 -666 0
-9234 9054 0
9234 666 -9054 0
-9638 114 0
-9638 9234 0
9638 -114 -9234 0
-9639 -114 0
-9639 -9234 0
9639 114 9234 0
-9640 -9638 0
-9640 -9639 0
9640 9638 9639 0
113 -52123 0
-113 52123 0
-537 300 0
-537 409 0
537 -300 -409 0
-665 -301 0
-665 537 0
665 301 -537 0
-969 292 0
-969 841 0
969 -292 -841 0
-1097 -293 0
-1097 969 0
1097 293 -969 0
-1401 284 0
-1401 1273 0
1401 -284 -1273 0
-1529 -285 0
-1529 1401 0
1529 285 -1401 0
-1833 276 0
-1833 1705 0
1833 -276 -1705 0
-1961 -277 0
-1961 1833 0
1961 277 -1833 0
-2265 268 0
-2265 2137 0
2265 -268 -2137 0
-2393 -269 0
-2393 2265 0
2393 269 -2265 0
-2697 260 0
-2697 2569 0
2697 -260 -2569 0
-2825 -261 0
-2825 2697 0
2825 261 -2697 0
-3129 252 0
-3129 3001 0
3129 -252 -3001 0
-3257 -253 0
-3257 3129 0
3257 253 -3129 0
-3561 244 0
-3561 3433 0
3561 -244 -3433 0
-3689 -245 0
-3689 3561 0
3689 245 -3561 0
-3993 236 0
-3993 3865 0
3993 -236 -3865 0
-4121 -237 0
-4121 3993 0
4121 237 -3993 0
-4425 228 0
-4425 4297 0
4425 -228 -4297 0
-4553 -229 0
-4553 4425 0
4553 229 -4425 0
-4857 220 0
-4857 4729 0
4857 -220 -4729 0
-4985 -221 0
-4985 4857 0
4985 221 -4857 0
-5289 212 0
-5289 5161 0
5289 -212 -5161 0
-5417 -213 0
-5417 5289 0
5417 213 -5289 0
-5721 204 0
-5721 5593 0
5721 -204 -5593 0
-5849 -205 0
-5849 5721 0
5849 205 -5721 0
-6153 196 0
-6153 6025 0
6153 -196 -6025 0
-6281 -197 0
-6281 6153 0
6281 197 -6153 0
-6585 188 0
-6585 6457 0
6585 -188 -6457 0
-6713 -189 0
-6713 6585 0
6713 189 -6585 0
-6893 -6281 0
-6893 -6713 0
6893 6281 6713 0
-7073 -5849 0
-7073 6893 0
7073 5849 -6893 0
-7253 -5417 0
-7253 7073 0
7253 5417 -7073 0
-7433 -4985 0
-7433 7253 0
7433 4985 -7253 0
-7613 -4553 0
-7613 7433 0
7613 4553 -7433 0
-7793 -4121 0
-7793 7613 0
7793 4121 -7613 0
-7973 -3689 0
-7973 7793 0
7973 3689 -7793 0
-8153 -3257 0
-8153 7973 0
8153 3257 -7973 0
-8333 -2825 0
-8333 8153 0
8333 2825 -8153 0
-8513 -2393 0
-8513 8333 0
8513 2393 -8333 0
-8693 -1961 0
-8693 8513 0
8693 1961 -8513 0
-8873 -1529 0
-8873 8693 0
8873 1529 -8693 0
-9053 -1097 0
-9053 8873 0
9053 1097 -8873 0
-9233 -665 0
-9233 9053 0
9233 665 -9053 0
-9635 113 0
-9635 9233 0
9635 -113 -9233 0
-9636 -113 0
-9636 -9233 0
9636 113 9233 0
-9637 -9635 0
-9637 -9636 0
9637 9635 9636 0
112 -52122 0
-112 52122 0
-536 300 0
-536 408 0
536 -300 -408 0
-664 -301 0
-664 536 0
664 301 -536 0
-968 292 0
-968 840 0
968 -292 -840 0
-1096 -293 0
-1096 968 0
1096 293 -968 0
-1400 284 0
-1400 1272 0
1400 -284 -1272 0
-1528 -285 0
-1528 1400 0
1528 285 -1400 0
-1832 276 0
-1832 1704 0
1832 -276 -1704 0
-1960 -277 0
-1960 1832 0
1960 277 -1832 0
-2264 268 0
-2264 2136 0
2264 -268 -2136 0
-2392 -269 0
-2392 2264 0
2392 269 -2264 0
-2696 260 0
-2696 2568 0
2696 -260 -2568 0
-2824 -261 0
-2824 2696 0
2824 261 -2696 0
-3128 252 0
-3128 3000 0
3128 -252 -3000 0
-3256 -253 0
-3256 3128 0
3256 253 -3128 0
-3560 244 0
-3560 3432 0
3560 -244 -3432 0
-3688 -245 0
-3688 3560 0
3688 245 -3560 0
-3992 236 0
-3992 3864 0
3992 -236 -3864 0
-4120 -237 0
-4120 3992 0
4120 237 -3992 0
-4424 228 0
-4424 4296 0
4424 -228 -4296 0
-4552 -229 0
-4552 4424 0
4552 229 -4424 0
-4856 220 0
-4856 4728 0
4856 -220 -4728 0
-4984 -221 0
-4984 4856 0
4984 221 -4856 0
-5288 212 0
-5288 5160 0
5288 -212 -5160 0
-5416 -213 0
-5416 5288 0
5416 213 -5288 0
-5720 204 0
-5720 5592 0
5720 -204 -5592 0
-5848 -205 0
-5848 5720 0
5848 205 -5720 0
-6152 196 0
-6152 6024 0
6152 -196 -6024 0
-6280 -197 0
-6280 6152 0
6280 197 -6152 0
-6584 188 0
-6584 6456 0
6584 -188 -6456 0
-6712 -189 0
-6712 6584 0
6712 189 -6584 0
-6892 -6280 0
-6892 -6712 0
6892 6280 6712 0
-7072 -5848 0
-7072 6892 0
7072 5848 -6892 0
-7252 -5416 0
-7252 7072 0
7252 5416 -7072 0
-7432 -4984 0
-7432 7252 0
7432 4984 -7252 0
-7612 -4552 0
-7612 7432 0
7612 4552 -7432 0
-7792 -4120 0
-7792 7612 0
7792 4120 -7612 0
-7972 -3688 0
-7972 7792 0
7972 3688 -7792 0
-8152 -3256 0
-8152 7972 0
8152 3256 -7972 0
-8332 -2824 0
-8332 8152 0
8332 2824 -8152 0
-8512 -2392 0
-8512 8332 0
8512 2392 -8332 0
-8692 -1960 0
-8692 8512 0
8692 1960 -8512 0
-8872 -1528 0
-8872 8692 0
8872 1528 -8692 0
-9052 -1096 0
-9052 8872 0
9052 1096 -8872 0
-9232 -664 0
-9232 9052 0
9232 664 -9052 0
-9632 112 0
-9632 9232 0
9632 -112 -9232 0
-9633 -112 0
-9633 -9232 0
9633 112 9232 0
-9634 -9632 0
-9634 -9633 0
9634 9632 9633 0
111 -52121 0
-111 52121 0
-535 300 0
-535 407 0
535 -300 -407 0
-663 -301 0
-663 535 0
663 301 -535 0
-967 292 0
-967 839 0
967 -292 -839 0
-1095 -293 0
-1095 967 0
1095 293 -967 0
-1399 284 0
-1399 1271 0
1399 -284 -1271 0
-1527 -285 0
-1527 1399 0
1527 285 -1399 0
-1831 276 0
-1831 1703 0
1831 -276 -1703 0
-1959 -277 0
-1959 1831 0
1959 277 -1831 0
-2263 268 0
-2263 2135 0
2263 -268 -2135 0
-2391 -269 0
-2391 2263 0
2391 269 -2263 0
-2695 260 0
-2695 2567 0
2695 -260 -2567 0
-2823 -261 0
-2823 2695 0
2823 261 -2695 0
-3127 252 0
-3127 2999 0
3127 -252 -2999 0
-3255 -253 0
-3255 3127 0
3255 253 -3127 0
-3559 244 0
-3559 3431 0
3559 -244 -3431 0
-3687 -245 0
-3687 3559 0
3687 245 -3559 0
-3991 236 0
-3991 3863 0
3991 -236 -3863 0
-4119 -237 0
-4119 3991 0
4119 237 -3991 0
-4423 228 0
-4423 4295 0
4423 -228 -4295 0
-4551 -229 0
-4551 4423 0
4551 229 -4423 0
-4855 220 0
-4855 4727 0
4855 -220 -4727 0
-4983 -221 0
-4983 4855 0
4983 221 -4855 0
-5287 212 0
-5287 5159 0
5287 -212 -5159 0
-5415 -213 0
-5415 5287 0
5415 213 -5287 0
-5719 204 0
-5719 5591 0
5719 -204 -5591 0
-5847 -205 0
-5847 5719 0
5847 205 -5719 0
-6151 196 0
-6151 6023 0
6151 -196 -6023 0
-6279 -197 0
-6279 6151 0
6279 197 -6151 0
-6583 188 0
-6583 6455 0
6583 -188 -6455 0
-6711 -189 0
-6711 6583 0
6711 189 -6583 0
-6891 -6279 0
-6891 -6711 0
6891 6279 6711 0
-7071 -5847 0
-7071 6891 0
7071 5847 -6891 0
-7251 -5415 0
-7251 7071 0
7251 5415 -7071 0
-7431 -4983 0
-7431 7251 0
7431 4983 -7251 0
-7611 -4551 0
-7611 7431 0
7611 4551 -7431 0
-7791 -4119 0
-7791 7611 0
7791 4119 -7611 0
-7971 -3687 0
-7971 7791 0
7971 3687 -7791 0
-8151 -3255 0
-8151 7971 0
8151 3255 -7971 0
-8331 -2823 0
-8331 8151 0
8331 2823 -8151 0
-8511 -2391 0
-8511 8331 0
8511 2391 -8331 0
-8691 -1959 0
-8691 8511 0
8691 1959 -8511 0
-8871 -1527 0
-8871 8691 0
8871 1527 -8691 0
-9051 -1095 0
-9051 8871 0
9051 1095 -8871 0
-9231 -663 0
-9231 9051 0
9231 663 -9051 0
-9629 111 0
-9629 9231 0
9629 -111 -9231 0
-9630 -111 0
-9630 -9231 0
9630 111 9231 0
-9631 -9629 0
-9631 -9630 0
9631 9629 9630 0
110 -52120 0
-110 52120 0
-534 300 0
-534 406 0
534 -300 -406 0
-662 -301 0
-662 534 0
662 301 -534 0
-966 292 0
-966 838 0
966 -292 -838 0
-1094 -293 0
-1094 966 0
1094 293 -966 0
-1398 284 0
-1398 1270 0
1398 -284 -1270 0
-1526 -285 0
-1526 1398 0
1526 285 -1398 0
-1830 276 0
-1830 1702 0
1830 -276 -1702 0
-1958 -277 0
-1958 1830 0
1958 277 -1830 0
-2262 268 0
-2262 2134 0
2262 -268 -2134 0
-2390 -269 0
-2390 2262 0
2390 269 -2262 0
-2694 260 0
-2694 2566 0
2694 -260 -2566 0
-2822 -261 0
-2822 2694 0
2822 261 -2694 0
-3126 252 0
-3126 2998 0
3126 -252 -2998 0
-3254 -253 0
-3254 3126 0
3254 253 -3126 0
-3558 244 0
-3558 3430 0
3558 -244 -3430 0
-3686 -245 0
-3686 3558 0
3686 245 -3558 0
-3990 236 0
-3990 3862 0
3990 -236 -3862 0
-4118 -237 0
-4118 3990 0
4118 237 -3990 0
-4422 228 0
-4422 4294 0
4422 -228 -4294 0
-4550 -229 0
-4550 4422 0
4550 229 -4422 0
-4854 220 0
-4854 4726 0
4854 -220 -4726 0
-4982 -221 0
-4982 4854 0
4982 221 -4854 0
-5286 212 0
-5286 5158 0
5286 -212 -5158 0
-5414 -213 0
-5414 5286 0
5414 213 -5286 0
-5718 204 0
-5718 5590 0
5718 -204 -5590 0
-5846 -205 0
-5846 5718 0
5846 205 -5718 0
-6150 196 0
-6150 6022 0
6150 -196 -6022 0
-6278 -197 0
-6278 6150 0
6278 197 -6150 0
-6582 188 0
-6582 6454 0
6582 -188 -6454 0
-6710 -189 0
-6710 6582 0
6710 189 -6582 0
-6890 -6278 0
-6890 -6710 0
6890 6278 6710 0
-7070 -5846 0
-7070 6890 0
7070 5846 -6890 0
-7250 -5414 0
-7250 7070 0
7250 5414 -7070 0
-7430 -4982 0
-7430 7250 0
7430 4982 -7250 0
-7610 -4550 0
-7610 7430 0
7610 4550 -7430 0
-7790 -4118 0
-7790 7610 0
7790 4118 -7610 0
-7970 -3686 0
-7970 7790 0
7970 3686 -7790 0
-8150 -3254 0
-8150 7970 0
8150 3254 -7970 0
-8330 -2822 0
-8330 8150 0
8330 2822 -8150 0
-8510 -2390 0
-8510 8330 0
8510 2390 -8330 0
-8690 -1958 0
-8690 8510 0
8690 1958 -8510 0
-8870 -1526 0
-8870 8690 0
8870 1526 -8690 0
-9050 -1094 0
-9050 8870 0
9050 1094 -8870 0
-9230 -662 0
-9230 9050 0
9230 662 -9050 0
-9626 110 0
-9626 9230 0
9626 -110 -9230 0
-9627 -110 0
-9627 -9230 0
9627 110 9230 0
-9628 -9626 0
-9628 -9627 0
9628 9626 9627 0
109 -52119 0
-109 52119 0
-533 300 0
-533 405 0
533 -300 -405 0
-661 -301 0
-661 533 0
661 301 -533 0
-965 292 0
-965 837 0
965 -292 -837 0
-1093 -293 0
-1093 965 0
1093 293 -965 0
-1397 284 0
-1397 1269 0
1397 -284 -1269 0
-1525 -285 0
-1525 1397 0
1525 285 -1397 0
-1829 276 0
-1829 1701 0
1829 -276 -1701 0
-1957 -277 0
-1957 1829 0
1957 277 -1829 0
-2261 268 0
-2261 2133 0
2261 -268 -2133 0
-2389 -269 0
-2389 2261 0
2389 269 -2261 0
-2693 260 0
-2693 2565 0
2693 -260 -2565 0
-2821 -261 0
-2821 2693 0
2821 261 -2693 0
-3125 252 0
-3125 2997 0
3125 -252 -2997 0
-3253 -253 0
-3253 3125 0
3253 253 -3125 0
-3557 244 0
-3557 3429 0
3557 -244 -3429 0
-3685 -245 0
-3685 3557 0
3685 245 -3557 0
-3989 236 0
-3989 3861 0
3989 -236 -3861 0
-4117 -237 0
-4117 3989 0
4117 237 -3989 0
-4421 228 0
-4421 4293 0
4421 -228 -4293 0
-4549 -229 0
-4549 4421 0
4549 229 -4421 0
-4853 220 0
-4853 4725 0
4853 -220 -4725 0
-4981 -221 0
-4981 4853 0
4981 221 -4853 0
-5285 212 0
-5285 5157 0
5285 -212 -5157 0
-5413 -213 0
-5413 5285 0
5413 213 -5285 0
-5717 204 0
-5717 5589 0
5717 -204 -5589 0
-5845 -205 0
-5845 5717 0
5845 205 -5717 0
-6149 196 0
-6149 6021 0
6149 -196 -6021 0
-6277 -197 0
-6277 6149 0
6277 197 -6149 0
-6581 188 0
-6581 6453 0
6581 -188 -6453 0
-6709 -189 0
-6709 6581 0
6709 189 -6581 0
-6889 -6277 0
-6889 -6709 0
6889 6277 6709 0
-7069 -5845 0
-7069 6889 0
7069 5845 -6889 0
-7249 -5413 0
-7249 7069 0
7249 5413 -7069 0
-7429 -4981 0
-7429 7249 0
7429 4981 -7249 0
-7609 -4549 0
-7609 7429 0
7609 4549 -7429 0
-7789 -4117 0
-7789 7609 0
7789 4117 -7609 0
-7969 -3685 0
-7969 7789 0
7969 3685 -7789 0
-8149 -3253 0
-8149 7969 0
8149 3253 -7969 0
-8329 -2821 0
-8329 8149 0
8329 2821 -8149 0
-8509 -2389 0
-8509 8329 0
8509 2389 -8329 0
-8689 -1957 0
-8689 8509 0
8689 1957 -8509 0
-8869 -1525 0
-8869 8689 0
8869 1525 -8689 0
-9049 -1093 0
-9049 8869 0
9049 1093 -8869 0
-9229 -661 0
-9229 9049 0
9229 661 -9049 0
-9623 109 0
-9623 9229 0
9623 -109 -9229 0
-9624 -109 0
-9624 -9229 0
9624 109 9229 0
-9625 -9623 0
-9625 -9624 0
9625 9623 9624 0
108 -52118 0
-108 52118 0
-532 300 0
-532 404 0
532 -300 -404 0
-660 -301 0
-660 532 0
660 301 -532 0
-964 292 0
-964 836 0
964 -292 -836 0
-1092 -293 0
-1092 964 0
1092 293 -964 0
-1396 284 0
-1396 1268 0
1396 -284 -1268 0
-1524 -285 0
-1524 1396 0
1524 285 -1396 0
-1828 276 0
-1828 1700 0
1828 -276 -1700 0
-1956 -277 0
-1956 1828 0
1956 277 -1828 0
-2260 268 0
-2260 2132 0
2260 -268 -2132 0
-2388 -269 0
-2388 2260 0
2388 269 -2260 0
-2692 260 0
-2692 2564 0
2692 -260 -2564 0
-2820 -261 0
-2820 2692 0
2820 261 -2692 0
-3124 252 0
-3124 2996 0
3124 -252 -2996 0
-3252 -253 0
-3252 3124 0
3252 253 -3124 0
-3556 244 0
-3556 3428 0
3556 -244 -3428 0
-3684 -245 0
-3684 3556 0
3684 245 -3556 0
-3988 236 0
-3988 3860 0
3988 -236 -3860 0
-4116 -237 0
-4116 3988 0
4116 237 -3988 0
-4420 228 0
-4420 4292 0
4420 -228 -4292 0
-4548 -229 0
-4548 4420 0
4548 229 -4420 0
-4852 220 0
-4852 4724 0
4852 -220 -4724 0
-4980 -221 0
-4980 4852 0
4980 221 -4852 0
-5284 212 0
-5284 5156 0
5284 -212 -5156 0
-5412 -213 0
-5412 5284 0
5412 213 -5284 0
-5716 204 0
-5716 5588 0
5716 -204 -5588 0
-5844 -205 0
-5844 5716 0
5844 205 -5716 0
-6148 196 0
-6148 6020 0
6148 -196 -6020 0
-6276 -197 0
-6276 6148 0
6276 197 -6148 0
-6580 188 0
-6580 6452 0
6580 -188 -6452 0
-6708 -189 0
-6708 6580 0
6708 189 -6580 0
-6888 -6276 0
-6888 -6708 0
6888 6276 6708 0
-7068 -5844 0
-7068 6888 0
7068 5844 -6888 0
-7248 -5412 0
-7248 7068 0
7248 5412 -7068 0
-7428 -4980 0
-7428 7248 0
7428 4980 -7248 0
-7608 -4548 0
-7608 7428 0
7608 4548 -7428 0
-7788 -4116 0
-7788 7608 0
7788 4116 -7608 0
-7968 -3684 0
-7968 7788 0
7968 3684 -7788 0
-8148 -3252 0
-8148 7968 0
8148 3252 -7968 0
-8328 -2820 0
-8328 8148 0
8328 2820 -8148 0
-8508 -2388 0
-8508 8328 0
8508 2388 -8328 0
-8688 -1956 0
-8688 8508 0
8688 1956 -8508 0
-8868 -1524 0
-8868 8688 0
8868 1524 -8688 0
-9048 -1092 0
-9048 8868 0
9048 1092 -8868 0
-9228 -660 0
-9228 9048 0
9228 660 -9048 0
-9620 108 0
-9620 9228 0
9620 -108 -9228 0
-9621 -108 0
-9621 -9228 0
9621 108 9228 0
-9622 -9620 0
-9622 -9621 0
9622 9620 9621 0
107 -52117 0
-107 52117 0
-531 300 0
-531 403 0
531 -300 -403 0
-659 -301 0
-659 531 0
659 301 -531 0
-963 292 0
-963 835 0
963 -292 -835 0
-1091 -293 0
-1091 963 0
1091 293 -963 0
-1395 284 0
-1395 1267 0
1395 -284 -1267 0
-1523 -285 0
-1523 1395 0
1523 285 -1395 0
-1827 276 0
-1827 1699 0
1827 -276 -1699 0
-1955 -277 0
-1955 1827 0
1955 277 -1827 0
-2259 268 0
-2259 2131 0
2259 -268 -2131 0
-2387 -269 0
-2387 2259 0
2387 269 -2259 0
-2691 260 0
-2691 2563 0
2691 -260 -2563 0
-2819 -261 0
-2819 2691 0
2819 261 -2691 0
-3123 252 0
-3123 2995 0
3123 -252 -2995 0
-3251 -253 0
-3251 3123 0
3251 253 -3123 0
-3555 244 0
-3555 3427 0
3555 -244 -3427 0
-3683 -245 0
-3683 3555 0
3683 245 -3555 0
-3987 236 0
-3987 3859 0
3987 -236 -3859 0
-4115 -237 0
-4115 3987 0
4115 237 -3987 0
-4419 228 0
-4419 4291 0
4419 -228 -4291 0
-4547 -229 0
-4547 4419 0
4547 229 -4419 0
-4851 220 0
-4851 4723 0
4851 -220 -4723 0
-4979 -221 0
-4979 4851 0
4979 221 -4851 0
-5283 212 0
-5283 5155 0
5283 -212 -5155 0
-5411 -213 0
-5411 5283 0
5411 213 -5283 0
-5715 204 0
-5715 5587 0
5715 -204 -5587 0
-5843 -205 0
-5843 5715 0
5843 205 -5715 0
-6147 196 0
-6147 6019 0
6147 -196 -6019 0
-6275 -197 0
-6275 6147 0
6275 197 -6147 0
-6579 188 0
-6579 6451 0
6579 -188 -6451 0
-6707 -189 0
-6707 6579 0
6707 189 -6579 0
-6887 -6275 0
-6887 -6707 0
6887 6275 6707 0
-7067 -5843 0
-7067 6887 0
7067 5843 -6887 0
-7247 -5411 0
-7247 7067 0
7247 5411 -7067 0
-7427 -4979 0
-7427 7247 0
7427 4979 -7247 0
-7607 -4547 0
-7607 7427 0
7607 4547 -7427 0
-7787 -4115 0
-7787 7607 0
7787 4115 -7607 0
-7967 -3683 0
-7967 7787 0
7967 3683 -7787 0
-8147 -3251 0
-8147 7967 0
8147 3251 -7967 0
-8327 -2819 0
-8327 8147 0
8327 2819 -8147 0
-8507 -2387 0
-8507 8327 0
8507 2387 -8327 0
-8687 -1955 0
-8687 8507 0
8687 1955 -8507 0
-8867 -1523 0
-8867 8687 0
8867 1523 -8687 0
-9047 -1091 0
-9047 8867 0
9047 1091 -8867 0
-9227 -659 0
-9227 9047 0
9227 659 -9047 0
-9617 107 0
-9617 9227 0
9617 -107 -9227 0
-9618 -107 0
-9618 -9227 0
9618 107 9227 0
-9619 -9617 0
-9619 -9618 0
9619 9617 9618 0
106 -52116 0
-106 52116 0
-530 300 0
-530 402 0
530 -300 -402 0
-658 -301 0
-658 530 0
658 301 -530 0
-962 292 0
-962 834 0
962 -292 -834 0
-1090 -293 0
-1090 962 0
1090 293 -962 0
-1394 284 0
-1394 1266 0
1394 -284 -1266 0
-1522 -285 0
-1522 1394 0
1522 285 -1394 0
-1826 276 0
-1826 1698 0
1826 -276 -1698 0
-1954 -277 0
-1954 1826 0
1954 277 -1826 0
-2258 268 0
-2258 2130 0
2258 -268 -2130 0
-2386 -269 0
-2386 2258 0
2386 269 -2258 0
-2690 260 0
-2690 2562 0
2690 -260 -2562 0
-2818 -261 0
-2818 2690 0
2818 261 -2690 0
-3122 252 0
-3122 2994 0
3122 -252 -2994 0
-3250 -253 0
-3250 3122 0
3250 253 -3122 0
-3554 244 0
-3554 3426 0
3554 -244 -3426 0
-3682 -245 0
-3682 3554 0
3682 245 -3554 0
-3986 236 0
-3986 3858 0
3986 -236 -3858 0
-4114 -237 0
-4114 3986 0
4114 237 -3986 0
-4418 228 0
-4418 4290 0
4418 -228 -4290 0
-4546 -229 0
-4546 4418 0
4546 229 -4418 0
-4850 220 0
-4850 4722 0
4850 -220 -4722 0
-4978 -221 0
-4978 4850 0
4978 221 -4850 0
-5282 212 0
-5282 5154 0
5282 -212 -5154 0
-5410 -213 0
-5410 5282 0
5410 213 -5282 0
-5714 204 0
-5714 5586 0
5714 -204 -5586 0
-5842 -205 0
-5842 5714 0
5842 205 -5714 0
-6146 196 0
-6146 6018 0
6146 -196 -6018 0
-6274 -197 0
-6274 6146 0
6274 197 -6146 0
-6578 188 0
-6578 6450 0
6578 -188 -6450 0
-6706 -189 0
-6706 6578 0
6706 189 -6578 0
-6886 -6274 0
-6886 -6706 0
6886 6274 6706 0
-7066 -5842 0
-7066 6886 0
7066 5842 -6886 0
-7246 -5410 0
-7246 7066 0
7246 5410 -7066 0
-7426 -4978 0
-7426 7246 0
7426 4978 -7246 0
-7606 -4546 0
-7606 7426 0
7606 4546 -7426 0
-7786 -4114 0
-7786 7606 0
7786 4114 -7606 0
-7966 -3682 0
-7966 7786 0
7966 3682 -7786 0
-8146 -3250 0
-8146 7966 0
8146 3250 -7966 0
-8326 -2818 0
-8326 8146 0
8326 2818 -8146 0
-8506 -2386 0
-8506 8326 0
8506 2386 -8326 0
-8686 -1954 0
-8686 8506 0
8686 1954 -8506 0
-8866 -1522 0
-8866 8686 0
8866 1522 -8686 0
-9046 -1090 0
-9046 8866 0
9046 1090 -8866 0
-9226 -658 0
-9226 9046 0
9226 658 -9046 0
-9614 106 0
-9614 9226 0
9614 -106 -9226 0
-9615 -106 0
-9615 -9226 0
9615 106 9226 0
-9616 -9614 0
-9616 -9615 0
9616 9614 9615 0
105 -52115 0
-105 52115 0
-529 300 0
-529 401 0
529 -300 -401 0
-657 -301 0
-657 529 0
657 301 -529 0
-961 292 0
-961 833 0
961 -292 -833 0
-1089 -293 0
-1089 961 0
1089 293 -961 0
-1393 284 0
-1393 1265 0
1393 -284 -1265 0
-1521 -285 0
-1521 1393 0
1521 285 -1393 0
-1825 276 0
-1825 1697 0
1825 -276 -1697 0
-1953 -277 0
-1953 1825 0
1953 277 -1825 0
-2257 268 0
-2257 2129 0
2257 -268 -2129 0
-2385 -269 0
-2385 2257 0
2385 269 -2257 0
-2689 260 0
-2689 2561 0
2689 -260 -2561 0
-2817 -261 0
-2817 2689 0
2817 261 -2689 0
-3121 252 0
-3121 2993 0
3121 -252 -2993 0
-3249 -253 0
-3249 3121 0
3249 253 -3121 0
-3553 244 0
-3553 3425 0
3553 -244 -3425 0
-3681 -245 0
-3681 3553 0
3681 245 -3553 0
-3985 236 0
-3985 3857 0
3985 -236 -3857 0
-4113 -237 0
-4113 3985 0
4113 237 -3985 0
-4417 228 0
-4417 4289 0
4417 -228 -4289 0
-4545 -229 0
-4545 4417 0
4545 229 -4417 0
-4849 220 0
-4849 4721 0
4849 -220 -4721 0
-4977 -221 0
-4977 4849 0
4977 221 -4849 0
-5281 212 0
-5281 5153 0
5281 -212 -5153 0
-5409 -213 0
-5409 5281 0
5409 213 -5281 0
-5713 204 0
-5713 5585 0
5713 -204 -5585 0
-5841 -205 0
-5841 5713 0
5841 205 -5713 0
-6145 196 0
-6145 6017 0
6145 -196 -6017 0
-6273 -197 0
-6273 6145 0
6273 197 -6145 0
-6577 188 0
-6577 6449 0
6577 -188 -6449 0
-6705 -189 0
-6705 6577 0
6705 189 -6577 0
-6885 -6273 0
-6885 -6705 0
6885 6273 6705 0
-7065 -5841 0
-7065 6885 0
7065 5841 -6885 0
-7245 -5409 0
-7245 7065 0
7245 5409 -7065 0
-7425 -4977 0
-7425 7245 0
7425 4977 -7245 0
-7605 -4545 0
-7605 7425 0
7605 4545 -7425 0
-7785 -4113 0
-7785 7605 0
7785 4113 -7605 0
-7965 -3681 0
-7965 7785 0
7965 3681 -7785 0
-8145 -3249 0
-8145 7965 0
8145 3249 -7965 0
-8325 -2817 0
-8325 8145 0
8325 2817 -8145 0
-8505 -2385 0
-8505 8325 0
8505 2385 -8325 0
-8685 -1953 0
-8685 8505 0
8685 1953 -8505 0
-8865 -1521 0
-8865 8685 0
8865 1521 -8685 0
-9045 -1089 0
-9045 8865 0
9045 1089 -8865 0
-9225 -657 0
-9225 9045 0
9225 657 -9045 0
-9611 105 0
-9611 9225 0
9611 -105 -9225 0
-9612 -105 0
-9612 -9225 0
9612 105 9225 0
-9613 -9611 0
-9613 -9612 0
9613 9611 9612 0
104 -52114 0
-104 52114 0
-528 300 0
-528 400 0
528 -300 -400 0
-656 -301 0
-656 528 0
656 301 -528 0
-960 292 0
-960 832 0
960 -292 -832 0
-1088 -293 0
-1088 960 0
1088 293 -960 0
-1392 284 0
-1392 1264 0
1392 -284 -1264 0
-1520 -285 0
-1520 1392 0
1520 285 -1392 0
-1824 276 0
-1824 1696 0
1824 -276 -1696 0
-1952 -277 0
-1952 1824 0
1952 277 -1824 0
-2256 268 0
-2256 2128 0
2256 -268 -2128 0
-2384 -269 0
-2384 2256 0
2384 269 -2256 0
-2688 260 0
-2688 2560 0
2688 -260 -2560 0
-2816 -261 0
-2816 2688 0
2816 261 -2688 0
-3120 252 0
-3120 2992 0
3120 -252 -2992 0
-3248 -253 0
-3248 3120 0
3248 253 -3120 0
-3552 244 0
-3552 3424 0
3552 -244 -3424 0
-3680 -245 0
-3680 3552 0
3680 245 -3552 0
-3984 236 0
-3984 3856 0
3984 -236 -3856 0
-4112 -237 0
-4112 3984 0
4112 237 -3984 0
-4416 228 0
-4416 4288 0
4416 -228 -4288 0
-4544 -229 0
-4544 4416 0
4544 229 -4416 0
-4848 220 0
-4848 4720 0
4848 -220 -4720 0
-4976 -221 0
-4976 4848 0
4976 221 -4848 0
-5280 212 0
-5280 5152 0
5280 -212 -5152 0
-5408 -213 0
-5408 5280 0
5408 213 -5280 0
-5712 204 0
-5712 5584 0
5712 -204 -5584 0
-5840 -205 0
-5840 5712 0
5840 205 -5712 0
-6144 196 0
-6144 6016 0
6144 -196 -6016 0
-6272 -197 0
-6272 6144 0
6272 197 -6144 0
-6576 188 0
-6576 6448 0
6576 -188 -6448 0
-6704 -189 0
-6704 6576 0
6704 189 -6576 0
-6884 -6272 0
-6884 -6704 0
6884 6272 6704 0
-7064 -5840 0
-7064 6884 0
7064 5840 -6884 0
-7244 -5408 0
-7244 7064 0
7244 5408 -7064 0
-7424 -4976 0
-7424 7244 0
7424 4976 -7244 0
-7604 -4544 0
-7604 7424 0
7604 4544 -7424 0
-7784 -4112 0
-7784 7604 0
7784 4112 -7604 0
-7964 -3680 0
-7964 7784 0
7964 3680 -7784 0
-8144 -3248 0
-8144 7964 0
8144 3248 -7964 0
-8324 -2816 0
-8324 8144 0
8324 2816 -8144 0
-8504 -2384 0
-8504 8324 0
8504 2384 -8324 0
-8684 -1952 0
-8684 8504 0
8684 1952 -8504 0
-8864 -1520 0
-8864 8684 0
8864 1520 -8684 0
-9044 -1088 0
-9044 8864 0
9044 1088 -8864 0
-9224 -656 0
-9224 9044 0
9224 656 -9044 0
-9608 104 0
-9608 9224 0
9608 -104 -9224 0
-9609 -104 0
-9609 -9224 0
9609 104 9224 0
-9610 -9608 0
-9610 -9609 0
9610 9608 9609 0
103 -52113 0
-103 52113 0
-527 300 0
-527 399 0
527 -300 -399 0
-655 -301 0
-655 527 0
655 301 -527 0
-959 292 0
-959 831 0
959 -292 -831 0
-1087 -293 0
-1087 959 0
1087 293 -959 0
-1391 284 0
-1391 1263 0
1391 -284 -1263 0
-1519 -285 0
-1519 1391 0
1519 285 -1391 0
-1823 276 0
-1823 1695 0
1823 -276 -1695 0
-1951 -277 0
-1951 1823 0
1951 277 -1823 0
-2255 268 0
-2255 2127 0
2255 -268 -2127 0
-2383 -269 0
-2383 2255 0
2383 269 -2255 0
-2687 260 0
-2687 2559 0
2687 -260 -2559 0
-2815 -261 0
-2815 2687 0
2815 261 -2687 0
-3119 252 0
-3119 2991 0
3119 -252 -2991 0
-3247 -253 0
-3247 3119 0
3247 253 -3119 0
-3551 244 0
-3551 3423 0
3551 -244 -3423 0
-3679 -245 0
-3679 3551 0
3679 245 -3551 0
-3983 236 0
-3983 3855 0
3983 -236 -3855 0
-4111 -237 0
-4111 3983 0
4111 237 -3983 0
-4415 228 0
-4415 4287 0
4415 -228 -4287 0
-4543 -229 0
-4543 4415 0
4543 229 -4415 0
-4847 220 0
-4847 4719 0
4847 -220 -4719 0
-4975 -221 0
-4975 4847 0
4975 221 -4847 0
-5279 212 0
-5279 5151 0
5279 -212 -5151 0
-5407 -213 0
-5407 5279 0
5407 213 -5279 0
-5711 204 0
-5711 5583 0
5711 -204 -5583 0
-5839 -205 0
-5839 5711 0
5839 205 -5711 0
-6143 196 0
-6143 6015 0
6143 -196 -6015 0
-6271 -197 0
-6271 6143 0
6271 197 -6143 0
-6575 188 0
-6575 6447 0
6575 -188 -6447 0
-6703 -189 0
-6703 6575 0
6703 189 -6575 0
-6883 -6271 0
-6883 -6703 0
6883 6271 6703 0
-7063 -5839 0
-7063 6883 0
7063 5839 -6883 0
-7243 -5407 0
-7243 7063 0
7243 5407 -7063 0
-7423 -4975 0
-7423 7243 0
7423 4975 -7243 0
-7603 -4543 0
-7603 7423 0
7603 4543 -7423 0
-7783 -4111 0
-7783 7603 0
7783 4111 -7603 0
-7963 -3679 0
-7963 7783 0
7963 3679 -7783 0
-8143 -3247 0
-8143 7963 0
8143 3247 -7963 0
-8323 -2815 0
-8323 8143 0
8323 2815 -8143 0
-8503 -2383 0
-8503 8323 0
8503 2383 -8323 0
-8683 -1951 0
-8683 8503 0
8683 1951 -8503 0
-8863 -1519 0
-8863 8683 0
8863 1519 -8683 0
-9043 -1087 0
-9043 8863 0
9043 1087 -8863 0
-9223 -655 0
-9223 9043 0
9223 655 -9043 0
-9605 103 0
-9605 9223 0
9605 -103 -9223 0
-9606 -103 0
-9606 -9223 0
9606 103 9223 0
-9607 -9605 0
-9607 -9606 0
9607 9605 9606 0
102 -52112 0
-102 52112 0
-526 300 0
-526 398 0
526 -300 -398 0
-654 -301 0
-654 526 0
654 301 -526 0
-958 292 0
-958 830 0
958 -292 -830 0
-1086 -293 0
-1086 958 0
1086 293 -958 0
-1390 284 0
-1390 1262 0
1390 -284 -1262 0
-1518 -285 0
-1518 1390 0
1518 285 -1390 0
-1822 276 0
-1822 1694 0
1822 -276 -1694 0
-1950 -277 0
-1950 1822 0
1950 277 -1822 0
-2254 268 0
-2254 2126 0
2254 -268 -2126 0
-2382 -269 0
-2382 2254 0
2382 269 -2254 0
-2686 260 0
-2686 2558 0
2686 -260 -2558 0
-2814 -261 0
-2814 2686 0
2814 261 -2686 0
-3118 252 0
-3118 2990 0
3118 -252 -2990 0
-3246 -253 0
-3246 3118 0
3246 253 -3118 0
-3550 244 0
-3550 3422 0
3550 -244 -3422 0
-3678 -245 0
-3678 3550 0
3678 245 -3550 0
-3982 236 0
-3982 3854 0
3982 -236 -3854 0
-4110 -237 0
-4110 3982 0
4110 237 -3982 0
-4414 228 0
-4414 4286 0
4414 -228 -4286 0
-4542 -229 0
-4542 4414 0
4542 229 -4414 0
-4846 220 0
-4846 4718 0
4846 -220 -4718 0
-4974 -221 0
-4974 4846 0
4974 221 -4846 0
-5278 212 0
-5278 5150 0
5278 -212 -5150 0
-5406 -213 0
-5406 5278 0
5406 213 -5278 0
-5710 204 0
-5710 5582 0
5710 -204 -5582 0
-5838 -205 0
-5838 5710 0
5838 205 -5710 0
-6142 196 0
-6142 6014 0
6142 -196 -6014 0
-6270 -197 0
-6270 6142 0
6270 197 -6142 0
-6574 188 0
-6574 6446 0
6574 -188 -6446 0
-6702 -189 0
-6702 6574 0
6702 189 -6574 0
-6882 -6270 0
-6882 -6702 0
6882 6270 6702 0
-7062 -5838 0
-7062 6882 0
7062 5838 -6882 0
-7242 -5406 0
-7242 7062 0
7242 5406 -7062 0
-7422 -4974 0
-7422 7242 0
7422 4974 -7242 0
-7602 -4542 0
-7602 7422 0
7602 4542 -7422 0
-7782 -4110 0
-7782 7602 0
7782 4110 -7602 0
-7962 -3678 0
-7962 7782 0
7962 3678 -7782 0
-8142 -3246 0
-8142 7962 0
8142 3246 -7962 0
-8322 -2814 0
-8322 8142 0
8322 2814 -8142 0
-8502 -2382 0
-8502 8322 0
8502 2382 -8322 0
-8682 -1950 0
-8682 8502 0
8682 1950 -8502 0
-8862 -1518 0
-8862 8682 0
8862 1518 -8682 0
-9042 -1086 0
-9042 8862 0
9042 1086 -8862 0
-9222 -654 0
-9222 9042 0
9222 654 -9042 0
-9602 102 0
-9602 9222 0
9602 -102 -9222 0
-9603 -102 0
-9603 -9222 0
9603 102 9222 0
-9604 -9602 0
-9604 -9603 0
9604 9602 9603 0
101 -52111 0
-101 52111 0
-525 300 0
-525 397 0
525 -300 -397 0
-653 -301 0
-653 525 0
653 301 -525 0
-957 292 0
-957 829 0
957 -292 -829 0
-1085 -293 0
-1085 957 0
1085 293 -957 0
-1389 284 0
-1389 1261 0
1389 -284 -1261 0
-1517 -285 0
-1517 1389 0
1517 285 -1389 0
-1821 276 0
-1821 1693 0
1821 -276 -1693 0
-1949 -277 0
-1949 1821 0
1949 277 -1821 0
-2253 268 0
-2253 2125 0
2253 -268 -2125 0
-2381 -269 0
-2381 2253 0
2381 269 -2253 0
-2685 260 0
-2685 2557 0
2685 -260 -2557 0
-2813 -261 0
-2813 2685 0
2813 261 -2685 0
-3117 252 0
-3117 2989 0
3117 -252 -2989 0
-3245 -253 0
-3245 3117 0
3245 253 -3117 0
-3549 244 0
-3549 3421 0
3549 -244 -3421 0
-3677 -245 0
-3677 3549 0
3677 245 -3549 0
-3981 236 0
-3981 3853 0
3981 -236 -3853 0
-4109 -237 0
-4109 3981 0
4109 237 -3981 0
-4413 228 0
-4413 4285 0
4413 -228 -4285 0
-4541 -229 0
-4541 4413 0
4541 229 -4413 0
-4845 220 0
-4845 4717 0
4845 -220 -4717 0
-4973 -221 0
-4973 4845 0
4973 221 -4845 0
-5277 212 0
-5277 5149 0
5277 -212 -5149 0
-5405 -213 0
-5405 5277 0
5405 213 -5277 0
-5709 204 0
-5709 5581 0
5709 -204 -5581 0
-5837 -205 0
-5837 5709 0
5837 205 -5709 0
-6141 196 0
-6141 6013 0
6141 -196 -6013 0
-6269 -197 0
-6269 6141 0
6269 197 -6141 0
-6573 188 0
-6573 6445 0
6573 -188 -6445 0
-6701 -189 0
-6701 6573 0
6701 189 -6573 0
-6881 -6269 0
-6881 -6701 0
6881 6269 6701 0
-7061 -5837 0
-7061 6881 0
7061 5837 -6881 0
-7241 -5405 0
-7241 7061 0
7241 5405 -7061 0
-7421 -4973 0
-7421 7241 0
7421 4973 -7241 0
-7601 -4541 0
-7601 7421 0
7601 4541 -7421 0
-7781 -4109 0
-7781 7601 0
7781 4109 -7601 0
-7961 -3677 0
-7961 7781 0
7961 3677 -7781 0
-8141 -3245 0
-8141 7961 0
8141 3245 -7961 0
-8321 -2813 0
-8321 8141 0
8321 2813 -8141 0
-8501 -2381 0
-8501 8321 0
8501 2381 -8321 0
-8681 -1949 0
-8681 8501 0
8681 1949 -8501 0
-8861 -1517 0
-8861 8681 0
8861 1517 -8681 0
-9041 -1085 0
-9041 8861 0
9041 1085 -8861 0
-9221 -653 0
-9221 9041 0
9221 653 -9041 0
-9599 101 0
-9599 9221 0
9599 -101 -9221 0
-9600 -101 0
-9600 -9221 0
9600 101 9221 0
-9601 -9599 0
-9601 -9600 0
9601 9599 9600 0
100 -52110 0
-100 52110 0
-524 300 0
-524 396 0
524 -300 -396 0
-652 -301 0
-652 524 0
652 301 -524 0
-956 292 0
-956 828 0
956 -292 -828 0
-1084 -293 0
-1084 956 0
1084 293 -956 0
-1388 284 0
-1388 1260 0
1388 -284 -1260 0
-1516 -285 0
-1516 1388 0
1516 285 -1388 0
-1820 276 0
-1820 1692 0
1820 -276 -1692 0
-1948 -277 0
-1948 1820 0
1948 277 -1820 0
-2252 268 0
-2252 2124 0
2252 -268 -2124 0
-2380 -269 0
-2380 2252 0
2380 269 -2252 0
-2684 260 0
-2684 2556 0
2684 -260 -2556 0
-2812 -261 0
-2812 2684 0
2812 261 -2684 0
-3116 252 0
-3116 2988 0
3116 -252 -2988 0
-3244 -253 0
-3244 3116 0
3244 253 -3116 0
-3548 244 0
-3548 3420 0
3548 -244 -3420 0
-3676 -245 0
-3676 3548 0
3676 245 -3548 0
-3980 236 0
-3980 3852 0
3980 -236 -3852 0
-4108 -237 0
-4108 3980 0
4108 237 -3980 0
-4412 228 0
-4412 4284 0
4412 -228 -4284 0
-4540 -229 0
-4540 4412 0
4540 229 -4412 0
-4844 220 0
-4844 4716 0
4844 -220 -4716 0
-4972 -221 0
-4972 4844 0
4972 221 -4844 0
-5276 212 0
-5276 5148 0
5276 -212 -5148 0
-5404 -213 0
-5404 5276 0
5404 213 -5276 0
-5708 204 0
-5708 5580 0
5708 -204 -5580 0
-5836 -205 0
-5836 5708 0
5836 205 -5708 0
-6140 196 0
-6140 6012 0
6140 -196 -6012 0
-6268 -197 0
-6268 6140 0
6268 197 -6140 0
-6572 188 0
-6572 6444 0
6572 -188 -6444 0
-6700 -189 0
-6700 6572 0
6700 189 -6572 0
-6880 -6268 0
-6880 -6700 0
6880 6268 6700 0
-7060 -5836 0
-7060 6880 0
7060 5836 -6880 0
-7240 -5404 0
-7240 7060 0
7240 5404 -7060 0
-7420 -4972 0
-7420 7240 0
7420 4972 -7240 0
-7600 -4540 0
-7600 7420 0
7600 4540 -7420 0
-7780 -4108 0
-7780 7600 0
7780 4108 -7600 0
-7960 -3676 0
-7960 7780 0
7960 3676 -7780 0
-8140 -3244 0
-8140 7960 0
8140 3244 -7960 0
-8320 -2812 0
-8320 8140 0
8320 2812 -8140 0
-8500 -2380 0
-8500 8320 0
8500 2380 -8320 0
-8680 -1948 0
-8680 8500 0
8680 1948 -8500 0
-8860 -1516 0
-8860 8680 0
8860 1516 -8680 0
-9040 -1084 0
-9040 8860 0
9040 1084 -8860 0
-9220 -652 0
-9220 9040 0
9220 652 -9040 0
-9596 100 0
-9596 9220 0
9596 -100 -9220 0
-9597 -100 0
-9597 -9220 0
9597 100 9220 0
-9598 -9596 0
-9598 -9597 0
9598 9596 9597 0
99 -52109 0
-99 52109 0
-523 300 0
-523 395 0
523 -300 -395 0
-651 -301 0
-651 523 0
651 301 -523 0
-955 292 0
-955 827 0
955 -292 -827 0
-1083 -293 0
-1083 955 0
1083 293 -955 0
-1387 284 0
-1387 1259 0
1387 -284 -1259 0
-1515 -285 0
-1515 1387 0
1515 285 -1387 0
-1819 276 0
-1819 1691 0
1819 -276 -1691 0
-1947 -277 0
-1947 1819 0
1947 277 -1819 0
-2251 268 0
-2251 2123 0
2251 -268 -2123 0
-2379 -269 0
-2379 2251 0
2379 269 -2251 0
-2683 260 0
-2683 2555 0
2683 -260 -2555 0
-2811 -261 0
-2811 2683 0
2811 261 -2683 0
-3115 252 0
-3115 2987 0
3115 -252 -2987 0
-3243 -253 0
-3243 3115 0
3243 253 -3115 0
-3547 244 0
-3547 3419 0
3547 -244 -3419 0
-3675 -245 0
-3675 3547 0
3675 245 -3547 0
-3979 236 0
-3979 3851 0
3979 -236 -3851 0
-4107 -237 0
-4107 3979 0
4107 237 -3979 0
-4411 228 0
-4411 4283 0
4411 -228 -4283 0
-4539 -229 0
-4539 4411 0
4539 229 -4411 0
-4843 220 0
-4843 4715 0
4843 -220 -4715 0
-4971 -221 0
-4971 4843 0
4971 221 -4843 0
-5275 212 0
-5275 5147 0
5275 -212 -5147 0
-5403 -213 0
-5403 5275 0
5403 213 -5275 0
-5707 204 0
-5707 5579 0
5707 -204 -5579 0
-5835 -205 0
-5835 5707 0
5835 205 -5707 0
-6139 196 0
-6139 6011 0
6139 -196 -6011 0
-6267 -197 0
-6267 6139 0
6267 197 -6139 0
-6571 188 0
-6571 6443 0
6571 -188 -6443 0
-6699 -189 0
-6699 6571 0
6699 189 -6571 0
-6879 -6267 0
-6879 -6699 0
6879 6267 6699 0
-7059 -5835 0
-7059 6879 0
7059 5835 -6879 0
-7239 -5403 0
-7239 7059 0
7239 5403 -7059 0
-7419 -4971 0
-7419 7239 0
7419 4971 -7239 0
-7599 -4539 0
-7599 7419 0
7599 4539 -7419 0
-7779 -4107 0
-7779 7599 0
7779 4107 -7599 0
-7959 -3675 0
-7959 7779 0
7959 3675 -7779 0
-8139 -3243 0
-8139 7959 0
8139 3243 -7959 0
-8319 -2811 0
-8319 8139 0
8319 2811 -8139 0
-8499 -2379 0
-8499 8319 0
8499 2379 -8319 0
-8679 -1947 0
-8679 8499 0
8679 1947 -8499 0
-8859 -1515 0
-8859 8679 0
8859 1515 -8679 0
-9039 -1083 0
-9039 8859 0
9039 1083 -8859 0
-9219 -651 0
-9219 9039 0
9219 651 -9039 0
-9593 99 0
-9593 9219 0
9593 -99 -9219 0
-9594 -99 0
-9594 -9219 0
9594 99 9219 0
-9595 -9593 0
-9595 -9594 0
9595 9593 9594 0
98 -52108 0
-98 52108 0
-522 300 0
-522 394 0
522 -300 -394 0
-650 -301 0
-650 522 0
650 301 -522 0
-954 292 0
-954 826 0
954 -292 -826 0
-1082 -293 0
-1082 954 0
1082 293 -954 0
-1386 284 0
-1386 1258 0
1386 -284 -1258 0
-1514 -285 0
-1514 1386 0
1514 285 -1386 0
-1818 276 0
-1818 1690 0
1818 -276 -1690 0
-1946 -277 0
-1946 1818 0
1946 277 -1818 0
-2250 268 0
-2250 2122 0
2250 -268 -2122 0
-2378 -269 0
-2378 2250 0
2378 269 -2250 0
-2682 260 0
-2682 2554 0
2682 -260 -2554 0
-2810 -261 0
-2810 2682 0
2810 261 -2682 0
-3114 252 0
-3114 2986 0
3114 -252 -2986 0
-3242 -253 0
-3242 3114 0
3242 253 -3114 0
-3546 244 0
-3546 3418 0
3546 -244 -3418 0
-3674 -245 0
-3674 3546 0
3674 245 -3546 0
-3978 236 0
-3978 3850 0
3978 -236 -3850 0
-4106 -237 0
-4106 3978 0
4106 237 -3978 0
-4410 228 0
-4410 4282 0
4410 -228 -4282 0
-4538 -229 0
-4538 4410 0
4538 229 -4410 0
-4842 220 0
-4842 4714 0
4842 -220 -4714 0
-4970 -221 0
-4970 4842 0
4970 221 -4842 0
-5274 212 0
-5274 5146 0
5274 -212 -5146 0
-5402 -213 0
-5402 5274 0
5402 213 -5274 0
-5706 204 0
-5706 5578 0
5706 -204 -5578 0
-5834 -205 0
-5834 5706 0
5834 205 -5706 0
-6138 196 0
-6138 6010 0
6138 -196 -6010 0
-6266 -197 0
-6266 6138 0
6266 197 -6138 0
-6570 188 0
-6570 6442 0
6570 -188 -6442 0
-6698 -189 0
-6698 6570 0
6698 189 -6570 0
-6878 -6266 0
-6878 -6698 0
6878 6266 6698 0
-7058 -5834 0
-7058 6878 0
7058 5834 -6878 0
-7238 -5402 0
-7238 7058 0
7238 5402 -7058 0
-7418 -4970 0
-7418 7238 0
7418 4970 -7238 0
-7598 -4538 0
-7598 7418 0
7598 4538 -7418 0
-7778 -4106 0
-7778 7598 0
7778 4106 -7598 0
-7958 -3674 0
-7958 7778 0
7958 3674 -7778 0
-8138 -3242 0
-8138 7958 0
8138 3242 -7958 0
-8318 -2810 0
-8318 8138 0
8318 2810 -8138 0
-8498 -2378 0
-8498 8318 0
8498 2378 -8318 0
-8678 -1946 0
-8678 8498 0
8678 1946 -8498 0
-8858 -1514 0
-8858 8678 0
8858 1514 -8678 0
-9038 -1082 0
-9038 8858 0
9038 1082 -8858 0
-9218 -650 0
-9218 9038 0
9218 650 -9038 0
-9590 98 0
-9590 9218 0
9590 -98 -9218 0
-9591 -98 0
-9591 -9218 0
9591 98 9218 0
-9592 -9590 0
-9592 -9591 0
9592 9590 9591 0
97 -52107 0
-97 52107 0
-521 300 0
-521 393 0
521 -300 -393 0
-649 -301 0
-649 521 0
649 301 -521 0
-953 292 0
-953 825 0
953 -292 -825 0
-1081 -293 0
-1081 953 0
1081 293 -953 0
-1385 284 0
-1385 1257 0
1385 -284 -1257 0
-1513 -285 0
-1513 1385 0
1513 285 -1385 0
-1817 276 0
-1817 1689 0
1817 -276 -1689 0
-1945 -277 0
-1945 1817 0
1945 277 -1817 0
-2249 268 0
-2249 2121 0
2249 -268 -2121 0
-2377 -269 0
-2377 2249 0
2377 269 -2249 0
-2681 260 0
-2681 2553 0
2681 -260 -2553 0
-2809 -261 0
-2809 2681 0
2809 261 -2681 0
-3113 252 0
-3113 2985 0
3113 -252 -2985 0
-3241 -253 0
-3241 3113 0
3241 253 -3113 0
-3545 244 0
-3545 3417 0
3545 -244 -3417 0
-3673 -245 0
-3673 3545 0
3673 245 -3545 0
-3977 236 0
-3977 3849 0
3977 -236 -3849 0
-4105 -237 0
-4105 3977 0
4105 237 -3977 0
-4409 228 0
-4409 4281 0
4409 -228 -4281 0
-4537 -229 0
-4537 4409 0
4537 229 -4409 0
-4841 220 0
-4841 4713 0
4841 -220 -4713 0
-4969 -221 0
-4969 4841 0
4969 221 -4841 0
-5273 212 0
-5273 5145 0
5273 -212 -5145 0
-5401 -213 0
-5401 5273 0
5401 213 -5273 0
-5705 204 0
-5705 5577 0
5705 -204 -5577 0
-5833 -205 0
-5833 5705 0
5833 205 -5705 0
-6137 196 0
-6137 6009 0
6137 -196 -6009 0
-6265 -197 0
-6265 6137 0
6265 197 -6137 0
-6569 188 0
-6569 6441 0
6569 -188 -6441 0
-6697 -189 0
-6697 6569 0
6697 189 -6569 0
-6877 -6265 0
-6877 -6697 0
6877 6265 6697 0
-7057 -5833 0
-7057 6877 0
7057 5833 -6877 0
-7237 -5401 0
-7237 7057 0
7237 5401 -7057 0
-7417 -4969 0
-7417 7237 0
7417 4969 -7237 0
-7597 -4537 0
-7597 7417 0
7597 4537 -7417 0
-7777 -4105 0
-7777 7597 0
7777 4105 -7597 0
-7957 -3673 0
-7957 7777 0
7957 3673 -7777 0
-8137 -3241 0
-8137 7957 0
8137 3241 -7957 0
-8317 -2809 0
-8317 8137 0
8317 2809 -8137 0
-8497 -2377 0
-8497 8317 0
8497 2377 -8317 0
-8677 -1945 0
-8677 8497 0
8677 1945 -8497 0
-8857 -1513 0
-8857 8677 0
8857 1513 -8677 0
-9037 -1081 0
-9037 8857 0
9037 1081 -8857 0
-9217 -649 0
-9217 9037 0
9217 649 -9037 0
-9587 97 0
-9587 9217 0
9587 -97 -9217 0
-9588 -97 0
-9588 -9217 0
9588 97 9217 0
-9589 -9587 0
-9589 -9588 0
9589 9587 9588 0
96 -52106 0
-96 52106 0
-520 300 0
-520 392 0
520 -300 -392 0
-648 -301 0
-648 520 0
648 301 -520 0
-952 292 0
-952 824 0
952 -292 -824 0
-1080 -293 0
-1080 952 0
1080 293 -952 0
-1384 284 0
-1384 1256 0
1384 -284 -1256 0
-1512 -285 0
-1512 1384 0
1512 285 -1384 0
-1816 276 0
-1816 1688 0
1816 -276 -1688 0
-1944 -277 0
-1944 1816 0
1944 277 -1816 0
-2248 268 0
-2248 2120 0
2248 -268 -2120 0
-2376 -269 0
-2376 2248 0
2376 269 -2248 0
-2680 260 0
-2680 2552 0
2680 -260 -2552 0
-2808 -261 0
-2808 2680 0
2808 261 -2680 0
-3112 252 0
-3112 2984 0
3112 -252 -2984 0
-3240 -253 0
-3240 3112 0
3240 253 -3112 0
-3544 244 0
-3544 3416 0
3544 -244 -3416 0
-3672 -245 0
-3672 3544 0
3672 245 -3544 0
-3976 236 0
-3976 3848 0
3976 -236 -3848 0
-4104 -237 0
-4104 3976 0
4104 237 -3976 0
-4408 228 0
-4408 4280 0
4408 -228 -4280 0
-4536 -229 0
-4536 4408 0
4536 229 -4408 0
-4840 220 0
-4840 4712 0
4840 -220 -4712 0
-4968 -221 0
-4968 4840 0
4968 221 -4840 0
-5272 212 0
-5272 5144 0
5272 -212 -5144 0
-5400 -213 0
-5400 5272 0
5400 213 -5272 0
-5704 204 0
-5704 5576 0
5704 -204 -5576 0
-5832 -205 0
-5832 5704 0
5832 205 -5704 0
-6136 196 0
-6136 6008 0
6136 -196 -6008 0
-6264 -197 0
-6264 6136 0
6264 197 -6136 0
-6568 188 0
-6568 6440 0
6568 -188 -6440 0
-6696 -189 0
-6696 6568 0
6696 189 -6568 0
-6876 -6264 0
-6876 -6696 0
6876 6264 6696 0
-7056 -5832 0
-7056 6876 0
7056 5832 -6876 0
-7236 -5400 0
-7236 7056 0
7236 5400 -7056 0
-7416 -4968 0
-7416 7236 0
7416 4968 -7236 0
-7596 -4536 0
-7596 7416 0
7596 4536 -7416 0
-7776 -4104 0
-7776 7596 0
7776 4104 -7596 0
-7956 -3672 0
-7956 7776 0
7956 3672 -7776 0
-8136 -3240 0
-8136 7956 0
8136 3240 -7956 0
-8316 -2808 0
-8316 8136 0
8316 2808 -8136 0
-8496 -2376 0
-8496 8316 0
8496 2376 -8316 0
-8676 -1944 0
-8676 8496 0
8676 1944 -8496 0
-8856 -1512 0
-8856 8676 0
8856 1512 -8676 0
-9036 -1080 0
-9036 8856 0
9036 1080 -8856 0
-9216 -648 0
-9216 9036 0
9216 648 -9036 0
-9584 96 0
-9584 9216 0
9584 -96 -9216 0
-9585 -96 0
-9585 -9216 0
9585 96 9216 0
-9586 -9584 0
-9586 -9585 0
9586 9584 9585 0
95 -52105 0
-95 52105 0
-519 300 0
-519 391 0
519 -300 -391 0
-647 -301 0
-647 519 0
647 301 -519 0
-951 292 0
-951 823 0
951 -292 -823 0
-1079 -293 0
-1079 951 0
1079 293 -951 0
-1383 284 0
-1383 1255 0
1383 -284 -1255 0
-1511 -285 0
-1511 1383 0
1511 285 -1383 0
-1815 276 0
-1815 1687 0
1815 -276 -1687 0
-1943 -277 0
-1943 1815 0
1943 277 -1815 0
-2247 268 0
-2247 2119 0
2247 -268 -2119 0
-2375 -269 0
-2375 2247 0
2375 269 -2247 0
-2679 260 0
-2679 2551 0
2679 -260 -2551 0
-2807 -261 0
-2807 2679 0
2807 261 -2679 0
-3111 252 0
-3111 2983 0
3111 -252 -2983 0
-3239 -253 0
-3239 3111 0
3239 253 -3111 0
-3543 244 0
-3543 3415 0
3543 -244 -3415 0
-3671 -245 0
-3671 3543 0
3671 245 -3543 0
-3975 236 0
-3975 3847 0
3975 -236 -3847 0
-4103 -237 0
-4103 3975 0
4103 237 -3975 0
-4407 228 0
-4407 4279 0
4407 -228 -4279 0
-4535 -229 0
-4535 4407 0
4535 229 -4407 0
-4839 220 0
-4839 4711 0
4839 -220 -4711 0
-4967 -221 0
-4967 4839 0
4967 221 -4839 0
-5271 212 0
-5271 5143 0
5271 -212 -5143 0
-5399 -213 0
-5399 5271 0
5399 213 -5271 0
-5703 204 0
-5703 5575 0
5703 -204 -5575 0
-5831 -205 0
-5831 5703 0
5831 205 -5703 0
-6135 196 0
-6135 6007 0
6135 -196 -6007 0
-6263 -197 0
-6263 6135 0
6263 197 -6135 0
-6567 188 0
-6567 6439 0
6567 -188 -6439 0
-6695 -189 0
-6695 6567 0
6695 189 -6567 0
-6875 -6263 0
-6875 -6695 0
6875 6263 6695 0
-7055 -5831 0
-7055 6875 0
7055 5831 -6875 0
-7235 -5399 0
-7235 7055 0
7235 5399 -7055 0
-7415 -4967 0
-7415 7235 0
7415 4967 -7235 0
-7595 -4535 0
-7595 7415 0
7595 4535 -7415 0
-7775 -4103 0
-7775 7595 0
7775 4103 -7595 0
-7955 -3671 0
-7955 7775 0
7955 3671 -7775 0
-8135 -3239 0
-8135 7955 0
8135 3239 -7955 0
-8315 -2807 0
-8315 8135 0
8315 2807 -8135 0
-8495 -2375 0
-8495 8315 0
8495 2375 -8315 0
-8675 -1943 0
-8675 8495 0
8675 1943 -8495 0
-8855 -1511 0
-8855 8675 0
8855 1511 -8675 0
-9035 -1079 0
-9035 8855 0
9035 1079 -8855 0
-9215 -647 0
-9215 9035 0
9215 647 -9035 0
-9581 95 0
-9581 9215 0
9581 -95 -9215 0
-9582 -95 0
-9582 -9215 0
9582 95 9215 0
-9583 -9581 0
-9583 -9582 0
9583 9581 9582 0
94 -52104 0
-94 52104 0
-518 300 0
-518 390 0
518 -300 -390 0
-646 -301 0
-646 518 0
646 301 -518 0
-950 292 0
-950 822 0
950 -292 -822 0
-1078 -293 0
-1078 950 0
1078 293 -950 0
-1382 284 0
-1382 1254 0
1382 -284 -1254 0
-1510 -285 0
-1510 1382 0
1510 285 -1382 0
-1814 276 0
-1814 1686 0
1814 -276 -1686 0
-1942 -277 0
-1942 1814 0
1942 277 -1814 0
-2246 268 0
-2246 2118 0
2246 -268 -2118 0
-2374 -269 0
-2374 2246 0
2374 269 -2246 0
-2678 260 0
-2678 2550 0
2678 -260 -2550 0
-2806 -261 0
-2806 2678 0
2806 261 -2678 0
-3110 252 0
-3110 2982 0
3110 -252 -2982 0
-3238 -253 0
-3238 3110 0
3238 253 -3110 0
-3542 244 0
-3542 3414 0
3542 -244 -3414 0
-3670 -245 0
-3670 3542 0
3670 245 -3542 0
-3974 236 0
-3974 3846 0
3974 -236 -3846 0
-4102 -237 0
-4102 3974 0
4102 237 -3974 0
-4406 228 0
-4406 4278 0
4406 -228 -4278 0
-4534 -229 0
-4534 4406 0
4534 229 -4406 0
-4838 220 0
-4838 4710 0
4838 -220 -4710 0
-4966 -221 0
-4966 4838 0
4966 221 -4838 0
-5270 212 0
-5270 5142 0
5270 -212 -5142 0
-5398 -213 0
-5398 5270 0
5398 213 -5270 0
-5702 204 0
-5702 5574 0
5702 -204 -5574 0
-5830 -205 0
-5830 5702 0
5830 205 -5702 0
-6134 196 0
-6134 6006 0
6134 -196 -6006 0
-6262 -197 0
-6262 6134 0
6262 197 -6134 0
-6566 188 0
-6566 6438 0
6566 -188 -6438 0
-6694 -189 0
-6694 6566 0
6694 189 -6566 0
-6874 -6262 0
-6874 -6694 0
6874 6262 6694 0
-7054 -5830 0
-7054 6874 0
7054 5830 -6874 0
-7234 -5398 0
-7234 7054 0
7234 5398 -7054 0
-7414 -4966 0
-7414 7234 0
7414 4966 -7234 0
-7594 -4534 0
-7594 7414 0
7594 4534 -7414 0
-7774 -4102 0
-7774 7594 0
7774 4102 -7594 0
-7954 -3670 0
-7954 7774 0
7954 3670 -7774 0
-8134 -3238 0
-8134 7954 0
8134 3238 -7954 0
-8314 -2806 0
-8314 8134 0
8314 2806 -8134 0
-8494 -2374 0
-8494 8314 0
8494 2374 -8314 0
-8674 -1942 0
-8674 8494 0
8674 1942 -8494 0
-8854 -1510 0
-8854 8674 0
8854 1510 -8674 0
-9034 -1078 0
-9034 8854 0
9034 1078 -8854 0
-9214 -646 0
-9214 9034 0
9214 646 -9034 0
-9578 94 0
-9578 9214 0
9578 -94 -9214 0
-9579 -94 0
-9579 -9214 0
9579 94 9214 0
-9580 -9578 0
-9580 -9579 0
9580 9578 9579 0
93 -52103 0
-93 52103 0
-517 300 0
-517 389 0
517 -300 -389 0
-645 -301 0
-645 517 0
645 301 -517 0
-949 292 0
-949 821 0
949 -292 -821 0
-1077 -293 0
-1077 949 0
1077 293 -949 0
-1381 284 0
-1381 1253 0
1381 -284 -1253 0
-1509 -285 0
-1509 1381 0
1509 285 -1381 0
-1813 276 0
-1813 1685 0
1813 -276 -1685 0
-1941 -277 0
-1941 1813 0
1941 277 -1813 0
-2245 268 0
-2245 2117 0
2245 -268 -2117 0
-2373 -269 0
-2373 2245 0
2373 269 -2245 0
-2677 260 0
-2677 2549 0
2677 -260 -2549 0
-2805 -261 0
-2805 2677 0
2805 261 -2677 0
-3109 252 0
-3109 2981 0
3109 -252 -2981 0
-3237 -253 0
-3237 3109 0
3237 253 -3109 0
-3541 244 0
-3541 3413 0
3541 -244 -3413 0
-3669 -245 0
-3669 3541 0
3669 245 -3541 0
-3973 236 0
-3973 3845 0
3973 -236 -3845 0
-4101 -237 0
-4101 3973 0
4101 237 -3973 0
-4405 228 0
-4405 4277 0
4405 -228 -4277 0
-4533 -229 0
-4533 4405 0
4533 229 -4405 0
-4837 220 0
-4837 4709 0
4837 -220 -4709 0
-4965 -221 0
-4965 4837 0
4965 221 -4837 0
-5269 212 0
-5269 5141 0
5269 -212 -5141 0
-5397 -213 0
-5397 5269 0
5397 213 -5269 0
-5701 204 0
-5701 5573 0
5701 -204 -5573 0
-5829 -205 0
-5829 5701 0
5829 205 -5701 0
-6133 196 0
-6133 6005 0
6133 -196 -6005 0
-6261 -197 0
-6261 6133 0
6261 197 -6133 0
-6565 188 0
-6565 6437 0
6565 -188 -6437 0
-6693 -189 0
-6693 6565 0
6693 189 -6565 0
-6873 -6261 0
-6873 -6693 0
6873 6261 6693 0
-7053 -5829 0
-7053 6873 0
7053 5829 -6873 0
-7233 -5397 0
-7233 7053 0
7233 5397 -7053 0
-7413 -4965 0
-7413 7233 0
7413 4965 -7233 0
-7593 -4533 0
-7593 7413 0
7593 4533 -7413 0
-7773 -4101 0
-7773 7593 0
7773 4101 -7593 0
-7953 -3669 0
-7953 7773 0
7953 3669 -7773 0
-8133 -3237 0
-8133 7953 0
8133 3237 -7953 0
-8313 -2805 0
-8313 8133 0
8313 2805 -8133 0
-8493 -2373 0
-8493 8313 0
8493 2373 -8313 0
-8673 -1941 0
-8673 8493 0
8673 1941 -8493 0
-8853 -1509 0
-8853 8673 0
8853 1509 -8673 0
-9033 -1077 0
-9033 8853 0
9033 1077 -8853 0
-9213 -645 0
-9213 9033 0
9213 645 -9033 0
-9575 93 0
-9575 9213 0
9575 -93 -9213 0
-9576 -93 0
-9576 -9213 0
9576 93 9213 0
-9577 -9575 0
-9577 -9576 0
9577 9575 9576 0
92 -52102 0
-92 52102 0
-516 300 0
-516 388 0
516 -300 -388 0
-644 -301 0
-644 516 0
644 301 -516 0
-948 292 0
-948 820 0
948 -292 -820 0
-1076 -293 0
-1076 948 0
1076 293 -948 0
-1380 284 0
-1380 1252 0
1380 -284 -1252 0
-1508 -285 0
-1508 1380 0
1508 285 -1380 0
-1812 276 0
-1812 1684 0
1812 -276 -1684 0
-1940 -277 0
-1940 1812 0
1940 277 -1812 0
-2244 268 0
-2244 2116 0
2244 -268 -2116 0
-2372 -269 0
-2372 2244 0
2372 269 -2244 0
-2676 260 0
-2676 2548 0
2676 -260 -2548 0
-2804 -261 0
-2804 2676 0
2804 261 -2676 0
-3108 252 0
-3108 2980 0
3108 -252 -2980 0
-3236 -253 0
-3236 3108 0
3236 253 -3108 0
-3540 244 0
-3540 3412 0
3540 -244 -3412 0
-3668 -245 0
-3668 3540 0
3668 245 -3540 0
-3972 236 0
-3972 3844 0
3972 -236 -3844 0
-4100 -237 0
-4100 3972 0
4100 237 -3972 0
-4404 228 0
-4404 4276 0
4404 -228 -4276 0
-4532 -229 0
-4532 4404 0
4532 229 -4404 0
-4836 220 0
-4836 4708 0
4836 -220 -4708 0
-4964 -221 0
-4964 4836 0
4964 221 -4836 0
-5268 212 0
-5268 5140 0
5268 -212 -5140 0
-5396 -213 0
-5396 5268 0
5396 213 -5268 0
-5700 204 0
-5700 5572 0
5700 -204 -5572 0
-5828 -205 0
-5828 5700 0
5828 205 -5700 0
-6132 196 0
-6132 6004 0
6132 -196 -6004 0
-6260 -197 0
-6260 6132 0
6260 197 -6132 0
-6564 188 0
-6564 6436 0
6564 -188 -6436 0
-6692 -189 0
-6692 6564 0
6692 189 -6564 0
-6872 -6260 0
-6872 -6692 0
6872 6260 6692 0
-7052 -5828 0
-7052 6872 0
7052 5828 -6872 0
-7232 -5396 0
-7232 7052 0
7232 5396 -7052 0
-7412 -4964 0
-7412 7232 0
7412 4964 -7232 0
-7592 -4532 0
-7592 7412 0
7592 4532 -7412 0
-7772 -4100 0
-7772 7592 0
7772 4100 -7592 0
-7952 -3668 0
-7952 7772 0
7952 3668 -7772 0
-8132 -3236 0
-8132 7952 0
8132 3236 -7952 0
-8312 -2804 0
-8312 8132 0
8312 2804 -8132 0
-8492 -2372 0
-8492 8312 0
8492 2372 -8312 0
-8672 -1940 0
-8672 8492 0
8672 1940 -8492 0
-8852 -1508 0
-8852 8672 0
8852 1508 -8672 0
-9032 -1076 0
-9032 8852 0
9032 1076 -8852 0
-9212 -644 0
-9212 9032 0
9212 644 -9032 0
-9572 92 0
-9572 9212 0
9572 -92 -9212 0
-9573 -92 0
-9573 -9212 0
9573 92 9212 0
-9574 -9572 0
-9574 -9573 0
9574 9572 9573 0
91 -52101 0
-91 52101 0
-515 300 0
-515 387 0
515 -300 -387 0
-643 -301 0
-643 515 0
643 301 -515 0
-947 292 0
-947 819 0
947 -292 -819 0
-1075 -293 0
-1075 947 0
1075 293 -947 0
-1379 284 0
-1379 1251 0
1379 -284 -1251 0
-1507 -285 0
-1507 1379 0
1507 285 -1379 0
-1811 276 0
-1811 1683 0
1811 -276 -1683 0
-1939 -277 0
-1939 1811 0
1939 277 -1811 0
-2243 268 0
-2243 2115 0
2243 -268 -2115 0
-2371 -269 0
-2371 2243 0
2371 269 -2243 0
-2675 260 0
-2675 2547 0
2675 -260 -2547 0
-2803 -261 0
-2803 2675 0
2803 261 -2675 0
-3107 252 0
-3107 2979 0
3107 -252 -2979 0
-3235 -253 0
-3235 3107 0
3235 253 -3107 0
-3539 244 0
-3539 3411 0
3539 -244 -3411 0
-3667 -245 0
-3667 3539 0
3667 245 -3539 0
-3971 236 0
-3971 3843 0
3971 -236 -3843 0
-4099 -237 0
-4099 3971 0
4099 237 -3971 0
-4403 228 0
-4403 4275 0
4403 -228 -4275 0
-4531 -229 0
-4531 4403 0
4531 229 -4403 0
-4835 220 0
-4835 4707 0
4835 -220 -4707 0
-4963 -221 0
-4963 4835 0
4963 221 -4835 0
-5267 212 0
-5267 5139 0
5267 -212 -5139 0
-5395 -213 0
-5395 5267 0
5395 213 -5267 0
-5699 204 0
-5699 5571 0
5699 -204 -5571 0
-5827 -205 0
-5827 5699 0
5827 205 -5699 0
-6131 196 0
-6131 6003 0
6131 -196 -6003 0
-6259 -197 0
-6259 6131 0
6259 197 -6131 0
-6563 188 0
-6563 6435 0
6563 -188 -6435 0
-6691 -189 0
-6691 6563 0
6691 189 -6563 0
-6871 -6259 0
-6871 -6691 0
6871 6259 6691 0
-7051 -5827 0
-7051 6871 0
7051 5827 -6871 0
-7231 -5395 0
-7231 7051 0
7231 5395 -7051 0
-7411 -4963 0
-7411 7231 0
7411 4963 -7231 0
-7591 -4531 0
-7591 7411 0
7591 4531 -7411 0
-7771 -4099 0
-7771 7591 0
7771 4099 -7591 0
-7951 -3667 0
-7951 7771 0
7951 3667 -7771 0
-8131 -3235 0
-8131 7951 0
8131 3235 -7951 0
-8311 -2803 0
-8311 8131 0
8311 2803 -8131 0
-8491 -2371 0
-8491 8311 0
8491 2371 -8311 0
-8671 -1939 0
-8671 8491 0
8671 1939 -8491 0
-8851 -1507 0
-8851 8671 0
8851 1507 -8671 0
-9031 -1075 0
-9031 8851 0
9031 1075 -8851 0
-9211 -643 0
-9211 9031 0
9211 643 -9031 0
-9569 91 0
-9569 9211 0
9569 -91 -9211 0
-9570 -91 0
-9570 -9211 0
9570 91 9211 0
-9571 -9569 0
-9571 -9570 0
9571 9569 9570 0
90 -52100 0
-90 52100 0
-514 300 0
-514 386 0
514 -300 -386 0
-642 -301 0
-642 514 0
642 301 -514 0
-946 292 0
-946 818 0
946 -292 -818 0
-1074 -293 0
-1074 946 0
1074 293 -946 0
-1378 284 0
-1378 1250 0
1378 -284 -1250 0
-1506 -285 0
-1506 1378 0
1506 285 -1378 0
-1810 276 0
-1810 1682 0
1810 -276 -1682 0
-1938 -277 0
-1938 1810 0
1938 277 -1810 0
-2242 268 0
-2242 2114 0
2242 -268 -2114 0
-2370 -269 0
-2370 2242 0
2370 269 -2242 0
-2674 260 0
-2674 2546 0
2674 -260 -2546 0
-2802 -261 0
-2802 2674 0
2802 261 -2674 0
-3106 252 0
-3106 2978 0
3106 -252 -2978 0
-3234 -253 0
-3234 3106 0
3234 253 -3106 0
-3538 244 0
-3538 3410 0
3538 -244 -3410 0
-3666 -245 0
-3666 3538 0
3666 245 -3538 0
-3970 236 0
-3970 3842 0
3970 -236 -3842 0
-4098 -237 0
-4098 3970 0
4098 237 -3970 0
-4402 228 0
-4402 4274 0
4402 -228 -4274 0
-4530 -229 0
-4530 4402 0
4530 229 -4402 0
-4834 220 0
-4834 4706 0
4834 -220 -4706 0
-4962 -221 0
-4962 4834 0
4962 221 -4834 0
-5266 212 0
-5266 5138 0
5266 -212 -5138 0
-5394 -213 0
-5394 5266 0
5394 213 -5266 0
-5698 204 0
-5698 5570 0
5698 -204 -5570 0
-5826 -205 0
-5826 5698 0
5826 205 -5698 0
-6130 196 0
-6130 6002 0
6130 -196 -6002 0
-6258 -197 0
-6258 6130 0
6258 197 -6130 0
-6562 188 0
-6562 6434 0
6562 -188 -6434 0
-6690 -189 0
-6690 6562 0
6690 189 -6562 0
-6870 -6258 0
-6870 -6690 0
6870 6258 6690 0
-7050 -5826 0
-7050 6870 0
7050 5826 -6870 0
-7230 -5394 0
-7230 7050 0
7230 5394 -7050 0
-7410 -4962 0
-7410 7230 0
7410 4962 -7230 0
-7590 -4530 0
-7590 7410 0
7590 4530 -7410 0
-7770 -4098 0
-7770 7590 0
7770 4098 -7590 0
-7950 -3666 0
-7950 7770 0
7950 3666 -7770 0
-8130 -3234 0
-8130 7950 0
8130 3234 -7950 0
-8310 -2802 0
-8310 8130 0
8310 2802 -8130 0
-8490 -2370 0
-8490 8310 0
8490 2370 -8310 0
-8670 -1938 0
-8670 8490 0
8670 1938 -8490 0
-8850 -1506 0
-8850 8670 0
8850 1506 -8670 0
-9030 -1074 0
-9030 8850 0
9030 1074 -8850 0
-9210 -642 0
-9210 9030 0
9210 642 -9030 0
-9566 90 0
-9566 9210 0
9566 -90 -9210 0
-9567 -90 0
-9567 -9210 0
9567 90 9210 0
-9568 -9566 0
-9568 -9567 0
9568 9566 9567 0
89 -52099 0
-89 52099 0
-513 300 0
-513 385 0
513 -300 -385 0
-641 -301 0
-641 513 0
641 301 -513 0
-945 292 0
-945 817 0
945 -292 -817 0
-1073 -293 0
-1073 945 0
1073 293 -945 0
-1377 284 0
-1377 1249 0
1377 -284 -1249 0
-1505 -285 0
-1505 1377 0
1505 285 -1377 0
-1809 276 0
-1809 1681 0
1809 -276 -1681 0
-1937 -277 0
-1937 1809 0
1937 277 -1809 0
-2241 268 0
-2241 2113 0
2241 -268 -2113 0
-2369 -269 0
-2369 2241 0
2369 269 -2241 0
-2673 260 0
-2673 2545 0
2673 -260 -2545 0
-2801 -261 0
-2801 2673 0
2801 261 -2673 0
-3105 252 0
-3105 2977 0
3105 -252 -2977 0
-3233 -253 0
-3233 3105 0
3233 253 -3105 0
-3537 244 0
-3537 3409 0
3537 -244 -3409 0
-3665 -245 0
-3665 3537 0
3665 245 -3537 0
-3969 236 0
-3969 3841 0
3969 -236 -3841 0
-4097 -237 0
-4097 3969 0
4097 237 -3969 0
-4401 228 0
-4401 4273 0
4401 -228 -4273 0
-4529 -229 0
-4529 4401 0
4529 229 -4401 0
-4833 220 0
-4833 4705 0
4833 -220 -4705 0
-4961 -221 0
-4961 4833 0
4961 221 -4833 0
-5265 212 0
-5265 5137 0
5265 -212 -5137 0
-5393 -213 0
-5393 5265 0
5393 213 -5265 0
-5697 204 0
-5697 5569 0
5697 -204 -5569 0
-5825 -205 0
-5825 5697 0
5825 205 -5697 0
-6129 196 0
-6129 6001 0
6129 -196 -6001 0
-6257 -197 0
-6257 6129 0
6257 197 -6129 0
-6561 188 0
-6561 6433 0
6561 -188 -6433 0
-6689 -189 0
-6689 6561 0
6689 189 -6561 0
-6869 -6257 0
-6869 -6689 0
6869 6257 6689 0
-7049 -5825 0
-7049 6869 0
7049 5825 -6869 0
-7229 -5393 0
-7229 7049 0
7229 5393 -7049 0
-7409 -4961 0
-7409 7229 0
7409 4961 -7229 0
-7589 -4529 0
-7589 7409 0
7589 4529 -7409 0
-7769 -4097 0
-7769 7589 0
7769 4097 -7589 0
-7949 -3665 0
-7949 7769 0
7949 3665 -7769 0
-8129 -3233 0
-8129 7949 0
8129 3233 -7949 0
-8309 -2801 0
-8309 8129 0
8309 2801 -8129 0
-8489 -2369 0
-8489 8309 0
8489 2369 -8309 0
-8669 -1937 0
-8669 8489 0
8669 1937 -8489 0
-8849 -1505 0
-8849 8669 0
8849 1505 -8669 0
-9029 -1073 0
-9029 8849 0
9029 1073 -8849 0
-9209 -641 0
-9209 9029 0
9209 641 -9029 0
-9563 89 0
-9563 9209 0
9563 -89 -9209 0
-9564 -89 0
-9564 -9209 0
9564 89 9209 0
-9565 -9563 0
-9565 -9564 0
9565 9563 9564 0
88 -52098 0
-88 52098 0
-512 300 0
-512 384 0
512 -300 -384 0
-640 -301 0
-640 512 0
640 301 -512 0
-944 292 0
-944 816 0
944 -292 -816 0
-1072 -293 0
-1072 944 0
1072 293 -944 0
-1376 284 0
-1376 1248 0
1376 -284 -1248 0
-1504 -285 0
-1504 1376 0
1504 285 -1376 0
-1808 276 0
-1808 1680 0
1808 -276 -1680 0
-1936 -277 0
-1936 1808 0
1936 277 -1808 0
-2240 268 0
-2240 2112 0
2240 -268 -2112 0
-2368 -269 0
-2368 2240 0
2368 269 -2240 0
-2672 260 0
-2672 2544 0
2672 -260 -2544 0
-2800 -261 0
-2800 2672 0
2800 261 -2672 0
-3104 252 0
-3104 2976 0
3104 -252 -2976 0
-3232 -253 0
-3232 3104 0
3232 253 -3104 0
-3536 244 0
-3536 3408 0
3536 -244 -3408 0
-3664 -245 0
-3664 3536 0
3664 245 -3536 0
-3968 236 0
-3968 3840 0
3968 -236 -3840 0
-4096 -237 0
-4096 3968 0
4096 237 -3968 0
-4400 228 0
-4400 4272 0
4400 -228 -4272 0
-4528 -229 0
-4528 4400 0
4528 229 -4400 0
-4832 220 0
-4832 4704 0
4832 -220 -4704 0
-4960 -221 0
-4960 4832 0
4960 221 -4832 0
-5264 212 0
-5264 5136 0
5264 -212 -5136 0
-5392 -213 0
-5392 5264 0
5392 213 -5264 0
-5696 204 0
-5696 5568 0
5696 -204 -5568 0
-5824 -205 0
-5824 5696 0
5824 205 -5696 0
-6128 196 0
-6128 6000 0
6128 -196 -6000 0
-6256 -197 0
-6256 6128 0
6256 197 -6128 0
-6560 188 0
-6560 6432 0
6560 -188 -6432 0
-6688 -189 0
-6688 6560 0
6688 189 -6560 0
-6868 -6256 0
-6868 -6688 0
6868 6256 6688 0
-7048 -5824 0
-7048 6868 0
7048 5824 -6868 0
-7228 -5392 0
-7228 7048 0
7228 5392 -7048 0
-7408 -4960 0
-7408 7228 0
7408 4960 -7228 0
-7588 -4528 0
-7588 7408 0
7588 4528 -7408 0
-7768 -4096 0
-7768 7588 0
7768 4096 -7588 0
-7948 -3664 0
-7948 7768 0
7948 3664 -7768 0
-8128 -3232 0
-8128 7948 0
8128 3232 -7948 0
-8308 -2800 0
-8308 8128 0
8308 2800 -8128 0
-8488 -2368 0
-8488 8308 0
8488 2368 -8308 0
-8668 -1936 0
-8668 8488 0
8668 1936 -8488 0
-8848 -1504 0
-8848 8668 0
8848 1504 -8668 0
-9028 -1072 0
-9028 8848 0
9028 1072 -8848 0
-9208 -640 0
-9208 9028 0
9208 640 -9028 0
-9560 88 0
-9560 9208 0
9560 -88 -9208 0
-9561 -88 0
-9561 -9208 0
9561 88 9208 0
-9562 -9560 0
-9562 -9561 0
9562 9560 9561 0
87 -52097 0
-87 52097 0
-511 300 0
-511 383 0
511 -300 -383 0
-639 -301 0
-639 511 0
639 301 -511 0
-943 292 0
-943 815 0
943 -292 -815 0
-1071 -293 0
-1071 943 0
1071 293 -943 0
-1375 284 0
-1375 1247 0
1375 -284 -1247 0
-1503 -285 0
-1503 1375 0
1503 285 -1375 0
-1807 276 0
-1807 1679 0
1807 -276 -1679 0
-1935 -277 0
-1935 1807 0
1935 277 -1807 0
-2239 268 0
-2239 2111 0
2239 -268 -2111 0
-2367 -269 0
-2367 2239 0
2367 269 -2239 0
-2671 260 0
-2671 2543 0
2671 -260 -2543 0
-2799 -261 0
-2799 2671 0
2799 261 -2671 0
-3103 252 0
-3103 2975 0
3103 -252 -2975 0
-3231 -253 0
-3231 3103 0
3231 253 -3103 0
-3535 244 0
-3535 3407 0
3535 -244 -3407 0
-3663 -245 0
-3663 3535 0
3663 245 -3535 0
-3967 236 0
-3967 3839 0
3967 -236 -3839 0
-4095 -237 0
-4095 3967 0
4095 237 -3967 0
-4399 228 0
-4399 4271 0
4399 -228 -4271 0
-4527 -229 0
-4527 4399 0
4527 229 -4399 0
-4831 220 0
-4831 4703 0
4831 -220 -4703 0
-4959 -221 0
-4959 4831 0
4959 221 -4831 0
-5263 212 0
-5263 5135 0
5263 -212 -5135 0
-5391 -213 0
-5391 5263 0
5391 213 -5263 0
-5695 204 0
-5695 5567 0
5695 -204 -5567 0
-5823 -205 0
-5823 5695 0
5823 205 -5695 0
-6127 196 0
-6127 5999 0
6127 -196 -5999 0
-6255 -197 0
-6255 6127 0
6255 197 -6127 0
-6559 188 0
-6559 6431 0
6559 -188 -6431 0
-6687 -189 0
-6687 6559 0
6687 189 -6559 0
-6867 -6255 0
-6867 -6687 0
6867 6255 6687 0
-7047 -5823 0
-7047 6867 0
7047 5823 -6867 0
-7227 -5391 0
-7227 7047 0
7227 5391 -7047 0
-7407 -4959 0
-7407 7227 0
7407 4959 -7227 0
-7587 -4527 0
-7587 7407 0
7587 4527 -7407 0
-7767 -4095 0
-7767 7587 0
7767 4095 -7587 0
-7947 -3663 0
-7947 7767 0
7947 3663 -7767 0
-8127 -3231 0
-8127 7947 0
8127 3231 -7947 0
-8307 -2799 0
-8307 8127 0
8307 2799 -8127 0
-8487 -2367 0
-8487 8307 0
8487 2367 -8307 0
-8667 -1935 0
-8667 8487 0
8667 1935 -8487 0
-8847 -1503 0
-8847 8667 0
8847 1503 -8667 0
-9027 -1071 0
-9027 8847 0
9027 1071 -8847 0
-9207 -639 0
-9207 9027 0
9207 639 -9027 0
-9557 87 0
-9557 9207 0
9557 -87 -9207 0
-9558 -87 0
-9558 -9207 0
9558 87 9207 0
-9559 -9557 0
-9559 -9558 0
9559 9557 9558 0
86 -52096 0
-86 52096 0
-510 300 0
-510 382 0
510 -300 -382 0
-638 -301 0
-638 510 0
638 301 -510 0
-942 292 0
-942 814 0
942 -292 -814 0
-1070 -293 0
-1070 942 0
1070 293 -942 0
-1374 284 0
-1374 1246 0
1374 -284 -1246 0
-1502 -285 0
-1502 1374 0
1502 285 -1374 0
-1806 276 0
-1806 1678 0
1806 -276 -1678 0
-1934 -277 0
-1934 1806 0
1934 277 -1806 0
-2238 268 0
-2238 2110 0
2238 -268 -2110 0
-2366 -269 0
-2366 2238 0
2366 269 -2238 0
-2670 260 0
-2670 2542 0
2670 -260 -2542 0
-2798 -261 0
-2798 2670 0
2798 261 -2670 0
-3102 252 0
-3102 2974 0
3102 -252 -2974 0
-3230 -253 0
-3230 3102 0
3230 253 -3102 0
-3534 244 0
-3534 3406 0
3534 -244 -3406 0
-3662 -245 0
-3662 3534 0
3662 245 -3534 0
-3966 236 0
-3966 3838 0
3966 -236 -3838 0
-4094 -237 0
-4094 3966 0
4094 237 -3966 0
-4398 228 0
-4398 4270 0
4398 -228 -4270 0
-4526 -229 0
-4526 4398 0
4526 229 -4398 0
-4830 220 0
-4830 4702 0
4830 -220 -4702 0
-4958 -221 0
-4958 4830 0
4958 221 -4830 0
-5262 212 0
-5262 5134 0
5262 -212 -5134 0
-5390 -213 0
-5390 5262 0
5390 213 -5262 0
-5694 204 0
-5694 5566 0
5694 -204 -5566 0
-5822 -205 0
-5822 5694 0
5822 205 -5694 0
-6126 196 0
-6126 5998 0
6126 -196 -5998 0
-6254 -197 0
-6254 6126 0
6254 197 -6126 0
-6558 188 0
-6558 6430 0
6558 -188 -6430 0
-6686 -189 0
-6686 6558 0
6686 189 -6558 0
-6866 -6254 0
-6866 -6686 0
6866 6254 6686 0
-7046 -5822 0
-7046 6866 0
7046 5822 -6866 0
-7226 -5390 0
-7226 7046 0
7226 5390 -7046 0
-7406 -4958 0
-7406 7226 0
7406 4958 -7226 0
-7586 -4526 0
-7586 7406 0
7586 4526 -7406 0
-7766 -4094 0
-7766 7586 0
7766 4094 -7586 0
-7946 -3662 0
-7946 7766 0
7946 3662 -7766 0
-8126 -3230 0
-8126 7946 0
8126 3230 -7946 0
-8306 -2798 0
-8306 8126 0
8306 2798 -8126 0
-8486 -2366 0
-8486 8306 0
8486 2366 -8306 0
-8666 -1934 0
-8666 8486 0
8666 1934 -8486 0
-8846 -1502 0
-8846 8666 0
8846 1502 -8666 0
-9026 -1070 0
-9026 8846 0
9026 1070 -8846 0
-9206 -638 0
-9206 9026 0
9206 638 -9026 0
-9554 86 0
-9554 9206 0
9554 -86 -9206 0
-9555 -86 0
-9555 -9206 0
9555 86 9206 0
-9556 -9554 0
-9556 -9555 0
9556 9554 9555 0
85 -52095 0
-85 52095 0
-509 300 0
-509 381 0
509 -300 -381 0
-637 -301 0
-637 509 0
637 301 -509 0
-941 292 0
-941 813 0
941 -292 -813 0
-1069 -293 0
-1069 941 0
1069 293 -941 0
-1373 284 0
-1373 1245 0
1373 -284 -1245 0
-1501 -285 0
-1501 1373 0
1501 285 -1373 0
-1805 276 0
-1805 1677 0
1805 -276 -1677 0
-1933 -277 0
-1933 1805 0
1933 277 -1805 0
-2237 268 0
-2237 2109 0
2237 -268 -2109 0
-2365 -269 0
-2365 2237 0
2365 269 -2237 0
-2669 260 0
-2669 2541 0
2669 -260 -2541 0
-2797 -261 0
-2797 2669 0
2797 261 -2669 0
-3101 252 0
-3101 2973 0
3101 -252 -2973 0
-3229 -253 0
-3229 3101 0
3229 253 -3101 0
-3533 244 0
-3533 3405 0
3533 -244 -3405 0
-3661 -245 0
-3661 3533 0
3661 245 -3533 0
-3965 236 0
-3965 3837 0
3965 -236 -3837 0
-4093 -237 0
-4093 3965 0
4093 237 -3965 0
-4397 228 0
-4397 4269 0
4397 -228 -4269 0
-4525 -229 0
-4525 4397 0
4525 229 -4397 0
-4829 220 0
-4829 4701 0
4829 -220 -4701 0
-4957 -221 0
-4957 4829 0
4957 221 -4829 0
-5261 212 0
-5261 5133 0
5261 -212 -5133 0
-5389 -213 0
-5389 5261 0
5389 213 -5261 0
-5693 204 0
-5693 5565 0
5693 -204 -5565 0
-5821 -205 0
-5821 5693 0
5821 205 -5693 0
-6125 196 0
-6125 5997 0
6125 -196 -5997 0
-6253 -197 0
-6253 6125 0
6253 197 -6125 0
-6557 188 0
-6557 6429 0
6557 -188 -6429 0
-6685 -189 0
-6685 6557 0
6685 189 -6557 0
-6865 -6253 0
-6865 -6685 0
6865 6253 6685 0
-7045 -5821 0
-7045 6865 0
7045 5821 -6865 0
-7225 -5389 0
-7225 7045 0
7225 5389 -7045 0
-7405 -4957 0
-7405 7225 0
7405 4957 -7225 0
-7585 -4525 0
-7585 7405 0
7585 4525 -7405 0
-7765 -4093 0
-7765 7585 0
7765 4093 -7585 0
-7945 -3661 0
-7945 7765 0
7945 3661 -7765 0
-8125 -3229 0
-8125 7945 0
8125 3229 -7945 0
-8305 -2797 0
-8305 8125 0
8305 2797 -8125 0
-8485 -2365 0
-8485 8305 0
8485 2365 -8305 0
-8665 -1933 0
-8665 8485 0
8665 1933 -8485 0
-8845 -1501 0
-8845 8665 0
8845 1501 -8665 0
-9025 -1069 0
-9025 8845 0
9025 1069 -8845 0
-9205 -637 0
-9205 9025 0
9205 637 -9025 0
-9551 85 0
-9551 9205 0
9551 -85 -9205 0
-9552 -85 0
-9552 -9205 0
9552 85 9205 0
-9553 -9551 0
-9553 -9552 0
9553 9551 9552 0
84 -52094 0
-84 52094 0
-508 300 0
-508 380 0
508 -300 -380 0
-636 -301 0
-636 508 0
636 301 -508 0
-940 292 0
-940 812 0
940 -292 -812 0
-1068 -293 0
-1068 940 0
1068 293 -940 0
-1372 284 0
-1372 1244 0
1372 -284 -1244 0
-1500 -285 0
-1500 1372 0
1500 285 -1372 0
-1804 276 0
-1804 1676 0
1804 -276 -1676 0
-1932 -277 0
-1932 1804 0
1932 277 -1804 0
-2236 268 0
-2236 2108 0
2236 -268 -2108 0
-2364 -269 0
-2364 2236 0
2364 269 -2236 0
-2668 260 0
-2668 2540 0
2668 -260 -2540 0
-2796 -261 0
-2796 2668 0
2796 261 -2668 0
-3100 252 0
-3100 2972 0
3100 -252 -2972 0
-3228 -253 0
-3228 3100 0
3228 253 -3100 0
-3532 244 0
-3532 3404 0
3532 -244 -3404 0
-3660 -245 0
-3660 3532 0
3660 245 -3532 0
-3964 236 0
-3964 3836 0
3964 -236 -3836 0
-4092 -237 0
-4092 3964 0
4092 237 -3964 0
-4396 228 0
-4396 4268 0
4396 -228 -4268 0
-4524 -229 0
-4524 4396 0
4524 229 -4396 0
-4828 220 0
-4828 4700 0
4828 -220 -4700 0
-4956 -221 0
-4956 4828 0
4956 221 -4828 0
-5260 212 0
-5260 5132 0
5260 -212 -5132 0
-5388 -213 0
-5388 5260 0
5388 213 -5260 0
-5692 204 0
-5692 5564 0
5692 -204 -5564 0
-5820 -205 0
-5820 5692 0
5820 205 -5692 0
-6124 196 0
-6124 5996 0
6124 -196 -5996 0
-6252 -197 0
-6252 6124 0
6252 197 -6124 0
-6556 188 0
-6556 6428 0
6556 -188 -6428 0
-6684 -189 0
-6684 6556 0
6684 189 -6556 0
-6864 -6252 0
-6864 -6684 0
6864 6252 6684 0
-7044 -5820 0
-7044 6864 0
7044 5820 -6864 0
-7224 -5388 0
-7224 7044 0
7224 5388 -7044 0
-7404 -4956 0
-7404 7224 0
7404 4956 -7224 0
-7584 -4524 0
-7584 7404 0
7584 4524 -7404 0
-7764 -4092 0
-7764 7584 0
7764 4092 -7584 0
-7944 -3660 0
-7944 7764 0
7944 3660 -7764 0
-8124 -3228 0
-8124 7944 0
8124 3228 -7944 0
-8304 -2796 0
-8304 8124 0
8304 2796 -8124 0
-8484 -2364 0
-8484 8304 0
8484 2364 -8304 0
-8664 -1932 0
-8664 8484 0
8664 1932 -8484 0
-8844 -1500 0
-8844 8664 0
8844 1500 -8664 0
-9024 -1068 0
-9024 8844 0
9024 1068 -8844 0
-9204 -636 0
-9204 9024 0
9204 636 -9024 0
-9548 84 0
-9548 9204 0
9548 -84 -9204 0
-9549 -84 0
-9549 -9204 0
9549 84 9204 0
-9550 -9548 0
-9550 -9549 0
9550 9548 9549 0
83 -52093 0
-83 52093 0
-507 300 0
-507 379 0
507 -300 -379 0
-635 -301 0
-635 507 0
635 301 -507 0
-939 292 0
-939 811 0
939 -292 -811 0
-1067 -293 0
-1067 939 0
1067 293 -939 0
-1371 284 0
-1371 1243 0
1371 -284 -1243 0
-1499 -285 0
-1499 1371 0
1499 285 -1371 0
-1803 276 0
-1803 1675 0
1803 -276 -1675 0
-1931 -277 0
-1931 1803 0
1931 277 -1803 0
-2235 268 0
-2235 2107 0
2235 -268 -2107 0
-2363 -269 0
-2363 2235 0
2363 269 -2235 0
-2667 260 0
-2667 2539 0
2667 -260 -2539 0
-2795 -261 0
-2795 2667 0
2795 261 -2667 0
-3099 252 0
-3099 2971 0
3099 -252 -2971 0
-3227 -253 0
-3227 3099 0
3227 253 -3099 0
-3531 244 0
-3531 3403 0
3531 -244 -3403 0
-3659 -245 0
-3659 3531 0
3659 245 -3531 0
-3963 236 0
-3963 3835 0
3963 -236 -3835 0
-4091 -237 0
-4091 3963 0
4091 237 -3963 0
-4395 228 0
-4395 4267 0
4395 -228 -4267 0
-4523 -229 0
-4523 4395 0
4523 229 -4395 0
-4827 220 0
-4827 4699 0
4827 -220 -4699 0
-4955 -221 0
-4955 4827 0
4955 221 -4827 0
-5259 212 0
-5259 5131 0
5259 -212 -5131 0
-5387 -213 0
-5387 5259 0
5387 213 -5259 0
-5691 204 0
-5691 5563 0
5691 -204 -5563 0
-5819 -205 0
-5819 5691 0
5819 205 -5691 0
-6123 196 0
-6123 5995 0
6123 -196 -5995 0
-6251 -197 0
-6251 6123 0
6251 197 -6123 0
-6555 188 0
-6555 6427 0
6555 -188 -6427 0
-6683 -189 0
-6683 6555 0
6683 189 -6555 0
-6863 -6251 0
-6863 -6683 0
6863 6251 6683 0
-7043 -5819 0
-7043 6863 0
7043 5819 -6863 0
-7223 -5387 0
-7223 7043 0
7223 5387 -7043 0
-7403 -4955 0
-7403 7223 0
7403 4955 -7223 0
-7583 -4523 0
-7583 7403 0
7583 4523 -7403 0
-7763 -4091 0
-7763 7583 0
7763 4091 -7583 0
-7943 -3659 0
-7943 7763 0
7943 3659 -7763 0
-8123 -3227 0
-8123 7943 0
8123 3227 -7943 0
-8303 -2795 0
-8303 8123 0
8303 2795 -8123 0
-8483 -2363 0
-8483 8303 0
8483 2363 -8303 0
-8663 -1931 0
-8663 8483 0
8663 1931 -8483 0
-8843 -1499 0
-8843 8663 0
8843 1499 -8663 0
-9023 -1067 0
-9023 8843 0
9023 1067 -8843 0
-9203 -635 0
-9203 9023 0
9203 635 -9023 0
-9545 83 0
-9545 9203 0
9545 -83 -9203 0
-9546 -83 0
-9546 -9203 0
9546 83 9203 0
-9547 -9545 0
-9547 -9546 0
9547 9545 9546 0
82 -52092 0
-82 52092 0
-506 300 0
-506 378 0
506 -300 -378 0
-634 -301 0
-634 506 0
634 301 -506 0
-938 292 0
-938 810 0
938 -292 -810 0
-1066 -293 0
-1066 938 0
1066 293 -938 0
-1370 284 0
-1370 1242 0
1370 -284 -1242 0
-1498 -285 0
-1498 1370 0
1498 285 -1370 0
-1802 276 0
-1802 1674 0
1802 -276 -1674 0
-1930 -277 0
-1930 1802 0
1930 277 -1802 0
-2234 268 0
-2234 2106 0
2234 -268 -2106 0
-2362 -269 0
-2362 2234 0
2362 269 -2234 0
-2666 260 0
-2666 2538 0
2666 -260 -2538 0
-2794 -261 0
-2794 2666 0
2794 261 -2666 0
-3098 252 0
-3098 2970 0
3098 -252 -2970 0
-3226 -253 0
-3226 3098 0
3226 253 -3098 0
-3530 244 0
-3530 3402 0
3530 -244 -3402 0
-3658 -245 0
-3658 3530 0
3658 245 -3530 0
-3962 236 0
-3962 3834 0
3962 -236 -3834 0
-4090 -237 0
-4090 3962 0
4090 237 -3962 0
-4394 228 0
-4394 4266 0
4394 -228 -4266 0
-4522 -229 0
-4522 4394 0
4522 229 -4394 0
-4826 220 0
-4826 4698 0
4826 -220 -4698 0
-4954 -221 0
-4954 4826 0
4954 221 -4826 0
-5258 212 0
-5258 5130 0
5258 -212 -5130 0
-5386 -213 0
-5386 5258 0
5386 213 -5258 0
-5690 204 0
-5690 5562 0
5690 -204 -5562 0
-5818 -205 0
-5818 5690 0
5818 205 -5690 0
-6122 196 0
-6122 5994 0
6122 -196 -5994 0
-6250 -197 0
-6250 6122 0
6250 197 -6122 0
-6554 188 0
-6554 6426 0
6554 -188 -6426 0
-6682 -189 0
-6682 6554 0
6682 189 -6554 0
-6862 -6250 0
-6862 -6682 0
6862 6250 6682 0
-7042 -5818 0
-7042 6862 0
7042 5818 -6862 0
-7222 -5386 0
-7222 7042 0
7222 5386 -7042 0
-7402 -4954 0
-7402 7222 0
7402 4954 -7222 0
-7582 -4522 0
-7582 7402 0
7582 4522 -7402 0
-7762 -4090 0
-7762 7582 0
7762 4090 -7582 0
-7942 -3658 0
-7942 7762 0
7942 3658 -7762 0
-8122 -3226 0
-8122 7942 0
8122 3226 -7942 0
-8302 -2794 0
-8302 8122 0
8302 2794 -8122 0
-8482 -2362 0
-8482 8302 0
8482 2362 -8302 0
-8662 -1930 0
-8662 8482 0
8662 1930 -8482 0
-8842 -1498 0
-8842 8662 0
8842 1498 -8662 0
-9022 -1066 0
-9022 8842 0
9022 1066 -8842 0
-9202 -634 0
-9202 9022 0
9202 634 -9022 0
-9542 82 0
-9542 9202 0
9542 -82 -9202 0
-9543 -82 0
-9543 -9202 0
9543 82 9202 0
-9544 -9542 0
-9544 -9543 0
9544 9542 9543 0
81 -52091 0
-81 52091 0
-505 300 0
-505 377 0
505 -300 -377 0
-633 -301 0
-633 505 0
633 301 -505 0
-937 292 0
-937 809 0
937 -292 -809 0
-1065 -293 0
-1065 937 0
1065 293 -937 0
-1369 284 0
-1369 1241 0
1369 -284 -1241 0
-1497 -285 0
-1497 1369 0
1497 285 -1369 0
-1801 276 0
-1801 1673 0
1801 -276 -1673 0
-1929 -277 0
-1929 1801 0
1929 277 -1801 0
-2233 268 0
-2233 2105 0
2233 -268 -2105 0
-2361 -269 0
-2361 2233 0
2361 269 -2233 0
-2665 260 0
-2665 2537 0
2665 -260 -2537 0
-2793 -261 0
-2793 2665 0
2793 261 -2665 0
-3097 252 0
-3097 2969 0
3097 -252 -2969 0
-3225 -253 0
-3225 3097 0
3225 253 -3097 0
-3529 244 0
-3529 3401 0
3529 -244 -3401 0
-3657 -245 0
-3657 3529 0
3657 245 -3529 0
-3961 236 0
-3961 3833 0
3961 -236 -3833 0
-4089 -237 0
-4089 3961 0
4089 237 -3961 0
-4393 228 0
-4393 4265 0
4393 -228 -4265 0
-4521 -229 0
-4521 4393 0
4521 229 -4393 0
-4825 220 0
-4825 4697 0
4825 -220 -4697 0
-4953 -221 0
-4953 4825 0
4953 221 -4825 0
-5257 212 0
-5257 5129 0
5257 -212 -5129 0
-5385 -213 0
-5385 5257 0
5385 213 -5257 0
-5689 204 0
-5689 5561 0
5689 -204 -5561 0
-5817 -205 0
-5817 5689 0
5817 205 -5689 0
-6121 196 0
-6121 5993 0
6121 -196 -5993 0
-6249 -197 0
-6249 6121 0
6249 197 -6121 0
-6553 188 0
-6553 6425 0
6553 -188 -6425 0
-6681 -189 0
-6681 6553 0
6681 189 -6553 0
-6861 -6249 0
-6861 -6681 0
6861 6249 6681 0
-7041 -5817 0
-7041 6861 0
7041 5817 -6861 0
-7221 -5385 0
-7221 7041 0
7221 5385 -7041 0
-7401 -4953 0
-7401 7221 0
7401 4953 -7221 0
-7581 -4521 0
-7581 7401 0
7581 4521 -7401 0
-7761 -4089 0
-7761 7581 0
7761 4089 -7581 0
-7941 -3657 0
-7941 7761 0
7941 3657 -7761 0
-8121 -3225 0
-8121 7941 0
8121 3225 -7941 0
-8301 -2793 0
-8301 8121 0
8301 2793 -8121 0
-8481 -2361 0
-8481 8301 0
8481 2361 -8301 0
-8661 -1929 0
-8661 8481 0
8661 1929 -8481 0
-8841 -1497 0
-8841 8661 0
8841 1497 -8661 0
-9021 -1065 0
-9021 8841 0
9021 1065 -8841 0
-9201 -633 0
-9201 9021 0
9201 633 -9021 0
-9539 81 0
-9539 9201 0
9539 -81 -9201 0
-9540 -81 0
-9540 -9201 0
9540 81 9201 0
-9541 -9539 0
-9541 -9540 0
9541 9539 9540 0
80 -52090 0
-80 52090 0
-504 300 0
-504 376 0
504 -300 -376 0
-632 -301 0
-632 504 0
632 301 -504 0
-936 292 0
-936 808 0
936 -292 -808 0
-1064 -293 0
-1064 936 0
1064 293 -936 0
-1368 284 0
-1368 1240 0
1368 -284 -1240 0
-1496 -285 0
-1496 1368 0
1496 285 -1368 0
-1800 276 0
-1800 1672 0
1800 -276 -1672 0
-1928 -277 0
-1928 1800 0
1928 277 -1800 0
-2232 268 0
-2232 2104 0
2232 -268 -2104 0
-2360 -269 0
-2360 2232 0
2360 269 -2232 0
-2664 260 0
-2664 2536 0
2664 -260 -2536 0
-2792 -261 0
-2792 2664 0
2792 261 -2664 0
-3096 252 0
-3096 2968 0
3096 -252 -2968 0
-3224 -253 0
-3224 3096 0
3224 253 -3096 0
-3528 244 0
-3528 3400 0
3528 -244 -3400 0
-3656 -245 0
-3656 3528 0
3656 245 -3528 0
-3960 236 0
-3960 3832 0
3960 -236 -3832 0
-4088 -237 0
-4088 3960 0
4088 237 -3960 0
-4392 228 0
-4392 4264 0
4392 -228 -4264 0
-4520 -229 0
-4520 4392 0
4520 229 -4392 0
-4824 220 0
-4824 4696 0
4824 -220 -4696 0
-4952 -221 0
-4952 4824 0
4952 221 -4824 0
-5256 212 0
-5256 5128 0
5256 -212 -5128 0
-5384 -213 0
-5384 5256 0
5384 213 -5256 0
-5688 204 0
-5688 5560 0
5688 -204 -5560 0
-5816 -205 0
-5816 5688 0
5816 205 -5688 0
-6120 196 0
-6120 5992 0
6120 -196 -5992 0
-6248 -197 0
-6248 6120 0
6248 197 -6120 0
-6552 188 0
-6552 6424 0
6552 -188 -6424 0
-6680 -189 0
-6680 6552 0
6680 189 -6552 0
-6860 -6248 0
-6860 -6680 0
6860 6248 6680 0
-7040 -5816 0
-7040 6860 0
7040 5816 -6860 0
-7220 -5384 0
-7220 7040 0
7220 5384 -7040 0
-7400 -4952 0
-7400 7220 0
7400 4952 -7220 0
-7580 -4520 0
-7580 7400 0
7580 4520 -7400 0
-7760 -4088 0
-7760 7580 0
7760 4088 -7580 0
-7940 -3656 0
-7940 7760 0
7940 3656 -7760 0
-8120 -3224 0
-8120 7940 0
8120 3224 -7940 0
-8300 -2792 0
-8300 8120 0
8300 2792 -8120 0
-8480 -2360 0
-8480 8300 0
8480 2360 -8300 0
-8660 -1928 0
-8660 8480 0
8660 1928 -8480 0
-8840 -1496 0
-8840 8660 0
8840 1496 -8660 0
-9020 -1064 0
-9020 8840 0
9020 1064 -8840 0
-9200 -632 0
-9200 9020 0
9200 632 -9020 0
-9536 80 0
-9536 9200 0
9536 -80 -9200 0
-9537 -80 0
-9537 -9200 0
9537 80 9200 0
-9538 -9536 0
-9538 -9537 0
9538 9536 9537 0
79 -52089 0
-79 52089 0
-503 300 0
-503 375 0
503 -300 -375 0
-631 -301 0
-631 503 0
631 301 -503 0
-935 292 0
-935 807 0
935 -292 -807 0
-1063 -293 0
-1063 935 0
1063 293 -935 0
-1367 284 0
-1367 1239 0
1367 -284 -1239 0
-1495 -285 0
-1495 1367 0
1495 285 -1367 0
-1799 276 0
-1799 1671 0
1799 -276 -1671 0
-1927 -277 0
-1927 1799 0
1927 277 -1799 0
-2231 268 0
-2231 2103 0
2231 -268 -2103 0
-2359 -269 0
-2359 2231 0
2359 269 -2231 0
-2663 260 0
-2663 2535 0
2663 -260 -2535 0
-2791 -261 0
-2791 2663 0
2791 261 -2663 0
-3095 252 0
-3095 2967 0
3095 -252 -2967 0
-3223 -253 0
-3223 3095 0
3223 253 -3095 0
-3527 244 0
-3527 3399 0
3527 -244 -3399 0
-3655 -245 0
-3655 3527 0
3655 245 -3527 0
-3959 236 0
-3959 3831 0
3959 -236 -3831 0
-4087 -237 0
-4087 3959 0
4087 237 -3959 0
-4391 228 0
-4391 4263 0
4391 -228 -4263 0
-4519 -229 0
-4519 4391 0
4519 229 -4391 0
-4823 220 0
-4823 4695 0
4823 -220 -4695 0
-4951 -221 0
-4951 4823 0
4951 221 -4823 0
-5255 212 0
-5255 5127 0
5255 -212 -5127 0
-5383 -213 0
-5383 5255 0
5383 213 -5255 0
-5687 204 0
-5687 5559 0
5687 -204 -5559 0
-5815 -205 0
-5815 5687 0
5815 205 -5687 0
-6119 196 0
-6119 5991 0
6119 -196 -5991 0
-6247 -197 0
-6247 6119 0
6247 197 -6119 0
-6551 188 0
-6551 6423 0
6551 -188 -6423 0
-6679 -189 0
-6679 6551 0
6679 189 -6551 0
-6859 -6247 0
-6859 -6679 0
6859 6247 6679 0
-7039 -5815 0
-7039 6859 0
7039 5815 -6859 0
-7219 -5383 0
-7219 7039 0
7219 5383 -7039 0
-7399 -4951 0
-7399 7219 0
7399 4951 -7219 0
-7579 -4519 0
-7579 7399 0
7579 4519 -7399 0
-7759 -4087 0
-7759 7579 0
7759 4087 -7579 0
-7939 -3655 0
-7939 7759 0
7939 3655 -7759 0
-8119 -3223 0
-8119 7939 0
8119 3223 -7939 0
-8299 -2791 0
-8299 8119 0
8299 2791 -8119 0
-8479 -2359 0
-8479 8299 0
8479 2359 -8299 0
-8659 -1927 0
-8659 8479 0
8659 1927 -8479 0
-8839 -1495 0
-8839 8659 0
8839 1495 -8659 0
-9019 -1063 0
-9019 8839 0
9019 1063 -8839 0
-9199 -631 0
-9199 9019 0
9199 631 -9019 0
-9533 79 0
-9533 9199 0
9533 -79 -9199 0
-9534 -79 0
-9534 -9199 0
9534 79 9199 0
-9535 -9533 0
-9535 -9534 0
9535 9533 9534 0
78 -52088 0
-78 52088 0
-502 300 0
-502 374 0
502 -300 -374 0
-630 -301 0
-630 502 0
630 301 -502 0
-934 292 0
-934 806 0
934 -292 -806 0
-1062 -293 0
-1062 934 0
1062 293 -934 0
-1366 284 0
-1366 1238 0
1366 -284 -1238 0
-1494 -285 0
-1494 1366 0
1494 285 -1366 0
-1798 276 0
-1798 1670 0
1798 -276 -1670 0
-1926 -277 0
-1926 1798 0
1926 277 -1798 0
-2230 268 0
-2230 2102 0
2230 -268 -2102 0
-2358 -269 0
-2358 2230 0
2358 269 -2230 0
-2662 260 0
-2662 2534 0
2662 -260 -2534 0
-2790 -261 0
-2790 2662 0
2790 261 -2662 0
-3094 252 0
-3094 2966 0
3094 -252 -2966 0
-3222 -253 0
-3222 3094 0
3222 253 -3094 0
-3526 244 0
-3526 3398 0
3526 -244 -3398 0
-3654 -245 0
-3654 3526 0
3654 245 -3526 0
-3958 236 0
-3958 3830 0
3958 -236 -3830 0
-4086 -237 0
-4086 3958 0
4086 237 -3958 0
-4390 228 0
-4390 4262 0
4390 -228 -4262 0
-4518 -229 0
-4518 4390 0
4518 229 -4390 0
-4822 220 0
-4822 4694 0
4822 -220 -4694 0
-4950 -221 0
-4950 4822 0
4950 221 -4822 0
-5254 212 0
-5254 5126 0
5254 -212 -5126 0
-5382 -213 0
-5382 5254 0
5382 213 -5254 0
-5686 204 0
-5686 5558 0
5686 -204 -5558 0
-5814 -205 0
-5814 5686 0
5814 205 -5686 0
-6118 196 0
-6118 5990 0
6118 -196 -5990 0
-6246 -197 0
-6246 6118 0
6246 197 -6118 0
-6550 188 0
-6550 6422 0
6550 -188 -6422 0
-6678 -189 0
-6678 6550 0
6678 189 -6550 0
-6858 -6246 0
-6858 -6678 0
6858 6246 6678 0
-7038 -5814 0
-7038 6858 0
7038 5814 -6858 0
-7218 -5382 0
-7218 7038 0
7218 5382 -7038 0
-7398 -4950 0
-7398 7218 0
7398 4950 -7218 0
-7578 -4518 0
-7578 7398 0
7578 4518 -7398 0
-7758 -4086 0
-7758 7578 0
7758 4086 -7578 0
-7938 -3654 0
-7938 7758 0
7938 3654 -7758 0
-8118 -3222 0
-8118 7938 0
8118 3222 -7938 0
-8298 -2790 0
-8298 8118 0
8298 2790 -8118 0
-8478 -2358 0
-8478 8298 0
8478 2358 -8298 0
-8658 -1926 0
-8658 8478 0
8658 1926 -8478 0
-8838 -1494 0
-8838 8658 0
8838 1494 -8658 0
-9018 -1062 0
-9018 8838 0
9018 1062 -8838 0
-9198 -630 0
-9198 9018 0
9198 630 -9018 0
-9530 78 0
-9530 9198 0
9530 -78 -9198 0
-9531 -78 0
-9531 -9198 0
9531 78 9198 0
-9532 -9530 0
-9532 -9531 0
9532 9530 9531 0
77 -52087 0
-77 52087 0
-501 300 0
-501 373 0
501 -300 -373 0
-629 -301 0
-629 501 0
629 301 -501 0
-933 292 0
-933 805 0
933 -292 -805 0
-1061 -293 0
-1061 933 0
1061 293 -933 0
-1365 284 0
-1365 1237 0
1365 -284 -1237 0
-1493 -285 0
-1493 1365 0
1493 285 -1365 0
-1797 276 0
-1797 1669 0
1797 -276 -1669 0
-1925 -277 0
-1925 1797 0
1925 277 -1797 0
-2229 268 0
-2229 2101 0
2229 -268 -2101 0
-2357 -269 0
-2357 2229 0
2357 269 -2229 0
-2661 260 0
-2661 2533 0
2661 -260 -2533 0
-2789 -261 0
-2789 2661 0
2789 261 -2661 0
-3093 252 0
-3093 2965 0
3093 -252 -2965 0
-3221 -253 0
-3221 3093 0
3221 253 -3093 0
-3525 244 0
-3525 3397 0
3525 -244 -3397 0
-3653 -245 0
-3653 3525 0
3653 245 -3525 0
-3957 236 0
-3957 3829 0
3957 -236 -3829 0
-4085 -237 0
-4085 3957 0
4085 237 -3957 0
-4389 228 0
-4389 4261 0
4389 -228 -4261 0
-4517 -229 0
-4517 4389 0
4517 229 -4389 0
-4821 220 0
-4821 4693 0
4821 -220 -4693 0
-4949 -221 0
-4949 4821 0
4949 221 -4821 0
-5253 212 0
-5253 5125 0
5253 -212 -5125 0
-5381 -213 0
-5381 5253 0
5381 213 -5253 0
-5685 204 0
-5685 5557 0
5685 -204 -5557 0
-5813 -205 0
-5813 5685 0
5813 205 -5685 0
-6117 196 0
-6117 5989 0
6117 -196 -5989 0
-6245 -197 0
-6245 6117 0
6245 197 -6117 0
-6549 188 0
-6549 6421 0
6549 -188 -6421 0
-6677 -189 0
-6677 6549 0
6677 189 -6549 0
-6857 -6245 0
-6857 -6677 0
6857 6245 6677 0
-7037 -5813 0
-7037 6857 0
7037 5813 -6857 0
-7217 -5381 0
-7217 7037 0
7217 5381 -7037 0
-7397 -4949 0
-7397 7217 0
7397 4949 -7217 0
-7577 -4517 0
-7577 7397 0
7577 4517 -7397 0
-7757 -4085 0
-7757 7577 0
7757 4085 -7577 0
-7937 -3653 0
-7937 7757 0
7937 3653 -7757 0
-8117 -3221 0
-8117 7937 0
8117 3221 -7937 0
-8297 -2789 0
-8297 8117 0
8297 2789 -8117 0
-8477 -2357 0
-8477 8297 0
8477 2357 -8297 0
-8657 -1925 0
-8657 8477 0
8657 1925 -8477 0
-8837 -1493 0
-8837 8657 0
8837 1493 -8657 0
-9017 -1061 0
-9017 8837 0
9017 1061 -8837 0
-9197 -629 0
-9197 9017 0
9197 629 -9017 0
-9527 77 0
-9527 9197 0
9527 -77 -9197 0
-9528 -77 0
-9528 -9197 0
9528 77 9197 0
-9529 -9527 0
-9529 -9528 0
9529 9527 9528 0
76 -52086 0
-76 52086 0
-500 300 0
-500 372 0
500 -300 -372 0
-628 -301 0
-628 500 0
628 301 -500 0
-932 292 0
-932 804 0
932 -292 -804 0
-1060 -293 0
-1060 932 0
1060 293 -932 0
-1364 284 0
-1364 1236 0
1364 -284 -1236 0
-1492 -285 0
-1492 1364 0
1492 285 -1364 0
-1796 276 0
-1796 1668 0
1796 -276 -1668 0
-1924 -277 0
-1924 1796 0
1924 277 -1796 0
-2228 268 0
-2228 2100 0
2228 -268 -2100 0
-2356 -269 0
-2356 2228 0
2356 269 -2228 0
-2660 260 0
-2660 2532 0
2660 -260 -2532 0
-2788 -261 0
-2788 2660 0
2788 261 -2660 0
-3092 252 0
-3092 2964 0
3092 -252 -2964 0
-3220 -253 0
-3220 3092 0
3220 253 -3092 0
-3524 244 0
-3524 3396 0
3524 -244 -3396 0
-3652 -245 0
-3652 3524 0
3652 245 -3524 0
-3956 236 0
-3956 3828 0
3956 -236 -3828 0
-4084 -237 0
-4084 3956 0
4084 237 -3956 0
-4388 228 0
-4388 4260 0
4388 -228 -4260 0
-4516 -229 0
-4516 4388 0
4516 229 -4388 0
-4820 220 0
-4820 4692 0
4820 -220 -4692 0
-4948 -221 0
-4948 4820 0
4948 221 -4820 0
-5252 212 0
-5252 5124 0
5252 -212 -5124 0
-5380 -213 0
-5380 5252 0
5380 213 -5252 0
-5684 204 0
-5684 5556 0
5684 -204 -5556 0
-5812 -205 0
-5812 5684 0
5812 205 -5684 0
-6116 196 0
-6116 5988 0
6116 -196 -5988 0
-6244 -197 0
-6244 6116 0
6244 197 -6116 0
-6548 188 0
-6548 6420 0
6548 -188 -6420 0
-6676 -189 0
-6676 6548 0
6676 189 -6548 0
-6856 -6244 0
-6856 -6676 0
6856 6244 6676 0
-7036 -5812 0
-7036 6856 0
7036 5812 -6856 0
-7216 -5380 0
-7216 7036 0
7216 5380 -7036 0
-7396 -4948 0
-7396 7216 0
7396 4948 -7216 0
-7576 -4516 0
-7576 7396 0
7576 4516 -7396 0
-7756 -4084 0
-7756 7576 0
7756 4084 -7576 0
-7936 -3652 0
-7936 7756 0
7936 3652 -7756 0
-8116 -3220 0
-8116 7936 0
8116 3220 -7936 0
-8296 -2788 0
-8296 8116 0
8296 2788 -8116 0
-8476 -2356 0
-8476 8296 0
8476 2356 -8296 0
-8656 -1924 0
-8656 8476 0
8656 1924 -8476 0
-8836 -1492 0
-8836 8656 0
8836 1492 -8656 0
-9016 -1060 0
-9016 8836 0
9016 1060 -8836 0
-9196 -628 0
-9196 9016 0
9196 628 -9016 0
-9524 76 0
-9524 9196 0
9524 -76 -9196 0
-9525 -76 0
-9525 -9196 0
9525 76 9196 0
-9526 -9524 0
-9526 -9525 0
9526 9524 9525 0
75 -52085 0
-75 52085 0
-499 300 0
-499 371 0
499 -300 -371 0
-627 -301 0
-627 499 0
627 301 -499 0
-931 292 0
-931 803 0
931 -292 -803 0
-1059 -293 0
-1059 931 0
1059 293 -931 0
-1363 284 0
-1363 1235 0
1363 -284 -1235 0
-1491 -285 0
-1491 1363 0
1491 285 -1363 0
-1795 276 0
-1795 1667 0
1795 -276 -1667 0
-1923 -277 0
-1923 1795 0
1923 277 -1795 0
-2227 268 0
-2227 2099 0
2227 -268 -2099 0
-2355 -269 0
-2355 2227 0
2355 269 -2227 0
-2659 260 0
-2659 2531 0
2659 -260 -2531 0
-2787 -261 0
-2787 2659 0
2787 261 -2659 0
-3091 252 0
-3091 2963 0
3091 -252 -2963 0
-3219 -253 0
-3219 3091 0
3219 253 -3091 0
-3523 244 0
-3523 3395 0
3523 -244 -3395 0
-3651 -245 0
-3651 3523 0
3651 245 -3523 0
-3955 236 0
-3955 3827 0
3955 -236 -3827 0
-4083 -237 0
-4083 3955 0
4083 237 -3955 0
-4387 228 0
-4387 4259 0
4387 -228 -4259 0
-4515 -229 0
-4515 4387 0
4515 229 -4387 0
-4819 220 0
-4819 4691 0
4819 -220 -4691 0
-4947 -221 0
-4947 4819 0
4947 221 -4819 0
-5251 212 0
-5251 5123 0
5251 -212 -5123 0
-5379 -213 0
-5379 5251 0
5379 213 -5251 0
-5683 204 0
-5683 5555 0
5683 -204 -5555 0
-5811 -205 0
-5811 5683 0
5811 205 -5683 0
-6115 196 0
-6115 5987 0
6115 -196 -5987 0
-6243 -197 0
-6243 6115 0
6243 197 -6115 0
-6547 188 0
-6547 6419 0
6547 -188 -6419 0
-6675 -189 0
-6675 6547 0
6675 189 -6547 0
-6855 -6243 0
-6855 -6675 0
6855 6243 6675 0
-7035 -5811 0
-7035 6855 0
7035 5811 -6855 0
-7215 -5379 0
-7215 7035 0
7215 5379 -7035 0
-7395 -4947 0
-7395 7215 0
7395 4947 -7215 0
-7575 -4515 0
-7575 7395 0
7575 4515 -7395 0
-7755 -4083 0
-7755 7575 0
7755 4083 -7575 0
-7935 -3651 0
-7935 7755 0
7935 3651 -7755 0
-8115 -3219 0
-8115 7935 0
8115 3219 -7935 0
-8295 -2787 0
-8295 8115 0
8295 2787 -8115 0
-8475 -2355 0
-8475 8295 0
8475 2355 -8295 0
-8655 -1923 0
-8655 8475 0
8655 1923 -8475 0
-8835 -1491 0
-8835 8655 0
8835 1491 -8655 0
-9015 -1059 0
-9015 8835 0
9015 1059 -8835 0
-9195 -627 0
-9195 9015 0
9195 627 -9015 0
-9521 75 0
-9521 9195 0
9521 -75 -9195 0
-9522 -75 0
-9522 -9195 0
9522 75 9195 0
-9523 -9521 0
-9523 -9522 0
9523 9521 9522 0
74 -52084 0
-74 52084 0
-498 300 0
-498 370 0
498 -300 -370 0
-626 -301 0
-626 498 0
626 301 -498 0
-930 292 0
-930 802 0
930 -292 -802 0
-1058 -293 0
-1058 930 0
1058 293 -930 0
-1362 284 0
-1362 1234 0
1362 -284 -1234 0
-1490 -285 0
-1490 1362 0
1490 285 -1362 0
-1794 276 0
-1794 1666 0
1794 -276 -1666 0
-1922 -277 0
-1922 1794 0
1922 277 -1794 0
-2226 268 0
-2226 2098 0
2226 -268 -2098 0
-2354 -269 0
-2354 2226 0
2354 269 -2226 0
-2658 260 0
-2658 2530 0
2658 -260 -2530 0
-2786 -261 0
-2786 2658 0
2786 261 -2658 0
-3090 252 0
-3090 2962 0
3090 -252 -2962 0
-3218 -253 0
-3218 3090 0
3218 253 -3090 0
-3522 244 0
-3522 3394 0
3522 -244 -3394 0
-3650 -245 0
-3650 3522 0
3650 245 -3522 0
-3954 236 0
-3954 3826 0
3954 -236 -3826 0
-4082 -237 0
-4082 3954 0
4082 237 -3954 0
-4386 228 0
-4386 4258 0
4386 -228 -4258 0
-4514 -229 0
-4514 4386 0
4514 229 -4386 0
-4818 220 0
-4818 4690 0
4818 -220 -4690 0
-4946 -221 0
-4946 4818 0
4946 221 -4818 0
-5250 212 0
-5250 5122 0
5250 -212 -5122 0
-5378 -213 0
-5378 5250 0
5378 213 -5250 0
-5682 204 0
-5682 5554 0
5682 -204 -5554 0
-5810 -205 0
-5810 5682 0
5810 205 -5682 0
-6114 196 0
-6114 5986 0
6114 -196 -5986 0
-6242 -197 0
-6242 6114 0
6242 197 -6114 0
-6546 188 0
-6546 6418 0
6546 -188 -6418 0
-6674 -189 0
-6674 6546 0
6674 189 -6546 0
-6854 -6242 0
-6854 -6674 0
6854 6242 6674 0
-7034 -5810 0
-7034 6854 0
7034 5810 -6854 0
-7214 -5378 0
-7214 7034 0
7214 5378 -7034 0
-7394 -4946 0
-7394 7214 0
7394 4946 -7214 0
-7574 -4514 0
-7574 7394 0
7574 4514 -7394 0
-7754 -4082 0
-7754 7574 0
7754 4082 -7574 0
-7934 -3650 0
-7934 7754 0
7934 3650 -7754 0
-8114 -3218 0
-8114 7934 0
8114 3218 -7934 0
-8294 -2786 0
-8294 8114 0
8294 2786 -8114 0
-8474 -2354 0
-8474 8294 0
8474 2354 -8294 0
-8654 -1922 0
-8654 8474 0
8654 1922 -8474 0
-8834 -1490 0
-8834 8654 0
8834 1490 -8654 0
-9014 -1058 0
-9014 8834 0
9014 1058 -8834 0
-9194 -626 0
-9194 9014 0
9194 626 -9014 0
-9518 74 0
-9518 9194 0
9518 -74 -9194 0
-9519 -74 0
-9519 -9194 0
9519 74 9194 0
-9520 -9518 0
-9520 -9519 0
9520 9518 9519 0
73 -52083 0
-73 52083 0
-497 300 0
-497 369 0
497 -300 -369 0
-625 -301 0
-625 497 0
625 301 -497 0
-929 292 0
-929 801 0
929 -292 -801 0
-1057 -293 0
-1057 929 0
1057 293 -929 0
-1361 284 0
-1361 1233 0
1361 -284 -1233 0
-1489 -285 0
-1489 1361 0
1489 285 -1361 0
-1793 276 0
-1793 1665 0
1793 -276 -1665 0
-1921 -277 0
-1921 1793 0
1921 277 -1793 0
-2225 268 0
-2225 2097 0
2225 -268 -2097 0
-2353 -269 0
-2353 2225 0
2353 269 -2225 0
-2657 260 0
-2657 2529 0
2657 -260 -2529 0
-2785 -261 0
-2785 2657 0
2785 261 -2657 0
-3089 252 0
-3089 2961 0
3089 -252 -2961 0
-3217 -253 0
-3217 3089 0
3217 253 -3089 0
-3521 244 0
-3521 3393 0
3521 -244 -3393 0
-3649 -245 0
-3649 3521 0
3649 245 -3521 0
-3953 236 0
-3953 3825 0
3953 -236 -3825 0
-4081 -237 0
-4081 3953 0
4081 237 -3953 0
-4385 228 0
-4385 4257 0
4385 -228 -4257 0
-4513 -229 0
-4513 4385 0
4513 229 -4385 0
-4817 220 0
-4817 4689 0
4817 -220 -4689 0
-4945 -221 0
-4945 4817 0
4945 221 -4817 0
-5249 212 0
-5249 5121 0
5249 -212 -5121 0
-5377 -213 0
-5377 5249 0
5377 213 -5249 0
-5681 204 0
-5681 5553 0
5681 -204 -5553 0
-5809 -205 0
-5809 5681 0
5809 205 -5681 0
-6113 196 0
-6113 5985 0
6113 -196 -5985 0
-6241 -197 0
-6241 6113 0
6241 197 -6113 0
-6545 188 0
-6545 6417 0
6545 -188 -6417 0
-6673 -189 0
-6673 6545 0
6673 189 -6545 0
-6853 -6241 0
-6853 -6673 0
6853 6241 6673 0
-7033 -5809 0
-7033 6853 0
7033 5809 -6853 0
-7213 -5377 0
-7213 7033 0
7213 5377 -7033 0
-7393 -4945 0
-7393 7213 0
7393 4945 -7213 0
-7573 -4513 0
-7573 7393 0
7573 4513 -7393 0
-7753 -4081 0
-7753 7573 0
7753 4081 -7573 0
-7933 -3649 0
-7933 7753 0
7933 3649 -7753 0
-8113 -3217 0
-8113 7933 0
8113 3217 -7933 0
-8293 -2785 0
-8293 8113 0
8293 2785 -8113 0
-8473 -2353 0
-8473 8293 0
8473 2353 -8293 0
-8653 -1921 0
-8653 8473 0
8653 1921 -8473 0
-8833 -1489 0
-8833 8653 0
8833 1489 -8653 0
-9013 -1057 0
-9013 8833 0
9013 1057 -8833 0
-9193 -625 0
-9193 9013 0
9193 625 -9013 0
-9515 73 0
-9515 9193 0
9515 -73 -9193 0
-9516 -73 0
-9516 -9193 0
9516 73 9193 0
-9517 -9515 0
-9517 -9516 0
9517 9515 9516 0
72 -52082 0
-72 52082 0
-496 300 0
-496 368 0
496 -300 -368 0
-624 -301 0
-624 496 0
624 301 -496 0
-928 292 0
-928 800 0
928 -292 -800 0
-1056 -293 0
-1056 928 0
1056 293 -928 0
-1360 284 0
-1360 1232 0
1360 -284 -1232 0
-1488 -285 0
-1488 1360 0
1488 285 -1360 0
-1792 276 0
-1792 1664 0
1792 -276 -1664 0
-1920 -277 0
-1920 1792 0
1920 277 -1792 0
-2224 268 0
-2224 2096 0
2224 -268 -2096 0
-2352 -269 0
-2352 2224 0
2352 269 -2224 0
-2656 260 0
-2656 2528 0
2656 -260 -2528 0
-2784 -261 0
-2784 2656 0
2784 261 -2656 0
-3088 252 0
-3088 2960 0
3088 -252 -2960 0
-3216 -253 0
-3216 3088 0
3216 253 -3088 0
-3520 244 0
-3520 3392 0
3520 -244 -3392 0
-3648 -245 0
-3648 3520 0
3648 245 -3520 0
-3952 236 0
-3952 3824 0
3952 -236 -3824 0
-4080 -237 0
-4080 3952 0
4080 237 -3952 0
-4384 228 0
-4384 4256 0
4384 -228 -4256 0
-4512 -229 0
-4512 4384 0
4512 229 -4384 0
-4816 220 0
-4816 4688 0
4816 -220 -4688 0
-4944 -221 0
-4944 4816 0
4944 221 -4816 0
-5248 212 0
-5248 5120 0
5248 -212 -5120 0
-5376 -213 0
-5376 5248 0
5376 213 -5248 0
-5680 204 0
-5680 5552 0
5680 -204 -5552 0
-5808 -205 0
-5808 5680 0
5808 205 -5680 0
-6112 196 0
-6112 5984 0
6112 -196 -5984 0
-6240 -197 0
-6240 6112 0
6240 197 -6112 0
-6544 188 0
-6544 6416 0
6544 -188 -6416 0
-6672 -189 0
-6672 6544 0
6672 189 -6544 0
-6852 -6240 0
-6852 -6672 0
6852 6240 6672 0
-7032 -5808 0
-7032 6852 0
7032 5808 -6852 0
-7212 -5376 0
-7212 7032 0
7212 5376 -7032 0
-7392 -4944 0
-7392 7212 0
7392 4944 -7212 0
-7572 -4512 0
-7572 7392 0
7572 4512 -7392 0
-7752 -4080 0
-7752 7572 0
7752 4080 -7572 0
-7932 -3648 0
-7932 7752 0
7932 3648 -7752 0
-8112 -3216 0
-8112 7932 0
8112 3216 -7932 0
-8292 -2784 0
-8292 8112 0
8292 2784 -8112 0
-8472 -2352 0
-8472 8292 0
8472 2352 -8292 0
-8652 -1920 0
-8652 8472 0
8652 1920 -8472 0
-8832 -1488 0
-8832 8652 0
8832 1488 -8652 0
-9012 -1056 0
-9012 8832 0
9012 1056 -8832 0
-9192 -624 0
-9192 9012 0
9192 624 -9012 0
-9512 72 0
-9512 9192 0
9512 -72 -9192 0
-9513 -72 0
-9513 -9192 0
9513 72 9192 0
-9514 -9512 0
-9514 -9513 0
9514 9512 9513 0
71 -52081 0
-71 52081 0
-495 300 0
-495 367 0
495 -300 -367 0
-623 -301 0
-623 495 0
623 301 -495 0
-927 292 0
-927 799 0
927 -292 -799 0
-1055 -293 0
-1055 927 0
1055 293 -927 0
-1359 284 0
-1359 1231 0
1359 -284 -1231 0
-1487 -285 0
-1487 1359 0
1487 285 -1359 0
-1791 276 0
-1791 1663 0
1791 -276 -1663 0
-1919 -277 0
-1919 1791 0
1919 277 -1791 0
-2223 268 0
-2223 2095 0
2223 -268 -2095 0
-2351 -269 0
-2351 2223 0
2351 269 -2223 0
-2655 260 0
-2655 2527 0
2655 -260 -2527 0
-2783 -261 0
-2783 2655 0
2783 261 -2655 0
-3087 252 0
-3087 2959 0
3087 -252 -2959 0
-3215 -253 0
-3215 3087 0
3215 253 -3087 0
-3519 244 0
-3519 3391 0
3519 -244 -3391 0
-3647 -245 0
-3647 3519 0
3647 245 -3519 0
-3951 236 0
-3951 3823 0
3951 -236 -3823 0
-4079 -237 0
-4079 3951 0
4079 237 -3951 0
-4383 228 0
-4383 4255 0
4383 -228 -4255 0
-4511 -229 0
-4511 4383 0
4511 229 -4383 0
-4815 220 0
-4815 4687 0
4815 -220 -4687 0
-4943 -221 0
-4943 4815 0
4943 221 -4815 0
-5247 212 0
-5247 5119 0
5247 -212 -5119 0
-5375 -213 0
-5375 5247 0
5375 213 -5247 0
-5679 204 0
-5679 5551 0
5679 -204 -5551 0
-5807 -205 0
-5807 5679 0
5807 205 -5679 0
-6111 196 0
-6111 5983 0
6111 -196 -5983 0
-6239 -197 0
-6239 6111 0
6239 197 -6111 0
-6543 188 0
-6543 6415 0
6543 -188 -6415 0
-6671 -189 0
-6671 6543 0
6671 189 -6543 0
-6851 -6239 0
-6851 -6671 0
6851 6239 6671 0
-7031 -5807 0
-7031 6851 0
7031 5807 -6851 0
-7211 -5375 0
-7211 7031 0
7211 5375 -7031 0
-7391 -4943 0
-7391 7211 0
7391 4943 -7211 0
-7571 -4511 0
-7571 7391 0
7571 4511 -7391 0
-7751 -4079 0
-7751 7571 0
7751 4079 -7571 0
-7931 -3647 0
-7931 7751 0
7931 3647 -7751 0
-8111 -3215 0
-8111 7931 0
8111 3215 -7931 0
-8291 -2783 0
-8291 8111 0
8291 2783 -8111 0
-8471 -2351 0
-8471 8291 0
8471 2351 -8291 0
-8651 -1919 0
-8651 8471 0
8651 1919 -8471 0
-8831 -1487 0
-8831 8651 0
8831 1487 -8651 0
-9011 -1055 0
-9011 8831 0
9011 1055 -8831 0
-9191 -623 0
-9191 9011 0
9191 623 -9011 0
-9509 71 0
-9509 9191 0
9509 -71 -9191 0
-9510 -71 0
-9510 -9191 0
9510 71 9191 0
-9511 -9509 0
-9511 -9510 0
9511 9509 9510 0
70 -52080 0
-70 52080 0
-494 300 0
-494 366 0
494 -300 -366 0
-622 -301 0
-622 494 0
622 301 -494 0
-926 292 0
-926 798 0
926 -292 -798 0
-1054 -293 0
-1054 926 0
1054 293 -926 0
-1358 284 0
-1358 1230 0
1358 -284 -1230 0
-1486 -285 0
-1486 1358 0
1486 285 -1358 0
-1790 276 0
-1790 1662 0
1790 -276 -1662 0
-1918 -277 0
-1918 1790 0
1918 277 -1790 0
-2222 268 0
-2222 2094 0
2222 -268 -2094 0
-2350 -269 0
-2350 2222 0
2350 269 -2222 0
-2654 260 0
-2654 2526 0
2654 -260 -2526 0
-2782 -261 0
-2782 2654 0
2782 261 -2654 0
-3086 252 0
-3086 2958 0
3086 -252 -2958 0
-3214 -253 0
-3214 3086 0
3214 253 -3086 0
-3518 244 0
-3518 3390 0
3518 -244 -3390 0
-3646 -245 0
-3646 3518 0
3646 245 -3518 0
-3950 236 0
-3950 3822 0
3950 -236 -3822 0
-4078 -237 0
-4078 3950 0
4078 237 -3950 0
-4382 228 0
-4382 4254 0
4382 -228 -4254 0
-4510 -229 0
-4510 4382 0
4510 229 -4382 0
-4814 220 0
-4814 4686 0
4814 -220 -4686 0
-4942 -221 0
-4942 4814 0
4942 221 -4814 0
-5246 212 0
-5246 5118 0
5246 -212 -5118 0
-5374 -213 0
-5374 5246 0
5374 213 -5246 0
-5678 204 0
-5678 5550 0
5678 -204 -5550 0
-5806 -205 0
-5806 5678 0
5806 205 -5678 0
-6110 196 0
-6110 5982 0
6110 -196 -5982 0
-6238 -197 0
-6238 6110 0
6238 197 -6110 0
-6542 188 0
-6542 6414 0
6542 -188 -6414 0
-6670 -189 0
-6670 6542 0
6670 189 -6542 0
-6850 -6238 0
-6850 -6670 0
6850 6238 6670 0
-7030 -5806 0
-7030 6850 0
7030 5806 -6850 0
-7210 -5374 0
-7210 7030 0
7210 5374 -7030 0
-7390 -4942 0
-7390 7210 0
7390 4942 -7210 0
-7570 -4510 0
-7570 7390 0
7570 4510 -7390 0
-7750 -4078 0
-7750 7570 0
7750 4078 -7570 0
-7930 -3646 0
-7930 7750 0
7930 3646 -7750 0
-8110 -3214 0
-8110 7930 0
8110 3214 -7930 0
-8290 -2782 0
-8290 8110 0
8290 2782 -8110 0
-8470 -2350 0
-8470 8290 0
8470 2350 -8290 0
-8650 -1918 0
-8650 8470 0
8650 1918 -8470 0
-8830 -1486 0
-8830 8650 0
8830 1486 -8650 0
-9010 -1054 0
-9010 8830 0
9010 1054 -8830 0
-9190 -622 0
-9190 9010 0
9190 622 -9010 0
-9506 70 0
-9506 9190 0
9506 -70 -9190 0
-9507 -70 0
-9507 -9190 0
9507 70 9190 0
-9508 -9506 0
-9508 -9507 0
9508 9506 9507 0
69 -52079 0
-69 52079 0
-493 300 0
-493 365 0
493 -300 -365 0
-621 -301 0
-621 493 0
621 301 -493 0
-925 292 0
-925 797 0
925 -292 -797 0
-1053 -293 0
-1053 925 0
1053 293 -925 0
-1357 284 0
-1357 1229 0
1357 -284 -1229 0
-1485 -285 0
-1485 1357 0
1485 285 -1357 0
-1789 276 0
-1789 1661 0
1789 -276 -1661 0
-1917 -277 0
-1917 1789 0
1917 277 -1789 0
-2221 268 0
-2221 2093 0
2221 -268 -2093 0
-2349 -269 0
-2349 2221 0
2349 269 -2221 0
-2653 260 0
-2653 2525 0
2653 -260 -2525 0
-2781 -261 0
-2781 2653 0
2781 261 -2653 0
-3085 252 0
-3085 2957 0
3085 -252 -2957 0
-3213 -253 0
-3213 3085 0
3213 253 -3085 0
-3517 244 0
-3517 3389 0
3517 -244 -3389 0
-3645 -245 0
-3645 3517 0
3645 245 -3517 0
-3949 236 0
-3949 3821 0
3949 -236 -3821 0
-4077 -237 0
-4077 3949 0
4077 237 -3949 0
-4381 228 0
-4381 4253 0
4381 -228 -4253 0
-4509 -229 0
-4509 4381 0
4509 229 -4381 0
-4813 220 0
-4813 4685 0
4813 -220 -4685 0
-4941 -221 0
-4941 4813 0
4941 221 -4813 0
-5245 212 0
-5245 5117 0
5245 -212 -5117 0
-5373 -213 0
-5373 5245 0
5373 213 -5245 0
-5677 204 0
-5677 5549 0
5677 -204 -5549 0
-5805 -205 0
-5805 5677 0
5805 205 -5677 0
-6109 196 0
-6109 5981 0
6109 -196 -5981 0
-6237 -197 0
-6237 6109 0
6237 197 -6109 0
-6541 188 0
-6541 6413 0
6541 -188 -6413 0
-6669 -189 0
-6669 6541 0
6669 189 -6541 0
-6849 -6237 0
-6849 -6669 0
6849 6237 6669 0
-7029 -5805 0
-7029 6849 0
7029 5805 -6849 0
-7209 -5373 0
-7209 7029 0
7209 5373 -7029 0
-7389 -4941 0
-7389 7209 0
7389 4941 -7209 0
-7569 -4509 0
-7569 7389 0
7569 4509 -7389 0
-7749 -4077 0
-7749 7569 0
7749 4077 -7569 0
-7929 -3645 0
-7929 7749 0
7929 3645 -7749 0
-8109 -3213 0
-8109 7929 0
8109 3213 -7929 0
-8289 -2781 0
-8289 8109 0
8289 2781 -8109 0
-8469 -2349 0
-8469 8289 0
8469 2349 -8289 0
-8649 -1917 0
-8649 8469 0
8649 1917 -8469 0
-8829 -1485 0
-8829 8649 0
8829 1485 -8649 0
-9009 -1053 0
-9009 8829 0
9009 1053 -8829 0
-9189 -621 0
-9189 9009 0
9189 621 -9009 0
-9503 69 0
-9503 9189 0
9503 -69 -9189 0
-9504 -69 0
-9504 -9189 0
9504 69 9189 0
-9505 -9503 0
-9505 -9504 0
9505 9503 9504 0
68 -52078 0
-68 52078 0
-492 300 0
-492 364 0
492 -300 -364 0
-620 -301 0
-620 492 0
620 301 -492 0
-924 292 0
-924 796 0
924 -292 -796 0
-1052 -293 0
-1052 924 0
1052 293 -924 0
-1356 284 0
-1356 1228 0
1356 -284 -1228 0
-1484 -285 0
-1484 1356 0
1484 285 -1356 0
-1788 276 0
-1788 1660 0
1788 -276 -1660 0
-1916 -277 0
-1916 1788 0
1916 277 -1788 0
-2220 268 0
-2220 2092 0
2220 -268 -2092 0
-2348 -269 0
-2348 2220 0
2348 269 -2220 0
-2652 260 0
-2652 2524 0
2652 -260 -2524 0
-2780 -261 0
-2780 2652 0
2780 261 -2652 0
-3084 252 0
-3084 2956 0
3084 -252 -2956 0
-3212 -253 0
-3212 3084 0
3212 253 -3084 0
-3516 244 0
-3516 3388 0
3516 -244 -3388 0
-3644 -245 0
-3644 3516 0
3644 245 -3516 0
-3948 236 0
-3948 3820 0
3948 -236 -3820 0
-4076 -237 0
-4076 3948 0
4076 237 -3948 0
-4380 228 0
-4380 4252 0
4380 -228 -4252 0
-4508 -229 0
-4508 4380 0
4508 229 -4380 0
-4812 220 0
-4812 4684 0
4812 -220 -4684 0
-4940 -221 0
-4940 4812 0
4940 221 -4812 0
-5244 212 0
-5244 5116 0
5244 -212 -5116 0
-5372 -213 0
-5372 5244 0
5372 213 -5244 0
-5676 204 0
-5676 5548 0
5676 -204 -5548 0
-5804 -205 0
-5804 5676 0
5804 205 -5676 0
-6108 196 0
-6108 5980 0
6108 -196 -5980 0
-6236 -197 0
-6236 6108 0
6236 197 -6108 0
-6540 188 0
-6540 6412 0
6540 -188 -6412 0
-6668 -189 0
-6668 6540 0
6668 189 -6540 0
-6848 -6236 0
-6848 -6668 0
6848 6236 6668 0
-7028 -5804 0
-7028 6848 0
7028 5804 -6848 0
-7208 -5372 0
-7208 7028 0
7208 5372 -7028 0
-7388 -4940 0
-7388 7208 0
7388 4940 -7208 0
-7568 -4508 0
-7568 7388 0
7568 4508 -7388 0
-7748 -4076 0
-7748 7568 0
7748 4076 -7568 0
-7928 -3644 0
-7928 7748 0
7928 3644 -7748 0
-8108 -3212 0
-8108 7928 0
8108 3212 -7928 0
-8288 -2780 0
-8288 8108 0
8288 2780 -8108 0
-8468 -2348 0
-8468 8288 0
8468 2348 -8288 0
-8648 -1916 0
-8648 8468 0
8648 1916 -8468 0
-8828 -1484 0
-8828 8648 0
8828 1484 -8648 0
-9008 -1052 0
-9008 8828 0
9008 1052 -8828 0
-9188 -620 0
-9188 9008 0
9188 620 -9008 0
-9500 68 0
-9500 9188 0
9500 -68 -9188 0
-9501 -68 0
-9501 -9188 0
9501 68 9188 0
-9502 -9500 0
-9502 -9501 0
9502 9500 9501 0
67 -52077 0
-67 52077 0
-491 300 0
-491 363 0
491 -300 -363 0
-619 -301 0
-619 491 0
619 301 -491 0
-923 292 0
-923 795 0
923 -292 -795 0
-1051 -293 0
-1051 923 0
1051 293 -923 0
-1355 284 0
-1355 1227 0
1355 -284 -1227 0
-1483 -285 0
-1483 1355 0
1483 285 -1355 0
-1787 276 0
-1787 1659 0
1787 -276 -1659 0
-1915 -277 0
-1915 1787 0
1915 277 -1787 0
-2219 268 0
-2219 2091 0
2219 -268 -2091 0
-2347 -269 0
-2347 2219 0
2347 269 -2219 0
-2651 260 0
-2651 2523 0
2651 -260 -2523 0
-2779 -261 0
-2779 2651 0
2779 261 -2651 0
-3083 252 0
-3083 2955 0
3083 -252 -2955 0
-3211 -253 0
-3211 3083 0
3211 253 -3083 0
-3515 244 0
-3515 3387 0
3515 -244 -3387 0
-3643 -245 0
-3643 3515 0
3643 245 -3515 0
-3947 236 0
-3947 3819 0
3947 -236 -3819 0
-4075 -237 0
-4075 3947 0
4075 237 -3947 0
-4379 228 0
-4379 4251 0
4379 -228 -4251 0
-4507 -229 0
-4507 4379 0
4507 229 -4379 0
-4811 220 0
-4811 4683 0
4811 -220 -4683 0
-4939 -221 0
-4939 4811 0
4939 221 -4811 0
-5243 212 0
-5243 5115 0
5243 -212 -5115 0
-5371 -213 0
-5371 5243 0
5371 213 -5243 0
-5675 204 0
-5675 5547 0
5675 -204 -5547 0
-5803 -205 0
-5803 5675 0
5803 205 -5675 0
-6107 196 0
-6107 5979 0
6107 -196 -5979 0
-6235 -197 0
-6235 6107 0
6235 197 -6107 0
-6539 188 0
-6539 6411 0
6539 -188 -6411 0
-6667 -189 0
-6667 6539 0
6667 189 -6539 0
-6847 -6235 0
-6847 -6667 0
6847 6235 6667 0
-7027 -5803 0
-7027 6847 0
7027 5803 -6847 0
-7207 -5371 0
-7207 7027 0
7207 5371 -7027 0
-7387 -4939 0
-7387 7207 0
7387 4939 -7207 0
-7567 -4507 0
-7567 7387 0
7567 4507 -7387 0
-7747 -4075 0
-7747 7567 0
7747 4075 -7567 0
-7927 -3643 0
-7927 7747 0
7927 3643 -7747 0
-8107 -3211 0
-8107 7927 0
8107 3211 -7927 0
-8287 -2779 0
-8287 8107 0
8287 2779 -8107 0
-8467 -2347 0
-8467 8287 0
8467 2347 -8287 0
-8647 -1915 0
-8647 8467 0
8647 1915 -8467 0
-8827 -1483 0
-8827 8647 0
8827 1483 -8647 0
-9007 -1051 0
-9007 8827 0
9007 1051 -8827 0
-9187 -619 0
-9187 9007 0
9187 619 -9007 0
-9497 67 0
-9497 9187 0
9497 -67 -9187 0
-9498 -67 0
-9498 -9187 0
9498 67 9187 0
-9499 -9497 0
-9499 -9498 0
9499 9497 9498 0
66 -52076 0
-66 52076 0
-490 300 0
-490 362 0
490 -300 -362 0
-618 -301 0
-618 490 0
618 301 -490 0
-922 292 0
-922 794 0
922 -292 -794 0
-1050 -293 0
-1050 922 0
1050 293 -922 0
-1354 284 0
-1354 1226 0
1354 -284 -1226 0
-1482 -285 0
-1482 1354 0
1482 285 -1354 0
-1786 276 0
-1786 1658 0
1786 -276 -1658 0
-1914 -277 0
-1914 1786 0
1914 277 -1786 0
-2218 268 0
-2218 2090 0
2218 -268 -2090 0
-2346 -269 0
-2346 2218 0
2346 269 -2218 0
-2650 260 0
-2650 2522 0
2650 -260 -2522 0
-2778 -261 0
-2778 2650 0
2778 261 -2650 0
-3082 252 0
-3082 2954 0
3082 -252 -2954 0
-3210 -253 0
-3210 3082 0
3210 253 -3082 0
-3514 244 0
-3514 3386 0
3514 -244 -3386 0
-3642 -245 0
-3642 3514 0
3642 245 -3514 0
-3946 236 0
-3946 3818 0
3946 -236 -3818 0
-4074 -237 0
-4074 3946 0
4074 237 -3946 0
-4378 228 0
-4378 4250 0
4378 -228 -4250 0
-4506 -229 0
-4506 4378 0
4506 229 -4378 0
-4810 220 0
-4810 4682 0
4810 -220 -4682 0
-4938 -221 0
-4938 4810 0
4938 221 -4810 0
-5242 212 0
-5242 5114 0
5242 -212 -5114 0
-5370 -213 0
-5370 5242 0
5370 213 -5242 0
-5674 204 0
-5674 5546 0
5674 -204 -5546 0
-5802 -205 0
-5802 5674 0
5802 205 -5674 0
-6106 196 0
-6106 5978 0
6106 -196 -5978 0
-6234 -197 0
-6234 6106 0
6234 197 -6106 0
-6538 188 0
-6538 6410 0
6538 -188 -6410 0
-6666 -189 0
-6666 6538 0
6666 189 -6538 0
-6846 -6234 0
-6846 -6666 0
6846 6234 6666 0
-7026 -5802 0
-7026 6846 0
7026 5802 -6846 0
-7206 -5370 0
-7206 7026 0
7206 5370 -7026 0
-7386 -4938 0
-7386 7206 0
7386 4938 -7206 0
-7566 -4506 0
-7566 7386 0
7566 4506 -7386 0
-7746 -4074 0
-7746 7566 0
7746 4074 -7566 0
-7926 -3642 0
-7926 7746 0
7926 3642 -7746 0
-8106 -3210 0
-8106 7926 0
8106 3210 -7926 0
-8286 -2778 0
-8286 8106 0
8286 2778 -8106 0
-8466 -2346 0
-8466 8286 0
8466 2346 -8286 0
-8646 -1914 0
-8646 8466 0
8646 1914 -8466 0
-8826 -1482 0
-8826 8646 0
8826 1482 -8646 0
-9006 -1050 0
-9006 8826 0
9006 1050 -8826 0
-9186 -618 0
-9186 9006 0
9186 618 -9006 0
-9494 66 0
-9494 9186 0
9494 -66 -9186 0
-9495 -66 0
-9495 -9186 0
9495 66 9186 0
-9496 -9494 0
-9496 -9495 0
9496 9494 9495 0
65 -52075 0
-65 52075 0
-489 -300 0
-489 425 0
489 300 -425 0
-617 -301 0
-617 489 0
617 301 -489 0
-921 -292 0
-921 857 0
921 292 -857 0
-1049 -293 0
-1049 921 0
1049 293 -921 0
-1353 -284 0
-1353 1289 0
1353 284 -1289 0
-1481 -285 0
-1481 1353 0
1481 285 -1353 0
-1785 -276 0
-1785 1721 0
1785 276 -1721 0
-1913 -277 0
-1913 1785 0
1913 277 -1785 0
-2217 -268 0
-2217 2153 0
2217 268 -2153 0
-2345 -269 0
-2345 2217 0
2345 269 -2217 0
-2649 -260 0
-2649 2585 0
2649 260 -2585 0
-2777 -261 0
-2777 2649 0
2777 261 -2649 0
-3081 -252 0
-3081 3017 0
3081 252 -3017 0
-3209 -253 0
-3209 3081 0
3209 253 -3081 0
-3513 -244 0
-3513 3449 0
3513 244 -3449 0
-3641 -245 0
-3641 3513 0
3641 245 -3513 0
-3945 -236 0
-3945 3881 0
3945 236 -3881 0
-4073 -237 0
-4073 3945 0
4073 237 -3945 0
-4377 -228 0
-4377 4313 0
4377 228 -4313 0
-4505 -229 0
-4505 4377 0
4505 229 -4377 0
-4809 -220 0
-4809 4745 0
4809 220 -4745 0
-4937 -221 0
-4937 4809 0
4937 221 -4809 0
-5241 -212 0
-5241 5177 0
5241 212 -5177 0
-5369 -213 0
-5369 5241 0
5369 213 -5241 0
-5673 -204 0
-5673 5609 0
5673 204 -5609 0
-5801 -205 0
-5801 5673 0
5801 205 -5673 0
-6105 -196 0
-6105 6041 0
6105 196 -6041 0
-6233 -197 0
-6233 6105 0
6233 197 -6105 0
-6537 -188 0
-6537 6473 0
6537 188 -6473 0
-6665 -189 0
-6665 6537 0
6665 189 -6537 0
-6845 -6233 0
-6845 -6665 0
6845 6233 6665 0
-7025 -5801 0
-7025 6845 0
7025 5801 -6845 0
-7205 -5369 0
-7205 7025 0
7205 5369 -7025 0
-7385 -4937 0
-7385 7205 0
7385 4937 -7205 0
-7565 -4505 0
-7565 7385 0
7565 4505 -7385 0
-7745 -4073 0
-7745 7565 0
7745 4073 -7565 0
-7925 -3641 0
-7925 7745 0
7925 3641 -7745 0
-8105 -3209 0
-8105 7925 0
8105 3209 -7925 0
-8285 -2777 0
-8285 8105 0
8285 2777 -8105 0
-8465 -2345 0
-8465 8285 0
8465 2345 -8285 0
-8645 -1913 0
-8645 8465 0
8645 1913 -8465 0
-8825 -1481 0
-8825 8645 0
8825 1481 -8645 0
-9005 -1049 0
-9005 8825 0
9005 1049 -8825 0
-9185 -617 0
-9185 9005 0
9185 617 -9005 0
-9491 65 0
-9491 9185 0
9491 -65 -9185 0
-9492 -65 0
-9492 -9185 0
9492 65 9185 0
-9493 -9491 0
-9493 -9492 0
9493 9491 9492 0
64 -52074 0
-64 52074 0
-488 -300 0
-488 424 0
488 300 -424 0
-616 -301 0
-616 488 0
616 301 -488 0
-920 -292 0
-920 856 0
920 292 -856 0
-1048 -293 0
-1048 920 0
1048 293 -920 0
-1352 -284 0
-1352 1288 0
1352 284 -1288 0
-1480 -285 0
-1480 1352 0
1480 285 -1352 0
-1784 -276 0
-1784 1720 0
1784 276 -1720 0
-1912 -277 0
-1912 1784 0
1912 277 -1784 0
-2216 -268 0
-2216 2152 0
2216 268 -2152 0
-2344 -269 0
-2344 2216 0
2344 269 -2216 0
-2648 -260 0
-2648 2584 0
2648 260 -2584 0
-2776 -261 0
-2776 2648 0
2776 261 -2648 0
-3080 -252 0
-3080 3016 0
3080 252 -3016 0
-3208 -253 0
-3208 3080 0
3208 253 -3080 0
-3512 -244 0
-3512 3448 0
3512 244 -3448 0
-3640 -245 0
-3640 3512 0
3640 245 -3512 0
-3944 -236 0
-3944 3880 0
3944 236 -3880 0
-4072 -237 0
-4072 3944 0
4072 237 -3944 0
-4376 -228 0
-4376 4312 0
4376 228 -4312 0
-4504 -229 0
-4504 4376 0
4504 229 -4376 0
-4808 -220 0
-4808 4744 0
4808 220 -4744 0
-4936 -221 0
-4936 4808 0
4936 221 -4808 0
-5240 -212 0
-5240 5176 0
5240 212 -5176 0
-5368 -213 0
-5368 5240 0
5368 213 -5240 0
-5672 -204 0
-5672 5608 0
5672 204 -5608 0
-5800 -205 0
-5800 5672 0
5800 205 -5672 0
-6104 -196 0
-6104 6040 0
6104 196 -6040 0
-6232 -197 0
-6232 6104 0
6232 197 -6104 0
-6536 -188 0
-6536 6472 0
6536 188 -6472 0
-6664 -189 0
-6664 6536 0
6664 189 -6536 0
-6844 -6232 0
-6844 -6664 0
6844 6232 6664 0
-7024 -5800 0
-7024 6844 0
7024 5800 -6844 0
-7204 -5368 0
-7204 7024 0
7204 5368 -7024 0
-7384 -4936 0
-7384 7204 0
7384 4936 -7204 0
-7564 -4504 0
-7564 7384 0
7564 4504 -7384 0
-7744 -4072 0
-7744 7564 0
7744 4072 -7564 0
-7924 -3640 0
-7924 7744 0
7924 3640 -7744 0
-8104 -3208 0
-8104 7924 0
8104 3208 -7924 0
-8284 -2776 0
-8284 8104 0
8284 2776 -8104 0
-8464 -2344 0
-8464 8284 0
8464 2344 -8284 0
-8644 -1912 0
-8644 8464 0
8644 1912 -8464 0
-8824 -1480 0
-8824 8644 0
8824 1480 -8644 0
-9004 -1048 0
-9004 8824 0
9004 1048 -8824 0
-9184 -616 0
-9184 9004 0
9184 616 -9004 0
-9488 64 0
-9488 9184 0
9488 -64 -9184 0
-9489 -64 0
-9489 -9184 0
9489 64 9184 0
-9490 -9488 0
-9490 -9489 0
9490 9488 9489 0
63 -52073 0
-63 52073 0
-487 -300 0
-487 423 0
487 300 -423 0
-615 -301 0
-615 487 0
615 301 -487 0
-919 -292 0
-919 855 0
919 292 -855 0
-1047 -293 0
-1047 919 0
1047 293 -919 0
-1351 -284 0
-1351 1287 0
1351 284 -1287 0
-1479 -285 0
-1479 1351 0
1479 285 -1351 0
-1783 -276 0
-1783 1719 0
1783 276 -1719 0
-1911 -277 0
-1911 1783 0
1911 277 -1783 0
-2215 -268 0
-2215 2151 0
2215 268 -2151 0
-2343 -269 0
-2343 2215 0
2343 269 -2215 0
-2647 -260 0
-2647 2583 0
2647 260 -2583 0
-2775 -261 0
-2775 2647 0
2775 261 -2647 0
-3079 -252 0
-3079 3015 0
3079 252 -3015 0
-3207 -253 0
-3207 3079 0
3207 253 -3079 0
-3511 -244 0
-3511 3447 0
3511 244 -3447 0
-3639 -245 0
-3639 3511 0
3639 245 -3511 0
-3943 -236 0
-3943 3879 0
3943 236 -3879 0
-4071 -237 0
-4071 3943 0
4071 237 -3943 0
-4375 -228 0
-4375 4311 0
4375 228 -4311 0
-4503 -229 0
-4503 4375 0
4503 229 -4375 0
-4807 -220 0
-4807 4743 0
4807 220 -4743 0
-4935 -221 0
-4935 4807 0
4935 221 -4807 0
-5239 -212 0
-5239 5175 0
5239 212 -5175 0
-5367 -213 0
-5367 5239 0
5367 213 -5239 0
-5671 -204 0
-5671 5607 0
5671 204 -5607 0
-5799 -205 0
-5799 5671 0
5799 205 -5671 0
-6103 -196 0
-6103 6039 0
6103 196 -6039 0
-6231 -197 0
-6231 6103 0
6231 197 -6103 0
-6535 -188 0
-6535 6471 0
6535 188 -6471 0
-6663 -189 0
-6663 6535 0
6663 189 -6535 0
-6843 -6231 0
-6843 -6663 0
6843 6231 6663 0
-7023 -5799 0
-7023 6843 0
7023 5799 -6843 0
-7203 -5367 0
-7203 7023 0
7203 5367 -7023 0
-7383 -4935 0
-7383 7203 0
7383 4935 -7203 0
-7563 -4503 0
-7563 7383 0
7563 4503 -7383 0
-7743 -4071 0
-7743 7563 0
7743 4071 -7563 0
-7923 -3639 0
-7923 7743 0
7923 3639 -7743 0
-8103 -3207 0
-8103 7923 0
8103 3207 -7923 0
-8283 -2775 0
-8283 8103 0
8283 2775 -8103 0
-8463 -2343 0
-8463 8283 0
8463 2343 -8283 0
-8643 -1911 0
-8643 8463 0
8643 1911 -8463 0
-8823 -1479 0
-8823 8643 0
8823 1479 -8643 0
-9003 -1047 0
-9003 8823 0
9003 1047 -8823 0
-9183 -615 0
-9183 9003 0
9183 615 -9003 0
-9485 63 0
-9485 9183 0
9485 -63 -9183 0
-9486 -63 0
-9486 -9183 0
9486 63 9183 0
-9487 -9485 0
-9487 -9486 0
9487 9485 9486 0
62 -52072 0
-62 52072 0
-486 -300 0
-486 422 0
486 300 -422 0
-614 -301 0
-614 486 0
614 301 -486 0
-918 -292 0
-918 854 0
918 292 -854 0
-1046 -293 0
-1046 918 0
1046 293 -918 0
-1350 -284 0
-1350 1286 0
1350 284 -1286 0
-1478 -285 0
-1478 1350 0
1478 285 -1350 0
-1782 -276 0
-1782 1718 0
1782 276 -1718 0
-1910 -277 0
-1910 1782 0
1910 277 -1782 0
-2214 -268 0
-2214 2150 0
2214 268 -2150 0
-2342 -269 0
-2342 2214 0
2342 269 -2214 0
-2646 -260 0
-2646 2582 0
2646 260 -2582 0
-2774 -261 0
-2774 2646 0
2774 261 -2646 0
-3078 -252 0
-3078 3014 0
3078 252 -3014 0
-3206 -253 0
-3206 3078 0
3206 253 -3078 0
-3510 -244 0
-3510 3446 0
3510 244 -3446 0
-3638 -245 0
-3638 3510 0
3638 245 -3510 0
-3942 -236 0
-3942 3878 0
3942 236 -3878 0
-4070 -237 0
-4070 3942 0
4070 237 -3942 0
-4374 -228 0
-4374 4310 0
4374 228 -4310 0
-4502 -229 0
-4502 4374 0
4502 229 -4374 0
-4806 -220 0
-4806 4742 0
4806 220 -4742 0
-4934 -221 0
-4934 4806 0
4934 221 -4806 0
-5238 -212 0
-5238 5174 0
5238 212 -5174 0
-5366 -213 0
-5366 5238 0
5366 213 -5238 0
-5670 -204 0
-5670 5606 0
5670 204 -5606 0
-5798 -205 0
-5798 5670 0
5798 205 -5670 0
-6102 -196 0
-6102 6038 0
6102 196 -6038 0
-6230 -197 0
-6230 6102 0
6230 197 -6102 0
-6534 -188 0
-6534 6470 0
6534 188 -6470 0
-6662 -189 0
-6662 6534 0
6662 189 -6534 0
-6842 -6230 0
-6842 -6662 0
6842 6230 6662 0
-7022 -5798 0
-7022 6842 0
7022 5798 -6842 0
-7202 -5366 0
-7202 7022 0
7202 5366 -7022 0
-7382 -4934 0
-7382 7202 0
7382 4934 -7202 0
-7562 -4502 0
-7562 7382 0
7562 4502 -7382 0
-7742 -4070 0
-7742 7562 0
7742 4070 -7562 0
-7922 -3638 0
-7922 7742 0
7922 3638 -7742 0
-8102 -3206 0
-8102 7922 0
8102 3206 -7922 0
-8282 -2774 0
-8282 8102 0
8282 2774 -8102 0
-8462 -2342 0
-8462 8282 0
8462 2342 -8282 0
-8642 -1910 0
-8642 8462 0
8642 1910 -8462 0
-8822 -1478 0
-8822 8642 0
8822 1478 -8642 0
-9002 -1046 0
-9002 8822 0
9002 1046 -8822 0
-9182 -614 0
-9182 9002 0
9182 614 -9002 0
-9482 62 0
-9482 9182 0
9482 -62 -9182 0
-9483 -62 0
-9483 -9182 0
9483 62 9182 0
-9484 -9482 0
-9484 -9483 0
9484 9482 9483 0
61 -52071 0
-61 52071 0
-485 -300 0
-485 421 0
485 300 -421 0
-613 -301 0
-613 485 0
613 301 -485 0
-917 -292 0
-917 853 0
917 292 -853 0
-1045 -293 0
-1045 917 0
1045 293 -917 0
-1349 -284 0
-1349 1285 0
1349 284 -1285 0
-1477 -285 0
-1477 1349 0
1477 285 -1349 0
-1781 -276 0
-1781 1717 0
1781 276 -1717 0
-1909 -277 0
-1909 1781 0
1909 277 -1781 0
-2213 -268 0
-2213 2149 0
2213 268 -2149 0
-2341 -269 0
-2341 2213 0
2341 269 -2213 0
-2645 -260 0
-2645 2581 0
2645 260 -2581 0
-2773 -261 0
-2773 2645 0
2773 261 -2645 0
-3077 -252 0
-3077 3013 0
3077 252 -3013 0
-3205 -253 0
-3205 3077 0
3205 253 -3077 0
-3509 -244 0
-3509 3445 0
3509 244 -3445 0
-3637 -245 0
-3637 3509 0
3637 245 -3509 0
-3941 -236 0
-3941 3877 0
3941 236 -3877 0
-4069 -237 0
-4069 3941 0
4069 237 -3941 0
-4373 -228 0
-4373 4309 0
4373 228 -4309 0
-4501 -229 0
-4501 4373 0
4501 229 -4373 0
-4805 -220 0
-4805 4741 0
4805 220 -4741 0
-4933 -221 0
-4933 4805 0
4933 221 -4805 0
-5237 -212 0
-5237 5173 0
5237 212 -5173 0
-5365 -213 0
-5365 5237 0
5365 213 -5237 0
-5669 -204 0
-5669 5605 0
5669 204 -5605 0
-5797 -205 0
-5797 5669 0
5797 205 -5669 0
-6101 -196 0
-6101 6037 0
6101 196 -6037 0
-6229 -197 0
-6229 6101 0
6229 197 -6101 0
-6533 -188 0
-6533 6469 0
6533 188 -6469 0
-6661 -189 0
-6661 6533 0
6661 189 -6533 0
-6841 -6229 0
-6841 -6661 0
6841 6229 6661 0
-7021 -5797 0
-7021 6841 0
7021 5797 -6841 0
-7201 -5365 0
-7201 7021 0
7201 5365 -7021 0
-7381 -4933 0
-7381 7201 0
7381 4933 -7201 0
-7561 -4501 0
-7561 7381 0
7561 4501 -7381 0
-7741 -4069 0
-7741 7561 0
7741 4069 -7561 0
-7921 -3637 0
-7921 7741 0
7921 3637 -7741 0
-8101 -3205 0
-8101 7921 0
8101 3205 -7921 0
-8281 -2773 0
-8281 8101 0
8281 2773 -8101 0
-8461 -2341 0
-8461 8281 0
8461 2341 -8281 0
-8641 -1909 0
-8641 8461 0
8641 1909 -8461 0
-8821 -1477 0
-8821 8641 0
8821 1477 -8641 0
-9001 -1045 0
-9001 8821 0
9001 1045 -8821 0
-9181 -613 0
-9181 9001 0
9181 613 -9001 0
-9479 61 0
-9479 9181 0
9479 -61 -9181 0
-9480 -61 0
-9480 -9181 0
9480 61 9181 0
-9481 -9479 0
-9481 -9480 0
9481 9479 9480 0
60 -52070 0
-60 52070 0
-484 -300 0
-484 420 0
484 300 -420 0
-612 -301 0
-612 484 0
612 301 -484 0
-916 -292 0
-916 852 0
916 292 -852 0
-1044 -293 0
-1044 916 0
1044 293 -916 0
-1348 -284 0
-1348 1284 0
1348 284 -1284 0
-1476 -285 0
-1476 1348 0
1476 285 -1348 0
-1780 -276 0
-1780 1716 0
1780 276 -1716 0
-1908 -277 0
-1908 1780 0
1908 277 -1780 0
-2212 -268 0
-2212 2148 0
2212 268 -2148 0
-2340 -269 0
-2340 2212 0
2340 269 -2212 0
-2644 -260 0
-2644 2580 0
2644 260 -2580 0
-2772 -261 0
-2772 2644 0
2772 261 -2644 0
-3076 -252 0
-3076 3012 0
3076 252 -3012 0
-3204 -253 0
-3204 3076 0
3204 253 -3076 0
-3508 -244 0
-3508 3444 0
3508 244 -3444 0
-3636 -245 0
-3636 3508 0
3636 245 -3508 0
-3940 -236 0
-3940 3876 0
3940 236 -3876 0
-4068 -237 0
-4068 3940 0
4068 237 -3940 0
-4372 -228 0
-4372 4308 0
4372 228 -4308 0
-4500 -229 0
-4500 4372 0
4500 229 -4372 0
-4804 -220 0
-4804 4740 0
4804 220 -4740 0
-4932 -221 0
-4932 4804 0
4932 221 -4804 0
-5236 -212 0
-5236 5172 0
5236 212 -5172 0
-5364 -213 0
-5364 5236 0
5364 213 -5236 0
-5668 -204 0
-5668 5604 0
5668 204 -5604 0
-5796 -205 0
-5796 5668 0
5796 205 -5668 0
-6100 -196 0
-6100 6036 0
6100 196 -6036 0
-6228 -197 0
-6228 6100 0
6228 197 -6100 0
-6532 -188 0
-6532 6468 0
6532 188 -6468 0
-6660 -189 0
-6660 6532 0
6660 189 -6532 0
-6840 -6228 0
-6840 -6660 0
6840 6228 6660 0
-7020 -5796 0
-7020 6840 0
7020 5796 -6840 0
-7200 -5364 0
-7200 7020 0
7200 5364 -7020 0
-7380 -4932 0
-7380 7200 0
7380 4932 -7200 0
-7560 -4500 0
-7560 7380 0
7560 4500 -7380 0
-7740 -4068 0
-7740 7560 0
7740 4068 -7560 0
-7920 -3636 0
-7920 7740 0
7920 3636 -7740 0
-8100 -3204 0
-8100 7920 0
8100 3204 -7920 0
-8280 -2772 0
-8280 8100 0
8280 2772 -8100 0
-8460 -2340 0
-8460 8280 0
8460 2340 -8280 0
-8640 -1908 0
-8640 8460 0
8640 1908 -8460 0
-8820 -1476 0
-8820 8640 0
8820 1476 -8640 0
-9000 -1044 0
-9000 8820 0
9000 1044 -8820 0
-9180 -612 0
-9180 9000 0
9180 612 -9000 0
-9476 60 0
-9476 9180 0
9476 -60 -9180 0
-9477 -60 0
-9477 -9180 0
9477 60 9180 0
-9478 -9476 0
-9478 -9477 0
9478 9476 9477 0
59 -52069 0
-59 52069 0
-483 -300 0
-483 419 0
483 300 -419 0
-611 -301 0
-611 483 0
611 301 -483 0
-915 -292 0
-915 851 0
915 292 -851 0
-1043 -293 0
-1043 915 0
1043 293 -915 0
-1347 -284 0
-1347 1283 0
1347 284 -1283 0
-1475 -285 0
-1475 1347 0
1475 285 -1347 0
-1779 -276 0
-1779 1715 0
1779 276 -1715 0
-1907 -277 0
-1907 1779 0
1907 277 -1779 0
-2211 -268 0
-2211 2147 0
2211 268 -2147 0
-2339 -269 0
-2339 2211 0
2339 269 -2211 0
-2643 -260 0
-2643 2579 0
2643 260 -2579 0
-2771 -261 0
-2771 2643 0
2771 261 -2643 0
-3075 -252 0
-3075 3011 0
3075 252 -3011 0
-3203 -253 0
-3203 3075 0
3203 253 -3075 0
-3507 -244 0
-3507 3443 0
3507 244 -3443 0
-3635 -245 0
-3635 3507 0
3635 245 -3507 0
-3939 -236 0
-3939 3875 0
3939 236 -3875 0
-4067 -237 0
-4067 3939 0
4067 237 -3939 0
-4371 -228 0
-4371 4307 0
4371 228 -4307 0
-4499 -229 0
-4499 4371 0
4499 229 -4371 0
-4803 -220 0
-4803 4739 0
4803 220 -4739 0
-4931 -221 0
-4931 4803 0
4931 221 -4803 0
-5235 -212 0
-5235 5171 0
5235 212 -5171 0
-5363 -213 0
-5363 5235 0
5363 213 -5235 0
-5667 -204 0
-5667 5603 0
5667 204 -5603 0
-5795 -205 0
-5795 5667 0
5795 205 -5667 0
-6099 -196 0
-6099 6035 0
6099 196 -6035 0
-6227 -197 0
-6227 6099 0
6227 197 -6099 0
-6531 -188 0
-6531 6467 0
6531 188 -6467 0
-6659 -189 0
-6659 6531 0
6659 189 -6531 0
-6839 -6227 0
-6839 -6659 0
6839 6227 6659 0
-7019 -5795 0
-7019 6839 0
7019 5795 -6839 0
-7199 -5363 0
-7199 7019 0
7199 5363 -7019 0
-7379 -4931 0
-7379 7199 0
7379 4931 -7199 0
-7559 -4499 0
-7559 7379 0
7559 4499 -7379 0
-7739 -4067 0
-7739 7559 0
7739 4067 -7559 0
-7919 -3635 0
-7919 7739 0
7919 3635 -7739 0
-8099 -3203 0
-8099 7919 0
8099 3203 -7919 0
-8279 -2771 0
-8279 8099 0
8279 2771 -8099 0
-8459 -2339 0
-8459 8279 0
8459 2339 -8279 0
-8639 -1907 0
-8639 8459 0
8639 1907 -8459 0
-8819 -1475 0
-8819 8639 0
8819 1475 -8639 0
-8999 -1043 0
-8999 8819 0
8999 1043 -8819 0
-9179 -611 0
-9179 8999 0
9179 611 -8999 0
-9473 59 0
-9473 9179 0
9473 -59 -9179 0
-9474 -59 0
-9474 -9179 0
9474 59 9179 0
-9475 -9473 0
-9475 -9474 0
9475 9473 9474 0
58 -52068 0
-58 52068 0
-482 -300 0
-482 418 0
482 300 -418 0
-610 -301 0
-610 482 0
610 301 -482 0
-914 -292 0
-914 850 0
914 292 -850 0
-1042 -293 0
-1042 914 0
1042 293 -914 0
-1346 -284 0
-1346 1282 0
1346 284 -1282 0
-1474 -285 0
-1474 1346 0
1474 285 -1346 0
-1778 -276 0
-1778 1714 0
1778 276 -1714 0
-1906 -277 0
-1906 1778 0
1906 277 -1778 0
-2210 -268 0
-2210 2146 0
2210 268 -2146 0
-2338 -269 0
-2338 2210 0
2338 269 -2210 0
-2642 -260 0
-2642 2578 0
2642 260 -2578 0
-2770 -261 0
-2770 2642 0
2770 261 -2642 0
-3074 -252 0
-3074 3010 0
3074 252 -3010 0
-3202 -253 0
-3202 3074 0
3202 253 -3074 0
-3506 -244 0
-3506 3442 0
3506 244 -3442 0
-3634 -245 0
-3634 3506 0
3634 245 -3506 0
-3938 -236 0
-3938 3874 0
3938 236 -3874 0
-4066 -237 0
-4066 3938 0
4066 237 -3938 0
-4370 -228 0
-4370 4306 0
4370 228 -4306 0
-4498 -229 0
-4498 4370 0
4498 229 -4370 0
-4802 -220 0
-4802 4738 0
4802 220 -4738 0
-4930 -221 0
-4930 4802 0
4930 221 -4802 0
-5234 -212 0
-5234 5170 0
5234 212 -5170 0
-5362 -213 0
-5362 5234 0
5362 213 -5234 0
-5666 -204 0
-5666 5602 0
5666 204 -5602 0
-5794 -205 0
-5794 5666 0
5794 205 -5666 0
-6098 -196 0
-6098 6034 0
6098 196 -6034 0
-6226 -197 0
-6226 6098 0
6226 197 -6098 0
-6530 -188 0
-6530 6466 0
6530 188 -6466 0
-6658 -189 0
-6658 6530 0
6658 189 -6530 0
-6838 -6226 0
-6838 -6658 0
6838 6226 6658 0
-7018 -5794 0
-7018 6838 0
7018 5794 -6838 0
-7198 -5362 0
-7198 7018 0
7198 5362 -7018 0
-7378 -4930 0
-7378 7198 0
7378 4930 -7198 0
-7558 -4498 0
-7558 7378 0
7558 4498 -7378 0
-7738 -4066 0
-7738 7558 0
7738 4066 -7558 0
-7918 -3634 0
-7918 7738 0
7918 3634 -7738 0
-8098 -3202 0
-8098 7918 0
8098 3202 -7918 0
-8278 -2770 0
-8278 8098 0
8278 2770 -8098 0
-8458 -2338 0
-8458 8278 0
8458 2338 -8278 0
-8638 -1906 0
-8638 8458 0
8638 1906 -8458 0
-8818 -1474 0
-8818 8638 0
8818 1474 -8638 0
-8998 -1042 0
-8998 8818 0
8998 1042 -8818 0
-9178 -610 0
-9178 8998 0
9178 610 -8998 0
-9470 58 0
-9470 9178 0
9470 -58 -9178 0
-9471 -58 0
-9471 -9178 0
9471 58 9178 0
-9472 -9470 0
-9472 -9471 0
9472 9470 9471 0
57 -52067 0
-57 52067 0
-481 -300 0
-481 417 0
481 300 -417 0
-609 -301 0
-609 481 0
609 301 -481 0
-913 -292 0
-913 849 0
913 292 -849 0
-1041 -293 0
-1041 913 0
1041 293 -913 0
-1345 -284 0
-1345 1281 0
1345 284 -1281 0
-1473 -285 0
-1473 1345 0
1473 285 -1345 0
-1777 -276 0
-1777 1713 0
1777 276 -1713 0
-1905 -277 0
-1905 1777 0
1905 277 -1777 0
-2209 -268 0
-2209 2145 0
2209 268 -2145 0
-2337 -269 0
-2337 2209 0
2337 269 -2209 0
-2641 -260 0
-2641 2577 0
2641 260 -2577 0
-2769 -261 0
-2769 2641 0
2769 261 -2641 0
-3073 -252 0
-3073 3009 0
3073 252 -3009 0
-3201 -253 0
-3201 3073 0
3201 253 -3073 0
-3505 -244 0
-3505 3441 0
3505 244 -3441 0
-3633 -245 0
-3633 3505 0
3633 245 -3505 0
-3937 -236 0
-3937 3873 0
3937 236 -3873 0
-4065 -237 0
-4065 3937 0
4065 237 -3937 0
-4369 -228 0
-4369 4305 0
4369 228 -4305 0
-4497 -229 0
-4497 4369 0
4497 229 -4369 0
-4801 -220 0
-4801 4737 0
4801 220 -4737 0
-4929 -221 0
-4929 4801 0
4929 221 -4801 0
-5233 -212 0
-5233 5169 0
5233 212 -5169 0
-5361 -213 0
-5361 5233 0
5361 213 -5233 0
-5665 -204 0
-5665 5601 0
5665 204 -5601 0
-5793 -205 0
-5793 5665 0
5793 205 -5665 0
-6097 -196 0
-6097 6033 0
6097 196 -6033 0
-6225 -197 0
-6225 6097 0
6225 197 -6097 0
-6529 -188 0
-6529 6465 0
6529 188 -6465 0
-6657 -189 0
-6657 6529 0
6657 189 -6529 0
-6837 -6225 0
-6837 -6657 0
6837 6225 6657 0
-7017 -5793 0
-7017 6837 0
7017 5793 -6837 0
-7197 -5361 0
-7197 7017 0
7197 5361 -7017 0
-7377 -4929 0
-7377 7197 0
7377 4929 -7197 0
-7557 -4497 0
-7557 7377 0
7557 4497 -7377 0
-7737 -4065 0
-7737 7557 0
7737 4065 -7557 0
-7917 -3633 0
-7917 7737 0
7917 3633 -7737 0
-8097 -3201 0
-8097 7917 0
8097 3201 -7917 0
-8277 -2769 0
-8277 8097 0
8277 2769 -8097 0
-8457 -2337 0
-8457 8277 0
8457 2337 -8277 0
-8637 -1905 0
-8637 8457 0
8637 1905 -8457 0
-8817 -1473 0
-8817 8637 0
8817 1473 -8637 0
-8997 -1041 0
-8997 8817 0
8997 1041 -8817 0
-9177 -609 0
-9177 8997 0
9177 609 -8997 0
-9467 57 0
-9467 9177 0
9467 -57 -9177 0
-9468 -57 0
-9468 -9177 0
9468 57 9177 0
-9469 -9467 0
-9469 -9468 0
9469 9467 9468 0
56 -52066 0
-56 52066 0
-480 -300 0
-480 416 0
480 300 -416 0
-608 -301 0
-608 480 0
608 301 -480 0
-912 -292 0
-912 848 0
912 292 -848 0
-1040 -293 0
-1040 912 0
1040 293 -912 0
-1344 -284 0
-1344 1280 0
1344 284 -1280 0
-1472 -285 0
-1472 1344 0
1472 285 -1344 0
-1776 -276 0
-1776 1712 0
1776 276 -1712 0
-1904 -277 0
-1904 1776 0
1904 277 -1776 0
-2208 -268 0
-2208 2144 0
2208 268 -2144 0
-2336 -269 0
-2336 2208 0
2336 269 -2208 0
-2640 -260 0
-2640 2576 0
2640 260 -2576 0
-2768 -261 0
-2768 2640 0
2768 261 -2640 0
-3072 -252 0
-3072 3008 0
3072 252 -3008 0
-3200 -253 0
-3200 3072 0
3200 253 -3072 0
-3504 -244 0
-3504 3440 0
3504 244 -3440 0
-3632 -245 0
-3632 3504 0
3632 245 -3504 0
-3936 -236 0
-3936 3872 0
3936 236 -3872 0
-4064 -237 0
-4064 3936 0
4064 237 -3936 0
-4368 -228 0
-4368 4304 0
4368 228 -4304 0
-4496 -229 0
-4496 4368 0
4496 229 -4368 0
-4800 -220 0
-4800 4736 0
4800 220 -4736 0
-4928 -221 0
-4928 4800 0
4928 221 -4800 0
-5232 -212 0
-5232 5168 0
5232 212 -5168 0
-5360 -213 0
-5360 5232 0
5360 213 -5232 0
-5664 -204 0
-5664 5600 0
5664 204 -5600 0
-5792 -205 0
-5792 5664 0
5792 205 -5664 0
-6096 -196 0
-6096 6032 0
6096 196 -6032 0
-6224 -197 0
-6224 6096 0
6224 197 -6096 0
-6528 -188 0
-6528 6464 0
6528 188 -6464 0
-6656 -189 0
-6656 6528 0
6656 189 -6528 0
-6836 -6224 0
-6836 -6656 0
6836 6224 6656 0
-7016 -5792 0
-7016 6836 0
7016 5792 -6836 0
-7196 -5360 0
-7196 7016 0
7196 5360 -7016 0
-7376 -4928 0
-7376 7196 0
7376 4928 -7196 0
-7556 -4496 0
-7556 7376 0
7556 4496 -7376 0
-7736 -4064 0
-7736 7556 0
7736 4064 -7556 0
-7916 -3632 0
-7916 7736 0
7916 3632 -7736 0
-8096 -3200 0
-8096 7916 0
8096 3200 -7916 0
-8276 -2768 0
-8276 8096 0
8276 2768 -8096 0
-8456 -2336 0
-8456 8276 0
8456 2336 -8276 0
-8636 -1904 0
-8636 8456 0
8636 1904 -8456 0
-8816 -1472 0
-8816 8636 0
8816 1472 -8636 0
-8996 -1040 0
-8996 8816 0
8996 1040 -8816 0
-9176 -608 0
-9176 8996 0
9176 608 -8996 0
-9464 56 0
-9464 9176 0
9464 -56 -9176 0
-9465 -56 0
-9465 -9176 0
9465 56 9176 0
-9466 -9464 0
-9466 -9465 0
9466 9464 9465 0
55 -52065 0
-55 52065 0
-479 -300 0
-479 415 0
479 300 -415 0
-607 -301 0
-607 479 0
607 301 -479 0
-911 -292 0
-911 847 0
911 292 -847 0
-1039 -293 0
-1039 911 0
1039 293 -911 0
-1343 -284 0
-1343 1279 0
1343 284 -1279 0
-1471 -285 0
-1471 1343 0
1471 285 -1343 0
-1775 -276 0
-1775 1711 0
1775 276 -1711 0
-1903 -277 0
-1903 1775 0
1903 277 -1775 0
-2207 -268 0
-2207 2143 0
2207 268 -2143 0
-2335 -269 0
-2335 2207 0
2335 269 -2207 0
-2639 -260 0
-2639 2575 0
2639 260 -2575 0
-2767 -261 0
-2767 2639 0
2767 261 -2639 0
-3071 -252 0
-3071 3007 0
3071 252 -3007 0
-3199 -253 0
-3199 3071 0
3199 253 -3071 0
-3503 -244 0
-3503 3439 0
3503 244 -3439 0
-3631 -245 0
-3631 3503 0
3631 245 -3503 0
-3935 -236 0
-3935 3871 0
3935 236 -3871 0
-4063 -237 0
-4063 3935 0
4063 237 -3935 0
-4367 -228 0
-4367 4303 0
4367 228 -4303 0
-4495 -229 0
-4495 4367 0
4495 229 -4367 0
-4799 -220 0
-4799 4735 0
4799 220 -4735 0
-4927 -221 0
-4927 4799 0
4927 221 -4799 0
-5231 -212 0
-5231 5167 0
5231 212 -5167 0
-5359 -213 0
-5359 5231 0
5359 213 -5231 0
-5663 -204 0
-5663 5599 0
5663 204 -5599 0
-5791 -205 0
-5791 5663 0
5791 205 -5663 0
-6095 -196 0
-6095 6031 0
6095 196 -6031 0
-6223 -197 0
-6223 6095 0
6223 197 -6095 0
-6527 -188 0
-6527 6463 0
6527 188 -6463 0
-6655 -189 0
-6655 6527 0
6655 189 -6527 0
-6835 -6223 0
-6835 -6655 0
6835 6223 6655 0
-7015 -5791 0
-7015 6835 0
7015 5791 -6835 0
-7195 -5359 0
-7195 7015 0
7195 5359 -7015 0
-7375 -4927 0
-7375 7195 0
7375 4927 -7195 0
-7555 -4495 0
-7555 7375 0
7555 4495 -7375 0
-7735 -4063 0
-7735 7555 0
7735 4063 -7555 0
-7915 -3631 0
-7915 7735 0
7915 3631 -7735 0
-8095 -3199 0
-8095 7915 0
8095 3199 -7915 0
-8275 -2767 0
-8275 8095 0
8275 2767 -8095 0
-8455 -2335 0
-8455 8275 0
8455 2335 -8275 0
-8635 -1903 0
-8635 8455 0
8635 1903 -8455 0
-8815 -1471 0
-8815 8635 0
8815 1471 -8635 0
-8995 -1039 0
-8995 8815 0
8995 1039 -8815 0
-9175 -607 0
-9175 8995 0
9175 607 -8995 0
-9461 55 0
-9461 9175 0
9461 -55 -9175 0
-9462 -55 0
-9462 -9175 0
9462 55 9175 0
-9463 -9461 0
-9463 -9462 0
9463 9461 9462 0
54 -52064 0
-54 52064 0
-478 -300 0
-478 414 0
478 300 -414 0
-606 -301 0
-606 478 0
606 301 -478 0
-910 -292 0
-910 846 0
910 292 -846 0
-1038 -293 0
-1038 910 0
1038 293 -910 0
-1342 -284 0
-1342 1278 0
1342 284 -1278 0
-1470 -285 0
-1470 1342 0
1470 285 -1342 0
-1774 -276 0
-1774 1710 0
1774 276 -1710 0
-1902 -277 0
-1902 1774 0
1902 277 -1774 0
-2206 -268 0
-2206 2142 0
2206 268 -2142 0
-2334 -269 0
-2334 2206 0
2334 269 -2206 0
-2638 -260 0
-2638 2574 0
2638 260 -2574 0
-2766 -261 0
-2766 2638 0
2766 261 -2638 0
-3070 -252 0
-3070 3006 0
3070 252 -3006 0
-3198 -253 0
-3198 3070 0
3198 253 -3070 0
-3502 -244 0
-3502 3438 0
3502 244 -3438 0
-3630 -245 0
-3630 3502 0
3630 245 -3502 0
-3934 -236 0
-3934 3870 0
3934 236 -3870 0
-4062 -237 0
-4062 3934 0
4062 237 -3934 0
-4366 -228 0
-4366 4302 0
4366 228 -4302 0
-4494 -229 0
-4494 4366 0
4494 229 -4366 0
-4798 -220 0
-4798 4734 0
4798 220 -4734 0
-4926 -221 0
-4926 4798 0
4926 221 -4798 0
-5230 -212 0
-5230 5166 0
5230 212 -5166 0
-5358 -213 0
-5358 5230 0
5358 213 -5230 0
-5662 -204 0
-5662 5598 0
5662 204 -5598 0
-5790 -205 0
-5790 5662 0
5790 205 -5662 0
-6094 -196 0
-6094 6030 0
6094 196 -6030 0
-6222 -197 0
-6222 6094 0
6222 197 -6094 0
-6526 -188 0
-6526 6462 0
6526 188 -6462 0
-6654 -189 0
-6654 6526 0
6654 189 -6526 0
-6834 -6222 0
-6834 -6654 0
6834 6222 6654 0
-7014 -5790 0
-7014 6834 0
7014 5790 -6834 0
-7194 -5358 0
-7194 7014 0
7194 5358 -7014 0
-7374 -4926 0
-7374 7194 0
7374 4926 -7194 0
-7554 -4494 0
-7554 7374 0
7554 4494 -7374 0
-7734 -4062 0
-7734 7554 0
7734 4062 -7554 0
-7914 -3630 0
-7914 7734 0
7914 3630 -7734 0
-8094 -3198 0
-8094 7914 0
8094 3198 -7914 0
-8274 -2766 0
-8274 8094 0
8274 2766 -8094 0
-8454 -2334 0
-8454 8274 0
8454 2334 -8274 0
-8634 -1902 0
-8634 8454 0
8634 1902 -8454 0
-8814 -1470 0
-8814 8634 0
8814 1470 -8634 0
-8994 -1038 0
-8994 8814 0
8994 1038 -8814 0
-9174 -606 0
-9174 8994 0
9174 606 -8994 0
-9458 54 0
-9458 9174 0
9458 -54 -9174 0
-9459 -54 0
-9459 -9174 0
9459 54 9174 0
-9460 -9458 0
-9460 -9459 0
9460 9458 9459 0
53 -52063 0
-53 52063 0
-605 -301 0
-605 477 0
605 301 -477 0
-1037 -293 0
-1037 909 0
1037 293 -909 0
-1469 -285 0
-1469 1341 0
1469 285 -1341 0
-1901 -277 0
-1901 1773 0
1901 277 -1773 0
-2333 -269 0
-2333 2205 0
2333 269 -2205 0
-2765 -261 0
-2765 2637 0
2765 261 -2637 0
-3197 -253 0
-3197 3069 0
3197 253 -3069 0
-3629 -245 0
-3629 3501 0
3629 245 -3501 0
-4061 -237 0
-4061 3933 0
4061 237 -3933 0
-4493 -229 0
-4493 4365 0
4493 229 -4365 0
-4925 -221 0
-4925 4797 0
4925 221 -4797 0
-5357 -213 0
-5357 5229 0
5357 213 -5229 0
-5789 -205 0
-5789 5661 0
5789 205 -5661 0
-6221 -197 0
-6221 6093 0
6221 197 -6093 0
-6653 -189 0
-6653 6525 0
6653 189 -6525 0
-6833 -6221 0
-6833 -6653 0
6833 6221 6653 0
-7013 -5789 0
-7013 6833 0
7013 5789 -6833 0
-7193 -5357 0
-7193 7013 0
7193 5357 -7013 0
-7373 -4925 0
-7373 7193 0
7373 4925 -7193 0
-7553 -4493 0
-7553 7373 0
7553 4493 -7373 0
-7733 -4061 0
-7733 7553 0
7733 4061 -7553 0
-7913 -3629 0
-7913 7733 0
7913 3629 -7733 0
-8093 -3197 0
-8093 7913 0
8093 3197 -7913 0
-8273 -2765 0
-8273 8093 0
8273 2765 -8093 0
-8453 -2333 0
-8453 8273 0
8453 2333 -8273 0
-8633 -1901 0
-8633 8453 0
8633 1901 -8453 0
-8813 -1469 0
-8813 8633 0
8813 1469 -8633 0
-8993 -1037 0
-8993 8813 0
8993 1037 -8813 0
-9173 -605 0
-9173 8993 0
9173 605 -8993 0
-9455 53 0
-9455 9173 0
9455 -53 -9173 0
-9456 -53 0
-9456 -9173 0
9456 53 9173 0
-9457 -9455 0
-9457 -9456 0
9457 9455 9456 0
52 -52062 0
-52 52062 0
-604 -301 0
-604 476 0
604 301 -476 0
-1036 -293 0
-1036 908 0
1036 293 -908 0
-1468 -285 0
-1468 1340 0
1468 285 -1340 0
-1900 -277 0
-1900 1772 0
1900 277 -1772 0
-2332 -269 0
-2332 2204 0
2332 269 -2204 0
-2764 -261 0
-2764 2636 0
2764 261 -2636 0
-3196 -253 0
-3196 3068 0
3196 253 -3068 0
-3628 -245 0
-3628 3500 0
3628 245 -3500 0
-4060 -237 0
-4060 3932 0
4060 237 -3932 0
-4492 -229 0
-4492 4364 0
4492 229 -4364 0
-4924 -221 0
-4924 4796 0
4924 221 -4796 0
-5356 -213 0
-5356 5228 0
5356 213 -5228 0
-5788 -205 0
-5788 5660 0
5788 205 -5660 0
-6220 -197 0
-6220 6092 0
6220 197 -6092 0
-6652 -189 0
-6652 6524 0
6652 189 -6524 0
-6832 -6220 0
-6832 -6652 0
6832 6220 6652 0
-7012 -5788 0
-7012 6832 0
7012 5788 -6832 0
-7192 -5356 0
-7192 7012 0
7192 5356 -7012 0
-7372 -4924 0
-7372 7192 0
7372 4924 -7192 0
-7552 -4492 0
-7552 7372 0
7552 4492 -7372 0
-7732 -4060 0
-7732 7552 0
7732 4060 -7552 0
-7912 -3628 0
-7912 7732 0
7912 3628 -7732 0
-8092 -3196 0
-8092 7912 0
8092 3196 -7912 0
-8272 -2764 0
-8272 8092 0
8272 2764 -8092 0
-8452 -2332 0
-8452 8272 0
8452 2332 -8272 0
-8632 -1900 0
-8632 8452 0
8632 1900 -8452 0
-8812 -1468 0
-8812 8632 0
8812 1468 -8632 0
-8992 -1036 0
-8992 8812 0
8992 1036 -8812 0
-9172 -604 0
-9172 8992 0
9172 604 -8992 0
-9452 52 0
-9452 9172 0
9452 -52 -9172 0
-9453 -52 0
-9453 -9172 0
9453 52 9172 0
-9454 -9452 0
-9454 -9453 0
9454 9452 9453 0
51 -52061 0
-51 52061 0
-603 -301 0
-603 475 0
603 301 -475 0
-1035 -293 0
-1035 907 0
1035 293 -907 0
-1467 -285 0
-1467 1339 0
1467 285 -1339 0
-1899 -277 0
-1899 1771 0
1899 277 -1771 0
-2331 -269 0
-2331 2203 0
2331 269 -2203 0
-2763 -261 0
-2763 2635 0
2763 261 -2635 0
-3195 -253 0
-3195 3067 0
3195 253 -3067 0
-3627 -245 0
-3627 3499 0
3627 245 -3499 0
-4059 -237 0
-4059 3931 0
4059 237 -3931 0
-4491 -229 0
-4491 4363 0
4491 229 -4363 0
-4923 -221 0
-4923 4795 0
4923 221 -4795 0
-5355 -213 0
-5355 5227 0
5355 213 -5227 0
-5787 -205 0
-5787 5659 0
5787 205 -5659 0
-6219 -197 0
-6219 6091 0
6219 197 -6091 0
-6651 -189 0
-6651 6523 0
6651 189 -6523 0
-6831 -6219 0
-6831 -6651 0
6831 6219 6651 0
-7011 -5787 0
-7011 6831 0
7011 5787 -6831 0
-7191 -5355 0
-7191 7011 0
7191 5355 -7011 0
-7371 -4923 0
-7371 7191 0
7371 4923 -7191 0
-7551 -4491 0
-7551 7371 0
7551 4491 -7371 0
-7731 -4059 0
-7731 7551 0
7731 4059 -7551 0
-7911 -3627 0
-7911 7731 0
7911 3627 -7731 0
-8091 -3195 0
-8091 7911 0
8091 3195 -7911 0
-8271 -2763 0
-8271 8091 0
8271 2763 -8091 0
-8451 -2331 0
-8451 8271 0
8451 2331 -8271 0
-8631 -1899 0
-8631 8451 0
8631 1899 -8451 0
-8811 -1467 0
-8811 8631 0
8811 1467 -8631 0
-8991 -1035 0
-8991 8811 0
8991 1035 -8811 0
-9171 -603 0
-9171 8991 0
9171 603 -8991 0
-9449 51 0
-9449 9171 0
9449 -51 -9171 0
-9450 -51 0
-9450 -9171 0
9450 51 9171 0
-9451 -9449 0
-9451 -9450 0
9451 9449 9450 0
50 -52060 0
-50 52060 0
-602 -301 0
-602 474 0
602 301 -474 0
-1034 -293 0
-1034 906 0
1034 293 -906 0
-1466 -285 0
-1466 1338 0
1466 285 -1338 0
-1898 -277 0
-1898 1770 0
1898 277 -1770 0
-2330 -269 0
-2330 2202 0
2330 269 -2202 0
-2762 -261 0
-2762 2634 0
2762 261 -2634 0
-3194 -253 0
-3194 3066 0
3194 253 -3066 0
-3626 -245 0
-3626 3498 0
3626 245 -3498 0
-4058 -237 0
-4058 3930 0
4058 237 -3930 0
-4490 -229 0
-4490 4362 0
4490 229 -4362 0
-4922 -221 0
-4922 4794 0
4922 221 -4794 0
-5354 -213 0
-5354 5226 0
5354 213 -5226 0
-5786 -205 0
-5786 5658 0
5786 205 -5658 0
-6218 -197 0
-6218 6090 0
6218 197 -6090 0
-6650 -189 0
-6650 6522 0
6650 189 -6522 0
-6830 -6218 0
-6830 -6650 0
6830 6218 6650 0
-7010 -5786 0
-7010 6830 0
7010 5786 -6830 0
-7190 -5354 0
-7190 7010 0
7190 5354 -7010 0
-7370 -4922 0
-7370 7190 0
7370 4922 -7190 0
-7550 -4490 0
-7550 7370 0
7550 4490 -7370 0
-7730 -4058 0
-7730 7550 0
7730 4058 -7550 0
-7910 -3626 0
-7910 7730 0
7910 3626 -7730 0
-8090 -3194 0
-8090 7910 0
8090 3194 -7910 0
-8270 -2762 0
-8270 8090 0
8270 2762 -8090 0
-8450 -2330 0
-8450 8270 0
8450 2330 -8270 0
-8630 -1898 0
-8630 8450 0
8630 1898 -8450 0
-8810 -1466 0
-8810 8630 0
8810 1466 -8630 0
-8990 -1034 0
-8990 8810 0
8990 1034 -8810 0
-9170 -602 0
-9170 8990 0
9170 602 -8990 0
-9446 50 0
-9446 9170 0
9446 -50 -9170 0
-9447 -50 0
-9447 -9170 0
9447 50 9170 0
-9448 -9446 0
-9448 -9447 0
9448 9446 9447 0
49 -52059 0
-49 52059 0
-601 -301 0
-601 473 0
601 301 -473 0
-1033 -293 0
-1033 905 0
1033 293 -905 0
-1465 -285 0
-1465 1337 0
1465 285 -1337 0
-1897 -277 0
-1897 1769 0
1897 277 -1769 0
-2329 -269 0
-2329 2201 0
2329 269 -2201 0
-2761 -261 0
-2761 2633 0
2761 261 -2633 0
-3193 -253 0
-3193 3065 0
3193 253 -3065 0
-3625 -245 0
-3625 3497 0
3625 245 -3497 0
-4057 -237 0
-4057 3929 0
4057 237 -3929 0
-4489 -229 0
-4489 4361 0
4489 229 -4361 0
-4921 -221 0
-4921 4793 0
4921 221 -4793 0
-5353 -213 0
-5353 5225 0
5353 213 -5225 0
-5785 -205 0
-5785 5657 0
5785 205 -5657 0
-6217 -197 0
-6217 6089 0
6217 197 -6089 0
-6649 -189 0
-6649 6521 0
6649 189 -6521 0
-6829 -6217 0
-6829 -6649 0
6829 6217 6649 0
-7009 -5785 0
-7009 6829 0
7009 5785 -6829 0
-7189 -5353 0
-7189 7009 0
7189 5353 -7009 0
-7369 -4921 0
-7369 7189 0
7369 4921 -7189 0
-7549 -4489 0
-7549 7369 0
7549 4489 -7369 0
-7729 -4057 0
-7729 7549 0
7729 4057 -7549 0
-7909 -3625 0
-7909 7729 0
7909 3625 -7729 0
-8089 -3193 0
-8089 7909 0
8089 3193 -7909 0
-8269 -2761 0
-8269 8089 0
8269 2761 -8089 0
-8449 -2329 0
-8449 8269 0
8449 2329 -8269 0
-8629 -1897 0
-8629 8449 0
8629 1897 -8449 0
-8809 -1465 0
-8809 8629 0
8809 1465 -8629 0
-8989 -1033 0
-8989 8809 0
8989 1033 -8809 0
-9169 -601 0
-9169 8989 0
9169 601 -8989 0
-9443 49 0
-9443 9169 0
9443 -49 -9169 0
-9444 -49 0
-9444 -9169 0
9444 49 9169 0
-9445 -9443 0
-9445 -9444 0
9445 9443 9444 0
48 -52058 0
-48 52058 0
-600 -301 0
-600 472 0
600 301 -472 0
-1032 -293 0
-1032 904 0
1032 293 -904 0
-1464 -285 0
-1464 1336 0
1464 285 -1336 0
-1896 -277 0
-1896 1768 0
1896 277 -1768 0
-2328 -269 0
-2328 2200 0
2328 269 -2200 0
-2760 -261 0
-2760 2632 0
2760 261 -2632 0
-3192 -253 0
-3192 3064 0
3192 253 -3064 0
-3624 -245 0
-3624 3496 0
3624 245 -3496 0
-4056 -237 0
-4056 3928 0
4056 237 -3928 0
-4488 -229 0
-4488 4360 0
4488 229 -4360 0
-4920 -221 0
-4920 4792 0
4920 221 -4792 0
-5352 -213 0
-5352 5224 0
5352 213 -5224 0
-5784 -205 0
-5784 5656 0
5784 205 -5656 0
-6216 -197 0
-6216 6088 0
6216 197 -6088 0
-6648 -189 0
-6648 6520 0
6648 189 -6520 0
-6828 -6216 0
-6828 -6648 0
6828 6216 6648 0
-7008 -5784 0
-7008 6828 0
7008 5784 -6828 0
-7188 -5352 0
-7188 7008 0
7188 5352 -7008 0
-7368 -4920 0
-7368 7188 0
7368 4920 -7188 0
-7548 -4488 0
-7548 7368 0
7548 4488 -7368 0
-7728 -4056 0
-7728 7548 0
7728 4056 -7548 0
-7908 -3624 0
-7908 7728 0
7908 3624 -7728 0
-8088 -3192 0
-8088 7908 0
8088 3192 -7908 0
-8268 -2760 0
-8268 8088 0
8268 2760 -8088 0
-8448 -2328 0
-8448 8268 0
8448 2328 -8268 0
-8628 -1896 0
-8628 8448 0
8628 1896 -8448 0
-8808 -1464 0
-8808 8628 0
8808 1464 -8628 0
-8988 -1032 0
-8988 8808 0
8988 1032 -8808 0
-9168 -600 0
-9168 8988 0
9168 600 -8988 0
-9440 48 0
-9440 9168 0
9440 -48 -9168 0
-9441 -48 0
-9441 -9168 0
9441 48 9168 0
-9442 -9440 0
-9442 -9441 0
9442 9440 9441 0
47 -52057 0
-47 52057 0
-599 -301 0
-599 471 0
599 301 -471 0
-1031 -293 0
-1031 903 0
1031 293 -903 0
-1463 -285 0
-1463 1335 0
1463 285 -1335 0
-1895 -277 0
-1895 1767 0
1895 277 -1767 0
-2327 -269 0
-2327 2199 0
2327 269 -2199 0
-2759 -261 0
-2759 2631 0
2759 261 -2631 0
-3191 -253 0
-3191 3063 0
3191 253 -3063 0
-3623 -245 0
-3623 3495 0
3623 245 -3495 0
-4055 -237 0
-4055 3927 0
4055 237 -3927 0
-4487 -229 0
-4487 4359 0
4487 229 -4359 0
-4919 -221 0
-4919 4791 0
4919 221 -4791 0
-5351 -213 0
-5351 5223 0
5351 213 -5223 0
-5783 -205 0
-5783 5655 0
5783 205 -5655 0
-6215 -197 0
-6215 6087 0
6215 197 -6087 0
-6647 -189 0
-6647 6519 0
6647 189 -6519 0
-6827 -6215 0
-6827 -6647 0
6827 6215 6647 0
-7007 -5783 0
-7007 6827 0
7007 5783 -6827 0
-7187 -5351 0
-7187 7007 0
7187 5351 -7007 0
-7367 -4919 0
-7367 7187 0
7367 4919 -7187 0
-7547 -4487 0
-7547 7367 0
7547 4487 -7367 0
-7727 -4055 0
-7727 7547 0
7727 4055 -7547 0
-7907 -3623 0
-7907 7727 0
7907 3623 -7727 0
-8087 -3191 0
-8087 7907 0
8087 3191 -7907 0
-8267 -2759 0
-8267 8087 0
8267 2759 -8087 0
-8447 -2327 0
-8447 8267 0
8447 2327 -8267 0
-8627 -1895 0
-8627 8447 0
8627 1895 -8447 0
-8807 -1463 0
-8807 8627 0
8807 1463 -8627 0
-8987 -1031 0
-8987 8807 0
8987 1031 -8807 0
-9167 -599 0
-9167 8987 0
9167 599 -8987 0
-9437 47 0
-9437 9167 0
9437 -47 -9167 0
-9438 -47 0
-9438 -9167 0
9438 47 9167 0
-9439 -9437 0
-9439 -9438 0
9439 9437 9438 0
46 -52056 0
-46 52056 0
-598 -301 0
-598 470 0
598 301 -470 0
-1030 -293 0
-1030 902 0
1030 293 -902 0
-1462 -285 0
-1462 1334 0
1462 285 -1334 0
-1894 -277 0
-1894 1766 0
1894 277 -1766 0
-2326 -269 0
-2326 2198 0
2326 269 -2198 0
-2758 -261 0
-2758 2630 0
2758 261 -2630 0
-3190 -253 0
-3190 3062 0
3190 253 -3062 0
-3622 -245 0
-3622 3494 0
3622 245 -3494 0
-4054 -237 0
-4054 3926 0
4054 237 -3926 0
-4486 -229 0
-4486 4358 0
4486 229 -4358 0
-4918 -221 0
-4918 4790 0
4918 221 -4790 0
-5350 -213 0
-5350 5222 0
5350 213 -5222 0
-5782 -205 0
-5782 5654 0
5782 205 -5654 0
-6214 -197 0
-6214 6086 0
6214 197 -6086 0
-6646 -189 0
-6646 6518 0
6646 189 -6518 0
-6826 -6214 0
-6826 -6646 0
6826 6214 6646 0
-7006 -5782 0
-7006 6826 0
7006 5782 -6826 0
-7186 -5350 0
-7186 7006 0
7186 5350 -7006 0
-7366 -4918 0
-7366 7186 0
7366 4918 -7186 0
-7546 -4486 0
-7546 7366 0
7546 4486 -7366 0
-7726 -4054 0
-7726 7546 0
7726 4054 -7546 0
-7906 -3622 0
-7906 7726 0
7906 3622 -7726 0
-8086 -3190 0
-8086 7906 0
8086 3190 -7906 0
-8266 -2758 0
-8266 8086 0
8266 2758 -8086 0
-8446 -2326 0
-8446 8266 0
8446 2326 -8266 0
-8626 -1894 0
-8626 8446 0
8626 1894 -8446 0
-8806 -1462 0
-8806 8626 0
8806 1462 -8626 0
-8986 -1030 0
-8986 8806 0
8986 1030 -8806 0
-9166 -598 0
-9166 8986 0
9166 598 -8986 0
-9434 46 0
-9434 9166 0
9434 -46 -9166 0
-9435 -46 0
-9435 -9166 0
9435 46 9166 0
-9436 -9434 0
-9436 -9435 0
9436 9434 9435 0
45 -52055 0
-45 52055 0
-597 -301 0
-597 469 0
597 301 -469 0
-1029 -293 0
-1029 901 0
1029 293 -901 0
-1461 -285 0
-1461 1333 0
1461 285 -1333 0
-1893 -277 0
-1893 1765 0
1893 277 -1765 0
-2325 -269 0
-2325 2197 0
2325 269 -2197 0
-2757 -261 0
-2757 2629 0
2757 261 -2629 0
-3189 -253 0
-3189 3061 0
3189 253 -3061 0
-3621 -245 0
-3621 3493 0
3621 245 -3493 0
-4053 -237 0
-4053 3925 0
4053 237 -3925 0
-4485 -229 0
-4485 4357 0
4485 229 -4357 0
-4917 -221 0
-4917 4789 0
4917 221 -4789 0
-5349 -213 0
-5349 5221 0
5349 213 -5221 0
-5781 -205 0
-5781 5653 0
5781 205 -5653 0
-6213 -197 0
-6213 6085 0
6213 197 -6085 0
-6645 -189 0
-6645 6517 0
6645 189 -6517 0
-6825 -6213 0
-6825 -6645 0
6825 6213 6645 0
-7005 -5781 0
-7005 6825 0
7005 5781 -6825 0
-7185 -5349 0
-7185 7005 0
7185 5349 -7005 0
-7365 -4917 0
-7365 7185 0
7365 4917 -7185 0
-7545 -4485 0
-7545 7365 0
7545 4485 -7365 0
-7725 -4053 0
-7725 7545 0
7725 4053 -7545 0
-7905 -3621 0
-7905 7725 0
7905 3621 -7725 0
-8085 -3189 0
-8085 7905 0
8085 3189 -7905 0
-8265 -2757 0
-8265 8085 0
8265 2757 -8085 0
-8445 -2325 0
-8445 8265 0
8445 2325 -8265 0
-8625 -1893 0
-8625 8445 0
8625 1893 -8445 0
-8805 -1461 0
-8805 8625 0
8805 1461 -8625 0
-8985 -1029 0
-8985 8805 0
8985 1029 -8805 0
-9165 -597 0
-9165 8985 0
9165 597 -8985 0
-9431 45 0
-9431 9165 0
9431 -45 -9165 0
-9432 -45 0
-9432 -9165 0
9432 45 9165 0
-9433 -9431 0
-9433 -9432 0
9433 9431 9432 0
44 -52054 0
-44 52054 0
-596 -301 0
-596 468 0
596 301 -468 0
-1028 -293 0
-1028 900 0
1028 293 -900 0
-1460 -285 0
-1460 1332 0
1460 285 -1332 0
-1892 -277 0
-1892 1764 0
1892 277 -1764 0
-2324 -269 0
-2324 2196 0
2324 269 -2196 0
-2756 -261 0
-2756 2628 0
2756 261 -2628 0
-3188 -253 0
-3188 3060 0
3188 253 -3060 0
-3620 -245 0
-3620 3492 0
3620 245 -3492 0
-4052 -237 0
-4052 3924 0
4052 237 -3924 0
-4484 -229 0
-4484 4356 0
4484 229 -4356 0
-4916 -221 0
-4916 4788 0
4916 221 -4788 0
-5348 -213 0
-5348 5220 0
5348 213 -5220 0
-5780 -205 0
-5780 5652 0
5780 205 -5652 0
-6212 -197 0
-6212 6084 0
6212 197 -6084 0
-6644 -189 0
-6644 6516 0
6644 189 -6516 0
-6824 -6212 0
-6824 -6644 0
6824 6212 6644 0
-7004 -5780 0
-7004 6824 0
7004 5780 -6824 0
-7184 -5348 0
-7184 7004 0
7184 5348 -7004 0
-7364 -4916 0
-7364 7184 0
7364 4916 -7184 0
-7544 -4484 0
-7544 7364 0
7544 4484 -7364 0
-7724 -4052 0
-7724 7544 0
7724 4052 -7544 0
-7904 -3620 0
-7904 7724 0
7904 3620 -7724 0
-8084 -3188 0
-8084 7904 0
8084 3188 -7904 0
-8264 -2756 0
-8264 8084 0
8264 2756 -8084 0
-8444 -2324 0
-8444 8264 0
8444 2324 -8264 0
-8624 -1892 0
-8624 8444 0
8624 1892 -8444 0
-8804 -1460 0
-8804 8624 0
8804 1460 -8624 0
-8984 -1028 0
-8984 8804 0
8984 1028 -8804 0
-9164 -596 0
-9164 8984 0
9164 596 -8984 0
-9428 44 0
-9428 9164 0
9428 -44 -9164 0
-9429 -44 0
-9429 -9164 0
9429 44 9164 0
-9430 -9428 0
-9430 -9429 0
9430 9428 9429 0
43 -52053 0
-43 52053 0
-595 -301 0
-595 467 0
595 301 -467 0
-1027 -293 0
-1027 899 0
1027 293 -899 0
-1459 -285 0
-1459 1331 0
1459 285 -1331 0
-1891 -277 0
-1891 1763 0
1891 277 -1763 0
-2323 -269 0
-2323 2195 0
2323 269 -2195 0
-2755 -261 0
-2755 2627 0
2755 261 -2627 0
-3187 -253 0
-3187 3059 0
3187 253 -3059 0
-3619 -245 0
-3619 3491 0
3619 245 -3491 0
-4051 -237 0
-4051 3923 0
4051 237 -3923 0
-4483 -229 0
-4483 4355 0
4483 229 -4355 0
-4915 -221 0
-4915 4787 0
4915 221 -4787 0
-5347 -213 0
-5347 5219 0
5347 213 -5219 0
-5779 -205 0
-5779 5651 0
5779 205 -5651 0
-6211 -197 0
-6211 6083 0
6211 197 -6083 0
-6643 -189 0
-6643 6515 0
6643 189 -6515 0
-6823 -6211 0
-6823 -6643 0
6823 6211 6643 0
-7003 -5779 0
-7003 6823 0
7003 5779 -6823 0
-7183 -5347 0
-7183 7003 0
7183 5347 -7003 0
-7363 -4915 0
-7363 7183 0
7363 4915 -7183 0
-7543 -4483 0
-7543 7363 0
7543 4483 -7363 0
-7723 -4051 0
-7723 7543 0
7723 4051 -7543 0
-7903 -3619 0
-7903 7723 0
7903 3619 -7723 0
-8083 -3187 0
-8083 7903 0
8083 3187 -7903 0
-8263 -2755 0
-8263 8083 0
8263 2755 -8083 0
-8443 -2323 0
-8443 8263 0
8443 2323 -8263 0
-8623 -1891 0
-8623 8443 0
8623 1891 -8443 0
-8803 -1459 0
-8803 8623 0
8803 1459 -8623 0
-8983 -1027 0
-8983 8803 0
8983 1027 -8803 0
-9163 -595 0
-9163 8983 0
9163 595 -8983 0
-9425 43 0
-9425 9163 0
9425 -43 -9163 0
-9426 -43 0
-9426 -9163 0
9426 43 9163 0
-9427 -9425 0
-9427 -9426 0
9427 9425 9426 0
42 -52052 0
-42 52052 0
-594 -301 0
-594 466 0
594 301 -466 0
-1026 -293 0
-1026 898 0
1026 293 -898 0
-1458 -285 0
-1458 1330 0
1458 285 -1330 0
-1890 -277 0
-1890 1762 0
1890 277 -1762 0
-2322 -269 0
-2322 2194 0
2322 269 -2194 0
-2754 -261 0
-2754 2626 0
2754 261 -2626 0
-3186 -253 0
-3186 3058 0
3186 253 -3058 0
-3618 -245 0
-3618 3490 0
3618 245 -3490 0
-4050 -237 0
-4050 3922 0
4050 237 -3922 0
-4482 -229 0
-4482 4354 0
4482 229 -4354 0
-4914 -221 0
-4914 4786 0
4914 221 -4786 0
-5346 -213 0
-5346 5218 0
5346 213 -5218 0
-5778 -205 0
-5778 5650 0
5778 205 -5650 0
-6210 -197 0
-6210 6082 0
6210 197 -6082 0
-6642 -189 0
-6642 6514 0
6642 189 -6514 0
-6822 -6210 0
-6822 -6642 0
6822 6210 6642 0
-7002 -5778 0
-7002 6822 0
7002 5778 -6822 0
-7182 -5346 0
-7182 7002 0
7182 5346 -7002 0
-7362 -4914 0
-7362 7182 0
7362 4914 -7182 0
-7542 -4482 0
-7542 7362 0
7542 4482 -7362 0
-7722 -4050 0
-7722 7542 0
7722 4050 -7542 0
-7902 -3618 0
-7902 7722 0
7902 3618 -7722 0
-8082 -3186 0
-8082 7902 0
8082 3186 -7902 0
-8262 -2754 0
-8262 8082 0
8262 2754 -8082 0
-8442 -2322 0
-8442 8262 0
8442 2322 -8262 0
-8622 -1890 0
-8622 8442 0
8622 1890 -8442 0
-8802 -1458 0
-8802 8622 0
8802 1458 -8622 0
-8982 -1026 0
-8982 8802 0
8982 1026 -8802 0
-9162 -594 0
-9162 8982 0
9162 594 -8982 0
-9422 42 0
-9422 9162 0
9422 -42 -9162 0
-9423 -42 0
-9423 -9162 0
9423 42 9162 0
-9424 -9422 0
-9424 -9423 0
9424 9422 9423 0
41 -52051 0
-41 52051 0
-593 -301 0
-593 465 0
593 301 -465 0
-1025 -293 0
-1025 897 0
1025 293 -897 0
-1457 -285 0
-1457 1329 0
1457 285 -1329 0
-1889 -277 0
-1889 1761 0
1889 277 -1761 0
-2321 -269 0
-2321 2193 0
2321 269 -2193 0
-2753 -261 0
-2753 2625 0
2753 261 -2625 0
-3185 -253 0
-3185 3057 0
3185 253 -3057 0
-3617 -245 0
-3617 3489 0
3617 245 -3489 0
-4049 -237 0
-4049 3921 0
4049 237 -3921 0
-4481 -229 0
-4481 4353 0
4481 229 -4353 0
-4913 -221 0
-4913 4785 0
4913 221 -4785 0
-5345 -213 0
-5345 5217 0
5345 213 -5217 0
-5777 -205 0
-5777 5649 0
5777 205 -5649 0
-6209 -197 0
-6209 6081 0
6209 197 -6081 0
-6641 -189 0
-6641 6513 0
6641 189 -6513 0
-6821 -6209 0
-6821 -6641 0
6821 6209 6641 0
-7001 -5777 0
-7001 6821 0
7001 5777 -6821 0
-7181 -5345 0
-7181 7001 0
7181 5345 -7001 0
-7361 -4913 0
-7361 7181 0
7361 4913 -7181 0
-7541 -4481 0
-7541 7361 0
7541 4481 -7361 0
-7721 -4049 0
-7721 7541 0
7721 4049 -7541 0
-7901 -3617 0
-7901 7721 0
7901 3617 -7721 0
-8081 -3185 0
-8081 7901 0
8081 3185 -7901 0
-8261 -2753 0
-8261 8081 0
8261 2753 -8081 0
-8441 -2321 0
-8441 8261 0
8441 2321 -8261 0
-8621 -1889 0
-8621 8441 0
8621 1889 -8441 0
-8801 -1457 0
-8801 8621 0
8801 1457 -8621 0
-8981 -1025 0
-8981 8801 0
8981 1025 -8801 0
-9161 -593 0
-9161 8981 0
9161 593 -8981 0
-9419 41 0
-9419 9161 0
9419 -41 -9161 0
-9420 -41 0
-9420 -9161 0
9420 41 9161 0
-9421 -9419 0
-9421 -9420 0
9421 9419 9420 0
40 -52050 0
-40 52050 0
-592 -301 0
-592 464 0
592 301 -464 0
-1024 -293 0
-1024 896 0
1024 293 -896 0
-1456 -285 0
-1456 1328 0
1456 285 -1328 0
-1888 -277 0
-1888 1760 0
1888 277 -1760 0
-2320 -269 0
-2320 2192 0
2320 269 -2192 0
-2752 -261 0
-2752 2624 0
2752 261 -2624 0
-3184 -253 0
-3184 3056 0
3184 253 -3056 0
-3616 -245 0
-3616 3488 0
3616 245 -3488 0
-4048 -237 0
-4048 3920 0
4048 237 -3920 0
-4480 -229 0
-4480 4352 0
4480 229 -4352 0
-4912 -221 0
-4912 4784 0
4912 221 -4784 0
-5344 -213 0
-5344 5216 0
5344 213 -5216 0
-5776 -205 0
-5776 5648 0
5776 205 -5648 0
-6208 -197 0
-6208 6080 0
6208 197 -6080 0
-6640 -189 0
-6640 6512 0
6640 189 -6512 0
-6820 -6208 0
-6820 -6640 0
6820 6208 6640 0
-7000 -5776 0
-7000 6820 0
7000 5776 -6820 0
-7180 -5344 0
-7180 7000 0
7180 5344 -7000 0
-7360 -4912 0
-7360 7180 0
7360 4912 -7180 0
-7540 -4480 0
-7540 7360 0
7540 4480 -7360 0
-7720 -4048 0
-7720 7540 0
7720 4048 -7540 0
-7900 -3616 0
-7900 7720 0
7900 3616 -7720 0
-8080 -3184 0
-8080 7900 0
8080 3184 -7900 0
-8260 -2752 0
-8260 8080 0
8260 2752 -8080 0
-8440 -2320 0
-8440 8260 0
8440 2320 -8260 0
-8620 -1888 0
-8620 8440 0
8620 1888 -8440 0
-8800 -1456 0
-8800 8620 0
8800 1456 -8620 0
-8980 -1024 0
-8980 8800 0
8980 1024 -8800 0
-9160 -592 0
-9160 8980 0
9160 592 -8980 0
-9416 40 0
-9416 9160 0
9416 -40 -9160 0
-9417 -40 0
-9417 -9160 0
9417 40 9160 0
-9418 -9416 0
-9418 -9417 0
9418 9416 9417 0
39 -52049 0
-39 52049 0
-591 -301 0
-591 463 0
591 301 -463 0
-1023 -293 0
-1023 895 0
1023 293 -895 0
-1455 -285 0
-1455 1327 0
1455 285 -1327 0
-1887 -277 0
-1887 1759 0
1887 277 -1759 0
-2319 -269 0
-2319 2191 0
2319 269 -2191 0
-2751 -261 0
-2751 2623 0
2751 261 -2623 0
-3183 -253 0
-3183 3055 0
3183 253 -3055 0
-3615 -245 0
-3615 3487 0
3615 245 -3487 0
-4047 -237 0
-4047 3919 0
4047 237 -3919 0
-4479 -229 0
-4479 4351 0
4479 229 -4351 0
-4911 -221 0
-4911 4783 0
4911 221 -4783 0
-5343 -213 0
-5343 5215 0
5343 213 -5215 0
-5775 -205 0
-5775 5647 0
5775 205 -5647 0
-6207 -197 0
-6207 6079 0
6207 197 -6079 0
-6639 -189 0
-6639 6511 0
6639 189 -6511 0
-6819 -6207 0
-6819 -6639 0
6819 6207 6639 0
-6999 -5775 0
-6999 6819 0
6999 5775 -6819 0
-7179 -5343 0
-7179 6999 0
7179 5343 -6999 0
-7359 -4911 0
-7359 7179 0
7359 4911 -7179 0
-7539 -4479 0
-7539 7359 0
7539 4479 -7359 0
-7719 -4047 0
-7719 7539 0
7719 4047 -7539 0
-7899 -3615 0
-7899 7719 0
7899 3615 -7719 0
-8079 -3183 0
-8079 7899 0
8079 3183 -7899 0
-8259 -2751 0
-8259 8079 0
8259 2751 -8079 0
-8439 -2319 0
-8439 8259 0
8439 2319 -8259 0
-8619 -1887 0
-8619 8439 0
8619 1887 -8439 0
-8799 -1455 0
-8799 8619 0
8799 1455 -8619 0
-8979 -1023 0
-8979 8799 0
8979 1023 -8799 0
-9159 -591 0
-9159 8979 0
9159 591 -8979 0
-9413 39 0
-9413 9159 0
9413 -39 -9159 0
-9414 -39 0
-9414 -9159 0
9414 39 9159 0
-9415 -9413 0
-9415 -9414 0
9415 9413 9414 0
38 -52048 0
-38 52048 0
-590 -301 0
-590 462 0
590 301 -462 0
-1022 -293 0
-1022 894 0
1022 293 -894 0
-1454 -285 0
-1454 1326 0
1454 285 -1326 0
-1886 -277 0
-1886 1758 0
1886 277 -1758 0
-2318 -269 0
-2318 2190 0
2318 269 -2190 0
-2750 -261 0
-2750 2622 0
2750 261 -2622 0
-3182 -253 0
-3182 3054 0
3182 253 -3054 0
-3614 -245 0
-3614 3486 0
3614 245 -3486 0
-4046 -237 0
-4046 3918 0
4046 237 -3918 0
-4478 -229 0
-4478 4350 0
4478 229 -4350 0
-4910 -221 0
-4910 4782 0
4910 221 -4782 0
-5342 -213 0
-5342 5214 0
5342 213 -5214 0
-5774 -205 0
-5774 5646 0
5774 205 -5646 0
-6206 -197 0
-6206 6078 0
6206 197 -6078 0
-6638 -189 0
-6638 6510 0
6638 189 -6510 0
-6818 -6206 0
-6818 -6638 0
6818 6206 6638 0
-6998 -5774 0
-6998 6818 0
6998 5774 -6818 0
-7178 -5342 0
-7178 6998 0
7178 5342 -6998 0
-7358 -4910 0
-7358 7178 0
7358 4910 -7178 0
-7538 -4478 0
-7538 7358 0
7538 4478 -7358 0
-7718 -4046 0
-7718 7538 0
7718 4046 -7538 0
-7898 -3614 0
-7898 7718 0
7898 3614 -7718 0
-8078 -3182 0
-8078 7898 0
8078 3182 -7898 0
-8258 -2750 0
-8258 8078 0
8258 2750 -8078 0
-8438 -2318 0
-8438 8258 0
8438 2318 -8258 0
-8618 -1886 0
-8618 8438 0
8618 1886 -8438 0
-8798 -1454 0
-8798 8618 0
8798 1454 -8618 0
-8978 -1022 0
-8978 8798 0
8978 1022 -8798 0
-9158 -590 0
-9158 8978 0
9158 590 -8978 0
-9410 38 0
-9410 9158 0
9410 -38 -9158 0
-9411 -38 0
-9411 -9158 0
9411 38 9158 0
-9412 -9410 0
-9412 -9411 0
9412 9410 9411 0
37 -52047 0
-37 52047 0
-589 -301 0
-589 461 0
589 301 -461 0
-1021 -293 0
-1021 893 0
1021 293 -893 0
-1453 -285 0
-1453 1325 0
1453 285 -1325 0
-1885 -277 0
-1885 1757 0
1885 277 -1757 0
-2317 -269 0
-2317 2189 0
2317 269 -2189 0
-2749 -261 0
-2749 2621 0
2749 261 -2621 0
-3181 -253 0
-3181 3053 0
3181 253 -3053 0
-3613 -245 0
-3613 3485 0
3613 245 -3485 0
-4045 -237 0
-4045 3917 0
4045 237 -3917 0
-4477 -229 0
-4477 4349 0
4477 229 -4349 0
-4909 -221 0
-4909 4781 0
4909 221 -4781 0
-5341 -213 0
-5341 5213 0
5341 213 -5213 0
-5773 -205 0
-5773 5645 0
5773 205 -5645 0
-6205 -197 0
-6205 6077 0
6205 197 -6077 0
-6637 -189 0
-6637 6509 0
6637 189 -6509 0
-6817 -6205 0
-6817 -6637 0
6817 6205 6637 0
-6997 -5773 0
-6997 6817 0
6997 5773 -6817 0
-7177 -5341 0
-7177 6997 0
7177 5341 -6997 0
-7357 -4909 0
-7357 7177 0
7357 4909 -7177 0
-7537 -4477 0
-7537 7357 0
7537 4477 -7357 0
-7717 -4045 0
-7717 7537 0
7717 4045 -7537 0
-7897 -3613 0
-7897 7717 0
7897 3613 -7717 0
-8077 -3181 0
-8077 7897 0
8077 3181 -7897 0
-8257 -2749 0
-8257 8077 0
8257 2749 -8077 0
-8437 -2317 0
-8437 8257 0
8437 2317 -8257 0
-8617 -1885 0
-8617 8437 0
8617 1885 -8437 0
-8797 -1453 0
-8797 8617 0
8797 1453 -8617 0
-8977 -1021 0
-8977 8797 0
8977 1021 -8797 0
-9157 -589 0
-9157 8977 0
9157 589 -8977 0
-9407 37 0
-9407 9157 0
9407 -37 -9157 0
-9408 -37 0
-9408 -9157 0
9408 37 9157 0
-9409 -9407 0
-9409 -9408 0
9409 9407 9408 0
36 -52046 0
-36 52046 0
-588 -301 0
-588 460 0
588 301 -460 0
-1020 -293 0
-1020 892 0
1020 293 -892 0
-1452 -285 0
-1452 1324 0
1452 285 -1324 0
-1884 -277 0
-1884 1756 0
1884 277 -1756 0
-2316 -269 0
-2316 2188 0
2316 269 -2188 0
-2748 -261 0
-2748 2620 0
2748 261 -2620 0
-3180 -253 0
-3180 3052 0
3180 253 -3052 0
-3612 -245 0
-3612 3484 0
3612 245 -3484 0
-4044 -237 0
-4044 3916 0
4044 237 -3916 0
-4476 -229 0
-4476 4348 0
4476 229 -4348 0
-4908 -221 0
-4908 4780 0
4908 221 -4780 0
-5340 -213 0
-5340 5212 0
5340 213 -5212 0
-5772 -205 0
-5772 5644 0
5772 205 -5644 0
-6204 -197 0
-6204 6076 0
6204 197 -6076 0
-6636 -189 0
-6636 6508 0
6636 189 -6508 0
-6816 -6204 0
-6816 -6636 0
6816 6204 6636 0
-6996 -5772 0
-6996 6816 0
6996 5772 -6816 0
-7176 -5340 0
-7176 6996 0
7176 5340 -6996 0
-7356 -4908 0
-7356 7176 0
7356 4908 -7176 0
-7536 -4476 0
-7536 7356 0
7536 4476 -7356 0
-7716 -4044 0
-7716 7536 0
7716 4044 -7536 0
-7896 -3612 0
-7896 7716 0
7896 3612 -7716 0
-8076 -3180 0
-8076 7896 0
8076 3180 -7896 0
-8256 -2748 0
-8256 8076 0
8256 2748 -8076 0
-8436 -2316 0
-8436 8256 0
8436 2316 -8256 0
-8616 -1884 0
-8616 8436 0
8616 1884 -8436 0
-8796 -1452 0
-8796 8616 0
8796 1452 -8616 0
-8976 -1020 0
-8976 8796 0
8976 1020 -8796 0
-9156 -588 0
-9156 8976 0
9156 588 -8976 0
-9404 36 0
-9404 9156 0
9404 -36 -9156 0
-9405 -36 0
-9405 -9156 0
9405 36 9156 0
-9406 -9404 0
-9406 -9405 0
9406 9404 9405 0
35 -52045 0
-35 52045 0
-587 -301 0
-587 459 0
587 301 -459 0
-1019 -293 0
-1019 891 0
1019 293 -891 0
-1451 -285 0
-1451 1323 0
1451 285 -1323 0
-1883 -277 0
-1883 1755 0
1883 277 -1755 0
-2315 -269 0
-2315 2187 0
2315 269 -2187 0
-2747 -261 0
-2747 2619 0
2747 261 -2619 0
-3179 -253 0
-3179 3051 0
3179 253 -3051 0
-3611 -245 0
-3611 3483 0
3611 245 -3483 0
-4043 -237 0
-4043 3915 0
4043 237 -3915 0
-4475 -229 0
-4475 4347 0
4475 229 -4347 0
-4907 -221 0
-4907 4779 0
4907 221 -4779 0
-5339 -213 0
-5339 5211 0
5339 213 -5211 0
-5771 -205 0
-5771 5643 0
5771 205 -5643 0
-6203 -197 0
-6203 6075 0
6203 197 -6075 0
-6635 -189 0
-6635 6507 0
6635 189 -6507 0
-6815 -6203 0
-6815 -6635 0
6815 6203 6635 0
-6995 -5771 0
-6995 6815 0
6995 5771 -6815 0
-7175 -5339 0
-7175 6995 0
7175 5339 -6995 0
-7355 -4907 0
-7355 7175 0
7355 4907 -7175 0
-7535 -4475 0
-7535 7355 0
7535 4475 -7355 0
-7715 -4043 0
-7715 7535 0
7715 4043 -7535 0
-7895 -3611 0
-7895 7715 0
7895 3611 -7715 0
-8075 -3179 0
-8075 7895 0
8075 3179 -7895 0
-8255 -2747 0
-8255 8075 0
8255 2747 -8075 0
-8435 -2315 0
-8435 8255 0
8435 2315 -8255 0
-8615 -1883 0
-8615 8435 0
8615 1883 -8435 0
-8795 -1451 0
-8795 8615 0
8795 1451 -8615 0
-8975 -1019 0
-8975 8795 0
8975 1019 -8795 0
-9155 -587 0
-9155 8975 0
9155 587 -8975 0
-9401 35 0
-9401 9155 0
9401 -35 -9155 0
-9402 -35 0
-9402 -9155 0
9402 35 9155 0
-9403 -9401 0
-9403 -9402 0
9403 9401 9402 0
34 -52044 0
-34 52044 0
-586 -301 0
-586 458 0
586 301 -458 0
-1018 -293 0
-1018 890 0
1018 293 -890 0
-1450 -285 0
-1450 1322 0
1450 285 -1322 0
-1882 -277 0
-1882 1754 0
1882 277 -1754 0
-2314 -269 0
-2314 2186 0
2314 269 -2186 0
-2746 -261 0
-2746 2618 0
2746 261 -2618 0
-3178 -253 0
-3178 3050 0
3178 253 -3050 0
-3610 -245 0
-3610 3482 0
3610 245 -3482 0
-4042 -237 0
-4042 3914 0
4042 237 -3914 0
-4474 -229 0
-4474 4346 0
4474 229 -4346 0
-4906 -221 0
-4906 4778 0
4906 221 -4778 0
-5338 -213 0
-5338 5210 0
5338 213 -5210 0
-5770 -205 0
-5770 5642 0
5770 205 -5642 0
-6202 -197 0
-6202 6074 0
6202 197 -6074 0
-6634 -189 0
-6634 6506 0
6634 189 -6506 0
-6814 -6202 0
-6814 -6634 0
6814 6202 6634 0
-6994 -5770 0
-6994 6814 0
6994 5770 -6814 0
-7174 -5338 0
-7174 6994 0
7174 5338 -6994 0
-7354 -4906 0
-7354 7174 0
7354 4906 -7174 0
-7534 -4474 0
-7534 7354 0
7534 4474 -7354 0
-7714 -4042 0
-7714 7534 0
7714 4042 -7534 0
-7894 -3610 0
-7894 7714 0
7894 3610 -7714 0
-8074 -3178 0
-8074 7894 0
8074 3178 -7894 0
-8254 -2746 0
-8254 8074 0
8254 2746 -8074 0
-8434 -2314 0
-8434 8254 0
8434 2314 -8254 0
-8614 -1882 0
-8614 8434 0
8614 1882 -8434 0
-8794 -1450 0
-8794 8614 0
8794 1450 -8614 0
-8974 -1018 0
-8974 8794 0
8974 1018 -8794 0
-9154 -586 0
-9154 8974 0
9154 586 -8974 0
-9398 34 0
-9398 9154 0
9398 -34 -9154 0
-9399 -34 0
-9399 -9154 0
9399 34 9154 0
-9400 -9398 0
-9400 -9399 0
9400 9398 9399 0
33 -52043 0
-33 52043 0
-585 -301 0
-585 457 0
585 301 -457 0
-1017 -293 0
-1017 889 0
1017 293 -889 0
-1449 -285 0
-1449 1321 0
1449 285 -1321 0
-1881 -277 0
-1881 1753 0
1881 277 -1753 0
-2313 -269 0
-2313 2185 0
2313 269 -2185 0
-2745 -261 0
-2745 2617 0
2745 261 -2617 0
-3177 -253 0
-3177 3049 0
3177 253 -3049 0
-3609 -245 0
-3609 3481 0
3609 245 -3481 0
-4041 -237 0
-4041 3913 0
4041 237 -3913 0
-4473 -229 0
-4473 4345 0
4473 229 -4345 0
-4905 -221 0
-4905 4777 0
4905 221 -4777 0
-5337 -213 0
-5337 5209 0
5337 213 -5209 0
-5769 -205 0
-5769 5641 0
5769 205 -5641 0
-6201 -197 0
-6201 6073 0
6201 197 -6073 0
-6633 -189 0
-6633 6505 0
6633 189 -6505 0
-6813 -6201 0
-6813 -6633 0
6813 6201 6633 0
-6993 -5769 0
-6993 6813 0
6993 5769 -6813 0
-7173 -5337 0
-7173 6993 0
7173 5337 -6993 0
-7353 -4905 0
-7353 7173 0
7353 4905 -7173 0
-7533 -4473 0
-7533 7353 0
7533 4473 -7353 0
-7713 -4041 0
-7713 7533 0
7713 4041 -7533 0
-7893 -3609 0
-7893 7713 0
7893 3609 -7713 0
-8073 -3177 0
-8073 7893 0
8073 3177 -7893 0
-8253 -2745 0
-8253 8073 0
8253 2745 -8073 0
-8433 -2313 0
-8433 8253 0
8433 2313 -8253 0
-8613 -1881 0
-8613 8433 0
8613 1881 -8433 0
-8793 -1449 0
-8793 8613 0
8793 1449 -8613 0
-8973 -1017 0
-8973 8793 0
8973 1017 -8793 0
-9153 -585 0
-9153 8973 0
9153 585 -8973 0
-9395 33 0
-9395 9153 0
9395 -33 -9153 0
-9396 -33 0
-9396 -9153 0
9396 33 9153 0
-9397 -9395 0
-9397 -9396 0
9397 9395 9396 0
32 -52042 0
-32 52042 0
-584 -301 0
-584 456 0
584 301 -456 0
-1016 -293 0
-1016 888 0
1016 293 -888 0
-1448 -285 0
-1448 1320 0
1448 285 -1320 0
-1880 -277 0
-1880 1752 0
1880 277 -1752 0
-2312 -269 0
-2312 2184 0
2312 269 -2184 0
-2744 -261 0
-2744 2616 0
2744 261 -2616 0
-3176 -253 0
-3176 3048 0
3176 253 -3048 0
-3608 -245 0
-3608 3480 0
3608 245 -3480 0
-4040 -237 0
-4040 3912 0
4040 237 -3912 0
-4472 -229 0
-4472 4344 0
4472 229 -4344 0
-4904 -221 0
-4904 4776 0
4904 221 -4776 0
-5336 -213 0
-5336 5208 0
5336 213 -5208 0
-5768 -205 0
-5768 5640 0
5768 205 -5640 0
-6200 -197 0
-6200 6072 0
6200 197 -6072 0
-6632 -189 0
-6632 6504 0
6632 189 -6504 0
-6812 -6200 0
-6812 -6632 0
6812 6200 6632 0
-6992 -5768 0
-6992 6812 0
6992 5768 -6812 0
-7172 -5336 0
-7172 6992 0
7172 5336 -6992 0
-7352 -4904 0
-7352 7172 0
7352 4904 -7172 0
-7532 -4472 0
-7532 7352 0
7532 4472 -7352 0
-7712 -4040 0
-7712 7532 0
7712 4040 -7532 0
-7892 -3608 0
-7892 7712 0
7892 3608 -7712 0
-8072 -3176 0
-8072 7892 0
8072 3176 -7892 0
-8252 -2744 0
-8252 8072 0
8252 2744 -8072 0
-8432 -2312 0
-8432 8252 0
8432 2312 -8252 0
-8612 -1880 0
-8612 8432 0
8612 1880 -8432 0
-8792 -1448 0
-8792 8612 0
8792 1448 -8612 0
-8972 -1016 0
-8972 8792 0
8972 1016 -8792 0
-9152 -584 0
-9152 8972 0
9152 584 -8972 0
-9392 32 0
-9392 9152 0
9392 -32 -9152 0
-9393 -32 0
-9393 -9152 0
9393 32 9152 0
-9394 -9392 0
-9394 -9393 0
9394 9392 9393 0
31 -52041 0
-31 52041 0
-583 -301 0
-583 455 0
583 301 -455 0
-1015 -293 0
-1015 887 0
1015 293 -887 0
-1447 -285 0
-1447 1319 0
1447 285 -1319 0
-1879 -277 0
-1879 1751 0
1879 277 -1751 0
-2311 -269 0
-2311 2183 0
2311 269 -2183 0
-2743 -261 0
-2743 2615 0
2743 261 -2615 0
-3175 -253 0
-3175 3047 0
3175 253 -3047 0
-3607 -245 0
-3607 3479 0
3607 245 -3479 0
-4039 -237 0
-4039 3911 0
4039 237 -3911 0
-4471 -229 0
-4471 4343 0
4471 229 -4343 0
-4903 -221 0
-4903 4775 0
4903 221 -4775 0
-5335 -213 0
-5335 5207 0
5335 213 -5207 0
-5767 -205 0
-5767 5639 0
5767 205 -5639 0
-6199 -197 0
-6199 6071 0
6199 197 -6071 0
-6631 -189 0
-6631 6503 0
6631 189 -6503 0
-6811 -6199 0
-6811 -6631 0
6811 6199 6631 0
-6991 -5767 0
-6991 6811 0
6991 5767 -6811 0
-7171 -5335 0
-7171 6991 0
7171 5335 -6991 0
-7351 -4903 0
-7351 7171 0
7351 4903 -7171 0
-7531 -4471 0
-7531 7351 0
7531 4471 -7351 0
-7711 -4039 0
-7711 7531 0
7711 4039 -7531 0
-7891 -3607 0
-7891 7711 0
7891 3607 -7711 0
-8071 -3175 0
-8071 7891 0
8071 3175 -7891 0
-8251 -2743 0
-8251 8071 0
8251 2743 -8071 0
-8431 -2311 0
-8431 8251 0
8431 2311 -8251 0
-8611 -1879 0
-8611 8431 0
8611 1879 -8431 0
-8791 -1447 0
-8791 8611 0
8791 1447 -8611 0
-8971 -1015 0
-8971 8791 0
8971 1015 -8791 0
-9151 -583 0
-9151 8971 0
9151 583 -8971 0
-9389 31 0
-9389 9151 0
9389 -31 -9151 0
-9390 -31 0
-9390 -9151 0
9390 31 9151 0
-9391 -9389 0
-9391 -9390 0
9391 9389 9390 0
30 -52040 0
-30 52040 0
-582 -301 0
-582 454 0
582 301 -454 0
-1014 -293 0
-1014 886 0
1014 293 -886 0
-1446 -285 0
-1446 1318 0
1446 285 -1318 0
-1878 -277 0
-1878 1750 0
1878 277 -1750 0
-2310 -269 0
-2310 2182 0
2310 269 -2182 0
-2742 -261 0
-2742 2614 0
2742 261 -2614 0
-3174 -253 0
-3174 3046 0
3174 253 -3046 0
-3606 -245 0
-3606 3478 0
3606 245 -3478 0
-4038 -237 0
-4038 3910 0
4038 237 -3910 0
-4470 -229 0
-4470 4342 0
4470 229 -4342 0
-4902 -221 0
-4902 4774 0
4902 221 -4774 0
-5334 -213 0
-5334 5206 0
5334 213 -5206 0
-5766 -205 0
-5766 5638 0
5766 205 -5638 0
-6198 -197 0
-6198 6070 0
6198 197 -6070 0
-6630 -189 0
-6630 6502 0
6630 189 -6502 0
-6810 -6198 0
-6810 -6630 0
6810 6198 6630 0
-6990 -5766 0
-6990 6810 0
6990 5766 -6810 0
-7170 -5334 0
-7170 6990 0
7170 5334 -6990 0
-7350 -4902 0
-7350 7170 0
7350 4902 -7170 0
-7530 -4470 0
-7530 7350 0
7530 4470 -7350 0
-7710 -4038 0
-7710 7530 0
7710 4038 -7530 0
-7890 -3606 0
-7890 7710 0
7890 3606 -7710 0
-8070 -3174 0
-8070 7890 0
8070 3174 -7890 0
-8250 -2742 0
-8250 8070 0
8250 2742 -8070 0
-8430 -2310 0
-8430 8250 0
8430 2310 -8250 0
-8610 -1878 0
-8610 8430 0
8610 1878 -8430 0
-8790 -1446 0
-8790 8610 0
8790 1446 -8610 0
-8970 -1014 0
-8970 8790 0
8970 1014 -8790 0
-9150 -582 0
-9150 8970 0
9150 582 -8970 0
-9386 30 0
-9386 9150 0
9386 -30 -9150 0
-9387 -30 0
-9387 -9150 0
9387 30 9150 0
-9388 -9386 0
-9388 -9387 0
9388 9386 9387 0
29 -52039 0
-29 52039 0
-581 -301 0
-581 453 0
581 301 -453 0
-1013 -293 0
-1013 885 0
1013 293 -885 0
-1445 -285 0
-1445 1317 0
1445 285 -1317 0
-1877 -277 0
-1877 1749 0
1877 277 -1749 0
-2309 -269 0
-2309 2181 0
2309 269 -2181 0
-2741 -261 0
-2741 2613 0
2741 261 -2613 0
-3173 -253 0
-3173 3045 0
3173 253 -3045 0
-3605 -245 0
-3605 3477 0
3605 245 -3477 0
-4037 -237 0
-4037 3909 0
4037 237 -3909 0
-4469 -229 0
-4469 4341 0
4469 229 -4341 0
-4901 -221 0
-4901 4773 0
4901 221 -4773 0
-5333 -213 0
-5333 5205 0
5333 213 -5205 0
-5765 -205 0
-5765 5637 0
5765 205 -5637 0
-6197 -197 0
-6197 6069 0
6197 197 -6069 0
-6629 -189 0
-6629 6501 0
6629 189 -6501 0
-6809 -6197 0
-6809 -6629 0
6809 6197 6629 0
-6989 -5765 0
-6989 6809 0
6989 5765 -6809 0
-7169 -5333 0
-7169 6989 0
7169 5333 -6989 0
-7349 -4901 0
-7349 7169 0
7349 4901 -7169 0
-7529 -4469 0
-7529 7349 0
7529 4469 -7349 0
-7709 -4037 0
-7709 7529 0
7709 4037 -7529 0
-7889 -3605 0
-7889 7709 0
7889 3605 -7709 0
-8069 -3173 0
-8069 7889 0
8069 3173 -7889 0
-8249 -2741 0
-8249 8069 0
8249 2741 -8069 0
-8429 -2309 0
-8429 8249 0
8429 2309 -8249 0
-8609 -1877 0
-8609 8429 0
8609 1877 -8429 0
-8789 -1445 0
-8789 8609 0
8789 1445 -8609 0
-8969 -1013 0
-8969 8789 0
8969 1013 -8789 0
-9149 -581 0
-9149 8969 0
9149 581 -8969 0
-9383 29 0
-9383 9149 0
9383 -29 -9149 0
-9384 -29 0
-9384 -9149 0
9384 29 9149 0
-9385 -9383 0
-9385 -9384 0
9385 9383 9384 0
28 -52038 0
-28 52038 0
-580 -301 0
-580 452 0
580 301 -452 0
-1012 -293 0
-1012 884 0
1012 293 -884 0
-1444 -285 0
-1444 1316 0
1444 285 -1316 0
-1876 -277 0
-1876 1748 0
1876 277 -1748 0
-2308 -269 0
-2308 2180 0
2308 269 -2180 0
-2740 -261 0
-2740 2612 0
2740 261 -2612 0
-3172 -253 0
-3172 3044 0
3172 253 -3044 0
-3604 -245 0
-3604 3476 0
3604 245 -3476 0
-4036 -237 0
-4036 3908 0
4036 237 -3908 0
-4468 -229 0
-4468 4340 0
4468 229 -4340 0
-4900 -221 0
-4900 4772 0
4900 221 -4772 0
-5332 -213 0
-5332 5204 0
5332 213 -5204 0
-5764 -205 0
-5764 5636 0
5764 205 -5636 0
-6196 -197 0
-6196 6068 0
6196 197 -6068 0
-6628 -189 0
-6628 6500 0
6628 189 -6500 0
-6808 -6196 0
-6808 -6628 0
6808 6196 6628 0
-6988 -5764 0
-6988 6808 0
6988 5764 -6808 0
-7168 -5332 0
-7168 6988 0
7168 5332 -6988 0
-7348 -4900 0
-7348 7168 0
7348 4900 -7168 0
-7528 -4468 0
-7528 7348 0
7528 4468 -7348 0
-7708 -4036 0
-7708 7528 0
7708 4036 -7528 0
-7888 -3604 0
-7888 7708 0
7888 3604 -7708 0
-8068 -3172 0
-8068 7888 0
8068 3172 -7888 0
-8248 -2740 0
-8248 8068 0
8248 2740 -8068 0
-8428 -2308 0
-8428 8248 0
8428 2308 -8248 0
-8608 -1876 0
-8608 8428 0
8608 1876 -8428 0
-8788 -1444 0
-8788 8608 0
8788 1444 -8608 0
-8968 -1012 0
-8968 8788 0
8968 1012 -8788 0
-9148 -580 0
-9148 8968 0
9148 580 -8968 0
-9380 28 0
-9380 9148 0
9380 -28 -9148 0
-9381 -28 0
-9381 -9148 0
9381 28 9148 0
-9382 -9380 0
-9382 -9381 0
9382 9380 9381 0
27 -52037 0
-27 52037 0
-579 -301 0
-579 451 0
579 301 -451 0
-1011 -293 0
-1011 883 0
1011 293 -883 0
-1443 -285 0
-1443 1315 0
1443 285 -1315 0
-1875 -277 0
-1875 1747 0
1875 277 -1747 0
-2307 -269 0
-2307 2179 0
2307 269 -2179 0
-2739 -261 0
-2739 2611 0
2739 261 -2611 0
-3171 -253 0
-3171 3043 0
3171 253 -3043 0
-3603 -245 0
-3603 3475 0
3603 245 -3475 0
-4035 -237 0
-4035 3907 0
4035 237 -3907 0
-4467 -229 0
-4467 4339 0
4467 229 -4339 0
-4899 -221 0
-4899 4771 0
4899 221 -4771 0
-5331 -213 0
-5331 5203 0
5331 213 -5203 0
-5763 -205 0
-5763 5635 0
5763 205 -5635 0
-6195 -197 0
-6195 6067 0
6195 197 -6067 0
-6627 -189 0
-6627 6499 0
6627 189 -6499 0
-6807 -6195 0
-6807 -6627 0
6807 6195 6627 0
-6987 -5763 0
-6987 6807 0
6987 5763 -6807 0
-7167 -5331 0
-7167 6987 0
7167 5331 -6987 0
-7347 -4899 0
-7347 7167 0
7347 4899 -7167 0
-7527 -4467 0
-7527 7347 0
7527 4467 -7347 0
-7707 -4035 0
-7707 7527 0
7707 4035 -7527 0
-7887 -3603 0
-7887 7707 0
7887 3603 -7707 0
-8067 -3171 0
-8067 7887 0
8067 3171 -7887 0
-8247 -2739 0
-8247 8067 0
8247 2739 -8067 0
-8427 -2307 0
-8427 8247 0
8427 2307 -8247 0
-8607 -1875 0
-8607 8427 0
8607 1875 -8427 0
-8787 -1443 0
-8787 8607 0
8787 1443 -8607 0
-8967 -1011 0
-8967 8787 0
8967 1011 -8787 0
-9147 -579 0
-9147 8967 0
9147 579 -8967 0
-9377 27 0
-9377 9147 0
9377 -27 -9147 0
-9378 -27 0
-9378 -9147 0
9378 27 9147 0
-9379 -9377 0
-9379 -9378 0
9379 9377 9378 0
26 -52036 0
-26 52036 0
-578 -301 0
-578 450 0
578 301 -450 0
-1010 -293 0
-1010 882 0
1010 293 -882 0
-1442 -285 0
-1442 1314 0
1442 285 -1314 0
-1874 -277 0
-1874 1746 0
1874 277 -1746 0
-2306 -269 0
-2306 2178 0
2306 269 -2178 0
-2738 -261 0
-2738 2610 0
2738 261 -2610 0
-3170 -253 0
-3170 3042 0
3170 253 -3042 0
-3602 -245 0
-3602 3474 0
3602 245 -3474 0
-4034 -237 0
-4034 3906 0
4034 237 -3906 0
-4466 -229 0
-4466 4338 0
4466 229 -4338 0
-4898 -221 0
-4898 4770 0
4898 221 -4770 0
-5330 -213 0
-5330 5202 0
5330 213 -5202 0
-5762 -205 0
-5762 5634 0
5762 205 -5634 0
-6194 -197 0
-6194 6066 0
6194 197 -6066 0
-6626 -189 0
-6626 6498 0
6626 189 -6498 0
-6806 -6194 0
-6806 -6626 0
6806 6194 6626 0
-6986 -5762 0
-6986 6806 0
6986 5762 -6806 0
-7166 -5330 0
-7166 6986 0
7166 5330 -6986 0
-7346 -4898 0
-7346 7166 0
7346 4898 -7166 0
-7526 -4466 0
-7526 7346 0
7526 4466 -7346 0
-7706 -4034 0
-7706 7526 0
7706 4034 -7526 0
-7886 -3602 0
-7886 7706 0
7886 3602 -7706 0
-8066 -3170 0
-8066 7886 0
8066 3170 -7886 0
-8246 -2738 0
-8246 8066 0
8246 2738 -8066 0
-8426 -2306 0
-8426 8246 0
8426 2306 -8246 0
-8606 -1874 0
-8606 8426 0
8606 1874 -8426 0
-8786 -1442 0
-8786 8606 0
8786 1442 -8606 0
-8966 -1010 0
-8966 8786 0
8966 1010 -8786 0
-9146 -578 0
-9146 8966 0
9146 578 -8966 0
-9374 26 0
-9374 9146 0
9374 -26 -9146 0
-9375 -26 0
-9375 -9146 0
9375 26 9146 0
-9376 -9374 0
-9376 -9375 0
9376 9374 9375 0
25 -52035 0
-25 52035 0
-577 -301 0
-577 449 0
577 301 -449 0
-1009 -293 0
-1009 881 0
1009 293 -881 0
-1441 -285 0
-1441 1313 0
1441 285 -1313 0
-1873 -277 0
-1873 1745 0
1873 277 -1745 0
-2305 -269 0
-2305 2177 0
2305 269 -2177 0
-2737 -261 0
-2737 2609 0
2737 261 -2609 0
-3169 -253 0
-3169 3041 0
3169 253 -3041 0
-3601 -245 0
-3601 3473 0
3601 245 -3473 0
-4033 -237 0
-4033 3905 0
4033 237 -3905 0
-4465 -229 0
-4465 4337 0
4465 229 -4337 0
-4897 -221 0
-4897 4769 0
4897 221 -4769 0
-5329 -213 0
-5329 5201 0
5329 213 -5201 0
-5761 -205 0
-5761 5633 0
5761 205 -5633 0
-6193 -197 0
-6193 6065 0
6193 197 -6065 0
-6625 -189 0
-6625 6497 0
6625 189 -6497 0
-6805 -6193 0
-6805 -6625 0
6805 6193 6625 0
-6985 -5761 0
-6985 6805 0
6985 5761 -6805 0
-7165 -5329 0
-7165 6985 0
7165 5329 -6985 0
-7345 -4897 0
-7345 7165 0
7345 4897 -7165 0
-7525 -4465 0
-7525 7345 0
7525 4465 -7345 0
-7705 -4033 0
-7705 7525 0
7705 4033 -7525 0
-7885 -3601 0
-7885 7705 0
7885 3601 -7705 0
-8065 -3169 0
-8065 7885 0
8065 3169 -7885 0
-8245 -2737 0
-8245 8065 0
8245 2737 -8065 0
-8425 -2305 0
-8425 8245 0
8425 2305 -8245 0
-8605 -1873 0
-8605 8425 0
8605 1873 -8425 0
-8785 -1441 0
-8785 8605 0
8785 1441 -8605 0
-8965 -1009 0
-8965 8785 0
8965 1009 -8785 0
-9145 -577 0
-9145 8965 0
9145 577 -8965 0
-9371 25 0
-9371 9145 0
9371 -25 -9145 0
-9372 -25 0
-9372 -9145 0
9372 25 9145 0
-9373 -9371 0
-9373 -9372 0
9373 9371 9372 0
24 -52034 0
-24 52034 0
-576 -301 0
-576 448 0
576 301 -448 0
-1008 -293 0
-1008 880 0
1008 293 -880 0
-1440 -285 0
-1440 1312 0
1440 285 -1312 0
-1872 -277 0
-1872 1744 0
1872 277 -1744 0
-2304 -269 0
-2304 2176 0
2304 269 -2176 0
-2736 -261 0
-2736 2608 0
2736 261 -2608 0
-3168 -253 0
-3168 3040 0
3168 253 -3040 0
-3600 -245 0
-3600 3472 0
3600 245 -3472 0
-4032 -237 0
-4032 3904 0
4032 237 -3904 0
-4464 -229 0
-4464 4336 0
4464 229 -4336 0
-4896 -221 0
-4896 4768 0
4896 221 -4768 0
-5328 -213 0
-5328 5200 0
5328 213 -5200 0
-5760 -205 0
-5760 5632 0
5760 205 -5632 0
-6192 -197 0
-6192 6064 0
6192 197 -6064 0
-6624 -189 0
-6624 6496 0
6624 189 -6496 0
-6804 -6192 0
-6804 -6624 0
6804 6192 6624 0
-6984 -5760 0
-6984 6804 0
6984 5760 -6804 0
-7164 -5328 0
-7164 6984 0
7164 5328 -6984 0
-7344 -4896 0
-7344 7164 0
7344 4896 -7164 0
-7524 -4464 0
-7524 7344 0
7524 4464 -7344 0
-7704 -4032 0
-7704 7524 0
7704 4032 -7524 0
-7884 -3600 0
-7884 7704 0
7884 3600 -7704 0
-8064 -3168 0
-8064 7884 0
8064 3168 -7884 0
-8244 -2736 0
-8244 8064 0
8244 2736 -8064 0
-8424 -2304 0
-8424 8244 0
8424 2304 -8244 0
-8604 -1872 0
-8604 8424 0
8604 1872 -8424 0
-8784 -1440 0
-8784 8604 0
8784 1440 -8604 0
-8964 -1008 0
-8964 8784 0
8964 1008 -8784 0
-9144 -576 0
-9144 8964 0
9144 576 -8964 0
-9368 24 0
-9368 9144 0
9368 -24 -9144 0
-9369 -24 0
-9369 -9144 0
9369 24 9144 0
-9370 -9368 0
-9370 -9369 0
9370 9368 9369 0
23 -52033 0
-23 52033 0
-575 -301 0
-575 447 0
575 301 -447 0
-1007 -293 0
-1007 879 0
1007 293 -879 0
-1439 -285 0
-1439 1311 0
1439 285 -1311 0
-1871 -277 0
-1871 1743 0
1871 277 -1743 0
-2303 -269 0
-2303 2175 0
2303 269 -2175 0
-2735 -261 0
-2735 2607 0
2735 261 -2607 0
-3167 -253 0
-3167 3039 0
3167 253 -3039 0
-3599 -245 0
-3599 3471 0
3599 245 -3471 0
-4031 -237 0
-4031 3903 0
4031 237 -3903 0
-4463 -229 0
-4463 4335 0
4463 229 -4335 0
-4895 -221 0
-4895 4767 0
4895 221 -4767 0
-5327 -213 0
-5327 5199 0
5327 213 -5199 0
-5759 -205 0
-5759 5631 0
5759 205 -5631 0
-6191 -197 0
-6191 6063 0
6191 197 -6063 0
-6623 -189 0
-6623 6495 0
6623 189 -6495 0
-6803 -6191 0
-6803 -6623 0
6803 6191 6623 0
-6983 -5759 0
-6983 6803 0
6983 5759 -6803 0
-7163 -5327 0
-7163 6983 0
7163 5327 -6983 0
-7343 -4895 0
-7343 7163 0
7343 4895 -7163 0
-7523 -4463 0
-7523 7343 0
7523 4463 -7343 0
-7703 -4031 0
-7703 7523 0
7703 4031 -7523 0
-7883 -3599 0
-7883 7703 0
7883 3599 -7703 0
-8063 -3167 0
-8063 7883 0
8063 3167 -7883 0
-8243 -2735 0
-8243 8063 0
8243 2735 -8063 0
-8423 -2303 0
-8423 8243 0
8423 2303 -8243 0
-8603 -1871 0
-8603 8423 0
8603 1871 -8423 0
-8783 -1439 0
-8783 8603 0
8783 1439 -8603 0
-8963 -1007 0
-8963 8783 0
8963 1007 -8783 0
-9143 -575 0
-9143 8963 0
9143 575 -8963 0
-9365 23 0
-9365 9143 0
9365 -23 -9143 0
-9366 -23 0
-9366 -9143 0
9366 23 9143 0
-9367 -9365 0
-9367 -9366 0
9367 9365 9366 0
22 -52032 0
-22 52032 0
-574 -301 0
-574 446 0
574 301 -446 0
-1006 -293 0
-1006 878 0
1006 293 -878 0
-1438 -285 0
-1438 1310 0
1438 285 -1310 0
-1870 -277 0
-1870 1742 0
1870 277 -1742 0
-2302 -269 0
-2302 2174 0
2302 269 -2174 0
-2734 -261 0
-2734 2606 0
2734 261 -2606 0
-3166 -253 0
-3166 3038 0
3166 253 -3038 0
-3598 -245 0
-3598 3470 0
3598 245 -3470 0
-4030 -237 0
-4030 3902 0
4030 237 -3902 0
-4462 -229 0
-4462 4334 0
4462 229 -4334 0
-4894 -221 0
-4894 4766 0
4894 221 -4766 0
-5326 -213 0
-5326 5198 0
5326 213 -5198 0
-5758 -205 0
-5758 5630 0
5758 205 -5630 0
-6190 -197 0
-6190 6062 0
6190 197 -6062 0
-6622 -189 0
-6622 6494 0
6622 189 -6494 0
-6802 -6190 0
-6802 -6622 0
6802 6190 6622 0
-6982 -5758 0
-6982 6802 0
6982 5758 -6802 0
-7162 -5326 0
-7162 6982 0
7162 5326 -6982 0
-7342 -4894 0
-7342 7162 0
7342 4894 -7162 0
-7522 -4462 0
-7522 7342 0
7522 4462 -7342 0
-7702 -4030 0
-7702 7522 0
7702 4030 -7522 0
-7882 -3598 0
-7882 7702 0
7882 3598 -7702 0
-8062 -3166 0
-8062 7882 0
8062 3166 -7882 0
-8242 -2734 0
-8242 8062 0
8242 2734 -8062 0
-8422 -2302 0
-8422 8242 0
8422 2302 -8242 0
-8602 -1870 0
-8602 8422 0
8602 1870 -8422 0
-8782 -1438 0
-8782 8602 0
8782 1438 -8602 0
-8962 -1006 0
-8962 8782 0
8962 1006 -8782 0
-9142 -574 0
-9142 8962 0
9142 574 -8962 0
-9362 22 0
-9362 9142 0
9362 -22 -9142 0
-9363 -22 0
-9363 -9142 0
9363 22 9142 0
-9364 -9362 0
-9364 -9363 0
9364 9362 9363 0
21 -52031 0
-21 52031 0
-573 -301 0
-573 445 0
573 301 -445 0
-1005 -293 0
-1005 877 0
1005 293 -877 0
-1437 -285 0
-1437 1309 0
1437 285 -1309 0
-1869 -277 0
-1869 1741 0
1869 277 -1741 0
-2301 -269 0
-2301 2173 0
2301 269 -2173 0
-2733 -261 0
-2733 2605 0
2733 261 -2605 0
-3165 -253 0
-3165 3037 0
3165 253 -3037 0
-3597 -245 0
-3597 3469 0
3597 245 -3469 0
-4029 -237 0
-4029 3901 0
4029 237 -3901 0
-4461 -229 0
-4461 4333 0
4461 229 -4333 0
-4893 -221 0
-4893 4765 0
4893 221 -4765 0
-5325 -213 0
-5325 5197 0
5325 213 -5197 0
-5757 -205 0
-5757 5629 0
5757 205 -5629 0
-6189 -197 0
-6189 6061 0
6189 197 -6061 0
-6621 -189 0
-6621 6493 0
6621 189 -6493 0
-6801 -6189 0
-6801 -6621 0
6801 6189 6621 0
-6981 -5757 0
-6981 6801 0
6981 5757 -6801 0
-7161 -5325 0
-7161 6981 0
7161 5325 -6981 0
-7341 -4893 0
-7341 7161 0
7341 4893 -7161 0
-7521 -4461 0
-7521 7341 0
7521 4461 -7341 0
-7701 -4029 0
-7701 7521 0
7701 4029 -7521 0
-7881 -3597 0
-7881 7701 0
7881 3597 -7701 0
-8061 -3165 0
-8061 7881 0
8061 3165 -7881 0
-8241 -2733 0
-8241 8061 0
8241 2733 -8061 0
-8421 -2301 0
-8421 8241 0
8421 2301 -8241 0
-8601 -1869 0
-8601 8421 0
8601 1869 -8421 0
-8781 -1437 0
-8781 8601 0
8781 1437 -8601 0
-8961 -1005 0
-8961 8781 0
8961 1005 -8781 0
-9141 -573 0
-9141 8961 0
9141 573 -8961 0
-9359 21 0
-9359 9141 0
9359 -21 -9141 0
-9360 -21 0
-9360 -9141 0
9360 21 9141 0
-9361 -9359 0
-9361 -9360 0
9361 9359 9360 0
20 -52030 0
-20 52030 0
-572 -301 0
-572 444 0
572 301 -444 0
-1004 -293 0
-1004 876 0
1004 293 -876 0
-1436 -285 0
-1436 1308 0
1436 285 -1308 0
-1868 -277 0
-1868 1740 0
1868 277 -1740 0
-2300 -269 0
-2300 2172 0
2300 269 -2172 0
-2732 -261 0
-2732 2604 0
2732 261 -2604 0
-3164 -253 0
-3164 3036 0
3164 253 -3036 0
-3596 -245 0
-3596 3468 0
3596 245 -3468 0
-4028 -237 0
-4028 3900 0
4028 237 -3900 0
-4460 -229 0
-4460 4332 0
4460 229 -4332 0
-4892 -221 0
-4892 4764 0
4892 221 -4764 0
-5324 -213 0
-5324 5196 0
5324 213 -5196 0
-5756 -205 0
-5756 5628 0
5756 205 -5628 0
-6188 -197 0
-6188 6060 0
6188 197 -6060 0
-6620 -189 0
-6620 6492 0
6620 189 -6492 0
-6800 -6188 0
-6800 -6620 0
6800 6188 6620 0
-6980 -5756 0
-6980 6800 0
6980 5756 -6800 0
-7160 -5324 0
-7160 6980 0
7160 5324 -6980 0
-7340 -4892 0
-7340 7160 0
7340 4892 -7160 0
-7520 -4460 0
-7520 7340 0
7520 4460 -7340 0
-7700 -4028 0
-7700 7520 0
7700 4028 -7520 0
-7880 -3596 0
-7880 7700 0
7880 3596 -7700 0
-8060 -3164 0
-8060 7880 0
8060 3164 -7880 0
-8240 -2732 0
-8240 8060 0
8240 2732 -8060 0
-8420 -2300 0
-8420 8240 0
8420 2300 -8240 0
-8600 -1868 0
-8600 8420 0
8600 1868 -8420 0
-8780 -1436 0
-8780 8600 0
8780 1436 -8600 0
-8960 -1004 0
-8960 8780 0
8960 1004 -8780 0
-9140 -572 0
-9140 8960 0
9140 572 -8960 0
-9356 20 0
-9356 9140 0
9356 -20 -9140 0
-9357 -20 0
-9357 -9140 0
9357 20 9140 0
-9358 -9356 0
-9358 -9357 0
9358 9356 9357 0
19 -52029 0
-19 52029 0
-571 -301 0
-571 443 0
571 301 -443 0
-1003 -293 0
-1003 875 0
1003 293 -875 0
-1435 -285 0
-1435 1307 0
1435 285 -1307 0
-1867 -277 0
-1867 1739 0
1867 277 -1739 0
-2299 -269 0
-2299 2171 0
2299 269 -2171 0
-2731 -261 0
-2731 2603 0
2731 261 -2603 0
-3163 -253 0
-3163 3035 0
3163 253 -3035 0
-3595 -245 0
-3595 3467 0
3595 245 -3467 0
-4027 -237 0
-4027 3899 0
4027 237 -3899 0
-4459 -229 0
-4459 4331 0
4459 229 -4331 0
-4891 -221 0
-4891 4763 0
4891 221 -4763 0
-5323 -213 0
-5323 5195 0
5323 213 -5195 0
-5755 -205 0
-5755 5627 0
5755 205 -5627 0
-6187 -197 0
-6187 6059 0
6187 197 -6059 0
-6619 -189 0
-6619 6491 0
6619 189 -6491 0
-6799 -6187 0
-6799 -6619 0
6799 6187 6619 0
-6979 -5755 0
-6979 6799 0
6979 5755 -6799 0
-7159 -5323 0
-7159 6979 0
7159 5323 -6979 0
-7339 -4891 0
-7339 7159 0
7339 4891 -7159 0
-7519 -4459 0
-7519 7339 0
7519 4459 -7339 0
-7699 -4027 0
-7699 7519 0
7699 4027 -7519 0
-7879 -3595 0
-7879 7699 0
7879 3595 -7699 0
-8059 -3163 0
-8059 7879 0
8059 3163 -7879 0
-8239 -2731 0
-8239 8059 0
8239 2731 -8059 0
-8419 -2299 0
-8419 8239 0
8419 2299 -8239 0
-8599 -1867 0
-8599 8419 0
8599 1867 -8419 0
-8779 -1435 0
-8779 8599 0
8779 1435 -8599 0
-8959 -1003 0
-8959 8779 0
8959 1003 -8779 0
-9139 -571 0
-9139 8959 0
9139 571 -8959 0
-9353 19 0
-9353 9139 0
9353 -19 -9139 0
-9354 -19 0
-9354 -9139 0
9354 19 9139 0
-9355 -9353 0
-9355 -9354 0
9355 9353 9354 0
18 -52028 0
-18 52028 0
-570 -301 0
-570 442 0
570 301 -442 0
-1002 -293 0
-1002 874 0
1002 293 -874 0
-1434 -285 0
-1434 1306 0
1434 285 -1306 0
-1866 -277 0
-1866 1738 0
1866 277 -1738 0
-2298 -269 0
-2298 2170 0
2298 269 -2170 0
-2730 -261 0
-2730 2602 0
2730 261 -2602 0
-3162 -253 0
-3162 3034 0
3162 253 -3034 0
-3594 -245 0
-3594 3466 0
3594 245 -3466 0
-4026 -237 0
-4026 3898 0
4026 237 -3898 0
-4458 -229 0
-4458 4330 0
4458 229 -4330 0
-4890 -221 0
-4890 4762 0
4890 221 -4762 0
-5322 -213 0
-5322 5194 0
5322 213 -5194 0
-5754 -205 0
-5754 5626 0
5754 205 -5626 0
-6186 -197 0
-6186 6058 0
6186 197 -6058 0
-6618 -189 0
-6618 6490 0
6618 189 -6490 0
-6798 -6186 0
-6798 -6618 0
6798 6186 6618 0
-6978 -5754 0
-6978 6798 0
6978 5754 -6798 0
-7158 -5322 0
-7158 6978 0
7158 5322 -6978 0
-7338 -4890 0
-7338 7158 0
7338 4890 -7158 0
-7518 -4458 0
-7518 7338 0
7518 4458 -7338 0
-7698 -4026 0
-7698 7518 0
7698 4026 -7518 0
-7878 -3594 0
-7878 7698 0
7878 3594 -7698 0
-8058 -3162 0
-8058 7878 0
8058 3162 -7878 0
-8238 -2730 0
-8238 8058 0
8238 2730 -8058 0
-8418 -2298 0
-8418 8238 0
8418 2298 -8238 0
-8598 -1866 0
-8598 8418 0
8598 1866 -8418 0
-8778 -1434 0
-8778 8598 0
8778 1434 -8598 0
-8958 -1002 0
-8958 8778 0
8958 1002 -8778 0
-9138 -570 0
-9138 8958 0
9138 570 -8958 0
-9350 18 0
-9350 9138 0
9350 -18 -9138 0
-9351 -18 0
-9351 -9138 0
9351 18 9138 0
-9352 -9350 0
-9352 -9351 0
9352 9350 9351 0
17 -52027 0
-17 52027 0
-569 -301 0
-569 441 0
569 301 -441 0
-1001 -293 0
-1001 873 0
1001 293 -873 0
-1433 -285 0
-1433 1305 0
1433 285 -1305 0
-1865 -277 0
-1865 1737 0
1865 277 -1737 0
-2297 -269 0
-2297 2169 0
2297 269 -2169 0
-2729 -261 0
-2729 2601 0
2729 261 -2601 0
-3161 -253 0
-3161 3033 0
3161 253 -3033 0
-3593 -245 0
-3593 3465 0
3593 245 -3465 0
-4025 -237 0
-4025 3897 0
4025 237 -3897 0
-4457 -229 0
-4457 4329 0
4457 229 -4329 0
-4889 -221 0
-4889 4761 0
4889 221 -4761 0
-5321 -213 0
-5321 5193 0
5321 213 -5193 0
-5753 -205 0
-5753 5625 0
5753 205 -5625 0
-6185 -197 0
-6185 6057 0
6185 197 -6057 0
-6617 -189 0
-6617 6489 0
6617 189 -6489 0
-6797 -6185 0
-6797 -6617 0
6797 6185 6617 0
-6977 -5753 0
-6977 6797 0
6977 5753 -6797 0
-7157 -5321 0
-7157 6977 0
7157 5321 -6977 0
-7337 -4889 0
-7337 7157 0
7337 4889 -7157 0
-7517 -4457 0
-7517 7337 0
7517 4457 -7337 0
-7697 -4025 0
-7697 7517 0
7697 4025 -7517 0
-7877 -3593 0
-7877 7697 0
7877 3593 -7697 0
-8057 -3161 0
-8057 7877 0
8057 3161 -7877 0
-8237 -2729 0
-8237 8057 0
8237 2729 -8057 0
-8417 -2297 0
-8417 8237 0
8417 2297 -8237 0
-8597 -1865 0
-8597 8417 0
8597 1865 -8417 0
-8777 -1433 0
-8777 8597 0
8777 1433 -8597 0
-8957 -1001 0
-8957 8777 0
8957 1001 -8777 0
-9137 -569 0
-9137 8957 0
9137 569 -8957 0
-9347 17 0
-9347 9137 0
9347 -17 -9137 0
-9348 -17 0
-9348 -9137 0
9348 17 9137 0
-9349 -9347 0
-9349 -9348 0
9349 9347 9348 0
16 -52026 0
-16 52026 0
-568 -301 0
-568 440 0
568 301 -440 0
-1000 -293 0
-1000 872 0
1000 293 -872 0
-1432 -285 0
-1432 1304 0
1432 285 -1304 0
-1864 -277 0
-1864 1736 0
1864 277 -1736 0
-2296 -269 0
-2296 2168 0
2296 269 -2168 0
-2728 -261 0
-2728 2600 0
2728 261 -2600 0
-3160 -253 0
-3160 3032 0
3160 253 -3032 0
-3592 -245 0
-3592 3464 0
3592 245 -3464 0
-4024 -237 0
-4024 3896 0
4024 237 -3896 0
-4456 -229 0
-4456 4328 0
4456 229 -4328 0
-4888 -221 0
-4888 4760 0
4888 221 -4760 0
-5320 -213 0
-5320 5192 0
5320 213 -5192 0
-5752 -205 0
-5752 5624 0
5752 205 -5624 0
-6184 -197 0
-6184 6056 0
6184 197 -6056 0
-6616 -189 0
-6616 6488 0
6616 189 -6488 0
-6796 -6184 0
-6796 -6616 0
6796 6184 6616 0
-6976 -5752 0
-6976 6796 0
6976 5752 -6796 0
-7156 -5320 0
-7156 6976 0
7156 5320 -6976 0
-7336 -4888 0
-7336 7156 0
7336 4888 -7156 0
-7516 -4456 0
-7516 7336 0
7516 4456 -7336 0
-7696 -4024 0
-7696 7516 0
7696 4024 -7516 0
-7876 -3592 0
-7876 7696 0
7876 3592 -7696 0
-8056 -3160 0
-8056 7876 0
8056 3160 -7876 0
-8236 -2728 0
-8236 8056 0
8236 2728 -8056 0
-8416 -2296 0
-8416 8236 0
8416 2296 -8236 0
-8596 -1864 0
-8596 8416 0
8596 1864 -8416 0
-8776 -1432 0
-8776 8596 0
8776 1432 -8596 0
-8956 -1000 0
-8956 8776 0
8956 1000 -8776 0
-9136 -568 0
-9136 8956 0
9136 568 -8956 0
-9344 16 0
-9344 9136 0
9344 -16 -9136 0
-9345 -16 0
-9345 -9136 0
9345 16 9136 0
-9346 -9344 0
-9346 -9345 0
9346 9344 9345 0
15 -52025 0
-15 52025 0
-567 -301 0
-567 439 0
567 301 -439 0
-999 -293 0
-999 871 0
999 293 -871 0
-1431 -285 0
-1431 1303 0
1431 285 -1303 0
-1863 -277 0
-1863 1735 0
1863 277 -1735 0
-2295 -269 0
-2295 2167 0
2295 269 -2167 0
-2727 -261 0
-2727 2599 0
2727 261 -2599 0
-3159 -253 0
-3159 3031 0
3159 253 -3031 0
-3591 -245 0
-3591 3463 0
3591 245 -3463 0
-4023 -237 0
-4023 3895 0
4023 237 -3895 0
-4455 -229 0
-4455 4327 0
4455 229 -4327 0
-4887 -221 0
-4887 4759 0
4887 221 -4759 0
-5319 -213 0
-5319 5191 0
5319 213 -5191 0
-5751 -205 0
-5751 5623 0
5751 205 -5623 0
-6183 -197 0
-6183 6055 0
6183 197 -6055 0
-6615 -189 0
-6615 6487 0
6615 189 -6487 0
-6795 -6183 0
-6795 -6615 0
6795 6183 6615 0
-6975 -5751 0
-6975 6795 0
6975 5751 -6795 0
-7155 -5319 0
-7155 6975 0
7155 5319 -6975 0
-7335 -4887 0
-7335 7155 0
7335 4887 -7155 0
-7515 -4455 0
-7515 7335 0
7515 4455 -7335 0
-7695 -4023 0
-7695 7515 0
7695 4023 -7515 0
-7875 -3591 0
-7875 7695 0
7875 3591 -7695 0
-8055 -3159 0
-8055 7875 0
8055 3159 -7875 0
-8235 -2727 0
-8235 8055 0
8235 2727 -8055 0
-8415 -2295 0
-8415 8235 0
8415 2295 -8235 0
-8595 -1863 0
-8595 8415 0
8595 1863 -8415 0
-8775 -1431 0
-8775 8595 0
8775 1431 -8595 0
-8955 -999 0
-8955 8775 0
8955 999 -8775 0
-9135 -567 0
-9135 8955 0
9135 567 -8955 0
-9341 15 0
-9341 9135 0
9341 -15 -9135 0
-9342 -15 0
-9342 -9135 0
9342 15 9135 0
-9343 -9341 0
-9343 -9342 0
9343 9341 9342 0
14 -52024 0
-14 52024 0
-566 -301 0
-566 438 0
566 301 -438 0
-998 -293 0
-998 870 0
998 293 -870 0
-1430 -285 0
-1430 1302 0
1430 285 -1302 0
-1862 -277 0
-1862 1734 0
1862 277 -1734 0
-2294 -269 0
-2294 2166 0
2294 269 -2166 0
-2726 -261 0
-2726 2598 0
2726 261 -2598 0
-3158 -253 0
-3158 3030 0
3158 253 -3030 0
-3590 -245 0
-3590 3462 0
3590 245 -3462 0
-4022 -237 0
-4022 3894 0
4022 237 -3894 0
-4454 -229 0
-4454 4326 0
4454 229 -4326 0
-4886 -221 0
-4886 4758 0
4886 221 -4758 0
-5318 -213 0
-5318 5190 0
5318 213 -5190 0
-5750 -205 0
-5750 5622 0
5750 205 -5622 0
-6182 -197 0
-6182 6054 0
6182 197 -6054 0
-6614 -189 0
-6614 6486 0
6614 189 -6486 0
-6794 -6182 0
-6794 -6614 0
6794 6182 6614 0
-6974 -5750 0
-6974 6794 0
6974 5750 -6794 0
-7154 -5318 0
-7154 6974 0
7154 5318 -6974 0
-7334 -4886 0
-7334 7154 0
7334 4886 -7154 0
-7514 -4454 0
-7514 7334 0
7514 4454 -7334 0
-7694 -4022 0
-7694 7514 0
7694 4022 -7514 0
-7874 -3590 0
-7874 7694 0
7874 3590 -7694 0
-8054 -3158 0
-8054 7874 0
8054 3158 -7874 0
-8234 -2726 0
-8234 8054 0
8234 2726 -8054 0
-8414 -2294 0
-8414 8234 0
8414 2294 -8234 0
-8594 -1862 0
-8594 8414 0
8594 1862 -8414 0
-8774 -1430 0
-8774 8594 0
8774 1430 -8594 0
-8954 -998 0
-8954 8774 0
8954 998 -8774 0
-9134 -566 0
-9134 8954 0
9134 566 -8954 0
-9338 14 0
-9338 9134 0
9338 -14 -9134 0
-9339 -14 0
-9339 -9134 0
9339 14 9134 0
-9340 -9338 0
-9340 -9339 0
9340 9338 9339 0
13 -52023 0
-13 52023 0
-565 -301 0
-565 437 0
565 301 -437 0
-997 -293 0
-997 869 0
997 293 -869 0
-1429 -285 0
-1429 1301 0
1429 285 -1301 0
-1861 -277 0
-1861 1733 0
1861 277 -1733 0
-2293 -269 0
-2293 2165 0
2293 269 -2165 0
-2725 -261 0
-2725 2597 0
2725 261 -2597 0
-3157 -253 0
-3157 3029 0
3157 253 -3029 0
-3589 -245 0
-3589 3461 0
3589 245 -3461 0
-4021 -237 0
-4021 3893 0
4021 237 -3893 0
-4453 -229 0
-4453 4325 0
4453 229 -4325 0
-4885 -221 0
-4885 4757 0
4885 221 -4757 0
-5317 -213 0
-5317 5189 0
5317 213 -5189 0
-5749 -205 0
-5749 5621 0
5749 205 -5621 0
-6181 -197 0
-6181 6053 0
6181 197 -6053 0
-6613 -189 0
-6613 6485 0
6613 189 -6485 0
-6793 -6181 0
-6793 -6613 0
6793 6181 6613 0
-6973 -5749 0
-6973 6793 0
6973 5749 -6793 0
-7153 -5317 0
-7153 6973 0
7153 5317 -6973 0
-7333 -4885 0
-7333 7153 0
7333 4885 -7153 0
-7513 -4453 0
-7513 7333 0
7513 4453 -7333 0
-7693 -4021 0
-7693 7513 0
7693 4021 -7513 0
-7873 -3589 0
-7873 7693 0
7873 3589 -7693 0
-8053 -3157 0
-8053 7873 0
8053 3157 -7873 0
-8233 -2725 0
-8233 8053 0
8233 2725 -8053 0
-8413 -2293 0
-8413 8233 0
8413 2293 -8233 0
-8593 -1861 0
-8593 8413 0
8593 1861 -8413 0
-8773 -1429 0
-8773 8593 0
8773 1429 -8593 0
-8953 -997 0
-8953 8773 0
8953 997 -8773 0
-9133 -565 0
-9133 8953 0
9133 565 -8953 0
-9335 13 0
-9335 9133 0
9335 -13 -9133 0
-9336 -13 0
-9336 -9133 0
9336 13 9133 0
-9337 -9335 0
-9337 -9336 0
9337 9335 9336 0
12 -52022 0
-12 52022 0
-564 -301 0
-564 436 0
564 301 -436 0
-996 -293 0
-996 868 0
996 293 -868 0
-1428 -285 0
-1428 1300 0
1428 285 -1300 0
-1860 -277 0
-1860 1732 0
1860 277 -1732 0
-2292 -269 0
-2292 2164 0
2292 269 -2164 0
-2724 -261 0
-2724 2596 0
2724 261 -2596 0
-3156 -253 0
-3156 3028 0
3156 253 -3028 0
-3588 -245 0
-3588 3460 0
3588 245 -3460 0
-4020 -237 0
-4020 3892 0
4020 237 -3892 0
-4452 -229 0
-4452 4324 0
4452 229 -4324 0
-4884 -221 0
-4884 4756 0
4884 221 -4756 0
-5316 -213 0
-5316 5188 0
5316 213 -5188 0
-5748 -205 0
-5748 5620 0
5748 205 -5620 0
-6180 -197 0
-6180 6052 0
6180 197 -6052 0
-6612 -189 0
-6612 6484 0
6612 189 -6484 0
-6792 -6180 0
-6792 -6612 0
6792 6180 6612 0
-6972 -5748 0
-6972 6792 0
6972 5748 -6792 0
-7152 -5316 0
-7152 6972 0
7152 5316 -6972 0
-7332 -4884 0
-7332 7152 0
7332 4884 -7152 0
-7512 -4452 0
-7512 7332 0
7512 4452 -7332 0
-7692 -4020 0
-7692 7512 0
7692 4020 -7512 0
-7872 -3588 0
-7872 7692 0
7872 3588 -7692 0
-8052 -3156 0
-8052 7872 0
8052 3156 -7872 0
-8232 -2724 0
-8232 8052 0
8232 2724 -8052 0
-8412 -2292 0
-8412 8232 0
8412 2292 -8232 0
-8592 -1860 0
-8592 8412 0
8592 1860 -8412 0
-8772 -1428 0
-8772 8592 0
8772 1428 -8592 0
-8952 -996 0
-8952 8772 0
8952 996 -8772 0
-9132 -564 0
-9132 8952 0
9132 564 -8952 0
-9332 12 0
-9332 9132 0
9332 -12 -9132 0
-9333 -12 0
-9333 -9132 0
9333 12 9132 0
-9334 -9332 0
-9334 -9333 0
9334 9332 9333 0
11 -52021 0
-11 52021 0
-563 -301 0
-563 435 0
563 301 -435 0
-995 -293 0
-995 867 0
995 293 -867 0
-1427 -285 0
-1427 1299 0
1427 285 -1299 0
-1859 -277 0
-1859 1731 0
1859 277 -1731 0
-2291 -269 0
-2291 2163 0
2291 269 -2163 0
-2723 -261 0
-2723 2595 0
2723 261 -2595 0
-3155 -253 0
-3155 3027 0
3155 253 -3027 0
-3587 -245 0
-3587 3459 0
3587 245 -3459 0
-4019 -237 0
-4019 3891 0
4019 237 -3891 0
-4451 -229 0
-4451 4323 0
4451 229 -4323 0
-4883 -221 0
-4883 4755 0
4883 221 -4755 0
-5315 -213 0
-5315 5187 0
5315 213 -5187 0
-5747 -205 0
-5747 5619 0
5747 205 -5619 0
-6179 -197 0
-6179 6051 0
6179 197 -6051 0
-6611 -189 0
-6611 6483 0
6611 189 -6483 0
-6791 -6179 0
-6791 -6611 0
6791 6179 6611 0
-6971 -5747 0
-6971 6791 0
6971 5747 -6791 0
-7151 -5315 0
-7151 6971 0
7151 5315 -6971 0
-7331 -4883 0
-7331 7151 0
7331 4883 -7151 0
-7511 -4451 0
-7511 7331 0
7511 4451 -7331 0
-7691 -4019 0
-7691 7511 0
7691 4019 -7511 0
-7871 -3587 0
-7871 7691 0
7871 3587 -7691 0
-8051 -3155 0
-8051 7871 0
8051 3155 -7871 0
-8231 -2723 0
-8231 8051 0
8231 2723 -8051 0
-8411 -2291 0
-8411 8231 0
8411 2291 -8231 0
-8591 -1859 0
-8591 8411 0
8591 1859 -8411 0
-8771 -1427 0
-8771 8591 0
8771 1427 -8591 0
-8951 -995 0
-8951 8771 0
8951 995 -8771 0
-9131 -563 0
-9131 8951 0
9131 563 -8951 0
-9329 11 0
-9329 9131 0
9329 -11 -9131 0
-9330 -11 0
-9330 -9131 0
9330 11 9131 0
-9331 -9329 0
-9331 -9330 0
9331 9329 9330 0
10 -52020 0
-10 52020 0
-562 -301 0
-562 434 0
562 301 -434 0
-994 -293 0
-994 866 0
994 293 -866 0
-1426 -285 0
-1426 1298 0
1426 285 -1298 0
-1858 -277 0
-1858 1730 0
1858 277 -1730 0
-2290 -269 0
-2290 2162 0
2290 269 -2162 0
-2722 -261 0
-2722 2594 0
2722 261 -2594 0
-3154 -253 0
-3154 3026 0
3154 253 -3026 0
-3586 -245 0
-3586 3458 0
3586 245 -3458 0
-4018 -237 0
-4018 3890 0
4018 237 -3890 0
-4450 -229 0
-4450 4322 0
4450 229 -4322 0
-4882 -221 0
-4882 4754 0
4882 221 -4754 0
-5314 -213 0
-5314 5186 0
5314 213 -5186 0
-5746 -205 0
-5746 5618 0
5746 205 -5618 0
-6178 -197 0
-6178 6050 0
6178 197 -6050 0
-6610 -189 0
-6610 6482 0
6610 189 -6482 0
-6790 -6178 0
-6790 -6610 0
6790 6178 6610 0
-6970 -5746 0
-6970 6790 0
6970 5746 -6790 0
-7150 -5314 0
-7150 6970 0
7150 5314 -6970 0
-7330 -4882 0
-7330 7150 0
7330 4882 -7150 0
-7510 -4450 0
-7510 7330 0
7510 4450 -7330 0
-7690 -4018 0
-7690 7510 0
7690 4018 -7510 0
-7870 -3586 0
-7870 7690 0
7870 3586 -7690 0
-8050 -3154 0
-8050 7870 0
8050 3154 -7870 0
-8230 -2722 0
-8230 8050 0
8230 2722 -8050 0
-8410 -2290 0
-8410 8230 0
8410 2290 -8230 0
-8590 -1858 0
-8590 8410 0
8590 1858 -8410 0
-8770 -1426 0
-8770 8590 0
8770 1426 -8590 0
-8950 -994 0
-8950 8770 0
8950 994 -8770 0
-9130 -562 0
-9130 8950 0
9130 562 -8950 0
-9326 10 0
-9326 9130 0
9326 -10 -9130 0
-9327 -10 0
-9327 -9130 0
9327 10 9130 0
-9328 -9326 0
-9328 -9327 0
9328 9326 9327 0
9 -52019 0
-9 52019 0
-561 -301 0
-561 433 0
561 301 -433 0
-993 -293 0
-993 865 0
993 293 -865 0
-1425 -285 0
-1425 1297 0
1425 285 -1297 0
-1857 -277 0
-1857 1729 0
1857 277 -1729 0
-2289 -269 0
-2289 2161 0
2289 269 -2161 0
-2721 -261 0
-2721 2593 0
2721 261 -2593 0
-3153 -253 0
-3153 3025 0
3153 253 -3025 0
-3585 -245 0
-3585 3457 0
3585 245 -3457 0
-4017 -237 0
-4017 3889 0
4017 237 -3889 0
-4449 -229 0
-4449 4321 0
4449 229 -4321 0
-4881 -221 0
-4881 4753 0
4881 221 -4753 0
-5313 -213 0
-5313 5185 0
5313 213 -5185 0
-5745 -205 0
-5745 5617 0
5745 205 -5617 0
-6177 -197 0
-6177 6049 0
6177 197 -6049 0
-6609 -189 0
-6609 6481 0
6609 189 -6481 0
-6789 -6177 0
-6789 -6609 0
6789 6177 6609 0
-6969 -5745 0
-6969 6789 0
6969 5745 -6789 0
-7149 -5313 0
-7149 6969 0
7149 5313 -6969 0
-7329 -4881 0
-7329 7149 0
7329 4881 -7149 0
-7509 -4449 0
-7509 7329 0
7509 4449 -7329 0
-7689 -4017 0
-7689 7509 0
7689 4017 -7509 0
-7869 -3585 0
-7869 7689 0
7869 3585 -7689 0
-8049 -3153 0
-8049 7869 0
8049 3153 -7869 0
-8229 -2721 0
-8229 8049 0
8229 2721 -8049 0
-8409 -2289 0
-8409 8229 0
8409 2289 -8229 0
-8589 -1857 0
-8589 8409 0
8589 1857 -8409 0
-8769 -1425 0
-8769 8589 0
8769 1425 -8589 0
-8949 -993 0
-8949 8769 0
8949 993 -8769 0
-9129 -561 0
-9129 8949 0
9129 561 -8949 0
-9323 9 0
-9323 9129 0
9323 -9 -9129 0
-9324 -9 0
-9324 -9129 0
9324 9 9129 0
-9325 -9323 0
-9325 -9324 0
9325 9323 9324 0
8 -52018 0
-8 52018 0
-560 -301 0
-560 432 0
560 301 -432 0
-992 -293 0
-992 864 0
992 293 -864 0
-1424 -285 0
-1424 1296 0
1424 285 -1296 0
-1856 -277 0
-1856 1728 0
1856 277 -1728 0
-2288 -269 0
-2288 2160 0
2288 269 -2160 0
-2720 -261 0
-2720 2592 0
2720 261 -2592 0
-3152 -253 0
-3152 3024 0
3152 253 -3024 0
-3584 -245 0
-3584 3456 0
3584 245 -3456 0
-4016 -237 0
-4016 3888 0
4016 237 -3888 0
-4448 -229 0
-4448 4320 0
4448 229 -4320 0
-4880 -221 0
-4880 4752 0
4880 221 -4752 0
-5312 -213 0
-5312 5184 0
5312 213 -5184 0
-5744 -205 0
-5744 5616 0
5744 205 -5616 0
-6176 -197 0
-6176 6048 0
6176 197 -6048 0
-6608 -189 0
-6608 6480 0
6608 189 -6480 0
-6788 -6176 0
-6788 -6608 0
6788 6176 6608 0
-6968 -5744 0
-6968 6788 0
6968 5744 -6788 0
-7148 -5312 0
-7148 6968 0
7148 5312 -6968 0
-7328 -4880 0
-7328 7148 0
7328 4880 -7148 0
-7508 -4448 0
-7508 7328 0
7508 4448 -7328 0
-7688 -4016 0
-7688 7508 0
7688 4016 -7508 0
-7868 -3584 0
-7868 7688 0
7868 3584 -7688 0
-8048 -3152 0
-8048 7868 0
8048 3152 -7868 0
-8228 -2720 0
-8228 8048 0
8228 2720 -8048 0
-8408 -2288 0
-8408 8228 0
8408 2288 -8228 0
-8588 -1856 0
-8588 8408 0
8588 1856 -8408 0
-8768 -1424 0
-8768 8588 0
8768 1424 -8588 0
-8948 -992 0
-8948 8768 0
8948 992 -8768 0
-9128 -560 0
-9128 8948 0
9128 560 -8948 0
-9320 8 0
-9320 9128 0
9320 -8 -9128 0
-9321 -8 0
-9321 -9128 0
9321 8 9128 0
-9322 -9320 0
-9322 -9321 0
9322 9320 9321 0
7 -52017 0
-7 52017 0
-559 -301 0
-559 431 0
559 301 -431 0
-991 -293 0
-991 863 0
991 293 -863 0
-1423 -285 0
-1423 1295 0
1423 285 -1295 0
-1855 -277 0
-1855 1727 0
1855 277 -1727 0
-2287 -269 0
-2287 2159 0
2287 269 -2159 0
-2719 -261 0
-2719 2591 0
2719 261 -2591 0
-3151 -253 0
-3151 3023 0
3151 253 -3023 0
-3583 -245 0
-3583 3455 0
3583 245 -3455 0
-4015 -237 0
-4015 3887 0
4015 237 -3887 0
-4447 -229 0
-4447 4319 0
4447 229 -4319 0
-4879 -221 0
-4879 4751 0
4879 221 -4751 0
-5311 -213 0
-5311 5183 0
5311 213 -5183 0
-5743 -205 0
-5743 5615 0
5743 205 -5615 0
-6175 -197 0
-6175 6047 0
6175 197 -6047 0
-6607 -189 0
-6607 6479 0
6607 189 -6479 0
-6787 -6175 0
-6787 -6607 0
6787 6175 6607 0
-6967 -5743 0
-6967 6787 0
6967 5743 -6787 0
-7147 -5311 0
-7147 6967 0
7147 5311 -6967 0
-7327 -4879 0
-7327 7147 0
7327 4879 -7147 0
-7507 -4447 0
-7507 7327 0
7507 4447 -7327 0
-7687 -4015 0
-7687 7507 0
7687 4015 -7507 0
-7867 -3583 0
-7867 7687 0
7867 3583 -7687 0
-8047 -3151 0
-8047 7867 0
8047 3151 -7867 0
-8227 -2719 0
-8227 8047 0
8227 2719 -8047 0
-8407 -2287 0
-8407 8227 0
8407 2287 -8227 0
-8587 -1855 0
-8587 8407 0
8587 1855 -8407 0
-8767 -1423 0
-8767 8587 0
8767 1423 -8587 0
-8947 -991 0
-8947 8767 0
8947 991 -8767 0
-9127 -559 0
-9127 8947 0
9127 559 -8947 0
-9317 7 0
-9317 9127 0
9317 -7 -9127 0
-9318 -7 0
-9318 -9127 0
9318 7 9127 0
-9319 -9317 0
-9319 -9318 0
9319 9317 9318 0
6 -52016 0
-6 52016 0
-558 -301 0
-558 430 0
558 301 -430 0
-990 -293 0
-990 862 0
990 293 -862 0
-1422 -285 0
-1422 1294 0
1422 285 -1294 0
-1854 -277 0
-1854 1726 0
1854 277 -1726 0
-2286 -269 0
-2286 2158 0
2286 269 -2158 0
-2718 -261 0
-2718 2590 0
2718 261 -2590 0
-3150 -253 0
-3150 3022 0
3150 253 -3022 0
-3582 -245 0
-3582 3454 0
3582 245 -3454 0
-4014 -237 0
-4014 3886 0
4014 237 -3886 0
-4446 -229 0
-4446 4318 0
4446 229 -4318 0
-4878 -221 0
-4878 4750 0
4878 221 -4750 0
-5310 -213 0
-5310 5182 0
5310 213 -5182 0
-5742 -205 0
-5742 5614 0
5742 205 -5614 0
-6174 -197 0
-6174 6046 0
6174 197 -6046 0
-6606 -189 0
-6606 6478 0
6606 189 -6478 0
-6786 -6174 0
-6786 -6606 0
6786 6174 6606 0
-6966 -5742 0
-6966 6786 0
6966 5742 -6786 0
-7146 -5310 0
-7146 6966 0
7146 5310 -6966 0
-7326 -4878 0
-7326 7146 0
7326 4878 -7146 0
-7506 -4446 0
-7506 7326 0
7506 4446 -7326 0
-7686 -4014 0
-7686 7506 0
7686 4014 -7506 0
-7866 -3582 0
-7866 7686 0
7866 3582 -7686 0
-8046 -3150 0
-8046 7866 0
8046 3150 -7866 0
-8226 -2718 0
-8226 8046 0
8226 2718 -8046 0
-8406 -2286 0
-8406 8226 0
8406 2286 -8226 0
-8586 -1854 0
-8586 8406 0
8586 1854 -8406 0
-8766 -1422 0
-8766 8586 0
8766 1422 -8586 0
-8946 -990 0
-8946 8766 0
8946 990 -8766 0
-9126 -558 0
-9126 8946 0
9126 558 -8946 0
-9314 6 0
-9314 9126 0
9314 -6 -9126 0
-9315 -6 0
-9315 -9126 0
9315 6 9126 0
-9316 -9314 0
-9316 -9315 0
9316 9314 9315 0
5 -52015 0
-5 52015 0
-557 -301 0
-557 429 0
557 301 -429 0
-989 -293 0
-989 861 0
989 293 -861 0
-1421 -285 0
-1421 1293 0
1421 285 -1293 0
-1853 -277 0
-1853 1725 0
1853 277 -1725 0
-2285 -269 0
-2285 2157 0
2285 269 -2157 0
-2717 -261 0
-2717 2589 0
2717 261 -2589 0
-3149 -253 0
-3149 3021 0
3149 253 -3021 0
-3581 -245 0
-3581 3453 0
3581 245 -3453 0
-4013 -237 0
-4013 3885 0
4013 237 -3885 0
-4445 -229 0
-4445 4317 0
4445 229 -4317 0
-4877 -221 0
-4877 4749 0
4877 221 -4749 0
-5309 -213 0
-5309 5181 0
5309 213 -5181 0
-5741 -205 0
-5741 5613 0
5741 205 -5613 0
-6173 -197 0
-6173 6045 0
6173 197 -6045 0
-6605 -189 0
-6605 6477 0
6605 189 -6477 0
-6785 -6173 0
-6785 -6605 0
6785 6173 6605 0
-6965 -5741 0
-6965 6785 0
6965 5741 -6785 0
-7145 -5309 0
-7145 6965 0
7145 5309 -6965 0
-7325 -4877 0
-7325 7145 0
7325 4877 -7145 0
-7505 -4445 0
-7505 7325 0
7505 4445 -7325 0
-7685 -4013 0
-7685 7505 0
7685 4013 -7505 0
-7865 -3581 0
-7865 7685 0
7865 3581 -7685 0
-8045 -3149 0
-8045 7865 0
8045 3149 -7865 0
-8225 -2717 0
-8225 8045 0
8225 2717 -8045 0
-8405 -2285 0
-8405 8225 0
8405 2285 -8225 0
-8585 -1853 0
-8585 8405 0
8585 1853 -8405 0
-8765 -1421 0
-8765 8585 0
8765 1421 -8585 0
-8945 -989 0
-8945 8765 0
8945 989 -8765 0
-9125 -557 0
-9125 8945 0
9125 557 -8945 0
-9311 5 0
-9311 9125 0
9311 -5 -9125 0
-9312 -5 0
-9312 -9125 0
9312 5 9125 0
-9313 -9311 0
-9313 -9312 0
9313 9311 9312 0
4 -52014 0
-4 52014 0
-556 -301 0
-556 428 0
556 301 -428 0
-988 -293 0
-988 860 0
988 293 -860 0
-1420 -285 0
-1420 1292 0
1420 285 -1292 0
-1852 -277 0
-1852 1724 0
1852 277 -1724 0
-2284 -269 0
-2284 2156 0
2284 269 -2156 0
-2716 -261 0
-2716 2588 0
2716 261 -2588 0
-3148 -253 0
-3148 3020 0
3148 253 -3020 0
-3580 -245 0
-3580 3452 0
3580 245 -3452 0
-4012 -237 0
-4012 3884 0
4012 237 -3884 0
-4444 -229 0
-4444 4316 0
4444 229 -4316 0
-4876 -221 0
-4876 4748 0
4876 221 -4748 0
-5308 -213 0
-5308 5180 0
5308 213 -5180 0
-5740 -205 0
-5740 5612 0
5740 205 -5612 0
-6172 -197 0
-6172 6044 0
6172 197 -6044 0
-6604 -189 0
-6604 6476 0
6604 189 -6476 0
-6784 -6172 0
-6784 -6604 0
6784 6172 6604 0
-6964 -5740 0
-6964 6784 0
6964 5740 -6784 0
-7144 -5308 0
-7144 6964 0
7144 5308 -6964 0
-7324 -4876 0
-7324 7144 0
7324 4876 -7144 0
-7504 -4444 0
-7504 7324 0
7504 4444 -7324 0
-7684 -4012 0
-7684 7504 0
7684 4012 -7504 0
-7864 -3580 0
-7864 7684 0
7864 3580 -7684 0
-8044 -3148 0
-8044 7864 0
8044 3148 -7864 0
-8224 -2716 0
-8224 8044 0
8224 2716 -8044 0
-8404 -2284 0
-8404 8224 0
8404 2284 -8224 0
-8584 -1852 0
-8584 8404 0
8584 1852 -8404 0
-8764 -1420 0
-8764 8584 0
8764 1420 -8584 0
-8944 -988 0
-8944 8764 0
8944 988 -8764 0
-9124 -556 0
-9124 8944 0
9124 556 -8944 0
-9308 4 0
-9308 9124 0
9308 -4 -9124 0
-9309 -4 0
-9309 -9124 0
9309 4 9124 0
-9310 -9308 0
-9310 -9309 0
9310 9308 9309 0
2 -52012 0
-2 52012 0
-554 -301 0
-554 426 0
554 301 -426 0
-986 -293 0
-986 858 0
986 293 -858 0
-1418 -285 0
-1418 1290 0
1418 285 -1290 0
-1850 -277 0
-1850 1722 0
1850 277 -1722 0
-2282 -269 0
-2282 2154 0
2282 269 -2154 0
-2714 -261 0
-2714 2586 0
2714 261 -2586 0
-3146 -253 0
-3146 3018 0
3146 253 -3018 0
-3578 -245 0
-3578 3450 0
3578 245 -3450 0
-4010 -237 0
-4010 3882 0
4010 237 -3882 0
-4442 -229 0
-4442 4314 0
4442 229 -4314 0
-4874 -221 0
-4874 4746 0
4874 221 -4746 0
-5306 -213 0
-5306 5178 0
5306 213 -5178 0
-5738 -205 0
-5738 5610 0
5738 205 -5610 0
-6170 -197 0
-6170 6042 0
6170 197 -6042 0
-6602 -189 0
-6602 6474 0
6602 189 -6474 0
-6782 -6170 0
-6782 -6602 0
6782 6170 6602 0
-6962 -5738 0
-6962 6782 0
6962 5738 -6782 0
-7142 -5306 0
-7142 6962 0
7142 5306 -6962 0
-7322 -4874 0
-7322 7142 0
7322 4874 -7142 0
-7502 -4442 0
-7502 7322 0
7502 4442 -7322 0
-7682 -4010 0
-7682 7502 0
7682 4010 -7502 0
-7862 -3578 0
-7862 7682 0
7862 3578 -7682 0
-8042 -3146 0
-8042 7862 0
8042 3146 -7862 0
-8222 -2714 0
-8222 8042 0
8222 2714 -8042 0
-8402 -2282 0
-8402 8222 0
8402 2282 -8222 0
-8582 -1850 0
-8582 8402 0
8582 1850 -8402 0
-8762 -1418 0
-8762 8582 0
8762 1418 -8582 0
-8942 -986 0
-8942 8762 0
8942 986 -8762 0
-9122 -554 0
-9122 8942 0
9122 554 -8942 0
-9302 2 0
-9302 9122 0
9302 -2 -9122 0
-9303 -2 0
-9303 -9122 0
9303 2 9122 0
-9304 -9302 0
-9304 -9303 0
9304 9302 9303 0
3 -52013 0
-3 52013 0
-555 -301 0
-555 427 0
555 301 -427 0
-987 -293 0
-987 859 0
987 293 -859 0
-1419 -285 0
-1419 1291 0
1419 285 -1291 0
-1851 -277 0
-1851 1723 0
1851 277 -1723 0
-2283 -269 0
-2283 2155 0
2283 269 -2155 0
-2715 -261 0
-2715 2587 0
2715 261 -2587 0
-3147 -253 0
-3147 3019 0
3147 253 -3019 0
-3579 -245 0
-3579 3451 0
3579 245 -3451 0
-4011 -237 0
-4011 3883 0
4011 237 -3883 0
-4443 -229 0
-4443 4315 0
4443 229 -4315 0
-4875 -221 0
-4875 4747 0
4875 221 -4747 0
-5307 -213 0
-5307 5179 0
5307 213 -5179 0
-5739 -205 0
-5739 5611 0
5739 205 -5611 0
-6171 -197 0
-6171 6043 0
6171 197 -6043 0
-6603 -189 0
-6603 6475 0
6603 189 -6475 0
-6783 -6171 0
-6783 -6603 0
6783 6171 6603 0
-6963 -5739 0
-6963 6783 0
6963 5739 -6783 0
-7143 -5307 0
-7143 6963 0
7143 5307 -6963 0
-7323 -4875 0
-7323 7143 0
7323 4875 -7143 0
-7503 -4443 0
-7503 7323 0
7503 4443 -7323 0
-7683 -4011 0
-7683 7503 0
7683 4011 -7503 0
-7863 -3579 0
-7863 7683 0
7863 3579 -7683 0
-8043 -3147 0
-8043 7863 0
8043 3147 -7863 0
-8223 -2715 0
-8223 8043 0
8223 2715 -8043 0
-8403 -2283 0
-8403 8223 0
8403 2283 -8223 0
-8583 -1851 0
-8583 8403 0
8583 1851 -8403 0
-8763 -1419 0
-8763 8583 0
8763 1419 -8583 0
-8943 -987 0
-8943 8763 0
8943 987 -8763 0
-9123 -555 0
-9123 8943 0
9123 555 -8943 0
-9305 3 0
-9305 9123 0
9305 -3 -9123 0
-9306 -3 0
-9306 -9123 0
9306 3 9123 0
-9307 -9305 0
-9307 -9306 0
9307 9305 9306 0
-9842 9304 0
-9842 9307 0
9842 -9304 -9307 0
-9843 9310 0
-9843 9842 0
9843 -9310 -9842 0
-9844 9313 0
-9844 9843 0
9844 -9313 -9843 0
-9845 9316 0
-9845 9844 0
9845 -9316 -9844 0
-9846 9319 0
-9846 9845 0
9846 -9319 -9845 0
-9847 9322 0
-9847 9846 0
9847 -9322 -9846 0
-9848 9325 0
-9848 9847 0
9848 -9325 -9847 0
-9849 9328 0
-9849 9848 0
9849 -9328 -9848 0
-9850 9331 0
-9850 9849 0
9850 -9331 -9849 0
-9851 9334 0
-9851 9850 0
9851 -9334 -9850 0
-9852 9337 0
-9852 9851 0
9852 -9337 -9851 0
-9853 9340 0
-9853 9852 0
9853 -9340 -9852 0
-9854 9343 0
-9854 9853 0
9854 -9343 -9853 0
-9855 9346 0
-9855 9854 0
9855 -9346 -9854 0
-9856 9349 0
-9856 9855 0
9856 -9349 -9855 0
-9857 9352 0
-9857 9856 0
9857 -9352 -9856 0
-9858 9355 0
-9858 9857 0
9858 -9355 -9857 0
-9859 9358 0
-9859 9858 0
9859 -9358 -9858 0
-9860 9361 0
-9860 9859 0
9860 -9361 -9859 0
-9861 9364 0
-9861 9860 0
9861 -9364 -9860 0
-9862 9367 0
-9862 9861 0
9862 -9367 -9861 0
-9863 9370 0
-9863 9862 0
9863 -9370 -9862 0
-9864 9373 0
-9864 9863 0
9864 -9373 -9863 0
-9865 9376 0
-9865 9864 0
9865 -9376 -9864 0
-9866 9379 0
-9866 9865 0
9866 -9379 -9865 0
-9867 9382 0
-9867 9866 0
9867 -9382 -9866 0
-9868 9385 0
-9868 9867 0
9868 -9385 -9867 0
-9869 9388 0
-9869 9868 0
9869 -9388 -9868 0
-9870 9391 0
-9870 9869 0
9870 -9391 -9869 0
-9871 9394 0
-9871 9870 0
9871 -9394 -9870 0
-9872 9397 0
-9872 9871 0
9872 -9397 -9871 0
-9873 9400 0
-9873 9872 0
9873 -9400 -9872 0
-9874 9403 0
-9874 9873 0
9874 -9403 -9873 0
-9875 9406 0
-9875 9874 0
9875 -9406 -9874 0
-9876 9409 0
-9876 9875 0
9876 -9409 -9875 0
-9877 9412 0
-9877 9876 0
9877 -9412 -9876 0
-9878 9415 0
-9878 9877 0
9878 -9415 -9877 0
-9879 9418 0
-9879 9878 0
9879 -9418 -9878 0
-9880 9421 0
-9880 9879 0
9880 -9421 -9879 0
-9881 9424 0
-9881 9880 0
9881 -9424 -9880 0
-9882 9427 0
-9882 9881 0
9882 -9427 -9881 0
-9883 9430 0
-9883 9882 0
9883 -9430 -9882 0
-9884 9433 0
-9884 9883 0
9884 -9433 -9883 0
-9885 9436 0
-9885 9884 0
9885 -9436 -9884 0
-9886 9439 0
-9886 9885 0
9886 -9439 -9885 0
-9887 9442 0
-9887 9886 0
9887 -9442 -9886 0
-9888 9445 0
-9888 9887 0
9888 -9445 -9887 0
-9889 9448 0
-9889 9888 0
9889 -9448 -9888 0
-9890 9451 0
-9890 9889 0
9890 -9451 -9889 0
-9891 9454 0
-9891 9890 0
9891 -9454 -9890 0
-9892 9457 0
-9892 9891 0
9892 -9457 -9891 0
-9893 9460 0
-9893 9892 0
9893 -9460 -9892 0
-9894 9463 0
-9894 9893 0
9894 -9463 -9893 0
-9895 9466 0
-9895 9894 0
9895 -9466 -9894 0
-9896 9469 0
-9896 9895 0
9896 -9469 -9895 0
-9897 9472 0
-9897 9896 0
9897 -9472 -9896 0
-9898 9475 0
-9898 9897 0
9898 -9475 -9897 0
-9899 9478 0
-9899 9898 0
9899 -9478 -9898 0
-9900 9481 0
-9900 9899 0
9900 -9481 -9899 0
-9901 9484 0
-9901 9900 0
9901 -9484 -9900 0
-9902 9487 0
-9902 9901 0
9902 -9487 -9901 0
-9903 9490 0
-9903 9902 0
9903 -9490 -9902 0
-9904 9493 0
-9904 9903 0
9904 -9493 -9903 0
-9905 9496 0
-9905 9904 0
9905 -9496 -9904 0
-9906 9499 0
-9906 9905 0
9906 -9499 -9905 0
-9907 9502 0
-9907 9906 0
9907 -9502 -9906 0
-9908 9505 0
-9908 9907 0
9908 -9505 -9907 0
-9909 9508 0
-9909 9908 0
9909 -9508 -9908 0
-9910 9511 0
-9910 9909 0
9910 -9511 -9909 0
-9911 9514 0
-9911 9910 0
9911 -9514 -9910 0
-9912 9517 0
-9912 9911 0
9912 -9517 -9911 0
-9913 9520 0
-9913 9912 0
9913 -9520 -9912 0
-9914 9523 0
-9914 9913 0
9914 -9523 -9913 0
-9915 9526 0
-9915 9914 0
9915 -9526 -9914 0
-9916 9529 0
-9916 9915 0
9916 -9529 -9915 0
-9917 9532 0
-9917 9916 0
9917 -9532 -9916 0
-9918 9535 0
-9918 9917 0
9918 -9535 -9917 0
-9919 9538 0
-9919 9918 0
9919 -9538 -9918 0
-9920 9541 0
-9920 9919 0
9920 -9541 -9919 0
-9921 9544 0
-9921 9920 0
9921 -9544 -9920 0
-9922 9547 0
-9922 9921 0
9922 -9547 -9921 0
-9923 9550 0
-9923 9922 0
9923 -9550 -9922 0
-9924 9553 0
-9924 9923 0
9924 -9553 -9923 0
-9925 9556 0
-9925 9924 0
9925 -9556 -9924 0
-9926 9559 0
-9926 9925 0
9926 -9559 -9925 0
-9927 9562 0
-9927 9926 0
9927 -9562 -9926 0
-9928 9565 0
-9928 9927 0
9928 -9565 -9927 0
-9929 9568 0
-9929 9928 0
9929 -9568 -9928 0
-9930 9571 0
-9930 9929 0
9930 -9571 -9929 0
-9931 9574 0
-9931 9930 0
9931 -9574 -9930 0
-9932 9577 0
-9932 9931 0
9932 -9577 -9931 0
-9933 9580 0
-9933 9932 0
9933 -9580 -9932 0
-9934 9583 0
-9934 9933 0
9934 -9583 -9933 0
-9935 9586 0
-9935 9934 0
9935 -9586 -9934 0
-9936 9589 0
-9936 9935 0
9936 -9589 -9935 0
-9937 9592 0
-9937 9936 0
9937 -9592 -9936 0
-9938 9595 0
-9938 9937 0
9938 -9595 -9937 0
-9939 9598 0
-9939 9938 0
9939 -9598 -9938 0
-9940 9601 0
-9940 9939 0
9940 -9601 -9939 0
-9941 9604 0
-9941 9940 0
9941 -9604 -9940 0
-9942 9607 0
-9942 9941 0
9942 -9607 -9941 0
-9943 9610 0
-9943 9942 0
9943 -9610 -9942 0
-9944 9613 0
-9944 9943 0
9944 -9613 -9943 0
-9945 9616 0
-9945 9944 0
9945 -9616 -9944 0
-9946 9619 0
-9946 9945 0
9946 -9619 -9945 0
-9947 9622 0
-9947 9946 0
9947 -9622 -9946 0
-9948 9625 0
-9948 9947 0
9948 -9625 -9947 0
-9949 9628 0
-9949 9948 0
9949 -9628 -9948 0
-9950 9631 0
-9950 9949 0
9950 -9631 -9949 0
-9951 9634 0
-9951 9950 0
9951 -9634 -9950 0
-9952 9637 0
-9952 9951 0
9952 -9637 -9951 0
-9953 9640 0
-9953 9952 0
9953 -9640 -9952 0
-9954 9643 0
-9954 9953 0
9954 -9643 -9953 0
-9955 9646 0
-9955 9954 0
9955 -9646 -9954 0
-9956 9649 0
-9956 9955 0
9956 -9649 -9955 0
-9957 9652 0
-9957 9956 0
9957 -9652 -9956 0
-9958 9655 0
-9958 9957 0
9958 -9655 -9957 0
-9959 9658 0
-9959 9958 0
9959 -9658 -9958 0
-9960 9661 0
-9960 9959 0
9960 -9661 -9959 0
-9961 9664 0
-9961 9960 0
9961 -9664 -9960 0
-9962 9667 0
-9962 9961 0
9962 -9667 -9961 0
-9963 9670 0
-9963 9962 0
9963 -9670 -9962 0
-9964 9673 0
-9964 9963 0
9964 -9673 -9963 0
-9965 9676 0
-9965 9964 0
9965 -9676 -9964 0
-9966 9679 0
-9966 9965 0
9966 -9679 -9965 0
-9967 9682 0
-9967 9966 0
9967 -9682 -9966 0
-9968 9685 0
-9968 9967 0
9968 -9685 -9967 0
-9969 9688 0
-9969 9968 0
9969 -9688 -9968 0
-9970 9691 0
-9970 9969 0
9970 -9691 -9969 0
-9971 9694 0
-9971 9970 0
9971 -9694 -9970 0
-9972 9697 0
-9972 9971 0
9972 -9697 -9971 0
-9973 9700 0
-9973 9972 0
9973 -9700 -9972 0
-9974 9703 0
-9974 9973 0
9974 -9703 -9973 0
-9975 9706 0
-9975 9974 0
9975 -9706 -9974 0
-9976 9709 0
-9976 9975 0
9976 -9709 -9975 0
-9977 9712 0
-9977 9976 0
9977 -9712 -9976 0
-9978 9715 0
-9978 9977 0
9978 -9715 -9977 0
-9979 9718 0
-9979 9978 0
9979 -9718 -9978 0
-9980 9721 0
-9980 9979 0
9980 -9721 -9979 0
-9981 9724 0
-9981 9980 0
9981 -9724 -9980 0
-9982 9727 0
-9982 9981 0
9982 -9727 -9981 0
-9983 9730 0
-9983 9982 0
9983 -9730 -9982 0
-9984 9733 0
-9984 9983 0
9984 -9733 -9983 0
-9985 9736 0
-9985 9984 0
9985 -9736 -9984 0
-9986 9739 0
-9986 9985 0
9986 -9739 -9985 0
-9987 9742 0
-9987 9986 0
9987 -9742 -9986 0
-9988 9745 0
-9988 9987 0
9988 -9745 -9987 0
-9989 9748 0
-9989 9988 0
9989 -9748 -9988 0
-9990 9751 0
-9990 9989 0
9990 -9751 -9989 0
-9991 9754 0
-9991 9990 0
9991 -9754 -9990 0
-9992 9757 0
-9992 9991 0
9992 -9757 -9991 0
-9993 9760 0
-9993 9992 0
9993 -9760 -9992 0
-9994 9763 0
-9994 9993 0
9994 -9763 -9993 0
-9995 9766 0
-9995 9994 0
9995 -9766 -9994 0
-9996 9769 0
-9996 9995 0
9996 -9769 -9995 0
-9997 9772 0
-9997 9996 0
9997 -9772 -9996 0
-9998 9775 0
-9998 9997 0
9998 -9775 -9997 0
-9999 9778 0
-9999 9998 0
9999 -9778 -9998 0
-10000 9781 0
-10000 9999 0
10000 -9781 -9999 0
-10001 9784 0
-10001 10000 0
10001 -9784 -10000 0
-10002 9787 0
-10002 10001 0
10002 -9787 -10001 0
-10003 9790 0
-10003 10002 0
10003 -9790 -10002 0
-10004 9793 0
-10004 10003 0
10004 -9793 -10003 0
-10005 9796 0
-10005 10004 0
10005 -9796 -10004 0
-10006 9799 0
-10006 10005 0
10006 -9799 -10005 0
-10007 9802 0
-10007 10006 0
10007 -9802 -10006 0
-10008 9805 0
-10008 10007 0
10008 -9805 -10007 0
-10009 9808 0
-10009 10008 0
10009 -9808 -10008 0
-10010 9811 0
-10010 10009 0
10010 -9811 -10009 0
-10011 9814 0
-10011 10010 0
10011 -9814 -10010 0
-10012 9817 0
-10012 10011 0
10012 -9817 -10011 0
-10013 9820 0
-10013 10012 0
10013 -9820 -10012 0
-10014 9823 0
-10014 10013 0
10014 -9823 -10013 0
-10015 9826 0
-10015 10014 0
10015 -9826 -10014 0
-10016 9829 0
-10016 10015 0
10016 -9829 -10015 0
-10017 9832 0
-10017 10016 0
10017 -9832 -10016 0
-10018 9835 0
-10018 10017 0
10018 -9835 -10017 0
-10019 9838 0
-10019 10018 0
10019 -9838 -10018 0
-10020 9841 0
-10020 10019 0
10020 -9841 -10019 0
-10024 166 0
-10024 172 0
10024 -166 -172 0
-10025 -166 0
-10025 -172 0
10025 166 172 0
-10026 -10024 0
-10026 -10025 0
10026 10024 10025 0
-10033 151 0
-10033 10026 0
10033 -151 -10026 0
-10034 -151 0
-10034 -10026 0
10034 151 10026 0
-10035 -10033 0
-10035 -10034 0
10035 10033 10034 0
-10021 77 0
-10021 78 0
10021 -77 -78 0
-10022 -77 0
-10022 -78 0
10022 77 78 0
-10023 -10021 0
-10023 -10022 0
10023 10021 10022 0
-10039 46 0
-10039 10023 0
10039 -46 -10023 0
-10040 -46 0
-10040 -10023 0
10040 46 10023 0
-10041 -10039 0
-10041 -10040 0
10041 10039 10040 0
-10042 10035 0
-10042 10041 0
10042 -10035 -10041 0
-10043 -10035 0
-10043 -10041 0
10043 10035 10041 0
-10044 -10042 0
-10044 -10043 0
10044 10042 10043 0
-10045 10020 0
-10045 -10044 0
10045 -10020 10044 0
-10046 165 0
-10046 171 0
10046 -165 -171 0
-10047 -165 0
-10047 -171 0
10047 165 171 0
-10048 -10046 0
-10048 -10047 0
10048 10046 10047 0
-10055 150 0
-10055 10048 0
10055 -150 -10048 0
-10056 -150 0
-10056 -10048 0
10056 150 10048 0
-10057 -10055 0
-10057 -10056 0
10057 10055 10056 0
-10049 77 0
-10049 91 0
10049 -77 -91 0
-10050 -77 0
-10050 -91 0
10050 77 91 0
-10051 -10049 0
-10051 -10050 0
10051 10049 10050 0
-10061 45 0
-10061 10051 0
10061 -45 -10051 0
-10062 -45 0
-10062 -10051 0
10062 45 10051 0
-10063 -10061 0
-10063 -10062 0
10063 10061 10062 0
-10064 10057 0
-10064 10063 0
10064 -10057 -10063 0
-10065 -10057 0
-10065 -10063 0
10065 10057 10063 0
-10066 -10064 0
-10066 -10065 0
10066 10064 10065 0
-10067 10045 0
-10067 -10066 0
10067 -10045 10066 0
-10071 164 0
-10071 170 0
10071 -164 -170 0
-10072 -164 0
-10072 -170 0
10072 164 170 0
-10073 -10071 0
-10073 -10072 0
10073 10071 10072 0
-10077 149 0
-10077 10073 0
10077 -149 -10073 0
-10078 -149 0
-10078 -10073 0
10078 149 10073 0
-10079 -10077 0
-10079 -10078 0
10079 10077 10078 0
-10068 90 0
-10068 91 0
10068 -90 -91 0
-10069 -90 0
-10069 -91 0
10069 90 91 0
-10070 -10068 0
-10070 -10069 0
10070 10068 10069 0
-10083 44 0
-10083 10070 0
10083 -44 -10070 0
-10084 -44 0
-10084 -10070 0
10084 44 10070 0
-10085 -10083 0
-10085 -10084 0
10085 10083 10084 0
-10086 10079 0
-10086 10085 0
10086 -10079 -10085 0
-10087 -10079 0
-10087 -10085 0
10087 10079 10085 0
-10088 -10086 0
-10088 -10087 0
10088 10086 10087 0
-10089 10067 0
-10089 -10088 0
10089 -10067 10088 0
-10093 163 0
-10093 169 0
10093 -163 -169 0
-10094 -163 0
-10094 -169 0
10094 163 169 0
-10095 -10093 0
-10095 -10094 0
10095 10093 10094 0
-10099 148 0
-10099 10095 0
10099 -148 -10095 0
-10100 -148 0
-10100 -10095 0
10100 148 10095 0
-10101 -10099 0
-10101 -10100 0
10101 10099 10100 0
-10090 89 0
-10090 90 0
10090 -89 -90 0
-10091 -89 0
-10091 -90 0
10091 89 90 0
-10092 -10090 0
-10092 -10091 0
10092 10090 10091 0
-10105 43 0
-10105 10092 0
10105 -43 -10092 0
-10106 -43 0
-10106 -10092 0
10106 43 10092 0
-10107 -10105 0
-10107 -10106 0
10107 10105 10106 0
-10108 10101 0
-10108 10107 0
10108 -10101 -10107 0
-10109 -10101 0
-10109 -10107 0
10109 10101 10107 0
-10110 -10108 0
-10110 -10109 0
10110 10108 10109 0
-10111 10089 0
-10111 -10110 0
10111 -10089 10110 0
-10115 162 0
-10115 168 0
10115 -162 -168 0
-10116 -162 0
-10116 -168 0
10116 162 168 0
-10117 -10115 0
-10117 -10116 0
10117 10115 10116 0
-10121 147 0
-10121 10117 0
10121 -147 -10117 0
-10122 -147 0
-10122 -10117 0
10122 147 10117 0
-10123 -10121 0
-10123 -10122 0
10123 10121 10122 0
-10112 88 0
-10112 89 0
10112 -88 -89 0
-10113 -88 0
-10113 -89 0
10113 88 89 0
-10114 -10112 0
-10114 -10113 0
10114 10112 10113 0
-10127 42 0
-10127 10114 0
10127 -42 -10114 0
-10128 -42 0
-10128 -10114 0
10128 42 10114 0
-10129 -10127 0
-10129 -10128 0
10129 10127 10128 0
-10130 10123 0
-10130 10129 0
10130 -10123 -10129 0
-10131 -10123 0
-10131 -10129 0
10131 10123 10129 0
-10132 -10130 0
-10132 -10131 0
10132 10130 10131 0
-10133 10111 0
-10133 -10132 0
10133 -10111 10132 0
-10140 146 0
-10140 161 0
10140 -146 -161 0
-10141 -146 0
-10141 -161 0
10141 146 161 0
-10142 -10140 0
-10142 -10141 0
10142 10140 10141 0
-10146 167 0
-10146 10142 0
10146 -167 -10142 0
-10147 -167 0
-10147 -10142 0
10147 167 10142 0
-10148 -10146 0
-10148 -10147 0
10148 10146 10147 0
-10134 87 0
-10134 88 0
10134 -87 -88 0
-10135 -87 0
-10135 -88 0
10135 87 88 0
-10136 -10134 0
-10136 -10135 0
10136 10134 10135 0
-10149 41 0
-10149 10136 0
10149 -41 -10136 0
-10150 -41 0
-10150 -10136 0
10150 41 10136 0
-10151 -10149 0
-10151 -10150 0
10151 10149 10150 0
-10152 10148 0
-10152 10151 0
10152 -10148 -10151 0
-10153 -10148 0
-10153 -10151 0
10153 10148 10151 0
-10154 -10152 0
-10154 -10153 0
10154 10152 10153 0
-10155 10133 0
-10155 -10154 0
10155 -10133 10154 0
-10156 86 0
-10156 87 0
10156 -86 -87 0
-10157 -86 0
-10157 -87 0
10157 86 87 0
-10158 -10156 0
-10158 -10157 0
10158 10156 10157 0
-10165 40 0
-10165 10158 0
10165 -40 -10158 0
-10166 -40 0
-10166 -10158 0
10166 40 10158 0
-10167 -10165 0
-10167 -10166 0
10167 10165 10166 0
-10159 145 0
-10159 160 0
10159 -145 -160 0
-10160 -145 0
-10160 -160 0
10160 145 160 0
-10161 -10159 0
-10161 -10160 0
10161 10159 10160 0
-10168 181 0
-10168 10161 0
10168 -181 -10161 0
-10169 -181 0
-10169 -10161 0
10169 181 10161 0
-10170 -10168 0
-10170 -10169 0
10170 10168 10169 0
-10171 10167 0
-10171 10170 0
10171 -10167 -10170 0
-10172 -10167 0
-10172 -10170 0
10172 10167 10170 0
-10173 -10171 0
-10173 -10172 0
10173 10171 10172 0
-10174 10155 0
-10174 -10173 0
10174 -10155 10173 0
-10175 85 0
-10175 86 0
10175 -85 -86 0
-10176 -85 0
-10176 -86 0
10176 85 86 0
-10177 -10175 0
-10177 -10176 0
10177 10175 10176 0
-10184 39 0
-10184 10177 0
10184 -39 -10177 0
-10185 -39 0
-10185 -10177 0
10185 39 10177 0
-10186 -10184 0
-10186 -10185 0
10186 10184 10185 0
-10178 144 0
-10178 159 0
10178 -144 -159 0
-10179 -144 0
-10179 -159 0
10179 144 159 0
-10180 -10178 0
-10180 -10179 0
10180 10178 10179 0
-10187 180 0
-10187 10180 0
10187 -180 -10180 0
-10188 -180 0
-10188 -10180 0
10188 180 10180 0
-10189 -10187 0
-10189 -10188 0
10189 10187 10188 0
-10190 10186 0
-10190 10189 0
10190 -10186 -10189 0
-10191 -10186 0
-10191 -10189 0
10191 10186 10189 0
-10192 -10190 0
-10192 -10191 0
10192 10190 10191 0
-10193 10174 0
-10193 -10192 0
10193 -10174 10192 0
-10194 84 0
-10194 85 0
10194 -84 -85 0
-10195 -84 0
-10195 -85 0
10195 84 85 0
-10196 -10194 0
-10196 -10195 0
10196 10194 10195 0
-10203 38 0
-10203 10196 0
10203 -38 -10196 0
-10204 -38 0
-10204 -10196 0
10204 38 10196 0
-10205 -10203 0
-10205 -10204 0
10205 10203 10204 0
-10197 143 0
-10197 158 0
10197 -143 -158 0
-10198 -143 0
-10198 -158 0
10198 143 158 0
-10199 -10197 0
-10199 -10198 0
10199 10197 10198 0
-10206 179 0
-10206 10199 0
10206 -179 -10199 0
-10207 -179 0
-10207 -10199 0
10207 179 10199 0
-10208 -10206 0
-10208 -10207 0
10208 10206 10207 0
-10209 10205 0
-10209 10208 0
10209 -10205 -10208 0
-10210 -10205 0
-10210 -10208 0
10210 10205 10208 0
-10211 -10209 0
-10211 -10210 0
10211 10209 10210 0
-10212 10193 0
-10212 -10211 0
10212 -10193 10211 0
-10213 83 0
-10213 84 0
10213 -83 -84 0
-10214 -83 0
-10214 -84 0
10214 83 84 0
-10215 -10213 0
-10215 -10214 0
10215 10213 10214 0
-10222 37 0
-10222 10215 0
10222 -37 -10215 0
-10223 -37 0
-10223 -10215 0
10223 37 10215 0
-10224 -10222 0
-10224 -10223 0
10224 10222 10223 0
-10216 142 0
-10216 157 0
10216 -142 -157 0
-10217 -142 0
-10217 -157 0
10217 142 157 0
-10218 -10216 0
-10218 -10217 0
10218 10216 10217 0
-10225 178 0
-10225 10218 0
10225 -178 -10218 0
-10226 -178 0
-10226 -10218 0
10226 178 10218 0
-10227 -10225 0
-10227 -10226 0
10227 10225 10226 0
-10228 10224 0
-10228 10227 0
10228 -10224 -10227 0
-10229 -10224 0
-10229 -10227 0
10229 10224 10227 0
-10230 -10228 0
-10230 -10229 0
10230 10228 10229 0
-10231 10212 0
-10231 -10230 0
10231 -10212 10230 0
-10232 82 0
-10232 83 0
10232 -82 -83 0
-10233 -82 0
-10233 -83 0
10233 82 83 0
-10234 -10232 0
-10234 -10233 0
10234 10232 10233 0
-10241 36 0
-10241 10234 0
10241 -36 -10234 0
-10242 -36 0
-10242 -10234 0
10242 36 10234 0
-10243 -10241 0
-10243 -10242 0
10243 10241 10242 0
-10235 141 0
-10235 156 0
10235 -141 -156 0
-10236 -141 0
-10236 -156 0
10236 141 156 0
-10237 -10235 0
-10237 -10236 0
10237 10235 10236 0
-10244 177 0
-10244 10237 0
10244 -177 -10237 0
-10245 -177 0
-10245 -10237 0
10245 177 10237 0
-10246 -10244 0
-10246 -10245 0
10246 10244 10245 0
-10247 10243 0
-10247 10246 0
10247 -10243 -10246 0
-10248 -10243 0
-10248 -10246 0
10248 10243 10246 0
-10249 -10247 0
-10249 -10248 0
10249 10247 10248 0
-10250 10231 0
-10250 -10249 0
10250 -10231 10249 0
-10251 81 0
-10251 82 0
10251 -81 -82 0
-10252 -81 0
-10252 -82 0
10252 81 82 0
-10253 -10251 0
-10253 -10252 0
10253 10251 10252 0
-10260 35 0
-10260 10253 0
10260 -35 -10253 0
-10261 -35 0
-10261 -10253 0
10261 35 10253 0
-10262 -10260 0
-10262 -10261 0
10262 10260 10261 0
-10254 140 0
-10254 155 0
10254 -140 -155 0
-10255 -140 0
-10255 -155 0
10255 140 155 0
-10256 -10254 0
-10256 -10255 0
10256 10254 10255 0
-10263 176 0
-10263 10256 0
10263 -176 -10256 0
-10264 -176 0
-10264 -10256 0
10264 176 10256 0
-10265 -10263 0
-10265 -10264 0
10265 10263 10264 0
-10266 10262 0
-10266 10265 0
10266 -10262 -10265 0
-10267 -10262 0
-10267 -10265 0
10267 10262 10265 0
-10268 -10266 0
-10268 -10267 0
10268 10266 10267 0
-10269 10250 0
-10269 -10268 0
10269 -10250 10268 0
-10270 80 0
-10270 81 0
10270 -80 -81 0
-10271 -80 0
-10271 -81 0
10271 80 81 0
-10272 -10270 0
-10272 -10271 0
10272 10270 10271 0
-10279 34 0
-10279 10272 0
10279 -34 -10272 0
-10280 -34 0
-10280 -10272 0
10280 34 10272 0
-10281 -10279 0
-10281 -10280 0
10281 10279 10280 0
-10273 139 0
-10273 154 0
10273 -139 -154 0
-10274 -139 0
-10274 -154 0
10274 139 154 0
-10275 -10273 0
-10275 -10274 0
10275 10273 10274 0
-10282 175 0
-10282 10275 0
10282 -175 -10275 0
-10283 -175 0
-10283 -10275 0
10283 175 10275 0
-10284 -10282 0
-10284 -10283 0
10284 10282 10283 0
-10285 10281 0
-10285 10284 0
10285 -10281 -10284 0
-10286 -10281 0
-10286 -10284 0
10286 10281 10284 0
-10287 -10285 0
-10287 -10286 0
10287 10285 10286 0
-10288 10269 0
-10288 -10287 0
10288 -10269 10287 0
-10289 79 0
-10289 80 0
10289 -79 -80 0
-10290 -79 0
-10290 -80 0
10290 79 80 0
-10291 -10289 0
-10291 -10290 0
10291 10289 10290 0
-10298 33 0
-10298 10291 0
10298 -33 -10291 0
-10299 -33 0
-10299 -10291 0
10299 33 10291 0
-10300 -10298 0
-10300 -10299 0
10300 10298 10299 0
-10292 138 0
-10292 153 0
10292 -138 -153 0
-10293 -138 0
-10293 -153 0
10293 138 153 0
-10294 -10292 0
-10294 -10293 0
10294 10292 10293 0
-10301 174 0
-10301 10294 0
10301 -174 -10294 0
-10302 -174 0
-10302 -10294 0
10302 174 10294 0
-10303 -10301 0
-10303 -10302 0
10303 10301 10302 0
-10304 10300 0
-10304 10303 0
10304 -10300 -10303 0
-10305 -10300 0
-10305 -10303 0
10305 10300 10303 0
-10306 -10304 0
-10306 -10305 0
10306 10304 10305 0
-10307 10288 0
-10307 -10306 0
10307 -10288 10306 0
-10308 78 0
-10308 79 0
10308 -78 -79 0
-10309 -78 0
-10309 -79 0
10309 78 79 0
-10310 -10308 0
-10310 -10309 0
10310 10308 10309 0
-10317 32 0
-10317 10310 0
10317 -32 -10310 0
-10318 -32 0
-10318 -10310 0
10318 32 10310 0
-10319 -10317 0
-10319 -10318 0
10319 10317 10318 0
-10311 137 0
-10311 152 0
10311 -137 -152 0
-10312 -137 0
-10312 -152 0
10312 137 152 0
-10313 -10311 0
-10313 -10312 0
10313 10311 10312 0
-10320 173 0
-10320 10313 0
10320 -173 -10313 0
-10321 -173 0
-10321 -10313 0
10321 173 10313 0
-10322 -10320 0
-10322 -10321 0
10322 10320 10321 0
-10323 10319 0
-10323 10322 0
10323 -10319 -10322 0
-10324 -10319 0
-10324 -10322 0
10324 10319 10322 0
-10325 -10323 0
-10325 -10324 0
10325 10323 10324 0
-10326 10307 0
-10326 -10325 0
10326 -10307 10325 0
-10327 62 0
-10327 63 0
10327 -62 -63 0
-10328 -62 0
-10328 -63 0
10328 62 63 0
-10329 -10327 0
-10329 -10328 0
10329 10327 10328 0
-10336 31 0
-10336 10329 0
10336 -31 -10329 0
-10337 -31 0
-10337 -10329 0
10337 31 10329 0
-10338 -10336 0
-10338 -10337 0
10338 10336 10337 0
-10330 151 0
-10330 157 0
10330 -151 -157 0
-10331 -151 0
-10331 -157 0
10331 151 157 0
-10332 -10330 0
-10332 -10331 0
10332 10330 10331 0
-10339 136 0
-10339 10332 0
10339 -136 -10332 0
-10340 -136 0
-10340 -10332 0
10340 136 10332 0
-10341 -10339 0
-10341 -10340 0
10341 10339 10340 0
-10345 10338 0
-10345 10341 0
10345 -10338 -10341 0
-10346 -10338 0
-10346 -10341 0
10346 10338 10341 0
-10347 -10345 0
-10347 -10346 0
10347 10345 10346 0
-10348 10326 0
-10348 -10347 0
10348 -10326 10347 0
-10349 150 0
-10349 156 0
10349 -150 -156 0
-10350 -150 0
-10350 -156 0
10350 150 156 0
-10351 -10349 0
-10351 -10350 0
10351 10349 10350 0
-10361 135 0
-10361 10351 0
10361 -135 -10351 0
-10362 -135 0
-10362 -10351 0
10362 135 10351 0
-10363 -10361 0
-10363 -10362 0
10363 10361 10362 0
-10358 30 0
-10358 62 0
10358 -30 -62 0
-10359 -30 0
-10359 -62 0
10359 30 62 0
-10360 -10358 0
-10360 -10359 0
10360 10358 10359 0
-10367 76 0
-10367 10360 0
10367 -76 -10360 0
-10368 -76 0
-10368 -10360 0
10368 76 10360 0
-10369 -10367 0
-10369 -10368 0
10369 10367 10368 0
-10370 10363 0
-10370 10369 0
10370 -10363 -10369 0
-10371 -10363 0
-10371 -10369 0
10371 10363 10369 0
-10372 -10370 0
-10372 -10371 0
10372 10370 10371 0
-10373 10348 0
-10373 -10372 0
10373 -10348 10372 0
-10377 149 0
-10377 155 0
10377 -149 -155 0
-10378 -149 0
-10378 -155 0
10378 149 155 0
-10379 -10377 0
-10379 -10378 0
10379 10377 10378 0
-10383 134 0
-10383 10379 0
10383 -134 -10379 0
-10384 -134 0
-10384 -10379 0
10384 134 10379 0
-10385 -10383 0
-10385 -10384 0
10385 10383 10384 0
-10374 75 0
-10374 76 0
10374 -75 -76 0
-10375 -75 0
-10375 -76 0
10375 75 76 0
-10376 -10374 0
-10376 -10375 0
10376 10374 10375 0
-10389 29 0
-10389 10376 0
10389 -29 -10376 0
-10390 -29 0
-10390 -10376 0
10390 29 10376 0
-10391 -10389 0
-10391 -10390 0
10391 10389 10390 0
-10392 10385 0
-10392 10391 0
10392 -10385 -10391 0
-10393 -10385 0
-10393 -10391 0
10393 10385 10391 0
-10394 -10392 0
-10394 -10393 0
10394 10392 10393 0
-10395 10373 0
-10395 -10394 0
10395 -10373 10394 0
-10399 148 0
-10399 154 0
10399 -148 -154 0
-10400 -148 0
-10400 -154 0
10400 148 154 0
-10401 -10399 0
-10401 -10400 0
10401 10399 10400 0
-10405 133 0
-10405 10401 0
10405 -133 -10401 0
-10406 -133 0
-10406 -10401 0
10406 133 10401 0
-10407 -10405 0
-10407 -10406 0
10407 10405 10406 0
-10396 74 0
-10396 75 0
10396 -74 -75 0
-10397 -74 0
-10397 -75 0
10397 74 75 0
-10398 -10396 0
-10398 -10397 0
10398 10396 10397 0
-10411 28 0
-10411 10398 0
10411 -28 -10398 0
-10412 -28 0
-10412 -10398 0
10412 28 10398 0
-10413 -10411 0
-10413 -10412 0
10413 10411 10412 0
-10414 10407 0
-10414 10413 0
10414 -10407 -10413 0
-10415 -10407 0
-10415 -10413 0
10415 10407 10413 0
-10416 -10414 0
-10416 -10415 0
10416 10414 10415 0
-10417 10395 0
-10417 -10416 0
10417 -10395 10416 0
-10421 147 0
-10421 153 0
10421 -147 -153 0
-10422 -147 0
-10422 -153 0
10422 147 153 0
-10423 -10421 0
-10423 -10422 0
10423 10421 10422 0
-10427 132 0
-10427 10423 0
10427 -132 -10423 0
-10428 -132 0
-10428 -10423 0
10428 132 10423 0
-10429 -10427 0
-10429 -10428 0
10429 10427 10428 0
-10418 73 0
-10418 74 0
10418 -73 -74 0
-10419 -73 0
-10419 -74 0
10419 73 74 0
-10420 -10418 0
-10420 -10419 0
10420 10418 10419 0
-10433 27 0
-10433 10420 0
10433 -27 -10420 0
-10434 -27 0
-10434 -10420 0
10434 27 10420 0
-10435 -10433 0
-10435 -10434 0
10435 10433 10434 0
-10436 10429 0
-10436 10435 0
10436 -10429 -10435 0
-10437 -10429 0
-10437 -10435 0
10437 10429 10435 0
-10438 -10436 0
-10438 -10437 0
10438 10436 10437 0
-10439 10417 0
-10439 -10438 0
10439 -10417 10438 0
-10443 146 0
-10443 152 0
10443 -146 -152 0
-10444 -146 0
-10444 -152 0
10444 146 152 0
-10445 -10443 0
-10445 -10444 0
10445 10443 10444 0
-10449 131 0
-10449 10445 0
10449 -131 -10445 0
-10450 -131 0
-10450 -10445 0
10450 131 10445 0
-10451 -10449 0
-10451 -10450 0
10451 10449 10450 0
-10440 72 0
-10440 73 0
10440 -72 -73 0
-10441 -72 0
-10441 -73 0
10441 72 73 0
-10442 -10440 0
-10442 -10441 0
10442 10440 10441 0
-10455 26 0
-10455 10442 0
10455 -26 -10442 0
-10456 -26 0
-10456 -10442 0
10456 26 10442 0
-10457 -10455 0
-10457 -10456 0
10457 10455 10456 0
-10458 10451 0
-10458 10457 0
10458 -10451 -10457 0
-10459 -10451 0
-10459 -10457 0
10459 10451 10457 0
-10460 -10458 0
-10460 -10459 0
10460 10458 10459 0
-10461 10439 0
-10461 -10460 0
10461 -10439 10460 0
-10462 71 0
-10462 72 0
10462 -71 -72 0
-10463 -71 0
-10463 -72 0
10463 71 72 0
-10464 -10462 0
-10464 -10463 0
10464 10462 10463 0
-10471 25 0
-10471 10464 0
10471 -25 -10464 0
-10472 -25 0
-10472 -10464 0
10472 25 10464 0
-10473 -10471 0
-10473 -10472 0
10473 10471 10472 0
-10465 130 0
-10465 145 0
10465 -130 -145 0
-10466 -130 0
-10466 -145 0
10466 130 145 0
-10467 -10465 0
-10467 -10466 0
10467 10465 10466 0
-10474 166 0
-10474 10467 0
10474 -166 -10467 0
-10475 -166 0
-10475 -10467 0
10475 166 10467 0
-10476 -10474 0
-10476 -10475 0
10476 10474 10475 0
-10477 10473 0
-10477 10476 0
10477 -10473 -10476 0
-10478 -10473 0
-10478 -10476 0
10478 10473 10476 0
-10479 -10477 0
-10479 -10478 0
10479 10477 10478 0
-10480 10461 0
-10480 -10479 0
10480 -10461 10479 0
-10487 144 0
-10487 165 0
10487 -144 -165 0
-10488 -144 0
-10488 -165 0
10488 144 165 0
-10489 -10487 0
-10489 -10488 0
10489 10487 10488 0
-10481 70 0
-10481 71 0
10481 -70 -71 0
-10482 -70 0
-10482 -71 0
10482 70 71 0
-10483 -10481 0
-10483 -10482 0
10483 10481 10482 0
-10490 129 0
-10490 10483 0
10490 -129 -10483 0
-10491 -129 0
-10491 -10483 0
10491 129 10483 0
-10492 -10490 0
-10492 -10491 0
10492 10490 10491 0
-10493 24 0
-10493 10492 0
10493 -24 -10492 0
-10494 -24 0
-10494 -10492 0
10494 24 10492 0
-10495 -10493 0
-10495 -10494 0
10495 10493 10494 0
-10496 10489 0
-10496 10495 0
10496 -10489 -10495 0
-10497 -10489 0
-10497 -10495 0
10497 10489 10495 0
-10498 -10496 0
-10498 -10497 0
10498 10496 10497 0
-10499 10480 0
-10499 -10498 0
10499 -10480 10498 0
-10506 143 0
-10506 164 0
10506 -143 -164 0
-10507 -143 0
-10507 -164 0
10507 143 164 0
-10508 -10506 0
-10508 -10507 0
10508 10506 10507 0
-10500 69 0
-10500 70 0
10500 -69 -70 0
-10501 -69 0
-10501 -70 0
10501 69 70 0
-10502 -10500 0
-10502 -10501 0
10502 10500 10501 0
-10509 128 0
-10509 10502 0
10509 -128 -10502 0
-10510 -128 0
-10510 -10502 0
10510 128 10502 0
-10511 -10509 0
-10511 -10510 0
10511 10509 10510 0
-10512 23 0
-10512 10511 0
10512 -23 -10511 0
-10513 -23 0
-10513 -10511 0
10513 23 10511 0
-10514 -10512 0
-10514 -10513 0
10514 10512 10513 0
-10515 10508 0
-10515 10514 0
10515 -10508 -10514 0
-10516 -10508 0
-10516 -10514 0
10516 10508 10514 0
-10517 -10515 0
-10517 -10516 0
10517 10515 10516 0
-10518 10499 0
-10518 -10517 0
10518 -10499 10517 0
-10525 142 0
-10525 163 0
10525 -142 -163 0
-10526 -142 0
-10526 -163 0
10526 142 163 0
-10527 -10525 0
-10527 -10526 0
10527 10525 10526 0
-10519 68 0
-10519 69 0
10519 -68 -69 0
-10520 -68 0
-10520 -69 0
10520 68 69 0
-10521 -10519 0
-10521 -10520 0
10521 10519 10520 0
-10528 127 0
-10528 10521 0
10528 -127 -10521 0
-10529 -127 0
-10529 -10521 0
10529 127 10521 0
-10530 -10528 0
-10530 -10529 0
10530 10528 10529 0
-10531 22 0
-10531 10530 0
10531 -22 -10530 0
-10532 -22 0
-10532 -10530 0
10532 22 10530 0
-10533 -10531 0
-10533 -10532 0
10533 10531 10532 0
-10534 10527 0
-10534 10533 0
10534 -10527 -10533 0
-10535 -10527 0
-10535 -10533 0
10535 10527 10533 0
-10536 -10534 0
-10536 -10535 0
10536 10534 10535 0
-10537 10518 0
-10537 -10536 0
10537 -10518 10536 0
-10544 141 0
-10544 162 0
10544 -141 -162 0
-10545 -141 0
-10545 -162 0
10545 141 162 0
-10546 -10544 0
-10546 -10545 0
10546 10544 10545 0
-10538 67 0
-10538 68 0
10538 -67 -68 0
-10539 -67 0
-10539 -68 0
10539 67 68 0
-10540 -10538 0
-10540 -10539 0
10540 10538 10539 0
-10547 126 0
-10547 10540 0
10547 -126 -10540 0
-10548 -126 0
-10548 -10540 0
10548 126 10540 0
-10549 -10547 0
-10549 -10548 0
10549 10547 10548 0
-10550 21 0
-10550 10549 0
10550 -21 -10549 0
-10551 -21 0
-10551 -10549 0
10551 21 10549 0
-10552 -10550 0
-10552 -10551 0
10552 10550 10551 0
-10553 10546 0
-10553 10552 0
10553 -10546 -10552 0
-10554 -10546 0
-10554 -10552 0
10554 10546 10552 0
-10555 -10553 0
-10555 -10554 0
10555 10553 10554 0
-10556 10537 0
-10556 -10555 0
10556 -10537 10555 0
-10563 140 0
-10563 161 0
10563 -140 -161 0
-10564 -140 0
-10564 -161 0
10564 140 161 0
-10565 -10563 0
-10565 -10564 0
10565 10563 10564 0
-10557 66 0
-10557 67 0
10557 -66 -67 0
-10558 -66 0
-10558 -67 0
10558 66 67 0
-10559 -10557 0
-10559 -10558 0
10559 10557 10558 0
-10566 125 0
-10566 10559 0
10566 -125 -10559 0
-10567 -125 0
-10567 -10559 0
10567 125 10559 0
-10568 -10566 0
-10568 -10567 0
10568 10566 10567 0
-10569 20 0
-10569 10568 0
10569 -20 -10568 0
-10570 -20 0
-10570 -10568 0
10570 20 10568 0
-10571 -10569 0
-10571 -10570 0
10571 10569 10570 0
-10572 10565 0
-10572 10571 0
10572 -10565 -10571 0
-10573 -10565 0
-10573 -10571 0
10573 10565 10571 0
-10574 -10572 0
-10574 -10573 0
10574 10572 10573 0
-10575 10556 0
-10575 -10574 0
10575 -10556 10574 0
-10585 139 0
-10585 160 0
10585 -139 -160 0
-10586 -139 0
-10586 -160 0
10586 139 160 0
-10587 -10585 0
-10587 -10586 0
10587 10585 10586 0
-10582 19 0
-10582 65 0
10582 -19 -65 0
-10583 -19 0
-10583 -65 0
10583 19 65 0
-10584 -10582 0
-10584 -10583 0
10584 10582 10583 0
-10588 66 0
-10588 124 0
10588 -66 -124 0
-10589 -66 0
-10589 -124 0
10589 66 124 0
-10590 -10588 0
-10590 -10589 0
10590 10588 10589 0
-10591 10584 0
-10591 10590 0
10591 -10584 -10590 0
-10592 -10584 0
-10592 -10590 0
10592 10584 10590 0
-10593 -10591 0
-10593 -10592 0
10593 10591 10592 0
-10594 10587 0
-10594 10593 0
10594 -10587 -10593 0
-10595 -10587 0
-10595 -10593 0
10595 10587 10593 0
-10596 -10594 0
-10596 -10595 0
10596 10594 10595 0
-10597 10575 0
-10597 -10596 0
10597 -10575 10596 0
-10607 138 0
-10607 159 0
10607 -138 -159 0
-10608 -138 0
-10608 -159 0
10608 138 159 0
-10609 -10607 0
-10609 -10608 0
10609 10607 10608 0
-10598 64 0
-10598 65 0
10598 -64 -65 0
-10599 -64 0
-10599 -65 0
10599 64 65 0
-10600 -10598 0
-10600 -10599 0
10600 10598 10599 0
-10604 18 0
-10604 10600 0
10604 -18 -10600 0
-10605 -18 0
-10605 -10600 0
10605 18 10600 0
-10606 -10604 0
-10606 -10605 0
10606 10604 10605 0
-10610 123 0
-10610 10606 0
10610 -123 -10606 0
-10611 -123 0
-10611 -10606 0
10611 123 10606 0
-10612 -10610 0
-10612 -10611 0
10612 10610 10611 0
-10613 10609 0
-10613 10612 0
10613 -10609 -10612 0
-10614 -10609 0
-10614 -10612 0
10614 10609 10612 0
-10615 -10613 0
-10615 -10614 0
10615 10613 10614 0
-10616 10597 0
-10616 -10615 0
10616 -10597 10615 0
-10626 137 0
-10626 158 0
10626 -137 -158 0
-10627 -137 0
-10627 -158 0
10627 137 158 0
-10628 -10626 0
-10628 -10627 0
10628 10626 10627 0
-10617 63 0
-10617 64 0
10617 -63 -64 0
-10618 -63 0
-10618 -64 0
10618 63 64 0
-10619 -10617 0
-10619 -10618 0
10619 10617 10618 0
-10623 17 0
-10623 10619 0
10623 -17 -10619 0
-10624 -17 0
-10624 -10619 0
10624 17 10619 0
-10625 -10623 0
-10625 -10624 0
10625 10623 10624 0
-10629 122 0
-10629 10625 0
10629 -122 -10625 0
-10630 -122 0
-10630 -10625 0
10630 122 10625 0
-10631 -10629 0
-10631 -10630 0
10631 10629 10630 0
-10632 10628 0
-10632 10631 0
10632 -10628 -10631 0
-10633 -10628 0
-10633 -10631 0
10633 10628 10631 0
-10634 -10632 0
-10634 -10633 0
10634 10632 10633 0
-10635 10616 0
-10635 -10634 0
10635 -10616 10634 0
-10639 136 0
-10639 142 0
10639 -136 -142 0
-10640 -136 0
-10640 -142 0
10640 136 142 0
-10641 -10639 0
-10641 -10640 0
10641 10639 10640 0
-10636 47 0
-10636 48 0
10636 -47 -48 0
-10637 -47 0
-10637 -48 0
10637 47 48 0
-10638 -10636 0
-10638 -10637 0
10638 10636 10637 0
-10645 16 0
-10645 10638 0
10645 -16 -10638 0
-10646 -16 0
-10646 -10638 0
10646 16 10638 0
-10647 -10645 0
-10647 -10646 0
10647 10645 10646 0
-10654 121 0
-10654 10647 0
10654 -121 -10647 0
-10655 -121 0
-10655 -10647 0
10655 121 10647 0
-10656 -10654 0
-10656 -10655 0
10656 10654 10655 0
-10657 10641 0
-10657 10656 0
10657 -10641 -10656 0
-10658 -10641 0
-10658 -10656 0
10658 10641 10656 0
-10659 -10657 0
-10659 -10658 0
10659 10657 10658 0
-10660 10635 0
-10660 -10659 0
10660 -10635 10659 0
-10661 135 0
-10661 141 0
10661 -135 -141 0
-10662 -135 0
-10662 -141 0
10662 135 141 0
-10663 -10661 0
-10663 -10662 0
10663 10661 10662 0
-10664 47 0
-10664 61 0
10664 -47 -61 0
-10665 -47 0
-10665 -61 0
10665 47 61 0
-10666 -10664 0
-10666 -10665 0
10666 10664 10665 0
-10670 15 0
-10670 10666 0
10670 -15 -10666 0
-10671 -15 0
-10671 -10666 0
10671 15 10666 0
-10672 -10670 0
-10672 -10671 0
10672 10670 10671 0
-10679 120 0
-10679 10672 0
10679 -120 -10672 0
-10680 -120 0
-10680 -10672 0
10680 120 10672 0
-10681 -10679 0
-10681 -10680 0
10681 10679 10680 0
-10682 10663 0
-10682 10681 0
10682 -10663 -10681 0
-10683 -10663 0
-10683 -10681 0
10683 10663 10681 0
-10684 -10682 0
-10684 -10683 0
10684 10682 10683 0
-10685 10660 0
-10685 -10684 0
10685 -10660 10684 0
-10689 134 0
-10689 140 0
10689 -134 -140 0
-10690 -134 0
-10690 -140 0
10690 134 140 0
-10691 -10689 0
-10691 -10690 0
10691 10689 10690 0
-10686 60 0
-10686 61 0
10686 -60 -61 0
-10687 -60 0
-10687 -61 0
10687 60 61 0
-10688 -10686 0
-10688 -10687 0
10688 10686 10687 0
-10695 14 0
-10695 10688 0
10695 -14 -10688 0
-10696 -14 0
-10696 -10688 0
10696 14 10688 0
-10697 -10695 0
-10697 -10696 0
10697 10695 10696 0
-10704 119 0
-10704 10697 0
10704 -119 -10697 0
-10705 -119 0
-10705 -10697 0
10705 119 10697 0
-10706 -10704 0
-10706 -10705 0
10706 10704 10705 0
-10707 10691 0
-10707 10706 0
10707 -10691 -10706 0
-10708 -10691 0
-10708 -10706 0
10708 10691 10706 0
-10709 -10707 0
-10709 -10708 0
10709 10707 10708 0
-10710 10685 0
-10710 -10709 0
10710 -10685 10709 0
-10714 133 0
-10714 139 0
10714 -133 -139 0
-10715 -133 0
-10715 -139 0
10715 133 139 0
-10716 -10714 0
-10716 -10715 0
10716 10714 10715 0
-10711 59 0
-10711 60 0
10711 -59 -60 0
-10712 -59 0
-10712 -60 0
10712 59 60 0
-10713 -10711 0
-10713 -10712 0
10713 10711 10712 0
-10720 13 0
-10720 10713 0
10720 -13 -10713 0
-10721 -13 0
-10721 -10713 0
10721 13 10713 0
-10722 -10720 0
-10722 -10721 0
10722 10720 10721 0
-10729 118 0
-10729 10722 0
10729 -118 -10722 0
-10730 -118 0
-10730 -10722 0
10730 118 10722 0
-10731 -10729 0
-10731 -10730 0
10731 10729 10730 0
-10732 10716 0
-10732 10731 0
10732 -10716 -10731 0
-10733 -10716 0
-10733 -10731 0
10733 10716 10731 0
-10734 -10732 0
-10734 -10733 0
10734 10732 10733 0
-10735 10710 0
-10735 -10734 0
10735 -10710 10734 0
-10739 132 0
-10739 138 0
10739 -132 -138 0
-10740 -132 0
-10740 -138 0
10740 132 138 0
-10741 -10739 0
-10741 -10740 0
10741 10739 10740 0
-10736 58 0
-10736 59 0
10736 -58 -59 0
-10737 -58 0
-10737 -59 0
10737 58 59 0
-10738 -10736 0
-10738 -10737 0
10738 10736 10737 0
-10745 12 0
-10745 10738 0
10745 -12 -10738 0
-10746 -12 0
-10746 -10738 0
10746 12 10738 0
-10747 -10745 0
-10747 -10746 0
10747 10745 10746 0
-10754 117 0
-10754 10747 0
10754 -117 -10747 0
-10755 -117 0
-10755 -10747 0
10755 117 10747 0
-10756 -10754 0
-10756 -10755 0
10756 10754 10755 0
-10757 10741 0
-10757 10756 0
10757 -10741 -10756 0
-10758 -10741 0
-10758 -10756 0
10758 10741 10756 0
-10759 -10757 0
-10759 -10758 0
10759 10757 10758 0
-10760 10735 0
-10760 -10759 0
10760 -10735 10759 0
-10764 131 0
-10764 137 0
10764 -131 -137 0
-10765 -131 0
-10765 -137 0
10765 131 137 0
-10766 -10764 0
-10766 -10765 0
10766 10764 10765 0
-10761 57 0
-10761 58 0
10761 -57 -58 0
-10762 -57 0
-10762 -58 0
10762 57 58 0
-10763 -10761 0
-10763 -10762 0
10763 10761 10762 0
-10770 11 0
-10770 10763 0
10770 -11 -10763 0
-10771 -11 0
-10771 -10763 0
10771 11 10763 0
-10772 -10770 0
-10772 -10771 0
10772 10770 10771 0
-10779 116 0
-10779 10772 0
10779 -116 -10772 0
-10780 -116 0
-10780 -10772 0
10780 116 10772 0
-10781 -10779 0
-10781 -10780 0
10781 10779 10780 0
-10782 10766 0
-10782 10781 0
10782 -10766 -10781 0
-10783 -10766 0
-10783 -10781 0
10783 10766 10781 0
-10784 -10782 0
-10784 -10783 0
10784 10782 10783 0
-10785 10760 0
-10785 -10784 0
10785 -10760 10784 0
-10795 130 0
-10795 151 0
10795 -130 -151 0
-10796 -130 0
-10796 -151 0
10796 130 151 0
-10797 -10795 0
-10797 -10796 0
10797 10795 10796 0
-10786 56 0
-10786 57 0
10786 -56 -57 0
-10787 -56 0
-10787 -57 0
10787 56 57 0
-10788 -10786 0
-10788 -10787 0
10788 10786 10787 0
-10792 10 0
-10792 10788 0
10792 -10 -10788 0
-10793 -10 0
-10793 -10788 0
10793 10 10788 0
-10794 -10792 0
-10794 -10793 0
10794 10792 10793 0
-10798 115 0
-10798 10794 0
10798 -115 -10794 0
-10799 -115 0
-10799 -10794 0
10799 115 10794 0
-10800 -10798 0
-10800 -10799 0
10800 10798 10799 0
-10801 10797 0
-10801 10800 0
10801 -10797 -10800 0
-10802 -10797 0
-10802 -10800 0
10802 10797 10800 0
-10803 -10801 0
-10803 -10802 0
10803 10801 10802 0
-10804 10785 0
-10804 -10803 0
10804 -10785 10803 0
-10808 114 0
-10808 129 0
10808 -114 -129 0
-10809 -114 0
-10809 -129 0
10809 114 129 0
-10810 -10808 0
-10810 -10809 0
10810 10808 10809 0
-10805 55 0
-10805 56 0
10805 -55 -56 0
-10806 -55 0
-10806 -56 0
10806 55 56 0
-10807 -10805 0
-10807 -10806 0
10807 10805 10806 0
-10811 9 0
-10811 10807 0
10811 -9 -10807 0
-10812 -9 0
-10812 -10807 0
10812 9 10807 0
-10813 -10811 0
-10813 -10812 0
10813 10811 10812 0
-10817 10810 0
-10817 10813 0
10817 -10810 -10813 0
-10818 -10810 0
-10818 -10813 0
10818 10810 10813 0
-10819 -10817 0
-10819 -10818 0
10819 10817 10818 0
-10820 150 0
-10820 10819 0
10820 -150 -10819 0
-10821 -150 0
-10821 -10819 0
10821 150 10819 0
-10822 -10820 0
-10822 -10821 0
10822 10820 10821 0
-10823 10804 0
-10823 -10822 0
10823 -10804 10822 0
-10827 113 0
-10827 128 0
10827 -113 -128 0
-10828 -113 0
-10828 -128 0
10828 113 128 0
-10829 -10827 0
-10829 -10828 0
10829 10827 10828 0
-10824 54 0
-10824 55 0
10824 -54 -55 0
-10825 -54 0
-10825 -55 0
10825 54 55 0
-10826 -10824 0
-10826 -10825 0
10826 10824 10825 0
-10830 8 0
-10830 10826 0
10830 -8 -10826 0
-10831 -8 0
-10831 -10826 0
10831 8 10826 0
-10832 -10830 0
-10832 -10831 0
10832 10830 10831 0
-10836 10829 0
-10836 10832 0
10836 -10829 -10832 0
-10837 -10829 0
-10837 -10832 0
10837 10829 10832 0
-10838 -10836 0
-10838 -10837 0
10838 10836 10837 0
-10839 149 0
-10839 10838 0
10839 -149 -10838 0
-10840 -149 0
-10840 -10838 0
10840 149 10838 0
-10841 -10839 0
-10841 -10840 0
10841 10839 10840 0
-10842 10823 0
-10842 -10841 0
10842 -10823 10841 0
-10846 112 0
-10846 127 0
10846 -112 -127 0
-10847 -112 0
-10847 -127 0
10847 112 127 0
-10848 -10846 0
-10848 -10847 0
10848 10846 10847 0
-10843 53 0
-10843 54 0
10843 -53 -54 0
-10844 -53 0
-10844 -54 0
10844 53 54 0
-10845 -10843 0
-10845 -10844 0
10845 10843 10844 0
-10849 7 0
-10849 10845 0
10849 -7 -10845 0
-10850 -7 0
-10850 -10845 0
10850 7 10845 0
-10851 -10849 0
-10851 -10850 0
10851 10849 10850 0
-10855 10848 0
-10855 10851 0
10855 -10848 -10851 0
-10856 -10848 0
-10856 -10851 0
10856 10848 10851 0
-10857 -10855 0
-10857 -10856 0
10857 10855 10856 0
-10858 148 0
-10858 10857 0
10858 -148 -10857 0
-10859 -148 0
-10859 -10857 0
10859 148 10857 0
-10860 -10858 0
-10860 -10859 0
10860 10858 10859 0
-10861 10842 0
-10861 -10860 0
10861 -10842 10860 0
-10865 111 0
-10865 126 0
10865 -111 -126 0
-10866 -111 0
-10866 -126 0
10866 111 126 0
-10867 -10865 0
-10867 -10866 0
10867 10865 10866 0
-10862 52 0
-10862 53 0
10862 -52 -53 0
-10863 -52 0
-10863 -53 0
10863 52 53 0
-10864 -10862 0
-10864 -10863 0
10864 10862 10863 0
-10868 6 0
-10868 10864 0
10868 -6 -10864 0
-10869 -6 0
-10869 -10864 0
10869 6 10864 0
-10870 -10868 0
-10870 -10869 0
10870 10868 10869 0
-10874 10867 0
-10874 10870 0
10874 -10867 -10870 0
-10875 -10867 0
-10875 -10870 0
10875 10867 10870 0
-10876 -10874 0
-10876 -10875 0
10876 10874 10875 0
-10877 147 0
-10877 10876 0
10877 -147 -10876 0
-10878 -147 0
-10878 -10876 0
10878 147 10876 0
-10879 -10877 0
-10879 -10878 0
10879 10877 10878 0
-10880 10861 0
-10880 -10879 0
10880 -10861 10879 0
-10884 110 0
-10884 125 0
10884 -110 -125 0
-10885 -110 0
-10885 -125 0
10885 110 125 0
-10886 -10884 0
-10886 -10885 0
10886 10884 10885 0
-10881 51 0
-10881 52 0
10881 -51 -52 0
-10882 -51 0
-10882 -52 0
10882 51 52 0
-10883 -10881 0
-10883 -10882 0
10883 10881 10882 0
-10887 5 0
-10887 10883 0
10887 -5 -10883 0
-10888 -5 0
-10888 -10883 0
10888 5 10883 0
-10889 -10887 0
-10889 -10888 0
10889 10887 10888 0
-10893 10886 0
-10893 10889 0
10893 -10886 -10889 0
-10894 -10886 0
-10894 -10889 0
10894 10886 10889 0
-10895 -10893 0
-10895 -10894 0
10895 10893 10894 0
-10896 146 0
-10896 10895 0
10896 -146 -10895 0
-10897 -146 0
-10897 -10895 0
10897 146 10895 0
-10898 -10896 0
-10898 -10897 0
10898 10896 10897 0
-10899 10880 0
-10899 -10898 0
10899 -10880 10898 0
-10903 109 0
-10903 124 0
10903 -109 -124 0
-10904 -109 0
-10904 -124 0
10904 109 124 0
-10905 -10903 0
-10905 -10904 0
10905 10903 10904 0
-10900 50 0
-10900 51 0
10900 -50 -51 0
-10901 -50 0
-10901 -51 0
10901 50 51 0
-10902 -10900 0
-10902 -10901 0
10902 10900 10901 0
-10906 4 0
-10906 10902 0
10906 -4 -10902 0
-10907 -4 0
-10907 -10902 0
10907 4 10902 0
-10908 -10906 0
-10908 -10907 0
10908 10906 10907 0
-10912 10905 0
-10912 10908 0
10912 -10905 -10908 0
-10913 -10905 0
-10913 -10908 0
10913 10905 10908 0
-10914 -10912 0
-10914 -10913 0
10914 10912 10913 0
-10915 145 0
-10915 10914 0
10915 -145 -10914 0
-10916 -145 0
-10916 -10914 0
10916 145 10914 0
-10917 -10915 0
-10917 -10916 0
10917 10915 10916 0
-10918 10899 0
-10918 -10917 0
10918 -10899 10917 0
-10922 108 0
-10922 123 0
10922 -108 -123 0
-10923 -108 0
-10923 -123 0
10923 108 123 0
-10924 -10922 0
-10924 -10923 0
10924 10922 10923 0
-10919 49 0
-10919 50 0
10919 -49 -50 0
-10920 -49 0
-10920 -50 0
10920 49 50 0
-10921 -10919 0
-10921 -10920 0
10921 10919 10920 0
-10925 3 0
-10925 10921 0
10925 -3 -10921 0
-10926 -3 0
-10926 -10921 0
10926 3 10921 0
-10927 -10925 0
-10927 -10926 0
10927 10925 10926 0
-10931 10924 0
-10931 10927 0
10931 -10924 -10927 0
-10932 -10924 0
-10932 -10927 0
10932 10924 10927 0
-10933 -10931 0
-10933 -10932 0
10933 10931 10932 0
-10934 144 0
-10934 10933 0
10934 -144 -10933 0
-10935 -144 0
-10935 -10933 0
10935 144 10933 0
-10936 -10934 0
-10936 -10935 0
10936 10934 10935 0
-10937 10918 0
-10937 -10936 0
10937 -10918 10936 0
-10941 107 0
-10941 122 0
10941 -107 -122 0
-10942 -107 0
-10942 -122 0
10942 107 122 0
-10943 -10941 0
-10943 -10942 0
10943 10941 10942 0
-10938 48 0
-10938 49 0
10938 -48 -49 0
-10939 -48 0
-10939 -49 0
10939 48 49 0
-10940 -10938 0
-10940 -10939 0
10940 10938 10939 0
-10944 2 0
-10944 10940 0
10944 -2 -10940 0
-10945 -2 0
-10945 -10940 0
10945 2 10940 0
-10946 -10944 0
-10946 -10945 0
10946 10944 10945 0
-10950 10943 0
-10950 10946 0
10950 -10943 -10946 0
-10951 -10943 0
-10951 -10946 0
10951 10943 10946 0
-10952 -10950 0
-10952 -10951 0
10952 10950 10951 0
-10953 143 0
-10953 10952 0
10953 -143 -10952 0
-10954 -143 0
-10954 -10952 0
10954 143 10952 0
-10955 -10953 0
-10955 -10954 0
10955 10953 10954 0
-10956 10937 0
-10956 -10955 0
10956 -10937 10955 0
-10957 32 0
-10957 33 0
10957 -32 -33 0
-10958 -32 0
-10958 -33 0
10958 32 33 0
-10959 -10957 0
-10959 -10958 0
10959 10957 10958 0
-10960 121 0
-10960 127 0
10960 -121 -127 0
-10961 -121 0
-10961 -127 0
10961 121 127 0
-10962 -10960 0
-10962 -10961 0
10962 10960 10961 0
-10975 106 0
-10975 10962 0
10975 -106 -10962 0
-10976 -106 0
-10976 -10962 0
10976 106 10962 0
-10977 -10975 0
-10977 -10976 0
10977 10975 10976 0
-10981 91 0
-10981 10977 0
10981 -91 -10977 0
-10982 -91 0
-10982 -10977 0
10982 91 10977 0
-10983 -10981 0
-10983 -10982 0
10983 10981 10982 0
-10984 10959 0
-10984 10983 0
10984 -10959 -10983 0
-10985 -10959 0
-10985 -10983 0
10985 10959 10983 0
-10986 -10984 0
-10986 -10985 0
10986 10984 10985 0
-10987 10956 0
-10987 -10986 0
10987 -10956 10986 0
-10991 32 0
-10991 46 0
10991 -32 -46 0
-10992 -32 0
-10992 -46 0
10992 32 46 0
-10993 -10991 0
-10993 -10992 0
10993 10991 10992 0
-10988 120 0
-10988 126 0
10988 -120 -126 0
-10989 -120 0
-10989 -126 0
10989 120 126 0
-10990 -10988 0
-10990 -10989 0
10990 10988 10989 0
-11006 105 0
-11006 10990 0
11006 -105 -10990 0
-11007 -105 0
-11007 -10990 0
11007 105 10990 0
-11008 -11006 0
-11008 -11007 0
11008 11006 11007 0
-11012 90 0
-11012 11008 0
11012 -90 -11008 0
-11013 -90 0
-11013 -11008 0
11013 90 11008 0
-11014 -11012 0
-11014 -11013 0
11014 11012 11013 0
-11015 10993 0
-11015 11014 0
11015 -10993 -11014 0
-11016 -10993 0
-11016 -11014 0
11016 10993 11014 0
-11017 -11015 0
-11017 -11016 0
11017 11015 11016 0
-11018 10987 0
-11018 -11017 0
11018 -10987 11017 0
-11019 45 0
-11019 46 0
11019 -45 -46 0
-11020 -45 0
-11020 -46 0
11020 45 46 0
-11021 -11019 0
-11021 -11020 0
11021 11019 11020 0
-11022 119 0
-11022 125 0
11022 -119 -125 0
-11023 -119 0
-11023 -125 0
11023 119 125 0
-11024 -11022 0
-11024 -11023 0
11024 11022 11023 0
-11037 104 0
-11037 11024 0
11037 -104 -11024 0
-11038 -104 0
-11038 -11024 0
11038 104 11024 0
-11039 -11037 0
-11039 -11038 0
11039 11037 11038 0
-11043 89 0
-11043 11039 0
11043 -89 -11039 0
-11044 -89 0
-11044 -11039 0
11044 89 11039 0
-11045 -11043 0
-11045 -11044 0
11045 11043 11044 0
-11046 11021 0
-11046 11045 0
11046 -11021 -11045 0
-11047 -11021 0
-11047 -11045 0
11047 11021 11045 0
-11048 -11046 0
-11048 -11047 0
11048 11046 11047 0
-11049 11018 0
-11049 -11048 0
11049 -11018 11048 0
-11050 44 0
-11050 45 0
11050 -44 -45 0
-11051 -44 0
-11051 -45 0
11051 44 45 0
-11052 -11050 0
-11052 -11051 0
11052 11050 11051 0
-11053 118 0
-11053 124 0
11053 -118 -124 0
-11054 -118 0
-11054 -124 0
11054 118 124 0
-11055 -11053 0
-11055 -11054 0
11055 11053 11054 0
-11068 103 0
-11068 11055 0
11068 -103 -11055 0
-11069 -103 0
-11069 -11055 0
11069 103 11055 0
-11070 -11068 0
-11070 -11069 0
11070 11068 11069 0
-11074 88 0
-11074 11070 0
11074 -88 -11070 0
-11075 -88 0
-11075 -11070 0
11075 88 11070 0
-11076 -11074 0
-11076 -11075 0
11076 11074 11075 0
-11077 11052 0
-11077 11076 0
11077 -11052 -11076 0
-11078 -11052 0
-11078 -11076 0
11078 11052 11076 0
-11079 -11077 0
-11079 -11078 0
11079 11077 11078 0
-11080 11049 0
-11080 -11079 0
11080 -11049 11079 0
-11081 43 0
-11081 44 0
11081 -43 -44 0
-11082 -43 0
-11082 -44 0
11082 43 44 0
-11083 -11081 0
-11083 -11082 0
11083 11081 11082 0
-11084 117 0
-11084 123 0
11084 -117 -123 0
-11085 -117 0
-11085 -123 0
11085 117 123 0
-11086 -11084 0
-11086 -11085 0
11086 11084 11085 0
-11099 102 0
-11099 11086 0
11099 -102 -11086 0
-11100 -102 0
-11100 -11086 0
11100 102 11086 0
-11101 -11099 0
-11101 -11100 0
11101 11099 11100 0
-11105 87 0
-11105 11101 0
11105 -87 -11101 0
-11106 -87 0
-11106 -11101 0
11106 87 11101 0
-11107 -11105 0
-11107 -11106 0
11107 11105 11106 0
-11108 11083 0
-11108 11107 0
11108 -11083 -11107 0
-11109 -11083 0
-11109 -11107 0
11109 11083 11107 0
-11110 -11108 0
-11110 -11109 0
11110 11108 11109 0
-11111 11080 0
-11111 -11110 0
11111 -11080 11110 0
-11112 42 0
-11112 43 0
11112 -42 -43 0
-11113 -42 0
-11113 -43 0
11113 42 43 0
-11114 -11112 0
-11114 -11113 0
11114 11112 11113 0
-11115 116 0
-11115 122 0
11115 -116 -122 0
-11116 -116 0
-11116 -122 0
11116 116 122 0
-11117 -11115 0
-11117 -11116 0
11117 11115 11116 0
-11130 101 0
-11130 11117 0
11130 -101 -11117 0
-11131 -101 0
-11131 -11117 0
11131 101 11117 0
-11132 -11130 0
-11132 -11131 0
11132 11130 11131 0
-11136 86 0
-11136 11132 0
11136 -86 -11132 0
-11137 -86 0
-11137 -11132 0
11137 86 11132 0
-11138 -11136 0
-11138 -11137 0
11138 11136 11137 0
-11139 11114 0
-11139 11138 0
11139 -11114 -11138 0
-11140 -11114 0
-11140 -11138 0
11140 11114 11138 0
-11141 -11139 0
-11141 -11140 0
11141 11139 11140 0
-11142 11111 0
-11142 -11141 0
11142 -11111 11141 0
-11143 41 0
-11143 42 0
11143 -41 -42 0
-11144 -41 0
-11144 -42 0
11144 41 42 0
-11145 -11143 0
-11145 -11144 0
11145 11143 11144 0
-11149 100 0
-11149 115 0
11149 -100 -115 0
-11150 -100 0
-11150 -115 0
11150 100 115 0
-11151 -11149 0
-11151 -11150 0
11151 11149 11150 0
-11152 85 0
-11152 11151 0
11152 -85 -11151 0
-11153 -85 0
-11153 -11151 0
11153 85 11151 0
-11154 -11152 0
-11154 -11153 0
11154 11152 11153 0
-11161 11145 0
-11161 11154 0
11161 -11145 -11154 0
-11162 -11145 0
-11162 -11154 0
11162 11145 11154 0
-11163 -11161 0
-11163 -11162 0
11163 11161 11162 0
-11164 136 0
-11164 11163 0
11164 -136 -11163 0
-11165 -136 0
-11165 -11163 0
11165 136 11163 0
-11166 -11164 0
-11166 -11165 0
11166 11164 11165 0
-11167 11142 0
-11167 -11166 0
11167 -11142 11166 0
-11168 40 0
-11168 41 0
11168 -40 -41 0
-11169 -40 0
-11169 -41 0
11169 40 41 0
-11170 -11168 0
-11170 -11169 0
11170 11168 11169 0
-11174 99 0
-11174 114 0
11174 -99 -114 0
-11175 -99 0
-11175 -114 0
11175 99 114 0
-11176 -11174 0
-11176 -11175 0
11176 11174 11175 0
-11177 84 0
-11177 11176 0
11177 -84 -11176 0
-11178 -84 0
-11178 -11176 0
11178 84 11176 0
-11179 -11177 0
-11179 -11178 0
11179 11177 11178 0
-11186 11170 0
-11186 11179 0
11186 -11170 -11179 0
-11187 -11170 0
-11187 -11179 0
11187 11170 11179 0
-11188 -11186 0
-11188 -11187 0
11188 11186 11187 0
-11189 135 0
-11189 11188 0
11189 -135 -11188 0
-11190 -135 0
-11190 -11188 0
11190 135 11188 0
-11191 -11189 0
-11191 -11190 0
11191 11189 11190 0
-11192 11167 0
-11192 -11191 0
11192 -11167 11191 0
-11193 39 0
-11193 40 0
11193 -39 -40 0
-11194 -39 0
-11194 -40 0
11194 39 40 0
-11195 -11193 0
-11195 -11194 0
11195 11193 11194 0
-11199 98 0
-11199 113 0
11199 -98 -113 0
-11200 -98 0
-11200 -113 0
11200 98 113 0
-11201 -11199 0
-11201 -11200 0
11201 11199 11200 0
-11202 83 0
-11202 11201 0
11202 -83 -11201 0
-11203 -83 0
-11203 -11201 0
11203 83 11201 0
-11204 -11202 0
-11204 -11203 0
11204 11202 11203 0
-11211 11195 0
-11211 11204 0
11211 -11195 -11204 0
-11212 -11195 0
-11212 -11204 0
11212 11195 11204 0
-11213 -11211 0
-11213 -11212 0
11213 11211 11212 0
-11214 134 0
-11214 11213 0
11214 -134 -11213 0
-11215 -134 0
-11215 -11213 0
11215 134 11213 0
-11216 -11214 0
-11216 -11215 0
11216 11214 11215 0
-11217 11192 0
-11217 -11216 0
11217 -11192 11216 0
-11218 38 0
-11218 39 0
11218 -38 -39 0
-11219 -38 0
-11219 -39 0
11219 38 39 0
-11220 -11218 0
-11220 -11219 0
11220 11218 11219 0
-11221 82 0
-11221 97 0
11221 -82 -97 0
-11222 -82 0
-11222 -97 0
11222 82 97 0
-11223 -11221 0
-11223 -11222 0
11223 11221 11222 0
-11230 112 0
-11230 11223 0
11230 -112 -11223 0
-11231 -112 0
-11231 -11223 0
11231 112 11223 0
-11232 -11230 0
-11232 -11231 0
11232 11230 11231 0
-11236 11220 0
-11236 11232 0
11236 -11220 -11232 0
-11237 -11220 0
-11237 -11232 0
11237 11220 11232 0
-11238 -11236 0
-11238 -11237 0
11238 11236 11237 0
-11239 133 0
-11239 11238 0
11239 -133 -11238 0
-11240 -133 0
-11240 -11238 0
11240 133 11238 0
-11241 -11239 0
-11241 -11240 0
11241 11239 11240 0
-11242 11217 0
-11242 -11241 0
11242 -11217 11241 0
-11243 37 0
-11243 38 0
11243 -37 -38 0
-11244 -37 0
-11244 -38 0
11244 37 38 0
-11245 -11243 0
-11245 -11244 0
11245 11243 11244 0
-11246 81 0
-11246 96 0
11246 -81 -96 0
-11247 -81 0
-11247 -96 0
11247 81 96 0
-11248 -11246 0
-11248 -11247 0
11248 11246 11247 0
-11255 111 0
-11255 11248 0
11255 -111 -11248 0
-11256 -111 0
-11256 -11248 0
11256 111 11248 0
-11257 -11255 0
-11257 -11256 0
11257 11255 11256 0
-11261 11245 0
-11261 11257 0
11261 -11245 -11257 0
-11262 -11245 0
-11262 -11257 0
11262 11245 11257 0
-11263 -11261 0
-11263 -11262 0
11263 11261 11262 0
-11264 132 0
-11264 11263 0
11264 -132 -11263 0
-11265 -132 0
-11265 -11263 0
11265 132 11263 0
-11266 -11264 0
-11266 -11265 0
11266 11264 11265 0
-11267 11242 0
-11267 -11266 0
11267 -11242 11266 0
-11268 36 0
-11268 37 0
11268 -36 -37 0
-11269 -36 0
-11269 -37 0
11269 36 37 0
-11270 -11268 0
-11270 -11269 0
11270 11268 11269 0
-11271 80 0
-11271 95 0
11271 -80 -95 0
-11272 -80 0
-11272 -95 0
11272 80 95 0
-11273 -11271 0
-11273 -11272 0
11273 11271 11272 0
-11280 110 0
-11280 11273 0
11280 -110 -11273 0
-11281 -110 0
-11281 -11273 0
11281 110 11273 0
-11282 -11280 0
-11282 -11281 0
11282 11280 11281 0
-11286 11270 0
-11286 11282 0
11286 -11270 -11282 0
-11287 -11270 0
-11287 -11282 0
11287 11270 11282 0
-11288 -11286 0
-11288 -11287 0
11288 11286 11287 0
-11289 131 0
-11289 11288 0
11289 -131 -11288 0
-11290 -131 0
-11290 -11288 0
11290 131 11288 0
-11291 -11289 0
-11291 -11290 0
11291 11289 11290 0
-11292 11267 0
-11292 -11291 0
11292 -11267 11291 0
-11293 35 0
-11293 36 0
11293 -35 -36 0
-11294 -35 0
-11294 -36 0
11294 35 36 0
-11295 -11293 0
-11295 -11294 0
11295 11293 11294 0
-11296 79 0
-11296 94 0
11296 -79 -94 0
-11297 -79 0
-11297 -94 0
11297 79 94 0
-11298 -11296 0
-11298 -11297 0
11298 11296 11297 0
-11305 109 0
-11305 11298 0
11305 -109 -11298 0
-11306 -109 0
-11306 -11298 0
11306 109 11298 0
-11307 -11305 0
-11307 -11306 0
11307 11305 11306 0
-11311 11295 0
-11311 11307 0
11311 -11295 -11307 0
-11312 -11295 0
-11312 -11307 0
11312 11295 11307 0
-11313 -11311 0
-11313 -11312 0
11313 11311 11312 0
-11314 130 0
-11314 11313 0
11314 -130 -11313 0
-11315 -130 0
-11315 -11313 0
11315 130 11313 0
-11316 -11314 0
-11316 -11315 0
11316 11314 11315 0
-11317 11292 0
-11317 -11316 0
11317 -11292 11316 0
-11318 34 0
-11318 35 0
11318 -34 -35 0
-11319 -34 0
-11319 -35 0
11319 34 35 0
-11320 -11318 0
-11320 -11319 0
11320 11318 11319 0
-11321 78 0
-11321 93 0
11321 -78 -93 0
-11322 -78 0
-11322 -93 0
11322 78 93 0
-11323 -11321 0
-11323 -11322 0
11323 11321 11322 0
-11333 108 0
-11333 129 0
11333 -108 -129 0
-11334 -108 0
-11334 -129 0
11334 108 129 0
-11335 -11333 0
-11335 -11334 0
11335 11333 11334 0
-11336 11323 0
-11336 11335 0
11336 -11323 -11335 0
-11337 -11323 0
-11337 -11335 0
11337 11323 11335 0
-11338 -11336 0
-11338 -11337 0
11338 11336 11337 0
-11339 11320 0
-11339 11338 0
11339 -11320 -11338 0
-11340 -11320 0
-11340 -11338 0
11340 11320 11338 0
-11341 -11339 0
-11341 -11340 0
11341 11339 11340 0
-11342 11317 0
-11342 -11341 0
11342 -11317 11341 0
-11343 33 0
-11343 34 0
11343 -33 -34 0
-11344 -33 0
-11344 -34 0
11344 33 34 0
-11345 -11343 0
-11345 -11344 0
11345 11343 11344 0
-11346 77 0
-11346 92 0
11346 -77 -92 0
-11347 -77 0
-11347 -92 0
11347 77 92 0
-11348 -11346 0
-11348 -11347 0
11348 11346 11347 0
-11358 107 0
-11358 128 0
11358 -107 -128 0
-11359 -107 0
-11359 -128 0
11359 107 128 0
-11360 -11358 0
-11360 -11359 0
11360 11358 11359 0
-11361 11348 0
-11361 11360 0
11361 -11348 -11360 0
-11362 -11348 0
-11362 -11360 0
11362 11348 11360 0
-11363 -11361 0
-11363 -11362 0
11363 11361 11362 0
-11364 11345 0
-11364 11363 0
11364 -11345 -11363 0
-11365 -11345 0
-11365 -11363 0
11365 11345 11363 0
-11366 -11364 0
-11366 -11365 0
11366 11364 11365 0
-11367 11342 0
-11367 -11366 0
11367 -11342 11366 0
-11368 17 0
-11368 18 0
11368 -17 -18 0
-11369 -17 0
-11369 -18 0
11369 17 18 0
-11370 -11368 0
-11370 -11369 0
11370 11368 11369 0
-11371 106 0
-11371 112 0
11371 -106 -112 0
-11372 -106 0
-11372 -112 0
11372 106 112 0
-11373 -11371 0
-11373 -11372 0
11373 11371 11372 0
-11377 76 0
-11377 11373 0
11377 -76 -11373 0
-11378 -76 0
-11378 -11373 0
11378 76 11373 0
-11379 -11377 0
-11379 -11378 0
11379 11377 11378 0
-11380 11370 0
-11380 11379 0
11380 -11370 -11379 0
-11381 -11370 0
-11381 -11379 0
11381 11370 11379 0
-11382 -11380 0
-11382 -11381 0
11382 11380 11381 0
-11383 181 0
-11383 11382 0
11383 -181 -11382 0
-11384 -181 0
-11384 -11382 0
11384 181 11382 0
-11385 -11383 0
-11385 -11384 0
11385 11383 11384 0
-11386 11367 0
-11386 -11385 0
11386 -11367 11385 0
-11390 17 0
-11390 31 0
11390 -17 -31 0
-11391 -17 0
-11391 -31 0
11391 17 31 0
-11392 -11390 0
-11392 -11391 0
11392 11390 11391 0
-11387 105 0
-11387 111 0
11387 -105 -111 0
-11388 -105 0
-11388 -111 0
11388 105 111 0
-11389 -11387 0
-11389 -11388 0
11389 11387 11388 0
-11396 75 0
-11396 11389 0
11396 -75 -11389 0
-11397 -75 0
-11397 -11389 0
11397 75 11389 0
-11398 -11396 0
-11398 -11397 0
11398 11396 11397 0
-11399 11392 0
-11399 11398 0
11399 -11392 -11398 0
-11400 -11392 0
-11400 -11398 0
11400 11392 11398 0
-11401 -11399 0
-11401 -11400 0
11401 11399 11400 0
-11402 180 0
-11402 11401 0
11402 -180 -11401 0
-11403 -180 0
-11403 -11401 0
11403 180 11401 0
-11404 -11402 0
-11404 -11403 0
11404 11402 11403 0
-11405 11386 0
-11405 -11404 0
11405 -11386 11404 0
-11406 30 0
-11406 31 0
11406 -30 -31 0
-11407 -30 0
-11407 -31 0
11407 30 31 0
-11408 -11406 0
-11408 -11407 0
11408 11406 11407 0
-11409 104 0
-11409 110 0
11409 -104 -110 0
-11410 -104 0
-11410 -110 0
11410 104 110 0
-11411 -11409 0
-11411 -11410 0
11411 11409 11410 0
-11415 74 0
-11415 11411 0
11415 -74 -11411 0
-11416 -74 0
-11416 -11411 0
11416 74 11411 0
-11417 -11415 0
-11417 -11416 0
11417 11415 11416 0
-11418 11408 0
-11418 11417 0
11418 -11408 -11417 0
-11419 -11408 0
-11419 -11417 0
11419 11408 11417 0
-11420 -11418 0
-11420 -11419 0
11420 11418 11419 0
-11421 179 0
-11421 11420 0
11421 -179 -11420 0
-11422 -179 0
-11422 -11420 0
11422 179 11420 0
-11423 -11421 0
-11423 -11422 0
11423 11421 11422 0
-11424 11405 0
-11424 -11423 0
11424 -11405 11423 0
-11425 29 0
-11425 30 0
11425 -29 -30 0
-11426 -29 0
-11426 -30 0
11426 29 30 0
-11427 -11425 0
-11427 -11426 0
11427 11425 11426 0
-11428 103 0
-11428 109 0
11428 -103 -109 0
-11429 -103 0
-11429 -109 0
11429 103 109 0
-11430 -11428 0
-11430 -11429 0
11430 11428 11429 0
-11434 73 0
-11434 11430 0
11434 -73 -11430 0
-11435 -73 0
-11435 -11430 0
11435 73 11430 0
-11436 -11434 0
-11436 -11435 0
11436 11434 11435 0
-11437 11427 0
-11437 11436 0
11437 -11427 -11436 0
-11438 -11427 0
-11438 -11436 0
11438 11427 11436 0
-11439 -11437 0
-11439 -11438 0
11439 11437 11438 0
-11440 178 0
-11440 11439 0
11440 -178 -11439 0
-11441 -178 0
-11441 -11439 0
11441 178 11439 0
-11442 -11440 0
-11442 -11441 0
11442 11440 11441 0
-11443 11424 0
-11443 -11442 0
11443 -11424 11442 0
-11444 28 0
-11444 29 0
11444 -28 -29 0
-11445 -28 0
-11445 -29 0
11445 28 29 0
-11446 -11444 0
-11446 -11445 0
11446 11444 11445 0
-11447 102 0
-11447 108 0
11447 -102 -108 0
-11448 -102 0
-11448 -108 0
11448 102 108 0
-11449 -11447 0
-11449 -11448 0
11449 11447 11448 0
-11453 72 0
-11453 11449 0
11453 -72 -11449 0
-11454 -72 0
-11454 -11449 0
11454 72 11449 0
-11455 -11453 0
-11455 -11454 0
11455 11453 11454 0
-11456 11446 0
-11456 11455 0
11456 -11446 -11455 0
-11457 -11446 0
-11457 -11455 0
11457 11446 11455 0
-11458 -11456 0
-11458 -11457 0
11458 11456 11457 0
-11459 177 0
-11459 11458 0
11459 -177 -11458 0
-11460 -177 0
-11460 -11458 0
11460 177 11458 0
-11461 -11459 0
-11461 -11460 0
11461 11459 11460 0
-11462 11443 0
-11462 -11461 0
11462 -11443 11461 0
-11463 27 0
-11463 28 0
11463 -27 -28 0
-11464 -27 0
-11464 -28 0
11464 27 28 0
-11465 -11463 0
-11465 -11464 0
11465 11463 11464 0
-11466 101 0
-11466 107 0
11466 -101 -107 0
-11467 -101 0
-11467 -107 0
11467 101 107 0
-11468 -11466 0
-11468 -11467 0
11468 11466 11467 0
-11472 71 0
-11472 11468 0
11472 -71 -11468 0
-11473 -71 0
-11473 -11468 0
11473 71 11468 0
-11474 -11472 0
-11474 -11473 0
11474 11472 11473 0
-11475 11465 0
-11475 11474 0
11475 -11465 -11474 0
-11476 -11465 0
-11476 -11474 0
11476 11465 11474 0
-11477 -11475 0
-11477 -11476 0
11477 11475 11476 0
-11478 176 0
-11478 11477 0
11478 -176 -11477 0
-11479 -176 0
-11479 -11477 0
11479 176 11477 0
-11480 -11478 0
-11480 -11479 0
11480 11478 11479 0
-11481 11462 0
-11481 -11480 0
11481 -11462 11480 0
-11482 26 0
-11482 27 0
11482 -26 -27 0
-11483 -26 0
-11483 -27 0
11483 26 27 0
-11484 -11482 0
-11484 -11483 0
11484 11482 11483 0
-11488 100 0
-11488 121 0
11488 -100 -121 0
-11489 -100 0
-11489 -121 0
11489 100 121 0
-11490 -11488 0
-11490 -11489 0
11490 11488 11489 0
-11491 70 0
-11491 11490 0
11491 -70 -11490 0
-11492 -70 0
-11492 -11490 0
11492 70 11490 0
-11493 -11491 0
-11493 -11492 0
11493 11491 11492 0
-11494 11484 0
-11494 11493 0
11494 -11484 -11493 0
-11495 -11484 0
-11495 -11493 0
11495 11484 11493 0
-11496 -11494 0
-11496 -11495 0
11496 11494 11495 0
-11497 175 0
-11497 11496 0
11497 -175 -11496 0
-11498 -175 0
-11498 -11496 0
11498 175 11496 0
-11499 -11497 0
-11499 -11498 0
11499 11497 11498 0
-11500 11481 0
-11500 -11499 0
11500 -11481 11499 0
-11501 25 0
-11501 26 0
11501 -25 -26 0
-11502 -25 0
-11502 -26 0
11502 25 26 0
-11503 -11501 0
-11503 -11502 0
11503 11501 11502 0
-11507 99 0
-11507 120 0
11507 -99 -120 0
-11508 -99 0
-11508 -120 0
11508 99 120 0
-11509 -11507 0
-11509 -11508 0
11509 11507 11508 0
-11510 69 0
-11510 11509 0
11510 -69 -11509 0
-11511 -69 0
-11511 -11509 0
11511 69 11509 0
-11512 -11510 0
-11512 -11511 0
11512 11510 11511 0
-11513 11503 0
-11513 11512 0
11513 -11503 -11512 0
-11514 -11503 0
-11514 -11512 0
11514 11503 11512 0
-11515 -11513 0
-11515 -11514 0
11515 11513 11514 0
-11516 174 0
-11516 11515 0
11516 -174 -11515 0
-11517 -174 0
-11517 -11515 0
11517 174 11515 0
-11518 -11516 0
-11518 -11517 0
11518 11516 11517 0
-11519 11500 0
-11519 -11518 0
11519 -11500 11518 0
-11520 24 0
-11520 25 0
11520 -24 -25 0
-11521 -24 0
-11521 -25 0
11521 24 25 0
-11522 -11520 0
-11522 -11521 0
11522 11520 11521 0
-11526 98 0
-11526 119 0
11526 -98 -119 0
-11527 -98 0
-11527 -119 0
11527 98 119 0
-11528 -11526 0
-11528 -11527 0
11528 11526 11527 0
-11529 68 0
-11529 11528 0
11529 -68 -11528 0
-11530 -68 0
-11530 -11528 0
11530 68 11528 0
-11531 -11529 0
-11531 -11530 0
11531 11529 11530 0
-11532 11522 0
-11532 11531 0
11532 -11522 -11531 0
-11533 -11522 0
-11533 -11531 0
11533 11522 11531 0
-11534 -11532 0
-11534 -11533 0
11534 11532 11533 0
-11535 173 0
-11535 11534 0
11535 -173 -11534 0
-11536 -173 0
-11536 -11534 0
11536 173 11534 0
-11537 -11535 0
-11537 -11536 0
11537 11535 11536 0
-11538 11519 0
-11538 -11537 0
11538 -11519 11537 0
-11539 23 0
-11539 24 0
11539 -23 -24 0
-11540 -23 0
-11540 -24 0
11540 23 24 0
-11541 -11539 0
-11541 -11540 0
11541 11539 11540 0
-11542 67 0
-11542 97 0
11542 -67 -97 0
-11543 -67 0
-11543 -97 0
11543 67 97 0
-11544 -11542 0
-11544 -11543 0
11544 11542 11543 0
-11548 118 0
-11548 11544 0
11548 -118 -11544 0
-11549 -118 0
-11549 -11544 0
11549 118 11544 0
-11550 -11548 0
-11550 -11549 0
11550 11548 11549 0
-11551 11541 0
-11551 11550 0
11551 -11541 -11550 0
-11552 -11541 0
-11552 -11550 0
11552 11541 11550 0
-11553 -11551 0
-11553 -11552 0
11553 11551 11552 0
-11554 172 0
-11554 11553 0
11554 -172 -11553 0
-11555 -172 0
-11555 -11553 0
11555 172 11553 0
-11556 -11554 0
-11556 -11555 0
11556 11554 11555 0
-11557 11538 0
-11557 -11556 0
11557 -11538 11556 0
-11558 22 0
-11558 23 0
11558 -22 -23 0
-11559 -22 0
-11559 -23 0
11559 22 23 0
-11560 -11558 0
-11560 -11559 0
11560 11558 11559 0
-11561 66 0
-11561 96 0
11561 -66 -96 0
-11562 -66 0
-11562 -96 0
11562 66 96 0
-11563 -11561 0
-11563 -11562 0
11563 11561 11562 0
-11567 117 0
-11567 11563 0
11567 -117 -11563 0
-11568 -117 0
-11568 -11563 0
11568 117 11563 0
-11569 -11567 0
-11569 -11568 0
11569 11567 11568 0
-11570 11560 0
-11570 11569 0
11570 -11560 -11569 0
-11571 -11560 0
-11571 -11569 0
11571 11560 11569 0
-11572 -11570 0
-11572 -11571 0
11572 11570 11571 0
-11573 171 0
-11573 11572 0
11573 -171 -11572 0
-11574 -171 0
-11574 -11572 0
11574 171 11572 0
-11575 -11573 0
-11575 -11574 0
11575 11573 11574 0
-11576 11557 0
-11576 -11575 0
11576 -11557 11575 0
-11577 21 0
-11577 22 0
11577 -21 -22 0
-11578 -21 0
-11578 -22 0
11578 21 22 0
-11579 -11577 0
-11579 -11578 0
11579 11577 11578 0
-11580 65 0
-11580 11579 0
11580 -65 -11579 0
-11581 -65 0
-11581 -11579 0
11581 65 11579 0
-11582 -11580 0
-11582 -11581 0
11582 11580 11581 0
-11586 95 0
-11586 116 0
11586 -95 -116 0
-11587 -95 0
-11587 -116 0
11587 95 116 0
-11588 -11586 0
-11588 -11587 0
11588 11586 11587 0
-11589 11582 0
-11589 11588 0
11589 -11582 -11588 0
-11590 -11582 0
-11590 -11588 0
11590 11582 11588 0
-11591 -11589 0
-11591 -11590 0
11591 11589 11590 0
-11592 170 0
-11592 11591 0
11592 -170 -11591 0
-11593 -170 0
-11593 -11591 0
11593 170 11591 0
-11594 -11592 0
-11594 -11593 0
11594 11592 11593 0
-11595 11576 0
-11595 -11594 0
11595 -11576 11594 0
-11596 20 0
-11596 21 0
11596 -20 -21 0
-11597 -20 0
-11597 -21 0
11597 20 21 0
-11598 -11596 0
-11598 -11597 0
11598 11596 11597 0
-11599 64 0
-11599 11598 0
11599 -64 -11598 0
-11600 -64 0
-11600 -11598 0
11600 64 11598 0
-11601 -11599 0
-11601 -11600 0
11601 11599 11600 0
-11605 94 0
-11605 115 0
11605 -94 -115 0
-11606 -94 0
-11606 -115 0
11606 94 115 0
-11607 -11605 0
-11607 -11606 0
11607 11605 11606 0
-11608 11601 0
-11608 11607 0
11608 -11601 -11607 0
-11609 -11601 0
-11609 -11607 0
11609 11601 11607 0
-11610 -11608 0
-11610 -11609 0
11610 11608 11609 0
-11611 169 0
-11611 11610 0
11611 -169 -11610 0
-11612 -169 0
-11612 -11610 0
11612 169 11610 0
-11613 -11611 0
-11613 -11612 0
11613 11611 11612 0
-11614 11595 0
-11614 -11613 0
11614 -11595 11613 0
-11615 19 0
-11615 20 0
11615 -19 -20 0
-11616 -19 0
-11616 -20 0
11616 19 20 0
-11617 -11615 0
-11617 -11616 0
11617 11615 11616 0
-11618 63 0
-11618 11617 0
11618 -63 -11617 0
-11619 -63 0
-11619 -11617 0
11619 63 11617 0
-11620 -11618 0
-11620 -11619 0
11620 11618 11619 0
-11624 93 0
-11624 114 0
11624 -93 -114 0
-11625 -93 0
-11625 -114 0
11625 93 114 0
-11626 -11624 0
-11626 -11625 0
11626 11624 11625 0
-11627 11620 0
-11627 11626 0
11627 -11620 -11626 0
-11628 -11620 0
-11628 -11626 0
11628 11620 11626 0
-11629 -11627 0
-11629 -11628 0
11629 11627 11628 0
-11630 168 0
-11630 11629 0
11630 -168 -11629 0
-11631 -168 0
-11631 -11629 0
11631 168 11629 0
-11632 -11630 0
-11632 -11631 0
11632 11630 11631 0
-11633 11614 0
-11633 -11632 0
11633 -11614 11632 0
-11634 18 0
-11634 19 0
11634 -18 -19 0
-11635 -18 0
-11635 -19 0
11635 18 19 0
-11636 -11634 0
-11636 -11635 0
11636 11634 11635 0
-11637 62 0
-11637 11636 0
11637 -62 -11636 0
-11638 -62 0
-11638 -11636 0
11638 62 11636 0
-11639 -11637 0
-11639 -11638 0
11639 11637 11638 0
-11643 92 0
-11643 113 0
11643 -92 -113 0
-11644 -92 0
-11644 -113 0
11644 92 113 0
-11645 -11643 0
-11645 -11644 0
11645 11643 11644 0
-11646 11639 0
-11646 11645 0
11646 -11639 -11645 0
-11647 -11639 0
-11647 -11645 0
11647 11639 11645 0
-11648 -11646 0
-11648 -11647 0
11648 11646 11647 0
-11649 167 0
-11649 11648 0
11649 -167 -11648 0
-11650 -167 0
-11650 -11648 0
11650 167 11648 0
-11651 -11649 0
-11651 -11650 0
11651 11649 11650 0
-11652 11633 0
-11652 -11651 0
11652 -11633 11651 0
-11656 166 0
-11656 181 0
11656 -166 -181 0
-11657 -166 0
-11657 -181 0
11657 166 181 0
-11658 -11656 0
-11658 -11657 0
11658 11656 11657 0
-11653 2 0
-11653 3 0
11653 -2 -3 0
-11654 -2 0
-11654 -3 0
11654 2 3 0
-11655 -11653 0
-11655 -11654 0
11655 11653 11654 0
-11659 61 0
-11659 11655 0
11659 -61 -11655 0
-11660 -61 0
-11660 -11655 0
11660 61 11655 0
-11661 -11659 0
-11661 -11660 0
11661 11659 11660 0
-11662 97 0
-11662 11661 0
11662 -97 -11661 0
-11663 -97 0
-11663 -11661 0
11663 97 11661 0
-11664 -11662 0
-11664 -11663 0
11664 11662 11663 0
-11665 11658 0
-11665 11664 0
11665 -11658 -11664 0
-11666 -11658 0
-11666 -11664 0
11666 11658 11664 0
-11667 -11665 0
-11667 -11666 0
11667 11665 11666 0
-11668 11652 0
-11668 -11667 0
11668 -11652 11667 0
-11672 165 0
-11672 180 0
11672 -165 -180 0
-11673 -165 0
-11673 -180 0
11673 165 180 0
-11674 -11672 0
-11674 -11673 0
11674 11672 11673 0
-11669 2 0
-11669 16 0
11669 -2 -16 0
-11670 -2 0
-11670 -16 0
11670 2 16 0
-11671 -11669 0
-11671 -11670 0
11671 11669 11670 0
-11675 60 0
-11675 11671 0
11675 -60 -11671 0
-11676 -60 0
-11676 -11671 0
11676 60 11671 0
-11677 -11675 0
-11677 -11676 0
11677 11675 11676 0
-11678 96 0
-11678 11677 0
11678 -96 -11677 0
-11679 -96 0
-11679 -11677 0
11679 96 11677 0
-11680 -11678 0
-11680 -11679 0
11680 11678 11679 0
-11681 11674 0
-11681 11680 0
11681 -11674 -11680 0
-11682 -11674 0
-11682 -11680 0
11682 11674 11680 0
-11683 -11681 0
-11683 -11682 0
11683 11681 11682 0
-11684 11668 0
-11684 -11683 0
11684 -11668 11683 0
-11688 164 0
-11688 179 0
11688 -164 -179 0
-11689 -164 0
-11689 -179 0
11689 164 179 0
-11690 -11688 0
-11690 -11689 0
11690 11688 11689 0
-11685 15 0
-11685 16 0
11685 -15 -16 0
-11686 -15 0
-11686 -16 0
11686 15 16 0
-11687 -11685 0
-11687 -11686 0
11687 11685 11686 0
-11691 59 0
-11691 11687 0
11691 -59 -11687 0
-11692 -59 0
-11692 -11687 0
11692 59 11687 0
-11693 -11691 0
-11693 -11692 0
11693 11691 11692 0
-11694 95 0
-11694 11693 0
11694 -95 -11693 0
-11695 -95 0
-11695 -11693 0
11695 95 11693 0
-11696 -11694 0
-11696 -11695 0
11696 11694 11695 0
-11697 11690 0
-11697 11696 0
11697 -11690 -11696 0
-11698 -11690 0
-11698 -11696 0
11698 11690 11696 0
-11699 -11697 0
-11699 -11698 0
11699 11697 11698 0
-11700 11684 0
-11700 -11699 0
11700 -11684 11699 0
-11704 163 0
-11704 178 0
11704 -163 -178 0
-11705 -163 0
-11705 -178 0
11705 163 178 0
-11706 -11704 0
-11706 -11705 0
11706 11704 11705 0
-11701 14 0
-11701 15 0
11701 -14 -15 0
-11702 -14 0
-11702 -15 0
11702 14 15 0
-11703 -11701 0
-11703 -11702 0
11703 11701 11702 0
-11707 58 0
-11707 11703 0
11707 -58 -11703 0
-11708 -58 0
-11708 -11703 0
11708 58 11703 0
-11709 -11707 0
-11709 -11708 0
11709 11707 11708 0
-11710 94 0
-11710 11709 0
11710 -94 -11709 0
-11711 -94 0
-11711 -11709 0
11711 94 11709 0
-11712 -11710 0
-11712 -11711 0
11712 11710 11711 0
-11713 11706 0
-11713 11712 0
11713 -11706 -11712 0
-11714 -11706 0
-11714 -11712 0
11714 11706 11712 0
-11715 -11713 0
-11715 -11714 0
11715 11713 11714 0
-11716 11700 0
-11716 -11715 0
11716 -11700 11715 0
-11720 162 0
-11720 177 0
11720 -162 -177 0
-11721 -162 0
-11721 -177 0
11721 162 177 0
-11722 -11720 0
-11722 -11721 0
11722 11720 11721 0
-11717 13 0
-11717 14 0
11717 -13 -14 0
-11718 -13 0
-11718 -14 0
11718 13 14 0
-11719 -11717 0
-11719 -11718 0
11719 11717 11718 0
-11723 57 0
-11723 11719 0
11723 -57 -11719 0
-11724 -57 0
-11724 -11719 0
11724 57 11719 0
-11725 -11723 0
-11725 -11724 0
11725 11723 11724 0
-11726 93 0
-11726 11725 0
11726 -93 -11725 0
-11727 -93 0
-11727 -11725 0
11727 93 11725 0
-11728 -11726 0
-11728 -11727 0
11728 11726 11727 0
-11729 11722 0
-11729 11728 0
11729 -11722 -11728 0
-11730 -11722 0
-11730 -11728 0
11730 11722 11728 0
-11731 -11729 0
-11731 -11730 0
11731 11729 11730 0
-11732 11716 0
-11732 -11731 0
11732 -11716 11731 0
-11736 161 0
-11736 176 0
11736 -161 -176 0
-11737 -161 0
-11737 -176 0
11737 161 176 0
-11738 -11736 0
-11738 -11737 0
11738 11736 11737 0
-11733 12 0
-11733 13 0
11733 -12 -13 0
-11734 -12 0
-11734 -13 0
11734 12 13 0
-11735 -11733 0
-11735 -11734 0
11735 11733 11734 0
-11739 56 0
-11739 11735 0
11739 -56 -11735 0
-11740 -56 0
-11740 -11735 0
11740 56 11735 0
-11741 -11739 0
-11741 -11740 0
11741 11739 11740 0
-11742 92 0
-11742 11741 0
11742 -92 -11741 0
-11743 -92 0
-11743 -11741 0
11743 92 11741 0
-11744 -11742 0
-11744 -11743 0
11744 11742 11743 0
-11745 11738 0
-11745 11744 0
11745 -11738 -11744 0
-11746 -11738 0
-11746 -11744 0
11746 11738 11744 0
-11747 -11745 0
-11747 -11746 0
11747 11745 11746 0
-11748 11732 0
-11748 -11747 0
11748 -11732 11747 0
-11752 160 0
-11752 175 0
11752 -160 -175 0
-11753 -160 0
-11753 -175 0
11753 160 175 0
-11754 -11752 0
-11754 -11753 0
11754 11752 11753 0
-11749 11 0
-11749 12 0
11749 -11 -12 0
-11750 -11 0
-11750 -12 0
11750 11 12 0
-11751 -11749 0
-11751 -11750 0
11751 11749 11750 0
-11755 55 0
-11755 11751 0
11755 -55 -11751 0
-11756 -55 0
-11756 -11751 0
11756 55 11751 0
-11757 -11755 0
-11757 -11756 0
11757 11755 11756 0
-11758 106 0
-11758 11757 0
11758 -106 -11757 0
-11759 -106 0
-11759 -11757 0
11759 106 11757 0
-11760 -11758 0
-11760 -11759 0
11760 11758 11759 0
-11761 11754 0
-11761 11760 0
11761 -11754 -11760 0
-11762 -11754 0
-11762 -11760 0
11762 11754 11760 0
-11763 -11761 0
-11763 -11762 0
11763 11761 11762 0
-11764 11748 0
-11764 -11763 0
11764 -11748 11763 0
-11768 159 0
-11768 174 0
11768 -159 -174 0
-11769 -159 0
-11769 -174 0
11769 159 174 0
-11770 -11768 0
-11770 -11769 0
11770 11768 11769 0
-11765 10 0
-11765 11 0
11765 -10 -11 0
-11766 -10 0
-11766 -11 0
11766 10 11 0
-11767 -11765 0
-11767 -11766 0
11767 11765 11766 0
-11771 54 0
-11771 11767 0
11771 -54 -11767 0
-11772 -54 0
-11772 -11767 0
11772 54 11767 0
-11773 -11771 0
-11773 -11772 0
11773 11771 11772 0
-11774 105 0
-11774 11773 0
11774 -105 -11773 0
-11775 -105 0
-11775 -11773 0
11775 105 11773 0
-11776 -11774 0
-11776 -11775 0
11776 11774 11775 0
-11777 11770 0
-11777 11776 0
11777 -11770 -11776 0
-11778 -11770 0
-11778 -11776 0
11778 11770 11776 0
-11779 -11777 0
-11779 -11778 0
11779 11777 11778 0
-11780 11764 0
-11780 -11779 0
11780 -11764 11779 0
-11784 158 0
-11784 173 0
11784 -158 -173 0
-11785 -158 0
-11785 -173 0
11785 158 173 0
-11786 -11784 0
-11786 -11785 0
11786 11784 11785 0
-11781 9 0
-11781 10 0
11781 -9 -10 0
-11782 -9 0
-11782 -10 0
11782 9 10 0
-11783 -11781 0
-11783 -11782 0
11783 11781 11782 0
-11787 53 0
-11787 11783 0
11787 -53 -11783 0
-11788 -53 0
-11788 -11783 0
11788 53 11783 0
-11789 -11787 0
-11789 -11788 0
11789 11787 11788 0
-11790 104 0
-11790 11789 0
11790 -104 -11789 0
-11791 -104 0
-11791 -11789 0
11791 104 11789 0
-11792 -11790 0
-11792 -11791 0
11792 11790 11791 0
-11793 11786 0
-11793 11792 0
11793 -11786 -11792 0
-11794 -11786 0
-11794 -11792 0
11794 11786 11792 0
-11795 -11793 0
-11795 -11794 0
11795 11793 11794 0
-11796 11780 0
-11796 -11795 0
11796 -11780 11795 0
-11800 157 0
-11800 172 0
11800 -157 -172 0
-11801 -157 0
-11801 -172 0
11801 157 172 0
-11802 -11800 0
-11802 -11801 0
11802 11800 11801 0
-11797 8 0
-11797 9 0
11797 -8 -9 0
-11798 -8 0
-11798 -9 0
11798 8 9 0
-11799 -11797 0
-11799 -11798 0
11799 11797 11798 0
-11803 52 0
-11803 11799 0
11803 -52 -11799 0
-11804 -52 0
-11804 -11799 0
11804 52 11799 0
-11805 -11803 0
-11805 -11804 0
11805 11803 11804 0
-11806 103 0
-11806 11805 0
11806 -103 -11805 0
-11807 -103 0
-11807 -11805 0
11807 103 11805 0
-11808 -11806 0
-11808 -11807 0
11808 11806 11807 0
-11809 11802 0
-11809 11808 0
11809 -11802 -11808 0
-11810 -11802 0
-11810 -11808 0
11810 11802 11808 0
-11811 -11809 0
-11811 -11810 0
11811 11809 11810 0
-11812 11796 0
-11812 -11811 0
11812 -11796 11811 0
-11816 156 0
-11816 171 0
11816 -156 -171 0
-11817 -156 0
-11817 -171 0
11817 156 171 0
-11818 -11816 0
-11818 -11817 0
11818 11816 11817 0
-11813 7 0
-11813 8 0
11813 -7 -8 0
-11814 -7 0
-11814 -8 0
11814 7 8 0
-11815 -11813 0
-11815 -11814 0
11815 11813 11814 0
-11819 51 0
-11819 11815 0
11819 -51 -11815 0
-11820 -51 0
-11820 -11815 0
11820 51 11815 0
-11821 -11819 0
-11821 -11820 0
11821 11819 11820 0
-11822 102 0
-11822 11821 0
11822 -102 -11821 0
-11823 -102 0
-11823 -11821 0
11823 102 11821 0
-11824 -11822 0
-11824 -11823 0
11824 11822 11823 0
-11825 11818 0
-11825 11824 0
11825 -11818 -11824 0
-11826 -11818 0
-11826 -11824 0
11826 11818 11824 0
-11827 -11825 0
-11827 -11826 0
11827 11825 11826 0
-11828 11812 0
-11828 -11827 0
11828 -11812 11827 0
-11832 155 0
-11832 170 0
11832 -155 -170 0
-11833 -155 0
-11833 -170 0
11833 155 170 0
-11834 -11832 0
-11834 -11833 0
11834 11832 11833 0
-11829 6 0
-11829 7 0
11829 -6 -7 0
-11830 -6 0
-11830 -7 0
11830 6 7 0
-11831 -11829 0
-11831 -11830 0
11831 11829 11830 0
-11835 50 0
-11835 11831 0
11835 -50 -11831 0
-11836 -50 0
-11836 -11831 0
11836 50 11831 0
-11837 -11835 0
-11837 -11836 0
11837 11835 11836 0
-11838 101 0
-11838 11837 0
11838 -101 -11837 0
-11839 -101 0
-11839 -11837 0
11839 101 11837 0
-11840 -11838 0
-11840 -11839 0
11840 11838 11839 0
-11841 11834 0
-11841 11840 0
11841 -11834 -11840 0
-11842 -11834 0
-11842 -11840 0
11842 11834 11840 0
-11843 -11841 0
-11843 -11842 0
11843 11841 11842 0
-11844 11828 0
-11844 -11843 0
11844 -11828 11843 0
-11848 154 0
-11848 169 0
11848 -154 -169 0
-11849 -154 0
-11849 -169 0
11849 154 169 0
-11850 -11848 0
-11850 -11849 0
11850 11848 11849 0
-11845 5 0
-11845 6 0
11845 -5 -6 0
-11846 -5 0
-11846 -6 0
11846 5 6 0
-11847 -11845 0
-11847 -11846 0
11847 11845 11846 0
-11851 49 0
-11851 11847 0
11851 -49 -11847 0
-11852 -49 0
-11852 -11847 0
11852 49 11847 0
-11853 -11851 0
-11853 -11852 0
11853 11851 11852 0
-11854 100 0
-11854 11853 0
11854 -100 -11853 0
-11855 -100 0
-11855 -11853 0
11855 100 11853 0
-11856 -11854 0
-11856 -11855 0
11856 11854 11855 0
-11857 11850 0
-11857 11856 0
11857 -11850 -11856 0
-11858 -11850 0
-11858 -11856 0
11858 11850 11856 0
-11859 -11857 0
-11859 -11858 0
11859 11857 11858 0
-11860 11844 0
-11860 -11859 0
11860 -11844 11859 0
-11864 153 0
-11864 168 0
11864 -153 -168 0
-11865 -153 0
-11865 -168 0
11865 153 168 0
-11866 -11864 0
-11866 -11865 0
11866 11864 11865 0
-11861 4 0
-11861 5 0
11861 -4 -5 0
-11862 -4 0
-11862 -5 0
11862 4 5 0
-11863 -11861 0
-11863 -11862 0
11863 11861 11862 0
-11867 48 0
-11867 11863 0
11867 -48 -11863 0
-11868 -48 0
-11868 -11863 0
11868 48 11863 0
-11869 -11867 0
-11869 -11868 0
11869 11867 11868 0
-11870 99 0
-11870 11869 0
11870 -99 -11869 0
-11871 -99 0
-11871 -11869 0
11871 99 11869 0
-11872 -11870 0
-11872 -11871 0
11872 11870 11871 0
-11873 11866 0
-11873 11872 0
11873 -11866 -11872 0
-11874 -11866 0
-11874 -11872 0
11874 11866 11872 0
-11875 -11873 0
-11875 -11874 0
11875 11873 11874 0
-11876 11860 0
-11876 -11875 0
11876 -11860 11875 0
-11880 152 0
-11880 167 0
11880 -152 -167 0
-11881 -152 0
-11881 -167 0
11881 152 167 0
-11882 -11880 0
-11882 -11881 0
11882 11880 11881 0
-11877 3 0
-11877 4 0
11877 -3 -4 0
-11878 -3 0
-11878 -4 0
11878 3 4 0
-11879 -11877 0
-11879 -11878 0
11879 11877 11878 0
-11883 47 0
-11883 11879 0
11883 -47 -11879 0
-11884 -47 0
-11884 -11879 0
11884 47 11879 0
-11885 -11883 0
-11885 -11884 0
11885 11883 11884 0
-11886 98 0
-11886 11885 0
11886 -98 -11885 0
-11887 -98 0
-11887 -11885 0
11887 98 11885 0
-11888 -11886 0
-11888 -11887 0
11888 11886 11887 0
-11889 11882 0
-11889 11888 0
11889 -11882 -11888 0
-11890 -11882 0
-11890 -11888 0
11890 11882 11888 0
-11891 -11889 0
-11891 -11890 0
11891 11889 11890 0
-11892 11876 0
-11892 -11891 0
11892 -11876 11891 0
-11893 7 0
-11893 11799 0
11893 -7 -11799 0
-11894 -7 0
-11894 -11799 0
11894 7 11799 0
-11895 -11893 0
-11895 -11894 0
11895 11893 11894 0
-11896 11879 0
-11896 11895 0
11896 -11879 -11895 0
-11897 -11879 0
-11897 -11895 0
11897 11879 11895 0
-11898 -11896 0
-11898 -11897 0
11898 11896 11897 0
-11899 13 0
-11899 11767 0
11899 -13 -11767 0
-11900 -13 0
-11900 -11767 0
11900 13 11767 0
-11901 -11899 0
-11901 -11900 0
11901 11899 11900 0
-11917 15 0
-11917 17 0
11917 -15 -17 0
-11918 -15 0
-11918 -17 0
11918 15 17 0
-11919 -11917 0
-11919 -11918 0
11919 11917 11918 0
-12004 11901 0
-12004 11919 0
12004 -11901 -11919 0
-12005 -11901 0
-12005 -11919 0
12005 11901 11919 0
-12006 -12004 0
-12006 -12005 0
12006 12004 12005 0
-12007 11898 0
-12007 12006 0
12007 -11898 -12006 0
-12008 -11898 0
-12008 -12006 0
12008 11898 12006 0
-12009 -12007 0
-12009 -12008 0
12009 12007 12008 0
-11923 11522 0
-11923 11560 0
11923 -11522 -11560 0
-11924 -11522 0
-11924 -11560 0
11924 11522 11560 0
-11925 -11923 0
-11925 -11924 0
11925 11923 11924 0
-11932 26 0
-11932 29 0
11932 -26 -29 0
-11933 -26 0
-11933 -29 0
11933 26 29 0
-11934 -11932 0
-11934 -11933 0
11934 11932 11933 0
-11938 31 0
-11938 33 0
11938 -31 -33 0
-11939 -31 0
-11939 -33 0
11939 31 33 0
-11940 -11938 0
-11940 -11939 0
11940 11938 11939 0
-12046 11934 0
-12046 11940 0
12046 -11934 -11940 0
-12047 -11934 0
-12047 -11940 0
12047 11934 11940 0
-12048 -12046 0
-12048 -12047 0
12048 12046 12047 0
-12172 11925 0
-12172 12048 0
12172 -11925 -12048 0
-12173 -11925 0
-12173 -12048 0
12173 11925 12048 0
-12174 -12172 0
-12174 -12173 0
12174 12172 12173 0
-12175 12009 0
-12175 12174 0
12175 -12009 -12174 0
-12176 -12009 0
-12176 -12174 0
12176 12009 12174 0
-12177 -12175 0
-12177 -12176 0
12177 12175 12176 0
-11950 38 0
-11950 41 0
11950 -38 -41 0
-11951 -38 0
-11951 -41 0
11951 38 41 0
-11952 -11950 0
-11952 -11951 0
11952 11950 11951 0
-12070 11270 0
-12070 11952 0
12070 -11270 -11952 0
-12071 -11270 0
-12071 -11952 0
12071 11270 11952 0
-12072 -12070 0
-12072 -12071 0
12072 12070 12071 0
-11956 43 0
-11956 45 0
11956 -43 -45 0
-11957 -43 0
-11957 -45 0
11957 43 45 0
-11958 -11956 0
-11958 -11957 0
11958 11956 11957 0
-11962 47 0
-11962 49 0
11962 -47 -49 0
-11963 -47 0
-11963 -49 0
11963 47 49 0
-11964 -11962 0
-11964 -11963 0
11964 11962 11963 0
-12091 11958 0
-12091 11964 0
12091 -11958 -11964 0
-12092 -11958 0
-12092 -11964 0
12092 11958 11964 0
-12093 -12091 0
-12093 -12092 0
12093 12091 12092 0
-12178 12072 0
-12178 12093 0
12178 -12072 -12093 0
-12179 -12072 0
-12179 -12093 0
12179 12072 12093 0
-12180 -12178 0
-12180 -12179 0
12180 12178 12179 0
-12112 56 0
-12112 10902 0
12112 -56 -10902 0
-12113 -56 0
-12113 -10902 0
12113 56 10902 0
-12114 -12112 0
-12114 -12113 0
12114 12112 12113 0
-11977 59 0
-11977 61 0
11977 -59 -61 0
-11978 -59 0
-11978 -61 0
11978 59 61 0
-11979 -11977 0
-11979 -11978 0
11979 11977 11978 0
-12124 65 0
-12124 11979 0
12124 -65 -11979 0
-12125 -65 0
-12125 -11979 0
12125 65 11979 0
-12126 -12124 0
-12126 -12125 0
12126 12124 12125 0
-12271 12114 0
-12271 12126 0
12271 -12114 -12126 0
-12272 -12114 0
-12272 -12126 0
12272 12114 12126 0
-12273 -12271 0
-12273 -12272 0
12273 12271 12272 0
-12361 12180 0
-12361 12273 0
12361 -12180 -12273 0
-12362 -12180 0
-12362 -12273 0
12362 12180 12273 0
-12363 -12361 0
-12363 -12362 0
12363 12361 12362 0
-12364 12177 0
-12364 12363 0
12364 -12177 -12363 0
-12365 -12177 0
-12365 -12363 0
12365 12177 12363 0
-12366 -12364 0
-12366 -12365 0
12366 12364 12365 0
-11986 71 0
-11986 10442 0
11986 -71 -10442 0
-11987 -71 0
-11987 -10442 0
11987 71 10442 0
-11988 -11986 0
-11988 -11987 0
11988 11986 11987 0
-12139 69 0
-12139 11988 0
12139 -69 -11988 0
-12140 -69 0
-12140 -11988 0
12140 69 11988 0
-12141 -12139 0
-12141 -12140 0
12141 12139 12140 0
-11995 10196 0
-11995 10234 0
11995 -10196 -10234 0
-11996 -10196 0
-11996 -10234 0
11996 10196 10234 0
-11997 -11995 0
-11997 -11996 0
11997 11995 11996 0
-12157 88 0
-12157 11997 0
12157 -88 -11997 0
-12158 -88 0
-12158 -11997 0
12158 88 11997 0
-12159 -12157 0
-12159 -12158 0
12159 12157 12158 0
-12352 92 0
-12352 12159 0
12352 -92 -12159 0
-12353 -92 0
-12353 -12159 0
12353 92 12159 0
-12354 -12352 0
-12354 -12353 0
12354 12352 12353 0
-12367 12141 0
-12367 12354 0
12367 -12141 -12354 0
-12368 -12141 0
-12368 -12354 0
12368 12141 12354 0
-12369 -12367 0
-12369 -12368 0
12369 12367 12368 0
-12517 107 0
-12517 12369 0
12517 -107 -12369 0
-12518 -107 0
-12518 -12369 0
12518 107 12369 0
-12519 -12517 0
-12519 -12518 0
12519 12517 12518 0
-12520 12366 0
-12520 12519 0
12520 -12366 -12519 0
-12521 -12366 0
-12521 -12519 0
12521 12366 12519 0
-12522 -12520 0
-12522 -12521 0
12522 12520 12521 0
-12523 -181 0
-12523 12522 0
12523 181 -12522 0
-12524 181 0
-12524 -12522 0
12524 -181 12522 0
-12525 -12523 0
-12525 -12524 0
12525 12523 12524 0
-12532 11799 0
-12532 11831 0
12532 -11799 -11831 0
-12533 -11799 0
-12533 -11831 0
12533 11799 11831 0
-12534 -12532 0
-12534 -12533 0
12534 12532 12533 0
-12535 11879 0
-12535 12534 0
12535 -11879 -12534 0
-12536 -11879 0
-12536 -12534 0
12536 11879 12534 0
-12537 -12535 0
-12537 -12536 0
12537 12535 12536 0
-12526 16 0
-12526 17 0
12526 -16 -17 0
-12527 -16 0
-12527 -17 0
12527 16 17 0
-12528 -12526 0
-12528 -12527 0
12528 12526 12527 0
-12538 12 0
-12538 11767 0
12538 -12 -11767 0
-12539 -12 0
-12539 -11767 0
12539 12 11767 0
-12540 -12538 0
-12540 -12539 0
12540 12538 12539 0
-12619 12528 0
-12619 12540 0
12619 -12528 -12540 0
-12620 -12528 0
-12620 -12540 0
12620 12528 12540 0
-12621 -12619 0
-12621 -12620 0
12621 12619 12620 0
-12622 12537 0
-12622 12621 0
12622 -12537 -12621 0
-12623 -12537 0
-12623 -12621 0
12623 12537 12621 0
-12624 -12622 0
-12624 -12623 0
12624 12622 12623 0
-12625 21 0
-12625 11925 0
12625 -21 -11925 0
-12626 -21 0
-12626 -11925 0
12626 21 11925 0
-12627 -12625 0
-12627 -12626 0
12627 12625 12626 0
-12553 26 0
-12553 11446 0
12553 -26 -11446 0
-12554 -26 0
-12554 -11446 0
12554 26 11446 0
-12555 -12553 0
-12555 -12554 0
12555 12553 12554 0
-12667 30 0
-12667 12555 0
12667 -30 -12555 0
-12668 -30 0
-12668 -12555 0
12668 30 12555 0
-12669 -12667 0
-12669 -12668 0
12669 12667 12668 0
-12796 12627 0
-12796 12669 0
12796 -12627 -12669 0
-12797 -12627 0
-12797 -12669 0
12797 12627 12669 0
-12798 -12796 0
-12798 -12797 0
12798 12796 12797 0
-12799 12624 0
-12799 12798 0
12799 -12624 -12798 0
-12800 -12624 0
-12800 -12798 0
12800 12624 12798 0
-12801 -12799 0
-12801 -12800 0
12801 12799 12800 0
-12562 34 0
-12562 36 0
12562 -34 -36 0
-12563 -34 0
-12563 -36 0
12563 34 36 0
-12564 -12562 0
-12564 -12563 0
12564 12562 12563 0
-12688 11952 0
-12688 12564 0
12688 -11952 -12564 0
-12689 -11952 0
-12689 -12564 0
12689 11952 12564 0
-12690 -12688 0
-12690 -12689 0
12690 12688 12689 0
-12529 46 0
-12529 47 0
12529 -46 -47 0
-12530 -46 0
-12530 -47 0
12530 46 47 0
-12531 -12529 0
-12531 -12530 0
12531 12529 12530 0
-12571 10940 0
-12571 12531 0
12571 -10940 -12531 0
-12572 -10940 0
-12572 -12531 0
12572 10940 12531 0
-12573 -12571 0
-12573 -12572 0
12573 12571 12572 0
-12709 42 0
-12709 12573 0
12709 -42 -12573 0
-12710 -42 0
-12710 -12573 0
12710 42 12573 0
-12711 -12709 0
-12711 -12710 0
12711 12709 12710 0
-12802 12690 0
-12802 12711 0
12802 -12690 -12711 0
-12803 -12690 0
-12803 -12711 0
12803 12690 12711 0
-12804 -12802 0
-12804 -12803 0
12804 12802 12803 0
-12727 50 0
-12727 56 0
12727 -50 -56 0
-12728 -50 0
-12728 -56 0
12728 50 56 0
-12729 -12727 0
-12729 -12728 0
12729 12727 12728 0
-12589 60 0
-12589 10738 0
12589 -60 -10738 0
-12590 -60 0
-12590 -10738 0
12590 60 10738 0
-12591 -12589 0
-12591 -12590 0
12591 12589 12590 0
-12745 10600 0
-12745 12591 0
12745 -10600 -12591 0
-12746 -10600 0
-12746 -12591 0
12746 10600 12591 0
-12747 -12745 0
-12747 -12746 0
12747 12745 12746 0
-12895 12729 0
-12895 12747 0
12895 -12729 -12747 0
-12896 -12729 0
-12896 -12747 0
12896 12729 12747 0
-12897 -12895 0
-12897 -12896 0
12897 12895 12896 0
-12997 12804 0
-12997 12897 0
12997 -12804 -12897 0
-12998 -12804 0
-12998 -12897 0
12998 12804 12897 0
-12999 -12997 0
-12999 -12998 0
12999 12997 12998 0
-13000 12801 0
-13000 12999 0
13000 -12801 -12999 0
-13001 -12801 0
-13001 -12999 0
13001 12801 12999 0
-13002 -13000 0
-13002 -13001 0
13002 13000 13001 0
-12604 10442 0
-12604 10483 0
12604 -10442 -10483 0
-12605 -10442 0
-12605 -10483 0
12605 10442 10483 0
-12606 -12604 0
-12606 -12605 0
12606 12604 12605 0
-12766 67 0
-12766 12606 0
12766 -67 -12606 0
-12767 -67 0
-12767 -12606 0
12767 67 12606 0
-12768 -12766 0
-12768 -12767 0
12768 12766 12767 0
-12943 81 0
-12943 12768 0
12943 -81 -12768 0
-12944 -81 0
-12944 -12768 0
12944 81 12768 0
-12945 -12943 0
-12945 -12944 0
12945 12943 12944 0
-12613 84 0
-12613 10234 0
12613 -84 -10234 0
-12614 -84 0
-12614 -10234 0
12614 84 10234 0
-12615 -12613 0
-12615 -12614 0
12615 12613 12614 0
-12784 10136 0
-12784 12615 0
12784 -10136 -12615 0
-12785 -10136 0
-12785 -12615 0
12785 10136 12615 0
-12786 -12784 0
-12786 -12785 0
12786 12784 12785 0
-12988 92 0
-12988 12786 0
12988 -92 -12786 0
-12989 -92 0
-12989 -12786 0
12989 92 12786 0
-12990 -12988 0
-12990 -12989 0
12990 12988 12989 0
-13003 12945 0
-13003 12990 0
13003 -12945 -12990 0
-13004 -12945 0
-13004 -12990 0
13004 12945 12990 0
-13005 -13003 0
-13005 -13004 0
13005 13003 13004 0
-13153 107 0
-13153 13005 0
13153 -107 -13005 0
-13154 -107 0
-13154 -13005 0
13154 107 13005 0
-13155 -13153 0
-13155 -13154 0
13155 13153 13154 0
-13156 13002 0
-13156 13155 0
13156 -13002 -13155 0
-13157 -13002 0
-13157 -13155 0
13157 13002 13155 0
-13158 -13156 0
-13158 -13157 0
13158 13156 13157 0
-13159 -180 0
-13159 13158 0
13159 180 -13158 0
-13160 180 0
-13160 -13158 0
13160 -180 13158 0
-13161 -13159 0
-13161 -13160 0
13161 13159 13160 0
-13162 3 0
-13162 11863 0
13162 -3 -11863 0
-13163 -3 0
-13163 -11863 0
13163 3 11863 0
-13164 -13162 0
-13164 -13163 0
13164 13162 13163 0
-13165 12534 0
-13165 13164 0
13165 -12534 -13164 0
-13166 -12534 0
-13166 -13164 0
13166 12534 13164 0
-13167 -13165 0
-13167 -13166 0
13167 13165 13166 0
-13174 11703 0
-13174 12528 0
13174 -11703 -12528 0
-13175 -11703 0
-13175 -12528 0
13175 11703 12528 0
-13176 -13174 0
-13176 -13175 0
13176 13174 13175 0
-13264 10 0
-13264 13176 0
13264 -10 -13176 0
-13265 -10 0
-13265 -13176 0
13265 10 13176 0
-13266 -13264 0
-13266 -13265 0
13266 13264 13265 0
-13267 13167 0
-13267 13266 0
13267 -13167 -13266 0
-13268 -13167 0
-13268 -13266 0
13268 13167 13266 0
-13269 -13267 0
-13269 -13268 0
13269 13267 13268 0
-13270 11598 0
-13270 11925 0
13270 -11598 -11925 0
-13271 -11598 0
-13271 -11925 0
13271 11598 11925 0
-13272 -13270 0
-13272 -13271 0
13272 13270 13271 0
-13195 28 0
-13195 11484 0
13195 -28 -11484 0
-13196 -28 0
-13196 -11484 0
13196 28 11484 0
-13197 -13195 0
-13197 -13196 0
13197 13195 13196 0
-13312 10959 0
-13312 13197 0
13312 -10959 -13197 0
-13313 -10959 0
-13313 -13197 0
13313 10959 13197 0
-13314 -13312 0
-13314 -13313 0
13314 13312 13313 0
-13423 13272 0
-13423 13314 0
13423 -13272 -13314 0
-13424 -13272 0
-13424 -13314 0
13424 13272 13314 0
-13425 -13423 0
-13425 -13424 0
13425 13423 13424 0
-13426 13269 0
-13426 13425 0
13426 -13269 -13425 0
-13427 -13269 0
-13427 -13425 0
13427 13269 13425 0
-13428 -13426 0
-13428 -13427 0
13428 13426 13427 0
-13330 34 0
-13330 38 0
13330 -34 -38 0
-13331 -34 0
-13331 -38 0
13331 34 38 0
-13332 -13330 0
-13332 -13331 0
13332 13330 13331 0
-13213 46 0
-13213 10940 0
13213 -46 -10940 0
-13214 -46 0
-13214 -10940 0
13214 46 10940 0
-13215 -13213 0
-13215 -13214 0
13215 13213 13214 0
-13342 11052 0
-13342 13215 0
13342 -11052 -13215 0
-13343 -11052 0
-13343 -13215 0
13343 11052 13215 0
-13344 -13342 0
-13344 -13343 0
13344 13342 13343 0
-13429 13332 0
-13429 13344 0
13429 -13332 -13344 0
-13430 -13332 0
-13430 -13344 0
13430 13332 13344 0
-13431 -13429 0
-13431 -13430 0
13431 13429 13430 0
-13222 63 0
-13222 10600 0
13222 -63 -10600 0
-13223 -63 0
-13223 -10600 0
13223 63 10600 0
-13224 -13222 0
-13224 -13223 0
13224 13222 13223 0
-13363 58 0
-13363 13224 0
13363 -58 -13224 0
-13364 -58 0
-13364 -13224 0
13364 58 13224 0
-13365 -13363 0
-13365 -13364 0
13365 13363 13364 0
-13516 10788 0
-13516 13365 0
13516 -10788 -13365 0
-13517 -10788 0
-13517 -13365 0
13517 10788 13365 0
-13518 -13516 0
-13518 -13517 0
13518 13516 13517 0
-13618 13431 0
-13618 13518 0
13618 -13431 -13518 0
-13619 -13431 0
-13619 -13518 0
13619 13431 13518 0
-13620 -13618 0
-13620 -13619 0
13620 13618 13619 0
-13621 13428 0
-13621 13620 0
13621 -13428 -13620 0
-13622 -13428 0
-13622 -13620 0
13622 13428 13620 0
-13623 -13621 0
-13623 -13622 0
13623 13621 13622 0
-13234 10521 0
-13234 10559 0
13234 -10521 -10559 0
-13235 -10521 0
-13235 -10559 0
13235 10521 10559 0
-13236 -13234 0
-13236 -13235 0
13236 13234 13235 0
-13384 12606 0
-13384 13236 0
13384 -12606 -13236 0
-13385 -12606 0
-13385 -13236 0
13385 12606 13236 0
-13386 -13384 0
-13386 -13385 0
13386 13384 13385 0
-13564 10272 0
-13564 13386 0
13564 -10272 -13386 0
-13565 -10272 0
-13565 -13386 0
13565 10272 13386 0
-13566 -13564 0
-13566 -13565 0
13566 13564 13565 0
-13261 88 0
-13261 10158 0
13261 -88 -10158 0
-13262 -88 0
-13262 -10158 0
13262 88 10158 0
-13263 -13261 0
-13263 -13262 0
13263 13261 13262 0
-13411 10234 0
-13411 13263 0
13411 -10234 -13263 0
-13412 -10234 0
-13412 -13263 0
13412 10234 13263 0
-13413 -13411 0
-13413 -13412 0
13413 13411 13412 0
-13612 92 0
-13612 13413 0
13612 -92 -13413 0
-13613 -92 0
-13613 -13413 0
13613 92 13413 0
-13614 -13612 0
-13614 -13613 0
13614 13612 13613 0
-13624 13566 0
-13624 13614 0
13624 -13566 -13614 0
-13625 -13566 0
-13625 -13614 0
13625 13566 13614 0
-13626 -13624 0
-13626 -13625 0
13626 13624 13625 0
-13777 107 0
-13777 13626 0
13777 -107 -13626 0
-13778 -107 0
-13778 -13626 0
13778 107 13626 0
-13779 -13777 0
-13779 -13778 0
13779 13777 13778 0
-13780 13623 0
-13780 13779 0
13780 -13623 -13779 0
-13781 -13623 0
-13781 -13779 0
13781 13623 13779 0
-13782 -13780 0
-13782 -13781 0
13782 13780 13781 0
-13783 -179 0
-13783 13782 0
13783 179 -13782 0
-13784 179 0
-13784 -13782 0
13784 -179 13782 0
-13785 -13783 0
-13785 -13784 0
13785 13783 13784 0
-13786 3 0
-13786 5 0
13786 -3 -5 0
-13787 -3 0
-13787 -5 0
13787 3 5 0
-13788 -13786 0
-13788 -13787 0
13788 13786 13787 0
-13792 12534 0
-13792 13788 0
13792 -12534 -13788 0
-13793 -12534 0
-13793 -13788 0
13793 12534 13788 0
-13794 -13792 0
-13794 -13793 0
13794 13792 13793 0
-11911 11 0
-11911 13 0
11911 -11 -13 0
-11912 -11 0
-11912 -13 0
11912 11 13 0
-11913 -11911 0
-11913 -11912 0
11913 11911 11912 0
-13807 15 0
-13807 12528 0
13807 -15 -12528 0
-13808 -15 0
-13808 -12528 0
13808 15 12528 0
-13809 -13807 0
-13809 -13808 0
13809 13807 13808 0
-13900 11913 0
-13900 13809 0
13900 -11913 -13809 0
-13901 -11913 0
-13901 -13809 0
13901 11913 13809 0
-13902 -13900 0
-13902 -13901 0
13902 13900 13901 0
-13903 13794 0
-13903 13902 0
13903 -13794 -13902 0
-13904 -13794 0
-13904 -13902 0
13904 13794 13902 0
-13905 -13903 0
-13905 -13904 0
13905 13903 13904 0
-13816 19 0
-13816 11598 0
13816 -19 -11598 0
-13817 -19 0
-13817 -11598 0
13817 19 11598 0
-13818 -13816 0
-13818 -13817 0
13818 13816 13817 0
-13906 11925 0
-13906 13818 0
13906 -11925 -13818 0
-13907 -11925 0
-13907 -13818 0
13907 11925 13818 0
-13908 -13906 0
-13908 -13907 0
13908 13906 13907 0
-13831 27 0
-13831 29 0
13831 -27 -29 0
-13832 -27 0
-13832 -29 0
13832 27 29 0
-13833 -13831 0
-13833 -13832 0
13833 13831 13832 0
-13951 33 0
-13951 13833 0
13951 -33 -13833 0
-13952 -33 0
-13952 -13833 0
13952 33 13833 0
-13953 -13951 0
-13953 -13952 0
13953 13951 13952 0
-14074 13908 0
-14074 13953 0
14074 -13908 -13953 0
-14075 -13908 0
-14075 -13953 0
14075 13908 13953 0
-14076 -14074 0
-14076 -14075 0
14076 14074 14075 0
-14077 13905 0
-14077 14076 0
14077 -13905 -14076 0
-14078 -13905 0
-14078 -14076 0
14078 13905 14076 0
-14079 -14077 0
-14079 -14078 0
14079 14077 14078 0
-13846 38 0
-13846 11170 0
13846 -38 -11170 0
-13847 -38 0
-13847 -11170 0
13847 38 11170 0
-13848 -13846 0
-13848 -13847 0
13848 13846 13847 0
-13972 11320 0
-13972 13848 0
13972 -11320 -13848 0
-13973 -11320 0
-13973 -13848 0
13973 11320 13848 0
-13974 -13972 0
-13974 -13973 0
13974 13972 13973 0
-13996 48 0
-13996 11958 0
13996 -48 -11958 0
-13997 -48 0
-13997 -11958 0
13997 48 11958 0
-13998 -13996 0
-13998 -13997 0
13998 13996 13997 0
-14080 13974 0
-14080 13998 0
14080 -13974 -13998 0
-14081 -13974 0
-14081 -13998 0
14081 13974 13998 0
-14082 -14080 0
-14082 -14081 0
14082 14080 14081 0
-13867 64 0
-13867 10329 0
13867 -64 -10329 0
-13868 -64 0
-13868 -10329 0
13868 64 10329 0
-13869 -13867 0
-13869 -13868 0
13869 13867 13868 0
-14011 11979 0
-14011 13869 0
14011 -11979 -13869 0
-14012 -11979 0
-14012 -13869 0
14012 11979 13869 0
-14013 -14011 0
-14013 -14012 0
14013 14011 14012 0
-14161 57 0
-14161 14013 0
14161 -57 -14013 0
-14162 -57 0
-14162 -14013 0
14162 57 14013 0
-14163 -14161 0
-14163 -14162 0
14163 14161 14162 0
-14263 14082 0
-14263 14163 0
14263 -14082 -14163 0
-14264 -14082 0
-14264 -14163 0
14264 14082 14163 0
-14265 -14263 0
-14265 -14264 0
14265 14263 14264 0
-14266 14079 0
-14266 14265 0
14266 -14079 -14265 0
-14267 -14079 0
-14267 -14265 0
14267 14079 14265 0
-14268 -14266 0
-14268 -14267 0
14268 14266 14267 0
-13882 79 0
-13882 10272 0
13882 -79 -10272 0
-13883 -79 0
-13883 -10272 0
13883 79 10272 0
-13884 -13882 0
-13884 -13883 0
13884 13882 13883 0
-13876 66 0
-13876 69 0
13876 -66 -69 0
-13877 -66 0
-13877 -69 0
13877 66 69 0
-13878 -13876 0
-13878 -13877 0
13878 13876 13877 0
-14035 12606 0
-14035 13878 0
14035 -12606 -13878 0
-14036 -12606 0
-14036 -13878 0
14036 12606 13878 0
-14037 -14035 0
-14037 -14036 0
14037 14035 14036 0
-14209 13884 0
-14209 14037 0
14209 -13884 -14037 0
-14210 -13884 0
-14210 -14037 0
14210 13884 14037 0
-14211 -14209 0
-14211 -14210 0
14211 14209 14210 0
-13891 82 0
-13891 85 0
13891 -82 -85 0
-13892 -82 0
-13892 -85 0
13892 82 85 0
-13893 -13891 0
-13893 -13892 0
13893 13891 13892 0
-14065 13263 0
-14065 13893 0
14065 -13263 -13893 0
-14066 -13263 0
-14066 -13893 0
14066 13263 13893 0
-14067 -14065 0
-14067 -14066 0
14067 14065 14066 0
-14257 92 0
-14257 14067 0
14257 -92 -14067 0
-14258 -92 0
-14258 -14067 0
14258 92 14067 0
-14259 -14257 0
-14259 -14258 0
14259 14257 14258 0
-14269 14211 0
-14269 14259 0
14269 -14211 -14259 0
-14270 -14211 0
-14270 -14259 0
14270 14211 14259 0
-14271 -14269 0
-14271 -14270 0
14271 14269 14270 0
-14419 107 0
-14419 14271 0
14419 -107 -14271 0
-14420 -107 0
-14420 -14271 0
14420 107 14271 0
-14421 -14419 0
-14421 -14420 0
14421 14419 14420 0
-14422 14268 0
-14422 14421 0
14422 -14268 -14421 0
-14423 -14268 0
-14423 -14421 0
14423 14268 14421 0
-14424 -14422 0
-14424 -14423 0
14424 14422 14423 0
-14425 -178 0
-14425 14424 0
14425 178 -14424 0
-14426 178 0
-14426 -14424 0
14426 -178 14424 0
-14427 -14425 0
-14427 -14426 0
14427 14425 14426 0
-14428 6 0
-14428 8 0
14428 -6 -8 0
-14429 -6 0
-14429 -8 0
14429 6 8 0
-14430 -14428 0
-14430 -14429 0
14430 14428 14429 0
-14431 11863 0
-14431 14430 0
14431 -11863 -14430 0
-14432 -11863 0
-14432 -14430 0
14432 11863 14430 0
-14433 -14431 0
-14433 -14432 0
14433 14431 14432 0
-14434 11 0
-14434 11735 0
14434 -11 -11735 0
-14435 -11 0
-14435 -11735 0
14435 11 11735 0
-14436 -14434 0
-14436 -14435 0
14436 14434 14435 0
-14506 11919 0
-14506 14436 0
14506 -11919 -14436 0
-14507 -11919 0
-14507 -14436 0
14507 11919 14436 0
-14508 -14506 0
-14508 -14507 0
14508 14506 14507 0
-14509 14433 0
-14509 14508 0
14509 -14433 -14508 0
-14510 -14433 0
-14510 -14508 0
14510 14433 14508 0
-14511 -14509 0
-14511 -14510 0
14511 14509 14510 0
-12049 29 0
-12049 11940 0
12049 -29 -11940 0
-12050 -29 0
-12050 -11940 0
12050 29 11940 0
-12051 -12049 0
-12051 -12050 0
12051 12049 12050 0
-14452 18 0
-14452 11598 0
14452 -18 -11598 0
-14453 -18 0
-14453 -11598 0
14453 18 11598 0
-14454 -14452 0
-14454 -14453 0
14454 14452 14453 0
-14461 23 0
-14461 11522 0
14461 -23 -11522 0
-14462 -23 0
-14462 -11522 0
14462 23 11522 0
-14463 -14461 0
-14463 -14462 0
14463 14461 14462 0
-14512 14454 0
-14512 14463 0
14512 -14454 -14463 0
-14513 -14454 0
-14513 -14463 0
14513 14454 14463 0
-14514 -14512 0
-14514 -14513 0
14514 14512 14513 0
-14656 12051 0
-14656 14514 0
14656 -12051 -14514 0
-14657 -12051 0
-14657 -14514 0
14657 12051 14514 0
-14658 -14656 0
-14658 -14657 0
14658 14656 14657 0
-14659 14511 0
-14659 14658 0
14659 -14511 -14658 0
-14660 -14511 0
-14660 -14658 0
14660 14511 14658 0
-14661 -14659 0
-14661 -14660 0
14661 14659 14660 0
-14467 41 0
-14467 11220 0
14467 -41 -11220 0
-14468 -41 0
-14468 -11220 0
14468 41 11220 0
-14469 -14467 0
-14469 -14468 0
14469 14467 14468 0
-14569 35 0
-14569 14469 0
14569 -35 -14469 0
-14570 -35 0
-14570 -14469 0
14570 35 14469 0
-14571 -14569 0
-14571 -14570 0
14571 14569 14570 0
-14473 46 0
-14473 49 0
14473 -46 -49 0
-14474 -46 0
-14474 -49 0
14474 46 49 0
-14475 -14473 0
-14475 -14474 0
14475 14473 14474 0
-14584 42 0
-14584 14475 0
14584 -42 -14475 0
-14585 -42 0
-14585 -14475 0
14585 42 14475 0
-14586 -14584 0
-14586 -14585 0
14586 14584 14585 0
-14662 14571 0
-14662 14586 0
14662 -14571 -14586 0
-14663 -14571 0
-14663 -14586 0
14663 14571 14586 0
-14664 -14662 0
-14664 -14663 0
14664 14662 14663 0
-14602 10713 0
-14602 13869 0
14602 -10713 -13869 0
-14603 -10713 0
-14603 -13869 0
14603 10713 13869 0
-14604 -14602 0
-14604 -14603 0
14604 14602 14603 0
-14743 52 0
-14743 14604 0
14743 -52 -14604 0
-14744 -52 0
-14744 -14604 0
14744 52 14604 0
-14745 -14743 0
-14745 -14744 0
14745 14743 14744 0
-14845 14664 0
-14845 14745 0
14845 -14664 -14745 0
-14846 -14664 0
-14846 -14745 0
14846 14664 14745 0
-14847 -14845 0
-14847 -14846 0
14847 14845 14846 0
-14848 14661 0
-14848 14847 0
14848 -14661 -14847 0
-14849 -14661 0
-14849 -14847 0
14849 14661 14847 0
-14850 -14848 0
-14850 -14849 0
14850 14848 14849 0
-11983 69 0
-11983 10464 0
11983 -69 -10464 0
-11984 -69 0
-11984 -10464 0
11984 69 10464 0
-11985 -11983 0
-11985 -11984 0
11985 11983 11984 0
-14491 10272 0
-14491 10310 0
14491 -10272 -10310 0
-14492 -10272 0
-14492 -10310 0
14492 10272 10310 0
-14493 -14491 0
-14493 -14492 0
14493 14491 14492 0
-14788 11985 0
-14788 14493 0
14788 -11985 -14493 0
-14789 -11985 0
-14789 -14493 0
14789 11985 14493 0
-14790 -14788 0
-14790 -14789 0
14790 14788 14789 0
-14647 10196 0
-14647 13263 0
14647 -10196 -13263 0
-14648 -10196 0
-14648 -13263 0
14648 10196 13263 0
-14649 -14647 0
-14649 -14648 0
14649 14647 14648 0
-14836 92 0
-14836 14649 0
14836 -92 -14649 0
-14837 -92 0
-14837 -14649 0
14837 92 14649 0
-14838 -14836 0
-14838 -14837 0
14838 14836 14837 0
-14851 14790 0
-14851 14838 0
14851 -14790 -14838 0
-14852 -14790 0
-14852 -14838 0
14852 14790 14838 0
-14853 -14851 0
-14853 -14852 0
14853 14851 14852 0
-15001 107 0
-15001 14853 0
15001 -107 -14853 0
-15002 -107 0
-15002 -14853 0
15002 107 14853 0
-15003 -15001 0
-15003 -15002 0
15003 15001 15002 0
-15004 14850 0
-15004 15003 0
15004 -14850 -15003 0
-15005 -14850 0
-15005 -15003 0
15005 14850 15003 0
-15006 -15004 0
-15006 -15005 0
15006 15004 15005 0
-15007 -177 0
-15007 15006 0
15007 177 -15006 0
-15008 177 0
-15008 -15006 0
15008 -177 15006 0
-15009 -15007 0
-15009 -15008 0
15009 15007 15008 0
-15010 11655 0
-15010 11863 0
15010 -11655 -11863 0
-15011 -11655 0
-15011 -11863 0
15011 11655 11863 0
-15012 -15010 0
-15012 -15011 0
15012 15010 15011 0
-15061 11735 0
-15061 15012 0
15061 -11735 -15012 0
-15062 -11735 0
-15062 -15012 0
15062 11735 15012 0
-15063 -15061 0
-15063 -15062 0
15063 15061 15062 0
-15064 20 0
-15064 14463 0
15064 -20 -14463 0
-15065 -20 0
-15065 -14463 0
15065 20 14463 0
-15066 -15064 0
-15066 -15065 0
15066 15064 15065 0
-15091 11408 0
-15091 11934 0
15091 -11408 -11934 0
-15092 -11408 0
-15092 -11934 0
15092 11408 11934 0
-15093 -15091 0
-15093 -15092 0
15093 15091 15092 0
-15190 15066 0
-15190 15093 0
15190 -15066 -15093 0
-15191 -15066 0
-15191 -15093 0
15191 15066 15093 0
-15192 -15190 0
-15192 -15191 0
15192 15190 15191 0
-15193 15063 0
-15193 15192 0
15193 -15063 -15192 0
-15194 -15063 0
-15194 -15192 0
15194 15063 15192 0
-15195 -15193 0
-15195 -15194 0
15195 15193 15194 0
-15109 11052 0
-15109 12573 0
15109 -11052 -12573 0
-15110 -11052 0
-15110 -12573 0
15110 11052 12573 0
-15111 -15109 0
-15111 -15110 0
15111 15109 15110 0
-15196 35 0
-15196 15111 0
15196 -35 -15111 0
-15197 -35 0
-15197 -15111 0
15197 35 15111 0
-15198 -15196 0
-15198 -15197 0
15198 15196 15197 0
-15037 10329 0
-15037 10600 0
15037 -10329 -10600 0
-15038 -10329 0
-15038 -10600 0
15038 10329 10600 0
-15039 -15037 0
-15039 -15038 0
15039 15037 15038 0
-15133 56 0
-15133 10883 0
15133 -56 -10883 0
-15134 -56 0
-15134 -10883 0
15134 56 10883 0
-15135 -15133 0
-15135 -15134 0
15135 15133 15134 0
-15280 15039 0
-15280 15135 0
15280 -15039 -15135 0
-15281 -15039 0
-15281 -15135 0
15281 15039 15135 0
-15282 -15280 0
-15282 -15281 0
15282 15280 15281 0
-15379 15198 0
-15379 15282 0
15379 -15198 -15282 0
-15380 -15198 0
-15380 -15282 0
15380 15198 15282 0
-15381 -15379 0
-15381 -15380 0
15381 15379 15380 0
-15382 15195 0
-15382 15381 0
15382 -15195 -15381 0
-15383 -15195 0
-15383 -15381 0
15383 15195 15381 0
-15384 -15382 0
-15384 -15383 0
15384 15382 15383 0
-15049 80 0
-15049 10310 0
15049 -80 -10310 0
-15050 -80 0
-15050 -10310 0
15050 80 10310 0
-15051 -15049 0
-15051 -15050 0
15051 15049 15050 0
-15163 77 0
-15163 15051 0
15163 -77 -15051 0
-15164 -77 0
-15164 -15051 0
15164 77 15051 0
-15165 -15163 0
-15165 -15164 0
15165 15163 15164 0
-15325 71 0
-15325 15165 0
15325 -71 -15165 0
-15326 -71 0
-15326 -15165 0
15326 71 15165 0
-15327 -15325 0
-15327 -15326 0
15327 15325 15326 0
-15055 83 0
-15055 10196 0
15055 -83 -10196 0
-15056 -83 0
-15056 -10196 0
15056 83 10196 0
-15057 -15055 0
-15057 -15056 0
15057 15055 15056 0
-15184 13263 0
-15184 15057 0
15184 -13263 -15057 0
-15185 -13263 0
-15185 -15057 0
15185 13263 15057 0
-15186 -15184 0
-15186 -15185 0
15186 15184 15185 0
-15373 92 0
-15373 15186 0
15373 -92 -15186 0
-15374 -92 0
-15374 -15186 0
15374 92 15186 0
-15375 -15373 0
-15375 -15374 0
15375 15373 15374 0
-15385 15327 0
-15385 15375 0
15385 -15327 -15375 0
-15386 -15327 0
-15386 -15375 0
15386 15327 15375 0
-15387 -15385 0
-15387 -15386 0
15387 15385 15386 0
-15532 107 0
-15532 15387 0
15532 -107 -15387 0
-15533 -107 0
-15533 -15387 0
15533 107 15387 0
-15534 -15532 0
-15534 -15533 0
15534 15532 15533 0
-15535 15384 0
-15535 15534 0
15535 -15384 -15534 0
-15536 -15384 0
-15536 -15534 0
15536 15384 15534 0
-15537 -15535 0
-15537 -15536 0
15537 15535 15536 0
-15538 -176 0
-15538 15537 0
15538 176 -15537 0
-15539 176 0
-15539 -15537 0
15539 -176 15537 0
-15540 -15538 0
-15540 -15539 0
15540 15538 15539 0
-15544 14 0
-15544 17 0
15544 -14 -17 0
-15545 -14 0
-15545 -17 0
15545 14 17 0
-15546 -15544 0
-15546 -15545 0
15546 15544 15545 0
-15586 12 0
-15586 15546 0
15586 -12 -15546 0
-15587 -12 0
-15587 -15546 0
15587 12 15546 0
-15588 -15586 0
-15588 -15587 0
15588 15586 15587 0
-15589 3 0
-15589 15588 0
15589 -3 -15588 0
-15590 -3 0
-15590 -15588 0
15590 3 15588 0
-15591 -15589 0
-15591 -15590 0
15591 15589 15590 0
-15553 30 0
-15553 32 0
15553 -30 -32 0
-15554 -30 0
-15554 -32 0
15554 30 32 0
-15555 -15553 0
-15555 -15554 0
15555 15553 15554 0
-15610 26 0
-15610 15555 0
15610 -26 -15555 0
-15611 -26 0
-15611 -15555 0
15611 26 15555 0
-15612 -15610 0
-15612 -15611 0
15612 15610 15611 0
-15706 11541 0
-15706 15612 0
15706 -11541 -15612 0
-15707 -11541 0
-15707 -15612 0
15707 11541 15612 0
-15708 -15706 0
-15708 -15707 0
15708 15706 15707 0
-15709 15591 0
-15709 15708 0
15709 -15591 -15708 0
-15710 -15591 0
-15710 -15708 0
15710 15591 15708 0
-15711 -15709 0
-15711 -15710 0
15711 15709 15710 0
-13852 45 0
-13852 48 0
13852 -45 -48 0
-13853 -45 0
-13853 -48 0
13853 45 48 0
-13854 -13852 0
-13854 -13853 0
13854 13852 13853 0
-15631 11320 0
-15631 11952 0
15631 -11320 -11952 0
-15632 -11320 0
-15632 -11952 0
15632 11320 11952 0
-15633 -15631 0
-15633 -15632 0
15633 15631 15632 0
-15712 13854 0
-15712 15633 0
15712 -13854 -15633 0
-15713 -13854 0
-15713 -15633 0
15713 13854 15633 0
-15714 -15712 0
-15714 -15713 0
15714 15712 15713 0
-15571 65 0
-15571 10329 0
15571 -65 -10329 0
-15572 -65 0
-15572 -10329 0
15572 65 10329 0
-15573 -15571 0
-15573 -15572 0
15573 15571 15572 0
-15667 59 0
-15667 15573 0
15667 -59 -15573 0
-15668 -59 0
-15668 -15573 0
15668 59 15573 0
-15669 -15667 0
-15669 -15668 0
15669 15667 15668 0
-15802 12114 0
-15802 15669 0
15802 -12114 -15669 0
-15803 -12114 0
-15803 -15669 0
15803 12114 15669 0
-15804 -15802 0
-15804 -15803 0
15804 15802 15803 0
-15886 15714 0
-15886 15804 0
15886 -15714 -15804 0
-15887 -15714 0
-15887 -15804 0
15887 15714 15804 0
-15888 -15886 0
-15888 -15887 0
15888 15886 15887 0
-15889 15711 0
-15889 15888 0
15889 -15711 -15888 0
-15890 -15711 0
-15890 -15888 0
15890 15711 15888 0
-15891 -15889 0
-15891 -15890 0
15891 15889 15890 0
-15841 68 0
-15841 10023 0
15841 -68 -10023 0
-15842 -68 0
-15842 -10023 0
15842 68 10023 0
-15843 -15841 0
-15843 -15842 0
15843 15841 15842 0
-15694 10158 0
-15694 10215 0
15694 -10158 -10215 0
-15695 -10158 0
-15695 -10215 0
15695 10158 10215 0
-15696 -15694 0
-15696 -15695 0
15696 15694 15695 0
-15877 92 0
-15877 15696 0
15877 -92 -15696 0
-15878 -92 0
-15878 -15696 0
15878 92 15696 0
-15879 -15877 0
-15879 -15878 0
15879 15877 15878 0
-15892 15843 0
-15892 15879 0
15892 -15843 -15879 0
-15893 -15843 0
-15893 -15879 0
15893 15843 15879 0
-15894 -15892 0
-15894 -15893 0
15894 15892 15893 0
-16039 107 0
-16039 15894 0
16039 -107 -15894 0
-16040 -107 0
-16040 -15894 0
16040 107 15894 0
-16041 -16039 0
-16041 -16040 0
16041 16039 16040 0
-16042 15891 0
-16042 16041 0
16042 -15891 -16041 0
-16043 -15891 0
-16043 -16041 0
16043 15891 16041 0
-16044 -16042 0
-16044 -16043 0
16044 16042 16043 0
-16045 -175 0
-16045 16044 0
16045 175 -16044 0
-16046 175 0
-16046 -16044 0
16046 -175 16044 0
-16047 -16045 0
-16047 -16046 0
16047 16045 16046 0
-16054 14 0
-16054 12528 0
16054 -14 -12528 0
-16055 -14 0
-16055 -12528 0
16055 14 12528 0
-16056 -16054 0
-16056 -16055 0
16056 16054 16055 0
-16108 13 0
-16108 16056 0
16108 -13 -16056 0
-16109 -13 0
-16109 -16056 0
16109 13 16056 0
-16110 -16108 0
-16110 -16109 0
16110 16108 16109 0
-16111 4 0
-16111 16110 0
16111 -4 -16110 0
-16112 -4 0
-16112 -16110 0
16112 4 16110 0
-16113 -16111 0
-16113 -16112 0
16113 16111 16112 0
-16114 19 0
-16114 23 0
16114 -19 -23 0
-16115 -19 0
-16115 -23 0
16115 19 23 0
-16116 -16114 0
-16116 -16115 0
16116 16114 16115 0
-16063 26 0
-16063 28 0
16063 -26 -28 0
-16064 -26 0
-16064 -28 0
16064 26 28 0
-16065 -16063 0
-16065 -16064 0
16065 16063 16064 0
-16069 31 0
-16069 10959 0
16069 -31 -10959 0
-16070 -31 0
-16070 -10959 0
16070 31 10959 0
-16071 -16069 0
-16071 -16070 0
16071 16069 16070 0
-16150 16065 0
-16150 16071 0
16150 -16065 -16071 0
-16151 -16065 0
-16151 -16071 0
16151 16065 16071 0
-16152 -16150 0
-16152 -16151 0
16152 16150 16151 0
-16261 16116 0
-16261 16152 0
16261 -16116 -16152 0
-16262 -16116 0
-16262 -16152 0
16262 16116 16152 0
-16263 -16261 0
-16263 -16262 0
16263 16261 16262 0
-16264 16113 0
-16264 16263 0
16264 -16113 -16263 0
-16265 -16113 0
-16265 -16263 0
16265 16113 16263 0
-16266 -16264 0
-16266 -16265 0
16266 16264 16265 0
-16078 37 0
-16078 11320 0
16078 -37 -11320 0
-16079 -37 0
-16079 -11320 0
16079 37 11320 0
-16080 -16078 0
-16080 -16079 0
16080 16078 16079 0
-16174 13848 0
-16174 16080 0
16174 -13848 -16080 0
-16175 -13848 0
-16175 -16080 0
16175 13848 16080 0
-16176 -16174 0
-16176 -16175 0
16176 16174 16175 0
-16198 43 0
-16198 14475 0
16198 -43 -14475 0
-16199 -43 0
-16199 -14475 0
16199 43 14475 0
-16200 -16198 0
-16200 -16199 0
16200 16198 16199 0
-16267 16176 0
-16267 16200 0
16267 -16176 -16200 0
-16268 -16176 0
-16268 -16200 0
16268 16176 16200 0
-16269 -16267 0
-16269 -16268 0
16269 16267 16268 0
-16090 61 0
-16090 10738 0
16090 -61 -10738 0
-16091 -61 0
-16091 -10738 0
16091 61 10738 0
-16092 -16090 0
-16092 -16091 0
16092 16090 16091 0
-16093 62 0
-16093 65 0
16093 -62 -65 0
-16094 -62 0
-16094 -65 0
16094 62 65 0
-16095 -16093 0
-16095 -16094 0
16095 16093 16094 0
-16222 16092 0
-16222 16095 0
16222 -16092 -16095 0
-16223 -16092 0
-16223 -16095 0
16223 16092 16095 0
-16224 -16222 0
-16224 -16223 0
16224 16222 16223 0
-16357 12729 0
-16357 16224 0
16357 -12729 -16224 0
-16358 -12729 0
-16358 -16224 0
16358 12729 16224 0
-16359 -16357 0
-16359 -16358 0
16359 16357 16358 0
-16438 16269 0
-16438 16359 0
16438 -16269 -16359 0
-16439 -16269 0
-16439 -16359 0
16439 16269 16359 0
-16440 -16438 0
-16440 -16439 0
16440 16438 16439 0
-16441 16266 0
-16441 16440 0
16441 -16266 -16440 0
-16442 -16266 0
-16442 -16440 0
16442 16266 16440 0
-16443 -16441 0
-16443 -16442 0
16443 16441 16442 0
-16099 70 0
-16099 10540 0
16099 -70 -10540 0
-16100 -70 0
-16100 -10540 0
16100 70 10540 0
-16101 -16099 0
-16101 -16100 0
16101 16099 16100 0
-16105 77 0
-16105 79 0
16105 -77 -79 0
-16106 -77 0
-16106 -79 0
16106 77 79 0
-16107 -16105 0
-16107 -16106 0
16107 16105 16106 0
-16405 16101 0
-16405 16107 0
16405 -16101 -16107 0
-16406 -16101 0
-16406 -16107 0
16406 16101 16107 0
-16407 -16405 0
-16407 -16406 0
16407 16405 16406 0
-13255 83 0
-13255 86 0
13255 -83 -86 0
-13256 -83 0
-13256 -86 0
13256 83 86 0
-13257 -13255 0
-13257 -13256 0
13257 13255 13256 0
-16435 92 0
-16435 13257 0
16435 -92 -13257 0
-16436 -92 0
-16436 -13257 0
16436 92 13257 0
-16437 -16435 0
-16437 -16436 0
16437 16435 16436 0
-16444 16407 0
-16444 16437 0
16444 -16407 -16437 0
-16445 -16407 0
-16445 -16437 0
16445 16407 16437 0
-16446 -16444 0
-16446 -16445 0
16446 16444 16445 0
-16573 107 0
-16573 16446 0
16573 -107 -16446 0
-16574 -107 0
-16574 -16446 0
16574 107 16446 0
-16575 -16573 0
-16575 -16574 0
16575 16573 16574 0
-16576 16443 0
-16576 16575 0
16576 -16443 -16575 0
-16577 -16443 0
-16577 -16575 0
16577 16443 16575 0
-16578 -16576 0
-16578 -16577 0
16578 16576 16577 0
-16579 -174 0
-16579 16578 0
16579 174 -16578 0
-16580 174 0
-16580 -16578 0
16580 -174 16578 0
-16581 -16579 0
-16581 -16580 0
16581 16579 16580 0
-16582 4 0
-16582 11655 0
16582 -4 -11655 0
-16583 -4 0
-16583 -11655 0
16583 4 11655 0
-16584 -16582 0
-16584 -16583 0
16584 16582 16583 0
-16672 13176 0
-16672 14436 0
16672 -13176 -14436 0
-16673 -13176 0
-16673 -14436 0
16673 13176 14436 0
-16674 -16672 0
-16674 -16673 0
16674 16672 16673 0
-16675 16584 0
-16675 16674 0
16675 -16584 -16674 0
-16676 -16584 0
-16676 -16674 0
16676 16584 16674 0
-16677 -16675 0
-16677 -16676 0
16677 16675 16676 0
-16606 11446 0
-16606 11484 0
16606 -11446 -11484 0
-16607 -11446 0
-16607 -11484 0
16607 11446 11484 0
-16608 -16606 0
-16608 -16607 0
16608 16606 16607 0
-16615 33 0
-16615 11408 0
16615 -33 -11408 0
-16616 -33 0
-16616 -11408 0
16616 33 11408 0
-16617 -16615 0
-16617 -16616 0
16617 16615 16616 0
-16705 16608 0
-16705 16617 0
16705 -16608 -16617 0
-16706 -16608 0
-16706 -16617 0
16706 16608 16617 0
-16707 -16705 0
-16707 -16706 0
16707 16705 16706 0
-16807 11636 0
-16807 16707 0
16807 -11636 -16707 0
-16808 -11636 0
-16808 -16707 0
16808 11636 16707 0
-16809 -16807 0
-16809 -16808 0
16809 16807 16808 0
-16810 16677 0
-16810 16809 0
16810 -16677 -16809 0
-16811 -16677 0
-16811 -16809 0
16811 16677 16809 0
-16812 -16810 0
-16812 -16811 0
16812 16810 16811 0
-16624 11270 0
-16624 11320 0
16624 -11270 -11320 0
-16625 -11270 0
-16625 -11320 0
16625 11270 11320 0
-16626 -16624 0
-16626 -16625 0
16626 16624 16625 0
-16636 11170 0
-16636 11220 0
16636 -11170 -11220 0
-16637 -11170 0
-16637 -11220 0
16637 11170 11220 0
-16638 -16636 0
-16638 -16637 0
16638 16636 16637 0
-16729 16626 0
-16729 16638 0
16729 -16626 -16638 0
-16730 -16626 0
-16730 -16638 0
16730 16626 16638 0
-16731 -16729 0
-16731 -16730 0
16731 16729 16730 0
-16648 11052 0
-16648 11114 0
16648 -11052 -11114 0
-16649 -11052 0
-16649 -11114 0
16649 11052 11114 0
-16650 -16648 0
-16650 -16649 0
16650 16648 16649 0
-16753 12573 0
-16753 16650 0
16753 -12573 -16650 0
-16754 -12573 0
-16754 -16650 0
16754 12573 16650 0
-16755 -16753 0
-16755 -16754 0
16755 16753 16754 0
-16813 16731 0
-16813 16755 0
16813 -16731 -16755 0
-16814 -16731 0
-16814 -16755 0
16814 16731 16755 0
-16815 -16813 0
-16815 -16814 0
16815 16813 16814 0
-16660 10688 0
-16660 10738 0
16660 -10688 -10738 0
-16661 -10688 0
-16661 -10738 0
16661 10688 10738 0
-16662 -16660 0
-16662 -16661 0
16662 16660 16661 0
-16780 65 0
-16780 16662 0
16780 -65 -16662 0
-16781 -65 0
-16781 -16662 0
16781 65 16662 0
-16782 -16780 0
-16782 -16781 0
16782 16780 16781 0
-16906 10788 0
-16906 16782 0
16906 -10788 -16782 0
-16907 -10788 0
-16907 -16782 0
16907 10788 16782 0
-16908 -16906 0
-16908 -16907 0
16908 16906 16907 0
-16975 16815 0
-16975 16908 0
16975 -16815 -16908 0
-16976 -16815 0
-16976 -16908 0
16976 16815 16908 0
-16977 -16975 0
-16977 -16976 0
16977 16975 16976 0
-16978 16812 0
-16978 16977 0
16978 -16812 -16977 0
-16979 -16812 0
-16979 -16977 0
16979 16812 16977 0
-16980 -16978 0
-16980 -16979 0
16980 16978 16979 0
-16804 70 0
-16804 13236 0
16804 -70 -13236 0
-16805 -70 0
-16805 -13236 0
16805 70 13236 0
-16806 -16804 0
-16806 -16805 0
16806 16804 16805 0
-16954 10310 0
-16954 16806 0
16954 -10310 -16806 0
-16955 -10310 0
-16955 -16806 0
16955 10310 16806 0
-16956 -16954 0
-16956 -16955 0
16956 16954 16955 0
-16981 92 0
-16981 16956 0
16981 -92 -16956 0
-16982 -92 0
-16982 -16956 0
16982 92 16956 0
-16983 -16981 0
-16983 -16982 0
16983 16981 16982 0
-17098 107 0
-17098 16983 0
17098 -107 -16983 0
-17099 -107 0
-17099 -16983 0
17099 107 16983 0
-17100 -17098 0
-17100 -17099 0
17100 17098 17099 0
-17101 16980 0
-17101 17100 0
17101 -16980 -17100 0
-17102 -16980 0
-17102 -17100 0
17102 16980 17100 0
-17103 -17101 0
-17103 -17102 0
17103 17101 17102 0
-17104 -173 0
-17104 17103 0
17104 173 -17103 0
-17105 173 0
-17105 -17103 0
17105 -173 17103 0
-17106 -17104 0
-17106 -17105 0
17106 17104 17105 0
-17107 10 0
-17107 11735 0
17107 -10 -11735 0
-17108 -10 0
-17108 -11735 0
17108 10 11735 0
-17109 -17107 0
-17109 -17108 0
17109 17107 17108 0
-17149 15 0
-17149 17109 0
17149 -15 -17109 0
-17150 -15 0
-17150 -17109 0
17150 15 17109 0
-17151 -17149 0
-17151 -17150 0
17151 17149 17150 0
-17152 11879 0
-17152 17151 0
17152 -11879 -17151 0
-17153 -11879 0
-17153 -17151 0
17153 11879 17151 0
-17154 -17152 0
-17154 -17153 0
17154 17152 17153 0
-17155 18 0
-17155 25 0
17155 -18 -25 0
-17156 -18 0
-17156 -25 0
17156 18 25 0
-17157 -17155 0
-17157 -17156 0
17157 17155 17156 0
-17125 30 0
-17125 33 0
17125 -30 -33 0
-17126 -30 0
-17126 -33 0
17126 30 33 0
-17127 -17125 0
-17127 -17126 0
17127 17125 17126 0
-17176 11465 0
-17176 17127 0
17176 -11465 -17127 0
-17177 -11465 0
-17177 -17127 0
17177 11465 17127 0
-17178 -17176 0
-17178 -17177 0
17178 17176 17177 0
-17254 17157 0
-17254 17178 0
17254 -17157 -17178 0
-17255 -17157 0
-17255 -17178 0
17255 17157 17178 0
-17256 -17254 0
-17256 -17255 0
17256 17254 17255 0
-17257 17154 0
-17257 17256 0
17257 -17154 -17256 0
-17258 -17154 0
-17258 -17256 0
17258 17154 17256 0
-17259 -17257 0
-17259 -17258 0
17259 17257 17258 0
-17128 36 0
-17128 39 0
17128 -36 -39 0
-17129 -36 0
-17129 -39 0
17129 36 39 0
-17130 -17128 0
-17130 -17129 0
17130 17128 17129 0
-17134 45 0
-17134 11114 0
17134 -45 -11114 0
-17135 -45 0
-17135 -11114 0
17135 45 11114 0
-17136 -17134 0
-17136 -17135 0
17136 17134 17135 0
-17140 46 0
-17140 48 0
17140 -46 -48 0
-17141 -46 0
-17141 -48 0
17141 46 48 0
-17142 -17140 0
-17142 -17141 0
17142 17140 17141 0
-17218 17136 0
-17218 17142 0
17218 -17136 -17142 0
-17219 -17136 0
-17219 -17142 0
17219 17136 17142 0
-17220 -17218 0
-17220 -17219 0
17220 17218 17219 0
-17260 17130 0
-17260 17220 0
17260 -17130 -17220 0
-17261 -17130 0
-17261 -17220 0
17261 17130 17220 0
-17262 -17260 0
-17262 -17261 0
17262 17260 17261 0
-17146 58 0
-17146 60 0
17146 -58 -60 0
-17147 -58 0
-17147 -60 0
17147 58 60 0
-17148 -17146 0
-17148 -17147 0
17148 17146 17147 0
-17230 64 0
-17230 17148 0
17230 -64 -17148 0
-17231 -64 0
-17231 -17148 0
17231 64 17148 0
-17232 -17230 0
-17232 -17231 0
17232 17230 17231 0
-17344 57 0
-17344 17232 0
17344 -57 -17232 0
-17345 -57 0
-17345 -17232 0
17345 57 17232 0
-17346 -17344 0
-17346 -17345 0
17346 17344 17345 0
-17401 17262 0
-17401 17346 0
17401 -17262 -17346 0
-17402 -17262 0
-17402 -17346 0
17402 17262 17346 0
-17403 -17401 0
-17403 -17402 0
17403 17401 17402 0
-17404 17259 0
-17404 17403 0
17404 -17259 -17403 0
-17405 -17259 0
-17405 -17403 0
17405 17259 17403 0
-17406 -17404 0
-17406 -17405 0
17406 17404 17405 0
-12169 88 0
-12169 92 0
12169 -88 -92 0
-12170 -88 0
-12170 -92 0
12170 88 92 0
-12171 -12169 0
-12171 -12170 0
12171 12169 12170 0
-17242 73 0
-17242 13878 0
17242 -73 -13878 0
-17243 -73 0
-17243 -13878 0
17243 73 13878 0
-17244 -17242 0
-17244 -17243 0
17244 17242 17243 0
-17380 10023 0
-17380 17244 0
17380 -10023 -17244 0
-17381 -10023 0
-17381 -17244 0
17381 10023 17244 0
-17382 -17380 0
-17382 -17381 0
17382 17380 17381 0
-17407 12171 0
-17407 17382 0
17407 -12171 -17382 0
-17408 -12171 0
-17408 -17382 0
17408 12171 17382 0
-17409 -17407 0
-17409 -17408 0
17409 17407 17408 0
-17512 107 0
-17512 17409 0
17512 -107 -17409 0
-17513 -107 0
-17513 -17409 0
17513 107 17409 0
-17514 -17512 0
-17514 -17513 0
17514 17512 17513 0
-17515 17406 0
-17515 17514 0
17515 -17406 -17514 0
-17516 -17406 0
-17516 -17514 0
17516 17406 17514 0
-17517 -17515 0
-17517 -17516 0
17517 17515 17516 0
-17518 -172 0
-17518 17517 0
17518 172 -17517 0
-17519 172 0
-17519 -17517 0
17519 -172 17517 0
-17520 -17518 0
-17520 -17519 0
17520 17518 17519 0
-17521 7 0
-17521 9 0
17521 -7 -9 0
-17522 -7 0
-17522 -9 0
17522 7 9 0
-17523 -17521 0
-17523 -17522 0
17523 17521 17522 0
-17524 3 0
-17524 17523 0
17524 -3 -17523 0
-17525 -3 0
-17525 -17523 0
17525 3 17523 0
-17526 -17524 0
-17526 -17525 0
17526 17524 17525 0
-17542 17109 0
-17542 17526 0
17542 -17109 -17526 0
-17543 -17109 0
-17543 -17526 0
17543 17109 17526 0
-17544 -17542 0
-17544 -17543 0
17544 17542 17543 0
-17548 27 0
-17548 31 0
17548 -27 -31 0
-17549 -27 0
-17549 -31 0
17549 27 31 0
-17550 -17548 0
-17550 -17549 0
17550 17548 17549 0
-17617 24 0
-17617 17550 0
17617 -24 -17550 0
-17618 -24 0
-17618 -17550 0
17618 24 17550 0
-17619 -17617 0
-17619 -17618 0
17619 17617 17618 0
-17620 17544 0
-17620 17619 0
17620 -17544 -17619 0
-17621 -17544 0
-17621 -17619 0
17621 17544 17619 0
-17622 -17620 0
-17622 -17621 0
17622 17620 17621 0
-17554 49 0
-17554 17136 0
17554 -49 -17136 0
-17555 -49 0
-17555 -17136 0
17555 49 17136 0
-17556 -17554 0
-17556 -17555 0
17556 17554 17555 0
-17566 52 0
-17566 57 0
17566 -52 -57 0
-17567 -52 0
-17567 -57 0
17567 52 57 0
-17568 -17566 0
-17568 -17567 0
17568 17566 17567 0
-17575 58 0
-17575 63 0
17575 -58 -63 0
-17576 -58 0
-17576 -63 0
17576 58 63 0
-17577 -17575 0
-17577 -17576 0
17577 17575 17576 0
-17668 17568 0
-17668 17577 0
17668 -17568 -17577 0
-17669 -17568 0
-17669 -17577 0
17669 17568 17577 0
-17670 -17668 0
-17670 -17669 0
17670 17668 17669 0
-17749 17556 0
-17749 17670 0
17749 -17556 -17670 0
-17750 -17556 0
-17750 -17670 0
17750 17556 17670 0
-17751 -17749 0
-17751 -17750 0
17751 17749 17750 0
-17752 17622 0
-17752 17751 0
17752 -17622 -17751 0
-17753 -17622 0
-17753 -17751 0
17753 17622 17751 0
-17754 -17752 0
-17754 -17753 0
17754 17752 17753 0
-17584 67 0
-17584 10442 0
17584 -67 -10442 0
-17585 -67 0
-17585 -10442 0
17585 67 10442 0
-17586 -17584 0
-17586 -17585 0
17586 17584 17585 0
-17704 16107 0
-17704 17586 0
17704 -16107 -17586 0
-17705 -16107 0
-17705 -17586 0
17705 16107 17586 0
-17706 -17704 0
-17706 -17705 0
17706 17704 17705 0
-17611 87 0
-17611 13893 0
17611 -87 -13893 0
-17612 -87 0
-17612 -13893 0
17612 87 13893 0
-17613 -17611 0
-17613 -17612 0
17613 17611 17612 0
-17746 92 0
-17746 17613 0
17746 -92 -17613 0
-17747 -92 0
-17747 -17613 0
17747 92 17613 0
-17748 -17746 0
-17748 -17747 0
17748 17746 17747 0
-17755 17706 0
-17755 17748 0
17755 -17706 -17748 0
-17756 -17706 0
-17756 -17748 0
17756 17706 17748 0
-17757 -17755 0
-17757 -17756 0
17757 17755 17756 0
-17893 107 0
-17893 17757 0
17893 -107 -17757 0
-17894 -107 0
-17894 -17757 0
17894 107 17757 0
-17895 -17893 0
-17895 -17894 0
17895 17893 17894 0
-17896 17754 0
-17896 17895 0
17896 -17754 -17895 0
-17897 -17754 0
-17897 -17895 0
17897 17754 17895 0
-17898 -17896 0
-17898 -17897 0
17898 17896 17897 0
-17899 -171 0
-17899 17898 0
17899 171 -17898 0
-17900 171 0
-17900 -17898 0
17900 -171 17898 0
-17901 -17899 0
-17901 -17900 0
17901 17899 17900 0
-17947 15546 0
-17947 17109 0
17947 -15546 -17109 0
-17948 -15546 0
-17948 -17109 0
17948 15546 17109 0
-17949 -17947 0
-17949 -17948 0
17949 17947 17948 0
-17950 12534 0
-17950 17949 0
17950 -12534 -17949 0
-17951 -12534 0
-17951 -17949 0
17951 12534 17949 0
-17952 -17950 0
-17952 -17951 0
17952 17950 17951 0
-17911 32 0
-17911 11408 0
17911 -32 -11408 0
-17912 -32 0
-17912 -11408 0
17912 32 11408 0
-17913 -17911 0
-17913 -17912 0
17913 17911 17912 0
-17968 29 0
-17968 17913 0
17968 -29 -17913 0
-17969 -29 0
-17969 -17913 0
17969 29 17913 0
-17970 -17968 0
-17970 -17969 0
17970 17968 17969 0
-18097 23 0
-18097 17970 0
18097 -23 -17970 0
-18098 -23 0
-18098 -17970 0
18098 23 17970 0
-18099 -18097 0
-18099 -18098 0
18099 18097 18098 0
-18100 17952 0
-18100 18099 0
18100 -17952 -18099 0
-18101 -17952 0
-18101 -18099 0
18101 17952 18099 0
-18102 -18100 0
-18102 -18101 0
18102 18100 18101 0
-13840 35 0
-13840 38 0
13840 -35 -38 0
-13841 -35 0
-13841 -38 0
13841 35 38 0
-13842 -13840 0
-13842 -13841 0
13842 13840 13841 0
-17917 47 0
-17917 10940 0
17917 -47 -10940 0
-17918 -47 0
-17918 -10940 0
17918 47 10940 0
-17919 -17917 0
-17919 -17918 0
17919 17917 17918 0
-17998 11114 0
-17998 17919 0
17998 -11114 -17919 0
-17999 -11114 0
-17999 -17919 0
17999 11114 17919 0
-18000 -17998 0
-18000 -17999 0
18000 17998 17999 0
-18103 13842 0
-18103 18000 0
18103 -13842 -18000 0
-18104 -13842 0
-18104 -18000 0
18104 13842 18000 0
-18105 -18103 0
-18105 -18104 0
18105 18103 18104 0
-18013 57 0
-18013 10883 0
18013 -57 -10883 0
-18014 -57 0
-18014 -10883 0
18014 57 10883 0
-18015 -18013 0
-18015 -18014 0
18015 18013 18014 0
-18031 10738 0
-18031 16095 0
18031 -10738 -16095 0
-18032 -10738 0
-18032 -16095 0
18032 10738 16095 0
-18033 -18031 0
-18033 -18032 0
18033 18031 18032 0
-18196 18015 0
-18196 18033 0
18196 -18015 -18033 0
-18197 -18015 0
-18197 -18033 0
18197 18015 18033 0
-18198 -18196 0
-18198 -18197 0
18198 18196 18197 0
-18301 18105 0
-18301 18198 0
18301 -18105 -18198 0
-18302 -18105 0
-18302 -18198 0
18302 18105 18198 0
-18303 -18301 0
-18303 -18302 0
18303 18301 18302 0
-18304 18102 0
-18304 18303 0
18304 -18102 -18303 0
-18305 -18102 0
-18305 -18303 0
18305 18102 18303 0
-18306 -18304 0
-18306 -18305 0
18306 18304 18305 0
-17932 81 0
-17932 10310 0
17932 -81 -10310 0
-17933 -81 0
-17933 -10310 0
17933 81 10310 0
-17934 -17932 0
-17934 -17933 0
17934 17932 17933 0
-17926 68 0
-17926 10559 0
17926 -68 -10559 0
-17927 -68 0
-17927 -10559 0
17927 68 10559 0
-17928 -17926 0
-17928 -17927 0
17928 17926 17927 0
-18052 11988 0
-18052 17928 0
18052 -11988 -17928 0
-18053 -11988 0
-18053 -17928 0
18053 11988 17928 0
-18054 -18052 0
-18054 -18053 0
18054 18052 18053 0
-18244 17934 0
-18244 18054 0
18244 -17934 -18054 0
-18245 -17934 0
-18245 -18054 0
18245 17934 18054 0
-18246 -18244 0
-18246 -18245 0
18246 18244 18245 0
-17941 82 0
-17941 10196 0
17941 -82 -10196 0
-17942 -82 0
-17942 -10196 0
17942 82 10196 0
-17943 -17941 0
-17943 -17942 0
17943 17941 17942 0
-18091 86 0
-18091 17943 0
18091 -86 -17943 0
-18092 -86 0
-18092 -17943 0
18092 86 17943 0
-18093 -18091 0
-18093 -18092 0
18093 18091 18092 0
-18292 92 0
-18292 18093 0
18292 -92 -18093 0
-18293 -92 0
-18293 -18093 0
18293 92 18093 0
-18294 -18292 0
-18294 -18293 0
18294 18292 18293 0
-18307 18246 0
-18307 18294 0
18307 -18246 -18294 0
-18308 -18246 0
-18308 -18294 0
18308 18246 18294 0
-18309 -18307 0
-18309 -18308 0
18309 18307 18308 0
-18460 107 0
-18460 18309 0
18460 -107 -18309 0
-18461 -107 0
-18461 -18309 0
18461 107 18309 0
-18462 -18460 0
-18462 -18461 0
18462 18460 18461 0
-18463 18306 0
-18463 18462 0
18463 -18306 -18462 0
-18464 -18306 0
-18464 -18462 0
18464 18306 18462 0
-18465 -18463 0
-18465 -18464 0
18465 18463 18464 0
-18466 -170 0
-18466 18465 0
18466 170 -18465 0
-18467 170 0
-18467 -18465 0
18467 -170 18465 0
-18468 -18466 0
-18468 -18467 0
18468 18466 18467 0
-18469 2 0
-18469 5 0
18469 -2 -5 0
-18470 -2 0
-18470 -5 0
18470 2 5 0
-18471 -18469 0
-18471 -18470 0
18471 18469 18470 0
-18472 6 0
-18472 11799 0
18472 -6 -11799 0
-18473 -6 0
-18473 -11799 0
18473 6 11799 0
-18474 -18472 0
-18474 -18473 0
18474 18472 18473 0
-18475 18471 0
-18475 18474 0
18475 -18471 -18474 0
-18476 -18471 0
-18476 -18474 0
18476 18471 18474 0
-18477 -18475 0
-18477 -18476 0
18477 18475 18476 0
-17110 10 0
-17110 12 0
17110 -10 -12 0
-17111 -10 0
-17111 -12 0
17111 10 12 0
-17112 -17110 0
-17112 -17111 0
17112 17110 17111 0
-18517 15546 0
-18517 17112 0
18517 -15546 -17112 0
-18518 -15546 0
-18518 -17112 0
18518 15546 17112 0
-18519 -18517 0
-18519 -18518 0
18519 18517 18518 0
-18520 18477 0
-18520 18519 0
18520 -18477 -18519 0
-18521 -18477 0
-18521 -18519 0
18521 18477 18519 0
-18522 -18520 0
-18522 -18521 0
18522 18520 18521 0
-18523 19 0
-18523 25 0
18523 -19 -25 0
-18524 -19 0
-18524 -25 0
18524 19 25 0
-18525 -18523 0
-18525 -18524 0
18525 18523 18524 0
-18547 26 0
-18547 17913 0
18547 -26 -17913 0
-18548 -26 0
-18548 -17913 0
18548 26 17913 0
-18549 -18547 0
-18549 -18548 0
18549 18547 18548 0
-18664 18525 0
-18664 18549 0
18664 -18525 -18549 0
-18665 -18525 0
-18665 -18549 0
18665 18525 18549 0
-18666 -18664 0
-18666 -18665 0
18666 18664 18665 0
-18667 18522 0
-18667 18666 0
18667 -18522 -18666 0
-18668 -18522 0
-18668 -18666 0
18668 18522 18666 0
-18669 -18667 0
-18669 -18668 0
18669 18667 18668 0
-13843 38 0
-13843 40 0
13843 -38 -40 0
-13844 -38 0
-13844 -40 0
13844 38 40 0
-13845 -13843 0
-13845 -13844 0
13845 13843 13844 0
-18556 35 0
-18556 13845 0
18556 -35 -13845 0
-18557 -35 0
-18557 -13845 0
18557 35 13845 0
-18558 -18556 0
-18558 -18557 0
18558 18556 18557 0
-18487 42 0
-18487 44 0
18487 -42 -44 0
-18488 -42 0
-18488 -44 0
18488 42 44 0
-18489 -18487 0
-18489 -18488 0
18489 18487 18488 0
-18574 10940 0
-18574 18489 0
18574 -10940 -18489 0
-18575 -10940 0
-18575 -18489 0
18575 10940 18489 0
-18576 -18574 0
-18576 -18575 0
18576 18574 18575 0
-18670 18558 0
-18670 18576 0
18670 -18558 -18576 0
-18671 -18558 0
-18671 -18576 0
18671 18558 18576 0
-18672 -18670 0
-18672 -18671 0
18672 18670 18671 0
-18499 52 0
-18499 10902 0
18499 -52 -10902 0
-18500 -52 0
-18500 -10902 0
18500 52 10902 0
-18501 -18499 0
-18501 -18500 0
18501 18499 18500 0
-18595 57 0
-18595 18501 0
18595 -57 -18501 0
-18596 -57 0
-18596 -18501 0
18596 57 18501 0
-18597 -18595 0
-18597 -18596 0
18597 18595 18596 0
-18763 11979 0
-18763 18597 0
18763 -11979 -18597 0
-18764 -11979 0
-18764 -18597 0
18764 11979 18597 0
-18765 -18763 0
-18765 -18764 0
18765 18763 18764 0
-18862 18672 0
-18862 18765 0
18862 -18672 -18765 0
-18863 -18672 0
-18863 -18765 0
18863 18672 18765 0
-18864 -18862 0
-18864 -18863 0
18864 18862 18863 0
-18865 18669 0
-18865 18864 0
18865 -18669 -18864 0
-18866 -18669 0
-18866 -18864 0
18866 18669 18864 0
-18867 -18865 0
-18867 -18866 0
18867 18865 18866 0
-18619 10464 0
-18619 17928 0
18619 -10464 -17928 0
-18620 -10464 0
-18620 -17928 0
18620 10464 17928 0
-18621 -18619 0
-18621 -18620 0
18621 18619 18620 0
-18508 78 0
-18508 10272 0
18508 -78 -10272 0
-18509 -78 0
-18509 -10272 0
18509 78 10272 0
-18510 -18508 0
-18510 -18509 0
18510 18508 18509 0
-18637 77 0
-18637 18510 0
18637 -77 -18510 0
-18638 -77 0
-18638 -18510 0
18638 77 18510 0
-18639 -18637 0
-18639 -18638 0
18639 18637 18638 0
-18811 18621 0
-18811 18639 0
18811 -18621 -18639 0
-18812 -18621 0
-18812 -18639 0
18812 18621 18639 0
-18813 -18811 0
-18813 -18812 0
18813 18811 18812 0
-18661 88 0
-18661 15057 0
18661 -88 -15057 0
-18662 -88 0
-18662 -15057 0
18662 88 15057 0
-18663 -18661 0
-18663 -18662 0
18663 18661 18662 0
-18859 92 0
-18859 18663 0
18859 -92 -18663 0
-18860 -92 0
-18860 -18663 0
18860 92 18663 0
-18861 -18859 0
-18861 -18860 0
18861 18859 18860 0
-18868 18813 0
-18868 18861 0
18868 -18813 -18861 0
-18869 -18813 0
-18869 -18861 0
18869 18813 18861 0
-18870 -18868 0
-18870 -18869 0
18870 18868 18869 0
-19012 107 0
-19012 18870 0
19012 -107 -18870 0
-19013 -107 0
-19013 -18870 0
19013 107 18870 0
-19014 -19012 0
-19014 -19013 0
19014 19012 19013 0
-19015 18867 0
-19015 19014 0
19015 -18867 -19014 0
-19016 -18867 0
-19016 -19014 0
19016 18867 19014 0
-19017 -19015 0
-19017 -19016 0
19017 19015 19016 0
-19018 -169 0
-19018 19017 0
19018 169 -19017 0
-19019 169 0
-19019 -19017 0
19019 -169 19017 0
-19020 -19018 0
-19020 -19019 0
19020 19018 19019 0
-19021 2 0
-19021 11863 0
19021 -2 -11863 0
-19022 -2 0
-19022 -11863 0
19022 2 11863 0
-19023 -19021 0
-19023 -19022 0
19023 19021 19022 0
-19024 11799 0
-19024 19023 0
19024 -11799 -19023 0
-19025 -11799 0
-19025 -19023 0
19025 11799 19023 0
-19026 -19024 0
-19026 -19025 0
19026 19024 19025 0
-19069 10 0
-19069 16056 0
19069 -10 -16056 0
-19070 -10 0
-19070 -16056 0
19070 10 16056 0
-19071 -19069 0
-19071 -19070 0
19071 19069 19070 0
-19072 19026 0
-19072 19071 0
19072 -19026 -19071 0
-19073 -19026 0
-19073 -19071 0
19073 19026 19071 0
-19074 -19072 0
-19074 -19073 0
19074 19072 19073 0
-19075 18 0
-19075 11522 0
19075 -18 -11522 0
-19076 -18 0
-19076 -11522 0
19076 18 11522 0
-19077 -19075 0
-19077 -19076 0
19077 19075 19076 0
-19207 15612 0
-19207 19077 0
19207 -15612 -19077 0
-19208 -15612 0
-19208 -19077 0
19208 15612 19077 0
-19209 -19207 0
-19209 -19208 0
19209 19207 19208 0
-19210 19074 0
-19210 19209 0
19210 -19074 -19209 0
-19211 -19074 0
-19211 -19209 0
19211 19074 19209 0
-19212 -19210 0
-19212 -19211 0
19212 19210 19211 0
-19114 11220 0
-19114 16080 0
19114 -11220 -16080 0
-19115 -11220 0
-19115 -16080 0
19115 11220 16080 0
-19116 -19114 0
-19116 -19115 0
19116 19114 19115 0
-19129 44 0
-19129 17142 0
19129 -44 -17142 0
-19130 -44 0
-19130 -17142 0
19130 44 17142 0
-19131 -19129 0
-19131 -19130 0
19131 19129 19130 0
-19213 19116 0
-19213 19131 0
19213 -19116 -19131 0
-19214 -19116 0
-19214 -19131 0
19214 19116 19131 0
-19215 -19213 0
-19215 -19214 0
19215 19213 19214 0
-19306 10713 0
-19306 18501 0
19306 -10713 -18501 0
-19307 -10713 0
-19307 -18501 0
19307 10713 18501 0
-19308 -19306 0
-19308 -19307 0
19308 19306 19307 0
-19405 19215 0
-19405 19308 0
19405 -19215 -19308 0
-19406 -19215 0
-19406 -19308 0
19406 19215 19308 0
-19407 -19405 0
-19407 -19406 0
19407 19405 19406 0
-19408 19212 0
-19408 19407 0
19408 -19212 -19407 0
-19409 -19212 0
-19409 -19407 0
19409 19212 19407 0
-19410 -19408 0
-19410 -19409 0
19410 19408 19409 0
-19063 77 0
-19063 80 0
19063 -77 -80 0
-19064 -77 0
-19064 -80 0
19064 77 80 0
-19065 -19063 0
-19065 -19064 0
19065 19063 19064 0
-19051 66 0
-19051 68 0
19051 -66 -68 0
-19052 -66 0
-19052 -68 0
19052 66 68 0
-19053 -19051 0
-19053 -19052 0
19053 19051 19052 0
-19057 73 0
-19057 10483 0
19057 -73 -10483 0
-19058 -73 0
-19058 -10483 0
19058 73 10483 0
-19059 -19057 0
-19059 -19058 0
19059 19057 19058 0
-19165 19053 0
-19165 19059 0
19165 -19053 -19059 0
-19166 -19053 0
-19166 -19059 0
19166 19053 19059 0
-19167 -19165 0
-19167 -19166 0
19167 19165 19166 0
-19348 19065 0
-19348 19167 0
19348 -19065 -19167 0
-19349 -19065 0
-19349 -19167 0
19349 19065 19167 0
-19350 -19348 0
-19350 -19349 0
19350 19348 19349 0
-19201 87 0
-19201 15057 0
19201 -87 -15057 0
-19202 -87 0
-19202 -15057 0
19202 87 15057 0
-19203 -19201 0
-19203 -19202 0
19203 19201 19202 0
-19396 92 0
-19396 19203 0
19396 -92 -19203 0
-19397 -92 0
-19397 -19203 0
19397 92 19203 0
-19398 -19396 0
-19398 -19397 0
19398 19396 19397 0
-19411 19350 0
-19411 19398 0
19411 -19350 -19398 0
-19412 -19350 0
-19412 -19398 0
19412 19350 19398 0
-19413 -19411 0
-19413 -19412 0
19413 19411 19412 0
-19561 107 0
-19561 19413 0
19561 -107 -19413 0
-19562 -107 0
-19562 -19413 0
19562 107 19413 0
-19563 -19561 0
-19563 -19562 0
19563 19561 19562 0
-19564 19410 0
-19564 19563 0
19564 -19410 -19563 0
-19565 -19410 0
-19565 -19563 0
19565 19410 19563 0
-19566 -19564 0
-19566 -19565 0
19566 19564 19565 0
-19567 -168 0
-19567 19566 0
19567 168 -19566 0
-19568 168 0
-19568 -19566 0
19568 -168 19566 0
-19569 -19567 0
-19569 -19568 0
19569 19567 19568 0
-19570 11799 0
-19570 16584 0
19570 -11799 -16584 0
-19571 -11799 0
-19571 -16584 0
19571 11799 16584 0
-19572 -19570 0
-19572 -19571 0
19572 19570 19571 0
-19576 16 0
-19576 11703 0
19576 -16 -11703 0
-19577 -16 0
-19577 -11703 0
19577 16 11703 0
-19578 -19576 0
-19578 -19577 0
19578 19576 19577 0
-19594 11767 0
-19594 19578 0
19594 -11767 -19578 0
-19595 -11767 0
-19595 -19578 0
19595 11767 19578 0
-19596 -19594 0
-19596 -19595 0
19596 19594 19595 0
-19597 19572 0
-19597 19596 0
19597 -19572 -19596 0
-19598 -19572 0
-19598 -19596 0
19598 19572 19596 0
-19599 -19597 0
-19599 -19598 0
19599 19597 19598 0
-19615 26 0
-19615 10959 0
19615 -26 -10959 0
-19616 -26 0
-19616 -10959 0
19616 26 10959 0
-19617 -19615 0
-19617 -19616 0
19617 19615 19616 0
-19696 14463 0
-19696 19617 0
19696 -14463 -19617 0
-19697 -14463 0
-19697 -19617 0
19697 14463 19617 0
-19698 -19696 0
-19698 -19697 0
19698 19696 19697 0
-19699 19599 0
-19699 19698 0
19699 -19599 -19698 0
-19700 -19599 0
-19700 -19698 0
19700 19599 19698 0
-19701 -19699 0
-19701 -19700 0
19701 19699 19700 0
-19672 56 0
-19672 18501 0
19672 -56 -18501 0
-19673 -56 0
-19673 -18501 0
19673 56 18501 0
-19674 -19672 0
-19674 -19673 0
19674 19672 19673 0
-13207 46 0
-13207 11052 0
13207 -46 -11052 0
-13208 -46 0
-13208 -11052 0
13208 46 11052 0
-13209 -13207 0
-13209 -13208 0
13209 13207 13208 0
-19633 41 0
-19633 16626 0
19633 -41 -16626 0
-19634 -41 0
-19634 -16626 0
19634 41 16626 0
-19635 -19633 0
-19635 -19634 0
19635 19633 19634 0
-19702 13209 0
-19702 19635 0
19702 -13209 -19635 0
-19703 -13209 0
-19703 -19635 0
19703 13209 19635 0
-19704 -19702 0
-19704 -19703 0
19704 19702 19703 0
-19837 19674 0
-19837 19704 0
19837 -19674 -19704 0
-19838 -19674 0
-19838 -19704 0
19838 19674 19704 0
-19839 -19837 0
-19839 -19838 0
19839 19837 19838 0
-19840 19701 0
-19840 19839 0
19840 -19701 -19839 0
-19841 -19701 0
-19841 -19839 0
19841 19701 19839 0
-19842 -19840 0
-19842 -19841 0
19842 19840 19841 0
-19591 70 0
-19591 10442 0
19591 -70 -10442 0
-19592 -70 0
-19592 -10442 0
19592 70 10442 0
-19593 -19591 0
-19593 -19592 0
19593 19591 19592 0
-19678 10521 0
-19678 19593 0
19678 -10521 -19593 0
-19679 -10521 0
-19679 -19593 0
19679 10521 19593 0
-19680 -19678 0
-19680 -19679 0
19680 19678 19679 0
-19693 86 0
-19693 15057 0
19693 -86 -15057 0
-19694 -86 0
-19694 -15057 0
19694 86 15057 0
-19695 -19693 0
-19695 -19694 0
19695 19693 19694 0
-19834 92 0
-19834 19695 0
19834 -92 -19695 0
-19835 -92 0
-19835 -19695 0
19835 92 19695 0
-19836 -19834 0
-19836 -19835 0
19836 19834 19835 0
-19843 19680 0
-19843 19836 0
19843 -19680 -19836 0
-19844 -19680 0
-19844 -19836 0
19844 19680 19836 0
-19845 -19843 0
-19845 -19844 0
19845 19843 19844 0
-19975 107 0
-19975 19845 0
19975 -107 -19845 0
-19976 -107 0
-19976 -19845 0
19976 107 19845 0
-19977 -19975 0
-19977 -19976 0
19977 19975 19976 0
-19978 19842 0
-19978 19977 0
19978 -19842 -19977 0
-19979 -19842 0
-19979 -19977 0
19979 19842 19977 0
-19980 -19978 0
-19980 -19979 0
19980 19978 19979 0
-19981 -167 0
-19981 19980 0
19981 167 -19980 0
-19982 167 0
-19982 -19980 0
19982 -167 19980 0
-19983 -19981 0
-19983 -19982 0
19983 19981 19982 0
-19984 9 0
-19984 11831 0
19984 -9 -11831 0
-19985 -9 0
-19985 -11831 0
19985 9 11831 0
-19986 -19984 0
-19986 -19985 0
19986 19984 19985 0
-19987 4 0
-19987 19986 0
19987 -4 -19986 0
-19988 -4 0
-19988 -19986 0
19988 4 19986 0
-19989 -19987 0
-19989 -19988 0
19989 19987 19988 0
-20017 12 0
-20017 19989 0
20017 -12 -19989 0
-20018 -12 0
-20018 -19989 0
20018 12 19989 0
-20019 -20017 0
-20019 -20018 0
20019 20017 20018 0
-17122 28 0
-17122 30 0
17122 -28 -30 0
-17123 -28 0
-17123 -30 0
17123 28 30 0
-17124 -17122 0
-17124 -17123 0
17124 17122 17123 0
-19993 18 0
-19993 21 0
19993 -18 -21 0
-19994 -18 0
-19994 -21 0
19994 18 21 0
-19995 -19993 0
-19995 -19994 0
19995 19993 19994 0
-19999 22 0
-19999 11522 0
19999 -22 -11522 0
-20000 -22 0
-20000 -11522 0
20000 22 11522 0
-20001 -19999 0
-20001 -20000 0
20001 19999 20000 0
-20020 19995 0
-20020 20001 0
20020 -19995 -20001 0
-20021 -19995 0
-20021 -20001 0
20021 19995 20001 0
-20022 -20020 0
-20022 -20021 0
20022 20020 20021 0
-20101 17124 0
-20101 20022 0
20101 -17124 -20022 0
-20102 -17124 0
-20102 -20022 0
20102 17124 20022 0
-20103 -20101 0
-20103 -20102 0
20103 20101 20102 0
-20104 20019 0
-20104 20103 0
20104 -20019 -20103 0
-20105 -20019 0
-20105 -20103 0
20105 20019 20103 0
-20106 -20104 0
-20106 -20105 0
20106 20104 20105 0
-20005 39 0
-20005 11270 0
20005 -39 -11270 0
-20006 -39 0
-20006 -11270 0
20006 39 11270 0
-20007 -20005 0
-20007 -20006 0
20007 20005 20006 0
-20065 42 0
-20065 48 0
20065 -42 -48 0
-20066 -42 0
-20066 -48 0
20066 42 48 0
-20067 -20065 0
-20067 -20066 0
20067 20065 20066 0
-20107 20007 0
-20107 20067 0
20107 -20007 -20067 0
-20108 -20007 0
-20108 -20067 0
20108 20007 20067 0
-20109 -20107 0
-20109 -20108 0
20109 20107 20108 0
-20170 52 0
-20170 17148 0
20170 -52 -17148 0
-20171 -52 0
-20171 -17148 0
20171 52 17148 0
-20172 -20170 0
-20172 -20171 0
20172 20170 20171 0
-20242 20109 0
-20242 20172 0
20242 -20109 -20172 0
-20243 -20109 0
-20243 -20172 0
20243 20109 20172 0
-20244 -20242 0
-20244 -20243 0
20244 20242 20243 0
-20245 20106 0
-20245 20244 0
20245 -20106 -20244 0
-20246 -20106 0
-20246 -20244 0
20246 20106 20244 0
-20247 -20245 0
-20247 -20246 0
20247 20245 20246 0
-20014 82 0
-20014 84 0
20014 -82 -84 0
-20015 -82 0
-20015 -84 0
20015 82 84 0
-20016 -20014 0
-20016 -20015 0
20016 20014 20015 0
-20095 10136 0
-20095 20016 0
20095 -10136 -20016 0
-20096 -10136 0
-20096 -20016 0
20096 10136 20016 0
-20097 -20095 0
-20097 -20096 0
20097 20095 20096 0
-17581 67 0
-17581 72 0
17581 -67 -72 0
-17582 -67 0
-17582 -72 0
17582 67 72 0
-17583 -17581 0
-17583 -17582 0
17583 17581 17582 0
-20011 79 0
-20011 81 0
20011 -79 -81 0
-20012 -79 0
-20012 -81 0
20012 79 81 0
-20013 -20011 0
-20013 -20012 0
20013 20011 20012 0
-20197 17583 0
-20197 20013 0
20197 -17583 -20013 0
-20198 -17583 0
-20198 -20013 0
20198 17583 20013 0
-20199 -20197 0
-20199 -20198 0
20199 20197 20198 0
-20248 20097 0
-20248 20199 0
20248 -20097 -20199 0
-20249 -20097 0
-20249 -20199 0
20249 20097 20199 0
-20250 -20248 0
-20250 -20249 0
20250 20248 20249 0
-20383 107 0
-20383 20250 0
20383 -107 -20250 0
-20384 -107 0
-20384 -20250 0
20384 107 20250 0
-20385 -20383 0
-20385 -20384 0
20385 20383 20384 0
-20386 20247 0
-20386 20385 0
20386 -20247 -20385 0
-20387 -20247 0
-20387 -20385 0
20387 20247 20385 0
-20388 -20386 0
-20388 -20387 0
20388 20386 20387 0
-20389 -166 0
-20389 20388 0
20389 166 -20388 0
-20390 166 0
-20390 -20388 0
20390 -166 20388 0
-20391 -20389 0
-20391 -20390 0
20391 20389 20390 0
-20392 3 0
-20392 6 0
20392 -3 -6 0
-20393 -3 0
-20393 -6 0
20393 3 6 0
-20394 -20392 0
-20394 -20393 0
20394 20392 20393 0
-20410 10 0
-20410 20394 0
20410 -10 -20394 0
-20411 -10 0
-20411 -20394 0
20411 10 20394 0
-20412 -20410 0
-20412 -20411 0
20412 20410 20411 0
-20395 19 0
-20395 21 0
20395 -19 -21 0
-20396 -19 0
-20396 -21 0
20396 19 21 0
-20397 -20395 0
-20397 -20396 0
20397 20395 20396 0
-20413 11522 0
-20413 20397 0
20413 -11522 -20397 0
-20414 -11522 0
-20414 -20397 0
20414 11522 20397 0
-20415 -20413 0
-20415 -20414 0
20415 20413 20414 0
-20473 17550 0
-20473 20415 0
20473 -17550 -20415 0
-20474 -17550 0
-20474 -20415 0
20474 17550 20415 0
-20475 -20473 0
-20475 -20474 0
20475 20473 20474 0
-20476 20412 0
-20476 20475 0
20476 -20412 -20475 0
-20477 -20412 0
-20477 -20475 0
20477 20412 20475 0
-20478 -20476 0
-20478 -20477 0
20478 20476 20477 0
-20440 40 0
-20440 12564 0
20440 -40 -12564 0
-20441 -40 0
-20441 -12564 0
20441 40 12564 0
-20442 -20440 0
-20442 -20441 0
20442 20440 20441 0
-20527 61 0
-20527 18015 0
20527 -61 -18015 0
-20528 -61 0
-20528 -18015 0
20528 61 18015 0
-20529 -20527 0
-20529 -20528 0
20529 20527 20528 0
-20599 20442 0
-20599 20529 0
20599 -20442 -20529 0
-20600 -20442 0
-20600 -20529 0
20600 20442 20529 0
-20601 -20599 0
-20601 -20600 0
20601 20599 20600 0
-20602 20478 0
-20602 20601 0
20602 -20478 -20601 0
-20603 -20478 0
-20603 -20601 0
20603 20478 20601 0
-20604 -20602 0
-20604 -20603 0
20604 20602 20603 0
-20407 85 0
-20407 10136 0
20407 -85 -10136 0
-20408 -85 0
-20408 -10136 0
20408 85 10136 0
-20409 -20407 0
-20409 -20408 0
20409 20407 20408 0
-20404 78 0
-20404 81 0
20404 -78 -81 0
-20405 -78 0
-20405 -81 0
20405 78 81 0
-20406 -20404 0
-20406 -20405 0
20406 20404 20405 0
-20455 70 0
-20455 10559 0
20455 -70 -10559 0
-20456 -70 0
-20456 -10559 0
20456 70 10559 0
-20457 -20455 0
-20457 -20456 0
20457 20455 20456 0
-20563 20406 0
-20563 20457 0
20563 -20406 -20457 0
-20564 -20406 0
-20564 -20457 0
20564 20406 20457 0
-20565 -20563 0
-20565 -20564 0
20565 20563 20564 0
-20605 20409 0
-20605 20565 0
20605 -20409 -20565 0
-20606 -20409 0
-20606 -20565 0
20606 20409 20565 0
-20607 -20605 0
-20607 -20606 0
20607 20605 20606 0
-20740 107 0
-20740 20607 0
20740 -107 -20607 0
-20741 -107 0
-20741 -20607 0
20741 107 20607 0
-20742 -20740 0
-20742 -20741 0
20742 20740 20741 0
-20743 20604 0
-20743 20742 0
20743 -20604 -20742 0
-20744 -20604 0
-20744 -20742 0
20744 20604 20742 0
-20745 -20743 0
-20745 -20744 0
20745 20743 20744 0
-20746 -165 0
-20746 20745 0
20746 165 -20745 0
-20747 165 0
-20747 -20745 0
20747 -165 20745 0
-20748 -20746 0
-20748 -20747 0
20748 20746 20747 0
-20749 2 0
-20749 11799 0
20749 -2 -11799 0
-20750 -2 0
-20750 -11799 0
20750 2 11799 0
-20751 -20749 0
-20751 -20750 0
20751 20749 20750 0
-20779 17 0
-20779 11767 0
20779 -17 -11767 0
-20780 -17 0
-20780 -11767 0
20780 17 11767 0
-20781 -20779 0
-20781 -20780 0
20781 20779 20780 0
-20782 20751 0
-20782 20781 0
20782 -20751 -20781 0
-20783 -20751 0
-20783 -20781 0
20783 20751 20781 0
-20784 -20782 0
-20784 -20783 0
20784 20782 20783 0
-20785 11522 0
-20785 11636 0
20785 -11522 -11636 0
-20786 -11522 0
-20786 -11636 0
20786 11522 11636 0
-20787 -20785 0
-20787 -20786 0
20787 20785 20786 0
-20803 11934 0
-20803 16617 0
20803 -11934 -16617 0
-20804 -11934 0
-20804 -16617 0
20804 11934 16617 0
-20805 -20803 0
-20805 -20804 0
20805 20803 20804 0
-20917 20787 0
-20917 20805 0
20917 -20787 -20805 0
-20918 -20787 0
-20918 -20805 0
20918 20787 20805 0
-20919 -20917 0
-20919 -20918 0
20919 20917 20918 0
-20920 20784 0
-20920 20919 0
20920 -20784 -20919 0
-20921 -20784 0
-20921 -20919 0
20921 20784 20919 0
-20922 -20920 0
-20922 -20921 0
20922 20920 20921 0
-20827 34 0
-20827 16638 0
20827 -34 -16638 0
-20828 -34 0
-20828 -16638 0
20828 34 16638 0
-20829 -20827 0
-20829 -20828 0
20829 20827 20828 0
-20923 47 0
-20923 20829 0
20923 -47 -20829 0
-20924 -47 0
-20924 -20829 0
20924 47 20829 0
-20925 -20923 0
-20925 -20924 0
20925 20923 20924 0
-20764 59 0
-20764 10688 0
20764 -59 -10688 0
-20765 -59 0
-20765 -10688 0
20765 59 10688 0
-20766 -20764 0
-20766 -20765 0
20766 20764 20765 0
-20869 65 0
-20869 20766 0
20869 -65 -20766 0
-20870 -65 0
-20870 -20766 0
20870 65 20766 0
-20871 -20869 0
-20871 -20870 0
20871 20869 20870 0
-21016 19674 0
-21016 20871 0
21016 -19674 -20871 0
-21017 -19674 0
-21017 -20871 0
21017 19674 20871 0
-21018 -21016 0
-21018 -21017 0
21018 21016 21017 0
-21103 20925 0
-21103 21018 0
21103 -20925 -21018 0
-21104 -20925 0
-21104 -21018 0
21104 20925 21018 0
-21105 -21103 0
-21105 -21104 0
21105 21103 21104 0
-21106 20922 0
-21106 21105 0
21106 -20922 -21105 0
-21107 -20922 0
-21107 -21105 0
21107 20922 21105 0
-21108 -21106 0
-21108 -21107 0
21108 21106 21107 0
-20908 10136 0
-20908 15057 0
20908 -10136 -15057 0
-20909 -10136 0
-20909 -15057 0
20909 10136 15057 0
-20910 -20908 0
-20910 -20909 0
20910 20908 20909 0
-20770 69 0
-20770 10559 0
20770 -69 -10559 0
-20771 -69 0
-20771 -10559 0
20771 69 10559 0
-20772 -20770 0
-20772 -20771 0
20772 20770 20771 0
-20887 10483 0
-20887 20772 0
20887 -10483 -20772 0
-20888 -10483 0
-20888 -20772 0
20888 10483 20772 0
-20889 -20887 0
-20889 -20888 0
20889 20887 20888 0
-21064 77 0
-21064 20889 0
21064 -77 -20889 0
-21065 -77 0
-21065 -20889 0
21065 77 20889 0
-21066 -21064 0
-21066 -21065 0
21066 21064 21065 0
-21109 20910 0
-21109 21066 0
21109 -20910 -21066 0
-21110 -20910 0
-21110 -21066 0
21110 20910 21066 0
-21111 -21109 0
-21111 -21110 0
21111 21109 21110 0
-21244 107 0
-21244 21111 0
21244 -107 -21111 0
-21245 -107 0
-21245 -21111 0
21245 107 21111 0
-21246 -21244 0
-21246 -21245 0
21246 21244 21245 0
-21247 21108 0
-21247 21246 0
21247 -21108 -21246 0
-21248 -21108 0
-21248 -21246 0
21248 21108 21246 0
-21249 -21247 0
-21249 -21248 0
21249 21247 21248 0
-21250 -164 0
-21250 21249 0
21250 164 -21249 0
-21251 164 0
-21251 -21249 0
21251 -164 21249 0
-21252 -21250 0
-21252 -21251 0
21252 21250 21251 0
-21253 9 0
-21253 11863 0
21253 -9 -11863 0
-21254 -9 0
-21254 -11863 0
21254 9 11863 0
-21255 -21253 0
-21255 -21254 0
21255 21253 21254 0
-21286 11901 0
-21286 21255 0
21286 -11901 -21255 0
-21287 -11901 0
-21287 -21255 0
21287 11901 21255 0
-21288 -21286 0
-21288 -21287 0
21288 21286 21287 0
-21262 20 0
-21262 11636 0
21262 -20 -11636 0
-21263 -20 0
-21263 -11636 0
21263 20 11636 0
-21264 -21262 0
-21264 -21263 0
21264 21262 21263 0
-21289 24 0
-21289 21264 0
21289 -24 -21264 0
-21290 -24 0
-21290 -21264 0
21290 24 21264 0
-21291 -21289 0
-21291 -21290 0
21291 21289 21290 0
-21265 30 0
-21265 10959 0
21265 -30 -10959 0
-21266 -30 0
-21266 -10959 0
21266 30 10959 0
-21267 -21265 0
-21267 -21266 0
21267 21265 21266 0
-21319 28 0
-21319 21267 0
21319 -28 -21267 0
-21320 -28 0
-21320 -21267 0
21320 28 21267 0
-21321 -21319 0
-21321 -21320 0
21321 21319 21320 0
-21415 21291 0
-21415 21321 0
21415 -21291 -21321 0
-21416 -21291 0
-21416 -21321 0
21416 21291 21321 0
-21417 -21415 0
-21417 -21416 0
21417 21415 21416 0
-21418 21288 0
-21418 21417 0
21418 -21288 -21417 0
-21419 -21288 0
-21419 -21417 0
21419 21288 21417 0
-21420 -21418 0
-21420 -21419 0
21420 21418 21419 0
-21271 39 0
-21271 11170 0
21271 -39 -11170 0
-21272 -39 0
-21272 -11170 0
21272 39 11170 0
-21273 -21271 0
-21273 -21272 0
21273 21271 21272 0
-21340 35 0
-21340 21273 0
21340 -35 -21273 0
-21341 -35 0
-21341 -21273 0
21341 35 21273 0
-21342 -21340 0
-21342 -21341 0
21342 21340 21341 0
-21364 43 0
-21364 12531 0
21364 -43 -12531 0
-21365 -43 0
-21365 -12531 0
21365 43 12531 0
-21366 -21364 0
-21366 -21365 0
21366 21364 21365 0
-21421 21342 0
-21421 21366 0
21421 -21342 -21366 0
-21422 -21342 0
-21422 -21366 0
21422 21342 21366 0
-21423 -21421 0
-21423 -21422 0
21423 21421 21422 0
-21379 10600 0
-21379 10688 0
21379 -10600 -10688 0
-21380 -10600 0
-21380 -10688 0
21380 10600 10688 0
-21381 -21379 0
-21381 -21380 0
21381 21379 21380 0
-21511 10902 0
-21511 21381 0
21511 -10902 -21381 0
-21512 -10902 0
-21512 -21381 0
21512 10902 21381 0
-21513 -21511 0
-21513 -21512 0
21513 21511 21512 0
-21580 21423 0
-21580 21513 0
21580 -21423 -21513 0
-21581 -21423 0
-21581 -21513 0
21581 21423 21513 0
-21582 -21580 0
-21582 -21581 0
21582 21580 21581 0
-21583 21420 0
-21583 21582 0
21583 -21420 -21582 0
-21584 -21420 0
-21584 -21582 0
21584 21420 21582 0
-21585 -21583 0
-21585 -21584 0
21585 21583 21584 0
-12616 84 0
-12616 87 0
12616 -84 -87 0
-12617 -84 0
-12617 -87 0
12617 84 87 0
-12618 -12616 0
-12618 -12617 0
12618 12616 12617 0
-21403 71 0
-21403 13236 0
21403 -71 -13236 0
-21404 -71 0
-21404 -13236 0
21404 71 13236 0
-21405 -21403 0
-21405 -21404 0
21405 21403 21404 0
-21556 10291 0
-21556 21405 0
21556 -10291 -21405 0
-21557 -10291 0
-21557 -21405 0
21557 10291 21405 0
-21558 -21556 0
-21558 -21557 0
21558 21556 21557 0
-21586 12618 0
-21586 21558 0
21586 -12618 -21558 0
-21587 -12618 0
-21587 -21558 0
21587 12618 21558 0
-21588 -21586 0
-21588 -21587 0
21588 21586 21587 0
-21709 107 0
-21709 21588 0
21709 -107 -21588 0
-21710 -107 0
-21710 -21588 0
21710 107 21588 0
-21711 -21709 0
-21711 -21710 0
21711 21709 21710 0
-21712 21585 0
-21712 21711 0
21712 -21585 -21711 0
-21713 -21585 0
-21713 -21711 0
21713 21585 21711 0
-21714 -21712 0
-21714 -21713 0
21714 21712 21713 0
-21715 -163 0
-21715 21714 0
21715 163 -21714 0
-21716 163 0
-21716 -21714 0
21716 -163 21714 0
-21717 -21715 0
-21717 -21716 0
21717 21715 21716 0
-21718 9 0
-21718 13164 0
21718 -9 -13164 0
-21719 -9 0
-21719 -13164 0
21719 9 13164 0
-21720 -21718 0
-21720 -21719 0
21720 21718 21719 0
-21757 11751 0
-21757 21720 0
21757 -11751 -21720 0
-21758 -11751 0
-21758 -21720 0
21758 11751 21720 0
-21759 -21757 0
-21759 -21758 0
21759 21757 21758 0
-21724 18 0
-21724 20 0
21724 -18 -20 0
-21725 -18 0
-21725 -20 0
21725 18 20 0
-21726 -21724 0
-21726 -21725 0
21726 21724 21725 0
-21760 25 0
-21760 21726 0
21760 -25 -21726 0
-21761 -25 0
-21761 -21726 0
21761 25 21726 0
-21762 -21760 0
-21762 -21761 0
21762 21760 21761 0
-16048 31 0
-16048 32 0
16048 -31 -32 0
-16049 -31 0
-16049 -32 0
16049 31 32 0
-16050 -16048 0
-16050 -16049 0
16050 16048 16049 0
-21775 27 0
-21775 16050 0
21775 -27 -16050 0
-21776 -27 0
-21776 -16050 0
21776 27 16050 0
-21777 -21775 0
-21777 -21776 0
21777 21775 21776 0
-21868 21762 0
-21868 21777 0
21868 -21762 -21777 0
-21869 -21762 0
-21869 -21777 0
21869 21762 21777 0
-21870 -21868 0
-21870 -21869 0
21870 21868 21869 0
-21871 21759 0
-21871 21870 0
21871 -21759 -21870 0
-21872 -21759 0
-21872 -21870 0
21872 21759 21870 0
-21873 -21871 0
-21873 -21872 0
21873 21871 21872 0
-21727 39 0
-21727 41 0
21727 -39 -41 0
-21728 -39 0
-21728 -41 0
21728 39 41 0
-21729 -21727 0
-21729 -21728 0
21729 21727 21728 0
-21790 35 0
-21790 21729 0
21790 -35 -21729 0
-21791 -35 0
-21791 -21729 0
21791 35 21729 0
-21792 -21790 0
-21792 -21791 0
21792 21790 21791 0
-21730 42 0
-21730 45 0
21730 -42 -45 0
-21731 -42 0
-21731 -45 0
21731 42 45 0
-21732 -21730 0
-21732 -21731 0
21732 21730 21731 0
-21739 49 0
-21739 12531 0
21739 -49 -12531 0
-21740 -49 0
-21740 -12531 0
21740 49 12531 0
-21741 -21739 0
-21741 -21740 0
21741 21739 21740 0
-21808 21732 0
-21808 21741 0
21808 -21732 -21741 0
-21809 -21732 0
-21809 -21741 0
21809 21732 21741 0
-21810 -21808 0
-21810 -21809 0
21810 21808 21809 0
-21874 21792 0
-21874 21810 0
21874 -21792 -21810 0
-21875 -21792 0
-21875 -21810 0
21875 21792 21810 0
-21876 -21874 0
-21876 -21875 0
21876 21874 21875 0
-21745 50 0
-21745 52 0
21745 -50 -52 0
-21746 -50 0
-21746 -52 0
21746 50 52 0
-21747 -21745 0
-21747 -21746 0
21747 21745 21746 0
-21829 60 0
-21829 13224 0
21829 -60 -13224 0
-21830 -60 0
-21830 -13224 0
21830 60 13224 0
-21831 -21829 0
-21831 -21830 0
21831 21829 21830 0
-21961 21747 0
-21961 21831 0
21961 -21747 -21831 0
-21962 -21747 0
-21962 -21831 0
21962 21747 21831 0
-21963 -21961 0
-21963 -21962 0
21963 21961 21962 0
-22045 21876 0
-22045 21963 0
22045 -21876 -21963 0
-22046 -21876 0
-22046 -21963 0
22046 21876 21963 0
-22047 -22045 0
-22047 -22046 0
22047 22045 22046 0
-22048 21873 0
-22048 22047 0
22048 -21873 -22047 0
-22049 -21873 0
-22049 -22047 0
22049 21873 22047 0
-22050 -22048 0
-22050 -22049 0
22050 22048 22049 0
-12001 85 0
-12001 88 0
12001 -85 -88 0
-12002 -85 0
-12002 -88 0
12002 85 88 0
-12003 -12001 0
-12003 -12002 0
12003 12001 12002 0
-21853 71 0
-21853 19053 0
21853 -71 -19053 0
-21854 -71 0
-21854 -19053 0
21854 71 19053 0
-21855 -21853 0
-21855 -21854 0
21855 21853 21854 0
-22009 15051 0
-22009 21855 0
22009 -15051 -21855 0
-22010 -15051 0
-22010 -21855 0
22010 15051 21855 0
-22011 -22009 0
-22011 -22010 0
22011 22009 22010 0
-22051 12003 0
-22051 22011 0
22051 -12003 -22011 0
-22052 -12003 0
-22052 -22011 0
22052 12003 22011 0
-22053 -22051 0
-22053 -22052 0
22053 22051 22052 0
-22183 107 0
-22183 22053 0
22183 -107 -22053 0
-22184 -107 0
-22184 -22053 0
22184 107 22053 0
-22185 -22183 0
-22185 -22184 0
22185 22183 22184 0
-22186 22050 0
-22186 22185 0
22186 -22050 -22185 0
-22187 -22050 0
-22187 -22185 0
22187 22050 22185 0
-22188 -22186 0
-22188 -22187 0
22188 22186 22187 0
-22189 -162 0
-22189 22188 0
22189 162 -22188 0
-22190 162 0
-22190 -22188 0
22190 -162 22188 0
-22191 -22189 0
-22191 -22190 0
22191 22189 22190 0
-22192 15012 0
-22192 15192 0
22192 -15012 -15192 0
-22193 -15012 0
-22193 -15192 0
22193 15012 15192 0
-22194 -22192 0
-22194 -22193 0
22194 22192 22193 0
-22216 10883 0
-22216 15039 0
22216 -10883 -15039 0
-22217 -10883 0
-22217 -15039 0
22217 10883 15039 0
-22218 -22216 0
-22218 -22217 0
22218 22216 22217 0
-22240 15198 0
-22240 22218 0
22240 -15198 -22218 0
-22241 -15198 0
-22241 -22218 0
22241 15198 22218 0
-22242 -22240 0
-22242 -22241 0
22242 22240 22241 0
-22243 22194 0
-22243 22242 0
22243 -22194 -22242 0
-22244 -22194 0
-22244 -22242 0
22244 22194 22242 0
-22245 -22243 0
-22245 -22244 0
22245 22243 22244 0
-22246 15186 0
-22246 15327 0
22246 -15186 -15327 0
-22247 -15186 0
-22247 -15327 0
22247 15186 15327 0
-22248 -22246 0
-22248 -22247 0
22248 22246 22247 0
-22381 107 0
-22381 22248 0
22381 -107 -22248 0
-22382 -107 0
-22382 -22248 0
22382 107 22248 0
-22383 -22381 0
-22383 -22382 0
22383 22381 22382 0
-22384 22245 0
-22384 22383 0
22384 -22245 -22383 0
-22385 -22245 0
-22385 -22383 0
22385 22245 22383 0
-22386 -22384 0
-22386 -22385 0
22386 22384 22385 0
-22387 -161 0
-22387 22386 0
22387 161 -22386 0
-22388 161 0
-22388 -22386 0
22388 -161 22386 0
-22389 -22387 0
-22389 -22388 0
22389 22387 22388 0
-22390 8 0
-22390 15012 0
22390 -8 -15012 0
-22391 -8 0
-22391 -15012 0
22391 8 15012 0
-22392 -22390 0
-22392 -22391 0
22392 22390 22391 0
-22402 11767 0
-22402 12528 0
22402 -11767 -12528 0
-22403 -11767 0
-22403 -12528 0
22403 11767 12528 0
-22404 -22402 0
-22404 -22403 0
22404 22402 22403 0
-22405 22392 0
-22405 22404 0
22405 -22392 -22404 0
-22406 -22392 0
-22406 -22404 0
22406 22392 22404 0
-22407 -22405 0
-22407 -22406 0
22407 22405 22406 0
-22408 11522 0
-22408 11617 0
22408 -11522 -11617 0
-22409 -11522 0
-22409 -11617 0
22409 11522 11617 0
-22410 -22408 0
-22410 -22409 0
22410 22408 22409 0
-22513 30 0
-22513 22410 0
22513 -30 -22410 0
-22514 -30 0
-22514 -22410 0
22514 30 22410 0
-22515 -22513 0
-22515 -22514 0
22515 22513 22514 0
-22516 22407 0
-22516 22515 0
22516 -22407 -22515 0
-22517 -22407 0
-22517 -22515 0
22517 22407 22515 0
-22518 -22516 0
-22518 -22517 0
22518 22516 22517 0
-22450 11952 0
-22450 16080 0
22450 -11952 -16080 0
-22451 -11952 0
-22451 -16080 0
22451 11952 16080 0
-22452 -22450 0
-22452 -22451 0
22452 22450 22451 0
-22468 11052 0
-22468 17142 0
22468 -11052 -17142 0
-22469 -11052 0
-22469 -17142 0
22469 11052 17142 0
-22470 -22468 0
-22470 -22469 0
22470 22468 22469 0
-22519 22452 0
-22519 22470 0
22519 -22452 -22470 0
-22520 -22452 0
-22520 -22470 0
22520 22452 22470 0
-22521 -22519 0
-22521 -22520 0
22521 22519 22520 0
-15664 59 0
-15664 10329 0
15664 -59 -10329 0
-15665 -59 0
-15665 -10329 0
15665 59 10329 0
-15666 -15664 0
-15666 -15665 0
15666 15664 15665 0
-22612 15666 0
-22612 18501 0
22612 -15666 -18501 0
-22613 -15666 0
-22613 -18501 0
22613 15666 18501 0
-22614 -22612 0
-22614 -22613 0
22614 22612 22613 0
-22687 22521 0
-22687 22614 0
22687 -22521 -22614 0
-22688 -22521 0
-22688 -22614 0
22688 22521 22614 0
-22689 -22687 0
-22689 -22688 0
22689 22687 22688 0
-22690 22518 0
-22690 22689 0
22690 -22518 -22689 0
-22691 -22518 0
-22691 -22689 0
22691 22518 22689 0
-22692 -22690 0
-22692 -22691 0
22692 22690 22691 0
-19066 87 0
-19066 10196 0
19066 -87 -10196 0
-19067 -87 0
-19067 -10196 0
19067 87 10196 0
-19068 -19066 0
-19068 -19067 0
19068 19066 19067 0
-22399 78 0
-22399 80 0
22399 -78 -80 0
-22400 -78 0
-22400 -80 0
22400 78 80 0
-22401 -22399 0
-22401 -22400 0
22401 22399 22400 0
-22495 77 0
-22495 22401 0
22495 -77 -22401 0
-22496 -77 0
-22496 -22401 0
22496 77 22401 0
-22497 -22495 0
-22497 -22496 0
22497 22495 22496 0
-22648 19059 0
-22648 22497 0
22648 -19059 -22497 0
-22649 -19059 0
-22649 -22497 0
22649 19059 22497 0
-22650 -22648 0
-22650 -22649 0
22650 22648 22649 0
-22693 19068 0
-22693 22650 0
22693 -19068 -22650 0
-22694 -19068 0
-22694 -22650 0
22694 19068 22650 0
-22695 -22693 0
-22695 -22694 0
22695 22693 22694 0
-22828 107 0
-22828 22695 0
22828 -107 -22695 0
-22829 -107 0
-22829 -22695 0
22829 107 22695 0
-22830 -22828 0
-22830 -22829 0
22830 22828 22829 0
-22831 22692 0
-22831 22830 0
22831 -22692 -22830 0
-22832 -22692 0
-22832 -22830 0
22832 22692 22830 0
-22833 -22831 0
-22833 -22832 0
22833 22831 22832 0
-22834 -160 0
-22834 22833 0
22834 160 -22833 0
-22835 160 0
-22835 -22833 0
22835 -160 22833 0
-22836 -22834 0
-22836 -22835 0
22836 22834 22835 0
-22837 11895 0
-22837 15012 0
22837 -11895 -15012 0
-22838 -11895 0
-22838 -15012 0
22838 11895 15012 0
-22839 -22837 0
-22839 -22838 0
22839 22837 22838 0
-22867 11 0
-22867 13809 0
22867 -11 -13809 0
-22868 -11 0
-22868 -13809 0
22868 11 13809 0
-22869 -22867 0
-22869 -22868 0
22869 22867 22868 0
-22870 22839 0
-22870 22869 0
22870 -22839 -22869 0
-22871 -22839 0
-22871 -22869 0
22871 22839 22869 0
-22872 -22870 0
-22872 -22871 0
22872 22870 22871 0
-22849 22 0
-22849 24 0
22849 -22 -24 0
-22850 -22 0
-22850 -24 0
22850 22 24 0
-22851 -22849 0
-22851 -22850 0
22851 22849 22850 0
-22873 21264 0
-22873 22851 0
22873 -21264 -22851 0
-22874 -21264 0
-22874 -22851 0
22874 21264 22851 0
-22875 -22873 0
-22875 -22874 0
22875 22873 22874 0
-22909 28 0
-22909 11940 0
22909 -28 -11940 0
-22910 -28 0
-22910 -11940 0
22910 28 11940 0
-22911 -22909 0
-22911 -22910 0
22911 22909 22910 0
-23020 22875 0
-23020 22911 0
23020 -22875 -22911 0
-23021 -22875 0
-23021 -22911 0
23021 22875 22911 0
-23022 -23020 0
-23022 -23021 0
23022 23020 23021 0
-23023 22872 0
-23023 23022 0
23023 -22872 -23022 0
-23024 -22872 0
-23024 -23022 0
23024 22872 23022 0
-23025 -23023 0
-23025 -23024 0
23025 23023 23024 0
-22852 36 0
-22852 11320 0
22852 -36 -11320 0
-22853 -36 0
-22853 -11320 0
22853 36 11320 0
-22854 -22852 0
-22854 -22853 0
22854 22852 22853 0
-22933 13848 0
-22933 22854 0
22933 -13848 -22854 0
-22934 -13848 0
-22934 -22854 0
22934 13848 22854 0
-22935 -22933 0
-22935 -22934 0
22935 22933 22934 0
-22954 11052 0
-22954 14475 0
22954 -11052 -14475 0
-22955 -11052 0
-22955 -14475 0
22955 11052 14475 0
-22956 -22954 0
-22956 -22955 0
22956 22954 22955 0
-23026 22935 0
-23026 22956 0
23026 -22935 -22956 0
-23027 -22935 0
-23027 -22956 0
23027 22935 22956 0
-23028 -23026 0
-23028 -23027 0
23028 23026 23027 0
-22861 62 0
-22861 64 0
22861 -62 -64 0
-22862 -62 0
-22862 -64 0
22862 62 64 0
-22863 -22861 0
-22863 -22862 0
22863 22861 22862 0
-22984 16092 0
-22984 22863 0
22984 -16092 -22863 0
-22985 -16092 0
-22985 -22863 0
22985 16092 22863 0
-22986 -22984 0
-22986 -22985 0
22986 22984 22985 0
-23119 18501 0
-23119 22986 0
23119 -18501 -22986 0
-23120 -18501 0
-23120 -22986 0
23120 18501 22986 0
-23121 -23119 0
-23121 -23120 0
23121 23119 23120 0
-23191 23028 0
-23191 23121 0
23191 -23028 -23121 0
-23192 -23028 0
-23192 -23121 0
23192 23028 23121 0
-23193 -23191 0
-23193 -23192 0
23193 23191 23192 0
-23194 23025 0
-23194 23193 0
23194 -23025 -23193 0
-23195 -23025 0
-23195 -23193 0
23195 23025 23193 0
-23196 -23194 0
-23196 -23195 0
23196 23194 23195 0
-22999 69 0
-22999 12606 0
22999 -69 -12606 0
-23000 -69 0
-23000 -12606 0
23000 69 12606 0
-23001 -22999 0
-23001 -23000 0
23001 22999 23000 0
-23164 19065 0
-23164 23001 0
23164 -19065 -23001 0
-23165 -19065 0
-23165 -23001 0
23165 19065 23001 0
-23166 -23164 0
-23166 -23165 0
23166 23164 23165 0
-23197 20016 0
-23197 23166 0
23197 -20016 -23166 0
-23198 -20016 0
-23198 -23166 0
23198 20016 23166 0
-23199 -23197 0
-23199 -23198 0
23199 23197 23198 0
-23317 107 0
-23317 23199 0
23317 -107 -23199 0
-23318 -107 0
-23318 -23199 0
23318 107 23199 0
-23319 -23317 0
-23319 -23318 0
23319 23317 23318 0
-23320 23196 0
-23320 23319 0
23320 -23196 -23319 0
-23321 -23196 0
-23321 -23319 0
23321 23196 23319 0
-23322 -23320 0
-23322 -23321 0
23322 23320 23321 0
-23323 -159 0
-23323 23322 0
23323 159 -23322 0
-23324 159 0
-23324 -23322 0
23324 -159 23322 0
-23325 -23323 0
-23325 -23324 0
23325 23323 23324 0
-23326 11831 0
-23326 15012 0
23326 -11831 -15012 0
-23327 -11831 0
-23327 -15012 0
23327 11831 15012 0
-23328 -23326 0
-23328 -23327 0
23328 23326 23327 0
-23353 11 0
-23353 19578 0
23353 -11 -19578 0
-23354 -11 0
-23354 -19578 0
23354 11 19578 0
-23355 -23353 0
-23355 -23354 0
23355 23353 23354 0
-23356 23328 0
-23356 23355 0
23356 -23328 -23355 0
-23357 -23328 0
-23357 -23355 0
23357 23328 23355 0
-23358 -23356 0
-23358 -23357 0
23358 23356 23357 0
-23335 11598 0
-23335 11636 0
23335 -11598 -11636 0
-23336 -11598 0
-23336 -11636 0
23336 11598 11636 0
-23337 -23335 0
-23337 -23336 0
23337 23335 23336 0
-23359 22 0
-23359 23337 0
23359 -22 -23337 0
-23360 -22 0
-23360 -23337 0
23360 22 23337 0
-23361 -23359 0
-23361 -23360 0
23361 23359 23360 0
-23341 27 0
-23341 11446 0
23341 -27 -11446 0
-23342 -27 0
-23342 -11446 0
23342 27 11446 0
-23343 -23341 0
-23343 -23342 0
23343 23341 23342 0
-23344 10959 0
-23344 11408 0
23344 -10959 -11408 0
-23345 -10959 0
-23345 -11408 0
23345 10959 11408 0
-23346 -23344 0
-23346 -23345 0
23346 23344 23345 0
-23398 23343 0
-23398 23346 0
23398 -23343 -23346 0
-23399 -23343 0
-23399 -23346 0
23399 23343 23346 0
-23400 -23398 0
-23400 -23399 0
23400 23398 23399 0
-23494 23361 0
-23494 23400 0
23494 -23361 -23400 0
-23495 -23361 0
-23495 -23400 0
23495 23361 23400 0
-23496 -23494 0
-23496 -23495 0
23496 23494 23495 0
-23497 23358 0
-23497 23496 0
23497 -23358 -23496 0
-23498 -23358 0
-23498 -23496 0
23498 23358 23496 0
-23499 -23497 0
-23499 -23498 0
23499 23497 23498 0
-23500 15111 0
-23500 20829 0
23500 -15111 -20829 0
-23501 -15111 0
-23501 -20829 0
23501 15111 20829 0
-23502 -23500 0
-23502 -23501 0
23502 23500 23501 0
-23461 10619 0
-23461 16662 0
23461 -10619 -16662 0
-23462 -10619 0
-23462 -16662 0
23462 10619 16662 0
-23463 -23461 0
-23463 -23462 0
23463 23461 23462 0
-23593 18597 0
-23593 23463 0
23593 -18597 -23463 0
-23594 -18597 0
-23594 -23463 0
23594 18597 23463 0
-23595 -23593 0
-23595 -23594 0
23595 23593 23594 0
-23668 23502 0
-23668 23595 0
23668 -23502 -23595 0
-23669 -23502 0
-23669 -23595 0
23669 23502 23595 0
-23670 -23668 0
-23670 -23669 0
23670 23668 23669 0
-23671 23499 0
-23671 23670 0
23671 -23499 -23670 0
-23672 -23499 0
-23672 -23670 0
23672 23499 23670 0
-23673 -23671 0
-23673 -23672 0
23673 23671 23672 0
-23491 82 0
-23491 86 0
23491 -82 -86 0
-23492 -82 0
-23492 -86 0
23492 82 86 0
-23493 -23491 0
-23493 -23492 0
23493 23491 23492 0
-23641 10272 0
-23641 19680 0
23641 -10272 -19680 0
-23642 -10272 0
-23642 -19680 0
23642 10272 19680 0
-23643 -23641 0
-23643 -23642 0
23643 23641 23642 0
-23674 23493 0
-23674 23643 0
23674 -23493 -23643 0
-23675 -23493 0
-23675 -23643 0
23675 23493 23643 0
-23676 -23674 0
-23676 -23675 0
23676 23674 23675 0
-23797 107 0
-23797 23676 0
23797 -107 -23676 0
-23798 -107 0
-23798 -23676 0
23798 107 23676 0
-23799 -23797 0
-23799 -23798 0
23799 23797 23798 0
-23800 23673 0
-23800 23799 0
23800 -23673 -23799 0
-23801 -23673 0
-23801 -23799 0
23801 23673 23799 0
-23802 -23800 0
-23802 -23801 0
23802 23800 23801 0
-23803 -158 0
-23803 23802 0
23803 158 -23802 0
-23804 158 0
-23804 -23802 0
23804 -158 23802 0
-23805 -23803 0
-23805 -23804 0
23805 23803 23804 0
-23806 14430 0
-23806 16584 0
23806 -14430 -16584 0
-23807 -14430 0
-23807 -16584 0
23807 14430 16584 0
-23808 -23806 0
-23808 -23807 0
23808 23806 23807 0
-23854 11913 0
-23854 19578 0
23854 -11913 -19578 0
-23855 -11913 0
-23855 -19578 0
23855 11913 19578 0
-23856 -23854 0
-23856 -23855 0
23856 23854 23855 0
-23857 23808 0
-23857 23856 0
23857 -23808 -23856 0
-23858 -23808 0
-23858 -23856 0
23858 23808 23856 0
-23859 -23857 0
-23859 -23858 0
23859 23857 23858 0
-23821 23 0
-23821 25 0
23821 -23 -25 0
-23822 -23 0
-23822 -25 0
23822 23 25 0
-23823 -23821 0
-23823 -23822 0
23823 23821 23822 0
-23860 19995 0
-23860 23823 0
23860 -19995 -23823 0
-23861 -19995 0
-23861 -23823 0
23861 19995 23823 0
-23862 -23860 0
-23862 -23861 0
23862 23860 23861 0
-23905 13197 0
-23905 23346 0
23905 -13197 -23346 0
-23906 -13197 0
-23906 -23346 0
23906 13197 23346 0
-23907 -23905 0
-23907 -23906 0
23907 23905 23906 0
-24040 23862 0
-24040 23907 0
24040 -23862 -23907 0
-24041 -23862 0
-24041 -23907 0
24041 23862 23907 0
-24042 -24040 0
-24042 -24041 0
24042 24040 24041 0
-24043 23859 0
-24043 24042 0
24043 -23859 -24042 0
-24044 -23859 0
-24044 -24042 0
24044 23859 24042 0
-24045 -24043 0
-24045 -24044 0
24045 24043 24044 0
-23929 16080 0
-23929 21729 0
23929 -16080 -21729 0
-23930 -16080 0
-23930 -21729 0
23930 16080 21729 0
-23931 -23929 0
-23931 -23930 0
23931 23929 23930 0
-23839 43 0
-23839 11052 0
23839 -43 -11052 0
-23840 -43 0
-23840 -11052 0
23840 43 11052 0
-23841 -23839 0
-23841 -23840 0
23841 23839 23840 0
-23953 13215 0
-23953 23841 0
23953 -13215 -23841 0
-23954 -13215 0
-23954 -23841 0
23954 13215 23841 0
-23955 -23953 0
-23955 -23954 0
23955 23953 23954 0
-24046 23931 0
-24046 23955 0
24046 -23931 -23955 0
-24047 -23931 0
-24047 -23955 0
24047 23931 23955 0
-24048 -24046 0
-24048 -24047 0
24048 24046 24047 0
-23971 10788 0
-23971 18501 0
23971 -10788 -18501 0
-23972 -10788 0
-23972 -18501 0
23972 10788 18501 0
-23973 -23971 0
-23973 -23972 0
23973 23971 23972 0
-23995 10329 0
-23995 17148 0
23995 -10329 -17148 0
-23996 -10329 0
-23996 -17148 0
23996 10329 17148 0
-23997 -23995 0
-23997 -23996 0
23997 23995 23996 0
-24139 23973 0
-24139 23997 0
24139 -23973 -23997 0
-24140 -23973 0
-24140 -23997 0
24140 23973 23997 0
-24141 -24139 0
-24141 -24140 0
24141 24139 24140 0
-24229 24048 0
-24229 24141 0
24229 -24048 -24141 0
-24230 -24048 0
-24230 -24141 0
24230 24048 24141 0
-24231 -24229 0
-24231 -24230 0
24231 24229 24230 0
-24232 24045 0
-24232 24231 0
24232 -24045 -24231 0
-24233 -24045 0
-24233 -24231 0
24233 24045 24231 0
-24234 -24232 0
-24234 -24233 0
24234 24232 24233 0
-23851 86 0
-23851 88 0
23851 -86 -88 0
-23852 -86 0
-23852 -88 0
23852 86 88 0
-23853 -23851 0
-23853 -23852 0
23853 23851 23852 0
-24034 83 0
-24034 23853 0
24034 -83 -23853 0
-24035 -83 0
-24035 -23853 0
24035 83 23853 0
-24036 -24034 0
-24036 -24035 0
24036 24034 24035 0
-23845 70 0
-23845 72 0
23845 -70 -72 0
-23846 -70 0
-23846 -72 0
23846 70 72 0
-23847 -23845 0
-23847 -23846 0
23847 23845 23846 0
-24010 10521 0
-24010 23847 0
24010 -10521 -23847 0
-24011 -10521 0
-24011 -23847 0
24011 10521 23847 0
-24012 -24010 0
-24012 -24011 0
24012 24010 24011 0
-24187 20013 0
-24187 24012 0
24187 -20013 -24012 0
-24188 -20013 0
-24188 -24012 0
24188 20013 24012 0
-24189 -24187 0
-24189 -24188 0
24189 24187 24188 0
-24235 24036 0
-24235 24189 0
24235 -24036 -24189 0
-24236 -24036 0
-24236 -24189 0
24236 24036 24189 0
-24237 -24235 0
-24237 -24236 0
24237 24235 24236 0
-24373 107 0
-24373 24237 0
24373 -107 -24237 0
-24374 -107 0
-24374 -24237 0
24374 107 24237 0
-24375 -24373 0
-24375 -24374 0
24375 24373 24374 0
-24376 24234 0
-24376 24375 0
24376 -24234 -24375 0
-24377 -24234 0
-24377 -24375 0
24377 24234 24375 0
-24378 -24376 0
-24378 -24377 0
24378 24376 24377 0
-24379 -157 0
-24379 24378 0
24379 157 -24378 0
-24380 157 0
-24380 -24378 0
24380 -157 24378 0
-24381 -24379 0
-24381 -24380 0
24381 24379 24380 0
-24382 8 0
-24382 16584 0
24382 -8 -16584 0
-24383 -8 0
-24383 -16584 0
24383 8 16584 0
-24384 -24382 0
-24384 -24383 0
24384 24382 24383 0
-24406 11703 0
-24406 12540 0
24406 -11703 -12540 0
-24407 -11703 0
-24407 -12540 0
24407 11703 12540 0
-24408 -24406 0
-24408 -24407 0
24408 24406 24407 0
-24409 24384 0
-24409 24408 0
24409 -24384 -24408 0
-24410 -24384 0
-24410 -24408 0
24410 24384 24408 0
-24411 -24409 0
-24411 -24410 0
24411 24409 24410 0
-24433 13197 0
-24433 21267 0
24433 -13197 -21267 0
-24434 -13197 0
-24434 -21267 0
24434 13197 21267 0
-24435 -24433 0
-24435 -24434 0
24435 24433 24434 0
-24544 14463 0
-24544 24435 0
24544 -14463 -24435 0
-24545 -14463 0
-24545 -24435 0
24545 14463 24435 0
-24546 -24544 0
-24546 -24545 0
24546 24544 24545 0
-24547 24411 0
-24547 24546 0
24547 -24411 -24546 0
-24548 -24411 0
-24548 -24546 0
24548 24411 24546 0
-24549 -24547 0
-24549 -24548 0
24549 24547 24548 0
-24451 41 0
-24451 11295 0
24451 -41 -11295 0
-24452 -41 0
-24452 -11295 0
24452 41 11295 0
-24453 -24451 0
-24453 -24452 0
24453 24451 24452 0
-24472 16650 0
-24472 17142 0
24472 -16650 -17142 0
-24473 -16650 0
-24473 -17142 0
24473 16650 17142 0
-24474 -24472 0
-24474 -24473 0
24474 24472 24473 0
-24550 24453 0
-24550 24474 0
24550 -24453 -24474 0
-24551 -24453 0
-24551 -24474 0
24551 24453 24474 0
-24552 -24550 0
-24552 -24551 0
24552 24550 24551 0
-24484 10788 0
-24484 10902 0
24484 -10788 -10902 0
-24485 -10788 0
-24485 -10902 0
24485 10788 10902 0
-24486 -24484 0
-24486 -24485 0
24486 24484 24485 0
-24499 58 0
-24499 22863 0
24499 -58 -22863 0
-24500 -58 0
-24500 -22863 0
24500 58 22863 0
-24501 -24499 0
-24501 -24500 0
24501 24499 24500 0
-24643 24486 0
-24643 24501 0
24643 -24486 -24501 0
-24644 -24486 0
-24644 -24501 0
24644 24486 24501 0
-24645 -24643 0
-24645 -24644 0
24645 24643 24644 0
-24733 24552 0
-24733 24645 0
24733 -24552 -24645 0
-24734 -24552 0
-24734 -24645 0
24734 24552 24645 0
-24735 -24733 0
-24735 -24734 0
24735 24733 24734 0
-24736 24549 0
-24736 24735 0
24736 -24549 -24735 0
-24737 -24549 0
-24737 -24735 0
24737 24549 24735 0
-24738 -24736 0
-24738 -24737 0
24738 24736 24737 0
-24403 67 0
-24403 10521 0
24403 -67 -10521 0
-24404 -67 0
-24404 -10521 0
24404 67 10521 0
-24405 -24403 0
-24405 -24404 0
24405 24403 24404 0
-24517 73 0
-24517 24405 0
24517 -73 -24405 0
-24518 -73 0
-24518 -24405 0
24518 73 24405 0
-24519 -24517 0
-24519 -24518 0
24519 24517 24518 0
-24691 78 0
-24691 24519 0
24691 -78 -24519 0
-24692 -78 0
-24692 -24519 0
24692 78 24519 0
-24693 -24691 0
-24693 -24692 0
24693 24691 24692 0
-24739 13413 0
-24739 24693 0
24739 -13413 -24693 0
-24740 -13413 0
-24740 -24693 0
24740 13413 24693 0
-24741 -24739 0
-24741 -24740 0
24741 24739 24740 0
-24877 107 0
-24877 24741 0
24877 -107 -24741 0
-24878 -107 0
-24878 -24741 0
24878 107 24741 0
-24879 -24877 0
-24879 -24878 0
24879 24877 24878 0
-24880 24738 0
-24880 24879 0
24880 -24738 -24879 0
-24881 -24738 0
-24881 -24879 0
24881 24738 24879 0
-24882 -24880 0
-24882 -24881 0
24882 24880 24881 0
-24883 -156 0
-24883 24882 0
24883 156 -24882 0
-24884 156 0
-24884 -24882 0
24884 -156 24882 0
-24885 -24883 0
-24885 -24884 0
24885 24883 24884 0
-24886 11799 0
-24886 15012 0
24886 -11799 -15012 0
-24887 -11799 0
-24887 -15012 0
24887 11799 15012 0
-24888 -24886 0
-24888 -24887 0
24888 24886 24887 0
-24895 10 0
-24895 15546 0
24895 -10 -15546 0
-24896 -10 0
-24896 -15546 0
24896 10 15546 0
-24897 -24895 0
-24897 -24896 0
24897 24895 24896 0
-24898 24888 0
-24898 24897 0
24898 -24888 -24897 0
-24899 -24888 0
-24899 -24897 0
24899 24888 24897 0
-24900 -24898 0
-24900 -24899 0
24900 24898 24899 0
-22426 20 0
-22426 11522 0
22426 -20 -11522 0
-22427 -20 0
-22427 -11522 0
22427 20 11522 0
-22428 -22426 0
-22428 -22427 0
22428 22426 22427 0
-24925 32 0
-24925 13197 0
24925 -32 -13197 0
-24926 -32 0
-24926 -13197 0
24926 32 13197 0
-24927 -24925 0
-24927 -24926 0
24927 24925 24926 0
-25036 22428 0
-25036 24927 0
25036 -22428 -24927 0
-25037 -22428 0
-25037 -24927 0
25037 22428 24927 0
-25038 -25036 0
-25038 -25037 0
25038 25036 25037 0
-25039 24900 0
-25039 25038 0
25039 -24900 -25038 0
-25040 -24900 0
-25040 -25038 0
25040 24900 25038 0
-25041 -25039 0
-25041 -25040 0
25041 25039 25040 0
-24955 46 0
-24955 16650 0
24955 -46 -16650 0
-24956 -46 0
-24956 -16650 0
24956 46 16650 0
-24957 -24955 0
-24957 -24956 0
24957 24955 24956 0
-25042 38 0
-25042 24957 0
25042 -38 -24957 0
-25043 -38 0
-25043 -24957 0
25043 38 24957 0
-25044 -25042 0
-25044 -25043 0
25044 25042 25043 0
-24970 50 0
-24970 10788 0
24970 -50 -10788 0
-24971 -50 0
-24971 -10788 0
24971 50 10788 0
-24972 -24970 0
-24972 -24971 0
24972 24970 24971 0
-24985 10619 0
-24985 10738 0
24985 -10619 -10738 0
-24986 -10619 0
-24986 -10738 0
24986 10619 10738 0
-24987 -24985 0
-24987 -24986 0
24987 24985 24986 0
-25135 24972 0
-25135 24987 0
25135 -24972 -24987 0
-25136 -24972 0
-25136 -24987 0
25136 24972 24987 0
-25137 -25135 0
-25137 -25136 0
25137 25135 25136 0
-25228 25044 0
-25228 25137 0
25228 -25044 -25137 0
-25229 -25044 0
-25229 -25137 0
25229 25044 25137 0
-25230 -25228 0
-25230 -25229 0
25230 25228 25229 0
-25231 25041 0
-25231 25230 0
25231 -25041 -25230 0
-25232 -25041 0
-25232 -25230 0
25232 25041 25230 0
-25233 -25231 0
-25233 -25232 0
25233 25231 25232 0
-25030 10136 0
-25030 10234 0
25030 -10136 -10234 0
-25031 -10136 0
-25031 -10234 0
25031 10136 10234 0
-25032 -25030 0
-25032 -25031 0
25032 25030 25031 0
-25009 77 0
-25009 10272 0
25009 -77 -10272 0
-25010 -77 0
-25010 -10272 0
25010 77 10272 0
-25011 -25009 0
-25011 -25010 0
25011 25009 25010 0
-25183 18054 0
-25183 25011 0
25183 -18054 -25011 0
-25184 -18054 0
-25184 -25011 0
25184 18054 25011 0
-25185 -25183 0
-25185 -25184 0
25185 25183 25184 0
-25234 25032 0
-25234 25185 0
25234 -25032 -25185 0
-25235 -25032 0
-25235 -25185 0
25235 25032 25185 0
-25236 -25234 0
-25236 -25235 0
25236 25234 25235 0
-25372 107 0
-25372 25236 0
25372 -107 -25236 0
-25373 -107 0
-25373 -25236 0
25373 107 25236 0
-25374 -25372 0
-25374 -25373 0
25374 25372 25373 0
-25375 25233 0
-25375 25374 0
25375 -25233 -25374 0
-25376 -25233 0
-25376 -25374 0
25376 25233 25374 0
-25377 -25375 0
-25377 -25376 0
25377 25375 25376 0
-25378 -155 0
-25378 25377 0
25378 155 -25377 0
-25379 155 0
-25379 -25377 0
25379 -155 25377 0
-25380 -25378 0
-25380 -25379 0
25380 25378 25379 0
-25381 5 0
-25381 11655 0
25381 -5 -11655 0
-25382 -5 0
-25382 -11655 0
25382 5 11655 0
-25383 -25381 0
-25383 -25382 0
25383 25381 25382 0
-25384 9 0
-25384 25383 0
25384 -9 -25383 0
-25385 -9 0
-25385 -25383 0
25385 9 25383 0
-25386 -25384 0
-25386 -25385 0
25386 25384 25385 0
-25405 11 0
-25405 17 0
25405 -11 -17 0
-25406 -11 0
-25406 -17 0
25406 11 17 0
-25407 -25405 0
-25407 -25406 0
25407 25405 25406 0
-25408 25386 0
-25408 25407 0
25408 -25386 -25407 0
-25409 -25386 0
-25409 -25407 0
25409 25386 25407 0
-25410 -25408 0
-25410 -25409 0
25410 25408 25409 0
-21307 20 0
-21307 24 0
21307 -20 -24 0
-21308 -20 0
-21308 -24 0
21308 20 24 0
-21309 -21307 0
-21309 -21308 0
21309 21307 21308 0
-25390 29 0
-25390 11484 0
25390 -29 -11484 0
-25391 -29 0
-25391 -11484 0
25391 29 11484 0
-25392 -25390 0
-25392 -25391 0
25392 25390 25391 0
-25477 21309 0
-25477 25392 0
25477 -21309 -25392 0
-25478 -21309 0
-25478 -25392 0
25478 21309 25392 0
-25479 -25477 0
-25479 -25478 0
25479 25477 25478 0
-25480 25410 0
-25480 25479 0
25480 -25410 -25479 0
-25481 -25410 0
-25481 -25479 0
25481 25410 25479 0
-25482 -25480 0
-25482 -25481 0
25482 25480 25481 0
-25393 42 0
-25393 11052 0
25393 -42 -11052 0
-25394 -42 0
-25394 -11052 0
25394 42 11052 0
-25395 -25393 0
-25395 -25394 0
25395 25393 25394 0
-25441 47 0
-25441 25395 0
25441 -47 -25395 0
-25442 -47 0
-25442 -25395 0
25442 47 25395 0
-25443 -25441 0
-25443 -25442 0
25443 25441 25442 0
-25483 13842 0
-25483 25443 0
25483 -13842 -25443 0
-25484 -13842 0
-25484 -25443 0
25484 13842 25443 0
-25485 -25483 0
-25485 -25484 0
25485 25483 25484 0
-25564 10788 0
-25564 15669 0
25564 -10788 -15669 0
-25565 -10788 0
-25565 -15669 0
25565 10788 15669 0
-25566 -25564 0
-25566 -25565 0
25566 25564 25565 0
-25618 25485 0
-25618 25566 0
25618 -25485 -25566 0
-25619 -25485 0
-25619 -25566 0
25619 25485 25566 0
-25620 -25618 0
-25620 -25619 0
25620 25618 25619 0
-25621 25482 0
-25621 25620 0
25621 -25482 -25620 0
-25622 -25482 0
-25622 -25620 0
25622 25482 25620 0
-25623 -25621 0
-25623 -25622 0
25623 25621 25622 0
-25474 83 0
-25474 87 0
25474 -83 -87 0
-25475 -83 0
-25475 -87 0
25475 83 87 0
-25476 -25474 0
-25476 -25475 0
25476 25474 25475 0
-25468 66 0
-25468 72 0
25468 -66 -72 0
-25469 -66 0
-25469 -72 0
25469 66 72 0
-25470 -25468 0
-25470 -25469 0
25470 25468 25469 0
-25603 81 0
-25603 25470 0
25603 -81 -25470 0
-25604 -81 0
-25604 -25470 0
25604 81 25470 0
-25605 -25603 0
-25605 -25604 0
25605 25603 25604 0
-25624 25476 0
-25624 25605 0
25624 -25476 -25605 0
-25625 -25476 0
-25625 -25605 0
25625 25476 25605 0
-25626 -25624 0
-25626 -25625 0
25626 25624 25625 0
-25726 107 0
-25726 25626 0
25726 -107 -25626 0
-25727 -107 0
-25727 -25626 0
25727 107 25626 0
-25728 -25726 0
-25728 -25727 0
25728 25726 25727 0
-25729 25623 0
-25729 25728 0
25729 -25623 -25728 0
-25730 -25623 0
-25730 -25728 0
25730 25623 25728 0
-25731 -25729 0
-25731 -25730 0
25731 25729 25730 0
-25732 -154 0
-25732 25731 0
25732 154 -25731 0
-25733 154 0
-25733 -25731 0
25733 -154 25731 0
-25734 -25732 0
-25734 -25733 0
25734 25732 25733 0
-25735 7 0
-25735 18471 0
25735 -7 -18471 0
-25736 -7 0
-25736 -18471 0
25736 7 18471 0
-25737 -25735 0
-25737 -25736 0
25737 25735 25736 0
-25756 17 0
-25756 11901 0
25756 -17 -11901 0
-25757 -17 0
-25757 -11901 0
25757 17 11901 0
-25758 -25756 0
-25758 -25757 0
25758 25756 25757 0
-25759 25737 0
-25759 25758 0
25759 -25737 -25758 0
-25760 -25737 0
-25760 -25758 0
25760 25737 25758 0
-25761 -25759 0
-25761 -25760 0
25761 25759 25760 0
-25741 22 0
-25741 25 0
25741 -22 -25 0
-25742 -22 0
-25742 -25 0
25742 22 25 0
-25743 -25741 0
-25743 -25742 0
25743 25741 25742 0
-25762 11617 0
-25762 25743 0
25762 -11617 -25743 0
-25763 -11617 0
-25763 -25743 0
25763 11617 25743 0
-25764 -25762 0
-25764 -25763 0
25764 25762 25763 0
-25798 31 0
-25798 11934 0
25798 -31 -11934 0
-25799 -31 0
-25799 -11934 0
25799 31 11934 0
-25800 -25798 0
-25800 -25799 0
25800 25798 25799 0
-25867 25764 0
-25867 25800 0
25867 -25764 -25800 0
-25868 -25764 0
-25868 -25800 0
25868 25764 25800 0
-25869 -25867 0
-25869 -25868 0
25869 25867 25868 0
-25870 25761 0
-25870 25869 0
25870 -25761 -25869 0
-25871 -25761 0
-25871 -25869 0
25871 25761 25869 0
-25872 -25870 0
-25872 -25871 0
25872 25870 25871 0
-23833 35 0
-23833 37 0
23833 -35 -37 0
-23834 -35 0
-23834 -37 0
23834 35 37 0
-23835 -23833 0
-23835 -23834 0
23835 23833 23834 0
-25813 13845 0
-25813 23835 0
25813 -13845 -23835 0
-25814 -13845 0
-25814 -23835 0
25814 13845 23835 0
-25815 -25813 0
-25815 -25814 0
25815 25813 25814 0
-25837 11083 0
-25837 11964 0
25837 -11083 -11964 0
-25838 -11083 0
-25838 -11964 0
25838 11083 11964 0
-25839 -25837 0
-25839 -25838 0
25839 25837 25838 0
-25873 25815 0
-25873 25839 0
25873 -25815 -25839 0
-25874 -25815 0
-25874 -25839 0
25874 25815 25839 0
-25875 -25873 0
-25875 -25874 0
25875 25873 25874 0
-25849 11979 0
-25849 16095 0
25849 -11979 -16095 0
-25850 -11979 0
-25850 -16095 0
25850 11979 16095 0
-25851 -25849 0
-25851 -25850 0
25851 25849 25850 0
-25963 56 0
-25963 25851 0
25963 -56 -25851 0
-25964 -56 0
-25964 -25851 0
25964 56 25851 0
-25965 -25963 0
-25965 -25964 0
25965 25963 25964 0
-26017 25875 0
-26017 25965 0
26017 -25875 -25965 0
-26018 -25875 0
-26018 -25965 0
26018 25875 25965 0
-26019 -26017 0
-26019 -26018 0
26019 26017 26018 0
-26020 25872 0
-26020 26019 0
26020 -25872 -26019 0
-26021 -25872 0
-26021 -26019 0
26021 25872 26019 0
-26022 -26020 0
-26022 -26021 0
26022 26020 26021 0
-25750 85 0
-25750 10234 0
25750 -85 -10234 0
-25751 -85 0
-25751 -10234 0
25751 85 10234 0
-25752 -25750 0
-25752 -25751 0
25752 25750 25751 0
-25861 88 0
-25861 25752 0
25861 -88 -25752 0
-25862 -88 0
-25862 -25752 0
25862 88 25752 0
-25863 -25861 0
-25863 -25862 0
25863 25861 25862 0
-26023 73 0
-26023 25863 0
26023 -73 -25863 0
-26024 -73 0
-26024 -25863 0
26024 73 25863 0
-26025 -26023 0
-26025 -26024 0
26025 26023 26024 0
-26137 107 0
-26137 26025 0
26137 -107 -26025 0
-26138 -107 0
-26138 -26025 0
26138 107 26025 0
-26139 -26137 0
-26139 -26138 0
26139 26137 26138 0
-26140 26022 0
-26140 26139 0
26140 -26022 -26139 0
-26141 -26022 0
-26141 -26139 0
26141 26022 26139 0
-26142 -26140 0
-26142 -26141 0
26142 26140 26141 0
-26143 -153 0
-26143 26142 0
26143 153 -26142 0
-26144 153 0
-26144 -26142 0
26144 -153 26142 0
-26145 -26143 0
-26145 -26144 0
26145 26143 26144 0
-26146 5 0
-26146 12534 0
26146 -5 -12534 0
-26147 -5 0
-26147 -12534 0
26147 5 12534 0
-26148 -26146 0
-26148 -26147 0
26148 26146 26147 0
-26149 11735 0
-26149 11767 0
26149 -11735 -11767 0
-26150 -11735 0
-26150 -11767 0
26150 11735 11767 0
-26151 -26149 0
-26151 -26150 0
26151 26149 26150 0
-26158 17 0
-26158 26151 0
26158 -17 -26151 0
-26159 -17 0
-26159 -26151 0
26159 17 26151 0
-26160 -26158 0
-26160 -26159 0
26160 26158 26159 0
-26161 26148 0
-26161 26160 0
26161 -26148 -26160 0
-26162 -26148 0
-26162 -26160 0
26162 26148 26160 0
-26163 -26161 0
-26163 -26162 0
26163 26161 26162 0
-15016 29 0
-15016 11408 0
15016 -29 -11408 0
-15017 -29 0
-15017 -11408 0
15017 29 11408 0
-15018 -15016 0
-15018 -15017 0
15018 15016 15017 0
-26164 11925 0
-26164 23337 0
26164 -11925 -23337 0
-26165 -11925 0
-26165 -23337 0
26165 11925 23337 0
-26166 -26164 0
-26166 -26165 0
26166 26164 26165 0
-26257 15018 0
-26257 26166 0
26257 -15018 -26166 0
-26258 -15018 0
-26258 -26166 0
26258 15018 26166 0
-26259 -26257 0
-26259 -26258 0
26259 26257 26258 0
-26260 26163 0
-26260 26259 0
26260 -26163 -26259 0
-26261 -26163 0
-26261 -26259 0
26261 26163 26259 0
-26262 -26260 0
-26262 -26261 0
26262 26260 26261 0
-26152 35 0
-26152 11270 0
26152 -35 -11270 0
-26153 -35 0
-26153 -11270 0
26153 35 11270 0
-26154 -26152 0
-26154 -26153 0
26154 26152 26153 0
-26221 16638 0
-26221 26154 0
26221 -16638 -26154 0
-26222 -16638 0
-26222 -26154 0
26222 16638 26154 0
-26223 -26221 0
-26223 -26222 0
26223 26221 26222 0
-26263 18000 0
-26263 26223 0
26263 -18000 -26223 0
-26264 -18000 0
-26264 -26223 0
26264 18000 26223 0
-26265 -26263 0
-26265 -26264 0
26265 26263 26264 0
-26416 20766 0
-26416 26265 0
26416 -20766 -26265 0
-26417 -20766 0
-26417 -26265 0
26417 20766 26265 0
-26418 -26416 0
-26418 -26417 0
26418 26416 26417 0
-26419 26262 0
-26419 26418 0
26419 -26262 -26418 0
-26420 -26262 0
-26420 -26418 0
26420 26262 26418 0
-26421 -26419 0
-26421 -26420 0
26421 26419 26420 0
-26254 11997 0
-26254 13263 0
26254 -11997 -13263 0
-26255 -11997 0
-26255 -13263 0
26255 11997 13263 0
-26256 -26254 0
-26256 -26255 0
26256 26254 26255 0
-26371 10272 0
-26371 11988 0
26371 -10272 -11988 0
-26372 -10272 0
-26372 -11988 0
26372 10272 11988 0
-26373 -26371 0
-26373 -26372 0
26373 26371 26372 0
-26422 26256 0
-26422 26373 0
26422 -26256 -26373 0
-26423 -26256 0
-26423 -26373 0
26423 26256 26373 0
-26424 -26422 0
-26424 -26423 0
26424 26422 26423 0
-26557 107 0
-26557 26424 0
26557 -107 -26424 0
-26558 -107 0
-26558 -26424 0
26558 107 26424 0
-26559 -26557 0
-26559 -26558 0
26559 26557 26558 0
-26560 26421 0
-26560 26559 0
26560 -26421 -26559 0
-26561 -26421 0
-26561 -26559 0
26561 26421 26559 0
-26562 -26560 0
-26562 -26561 0
26562 26560 26561 0
-26563 -152 0
-26563 26562 0
26563 152 -26562 0
-26564 152 0
-26564 -26562 0
26564 -152 26562 0
-26565 -26563 0
-26565 -26564 0
26565 26563 26564 0
-26566 3 0
-26566 19986 0
26566 -3 -19986 0
-26567 -3 0
-26567 -19986 0
26567 3 19986 0
-26568 -26566 0
-26568 -26567 0
26568 26566 26567 0
-26569 10 0
-26569 13 0
26569 -10 -13 0
-26570 -10 0
-26570 -13 0
26570 10 13 0
-26571 -26569 0
-26571 -26570 0
26571 26569 26570 0
-26578 15 0
-26578 26571 0
26578 -15 -26571 0
-26579 -15 0
-26579 -26571 0
26579 15 26571 0
-26580 -26578 0
-26580 -26579 0
26580 26578 26579 0
-26581 26568 0
-26581 26580 0
26581 -26568 -26580 0
-26582 -26568 0
-26582 -26580 0
26582 26568 26580 0
-26583 -26581 0
-26583 -26582 0
26583 26581 26582 0
-26584 21 0
-26584 22851 0
26584 -21 -22851 0
-26585 -21 0
-26585 -22851 0
26585 21 22851 0
-26586 -26584 0
-26586 -26585 0
26586 26584 26585 0
-26602 27 0
-26602 33 0
26602 -27 -33 0
-26603 -27 0
-26603 -33 0
26603 27 33 0
-26604 -26602 0
-26604 -26603 0
26604 26602 26603 0
-26650 26586 0
-26650 26604 0
26650 -26586 -26604 0
-26651 -26586 0
-26651 -26604 0
26651 26586 26604 0
-26652 -26650 0
-26652 -26651 0
26652 26650 26651 0
-26653 26583 0
-26653 26652 0
26653 -26583 -26652 0
-26654 -26583 0
-26654 -26652 0
26654 26583 26652 0
-26655 -26653 0
-26655 -26654 0
26655 26653 26654 0
-26656 37 0
-26656 11958 0
26656 -37 -11958 0
-26657 -37 0
-26657 -11958 0
26657 37 11958 0
-26658 -26656 0
-26658 -26657 0
26658 26656 26657 0
-26707 64 0
-26707 17568 0
26707 -64 -17568 0
-26708 -64 0
-26708 -17568 0
26708 64 17568 0
-26709 -26707 0
-26709 -26708 0
26709 26707 26708 0
-26806 26658 0
-26806 26709 0
26806 -26658 -26709 0
-26807 -26658 0
-26807 -26709 0
26807 26658 26709 0
-26808 -26806 0
-26808 -26807 0
26808 26806 26807 0
-26809 26655 0
-26809 26808 0
26809 -26655 -26808 0
-26810 -26655 0
-26810 -26808 0
26810 26655 26808 0
-26811 -26809 0
-26811 -26810 0
26811 26809 26810 0
-26629 10442 0
-26629 20772 0
26629 -10442 -20772 0
-26630 -10442 0
-26630 -20772 0
26630 10442 20772 0
-26631 -26629 0
-26631 -26630 0
26631 26629 26630 0
-26755 20013 0
-26755 26631 0
26755 -20013 -26631 0
-26756 -20013 0
-26756 -26631 0
26756 20013 26631 0
-26757 -26755 0
-26757 -26756 0
26757 26755 26756 0
-26647 87 0
-26647 20016 0
26647 -87 -20016 0
-26648 -87 0
-26648 -20016 0
26648 87 20016 0
-26649 -26647 0
-26649 -26648 0
26649 26647 26648 0
-26800 92 0
-26800 26649 0
26800 -92 -26649 0
-26801 -92 0
-26801 -26649 0
26801 92 26649 0
-26802 -26800 0
-26802 -26801 0
26802 26800 26801 0
-26812 26757 0
-26812 26802 0
26812 -26757 -26802 0
-26813 -26757 0
-26813 -26802 0
26813 26757 26802 0
-26814 -26812 0
-26814 -26813 0
26814 26812 26813 0
-26935 26811 0
-26935 26814 0
26935 -26811 -26814 0
-26936 -26811 0
-26936 -26814 0
26936 26811 26814 0
-26937 -26935 0
-26937 -26936 0
26937 26935 26936 0
-26938 -151 0
-26938 26937 0
26938 151 -26937 0
-26939 151 0
-26939 -26937 0
26939 -151 26937 0
-26940 -26938 0
-26940 -26939 0
26940 26938 26939 0
-26941 6 0
-26941 9 0
26941 -6 -9 0
-26942 -6 0
-26942 -9 0
26942 6 9 0
-26943 -26941 0
-26943 -26942 0
26943 26941 26942 0
-26944 4 0
-26944 26943 0
26944 -4 -26943 0
-26945 -4 0
-26945 -26943 0
26945 4 26943 0
-26946 -26944 0
-26946 -26945 0
26946 26944 26945 0
-26956 16 0
-26956 17112 0
26956 -16 -17112 0
-26957 -16 0
-26957 -17112 0
26957 16 17112 0
-26958 -26956 0
-26958 -26957 0
26958 26956 26957 0
-26959 26946 0
-26959 26958 0
26959 -26946 -26958 0
-26960 -26946 0
-26960 -26958 0
26960 26946 26958 0
-26961 -26959 0
-26961 -26960 0
26961 26959 26960 0
-26962 25 0
-26962 20397 0
26962 -25 -20397 0
-26963 -25 0
-26963 -20397 0
26963 25 20397 0
-26964 -26962 0
-26964 -26963 0
26964 26962 26963 0
-27022 26961 0
-27022 26964 0
27022 -26961 -26964 0
-27023 -26961 0
-27023 -26964 0
27023 26961 26964 0
-27024 -27022 0
-27024 -27023 0
27024 27022 27023 0
-26986 42 0
-26986 46 0
26986 -42 -46 0
-26987 -42 0
-26987 -46 0
26987 42 46 0
-26988 -26986 0
-26988 -26987 0
26988 26986 26987 0
-27025 11270 0
-27025 26988 0
27025 -11270 -26988 0
-27026 -11270 0
-27026 -26988 0
27026 11270 26988 0
-27027 -27025 0
-27027 -27026 0
27027 27025 27026 0
-26998 55 0
-26998 10883 0
26998 -55 -10883 0
-26999 -55 0
-26999 -10883 0
26999 55 10883 0
-27000 -26998 0
-27000 -26999 0
27000 26998 26999 0
-27070 63 0
-27070 27000 0
27070 -63 -27000 0
-27071 -63 0
-27071 -27000 0
27071 63 27000 0
-27072 -27070 0
-27072 -27071 0
27072 27070 27071 0
-27136 27027 0
-27136 27072 0
27136 -27027 -27072 0
-27137 -27027 0
-27137 -27072 0
27137 27027 27072 0
-27138 -27136 0
-27138 -27137 0
27138 27136 27137 0
-27139 27024 0
-27139 27138 0
27139 -27024 -27138 0
-27140 -27024 0
-27140 -27138 0
27140 27024 27138 0
-27141 -27139 0
-27141 -27140 0
27141 27139 27140 0
-27019 85 0
-27019 92 0
27019 -85 -92 0
-27020 -85 0
-27020 -92 0
27020 85 92 0
-27021 -27019 0
-27021 -27020 0
27021 27019 27020 0
-27010 66 0
-27010 19593 0
27010 -66 -19593 0
-27011 -66 0
-27011 -19593 0
27011 66 19593 0
-27012 -27010 0
-27012 -27011 0
27012 27010 27011 0
-27109 20406 0
-27109 27012 0
27109 -20406 -27012 0
-27110 -20406 0
-27110 -27012 0
27110 20406 27012 0
-27111 -27109 0
-27111 -27110 0
27111 27109 27110 0
-27142 27021 0
-27142 27111 0
27142 -27021 -27111 0
-27143 -27021 0
-27143 -27111 0
27143 27021 27111 0
-27144 -27142 0
-27144 -27143 0
27144 27142 27143 0
-27250 27141 0
-27250 27144 0
27250 -27141 -27144 0
-27251 -27141 0
-27251 -27144 0
27251 27141 27144 0
-27252 -27250 0
-27252 -27251 0
27252 27250 27251 0
-27253 -150 0
-27253 27252 0
27253 150 -27252 0
-27254 150 0
-27254 -27252 0
27254 -150 27252 0
-27255 -27253 0
-27255 -27254 0
27255 27253 27254 0
-27256 9 0
-27256 16584 0
27256 -9 -16584 0
-27257 -9 0
-27257 -16584 0
27257 9 16584 0
-27258 -27256 0
-27258 -27257 0
27258 27256 27257 0
-27271 19596 0
-27271 27258 0
27271 -19596 -27258 0
-27272 -19596 0
-27272 -27258 0
27272 19596 27258 0
-27273 -27271 0
-27273 -27272 0
27273 27271 27272 0
-27274 11636 0
-27274 14463 0
27274 -11636 -14463 0
-27275 -11636 0
-27275 -14463 0
27275 11636 14463 0
-27276 -27274 0
-27276 -27275 0
27276 27274 27275 0
-27295 26 0
-27295 32 0
27295 -26 -32 0
-27296 -26 0
-27296 -32 0
27296 26 32 0
-27297 -27295 0
-27297 -27296 0
27297 27295 27296 0
-27343 27276 0
-27343 27297 0
27343 -27276 -27297 0
-27344 -27276 0
-27344 -27297 0
27344 27276 27297 0
-27345 -27343 0
-27345 -27344 0
27345 27343 27344 0
-27346 27273 0
-27346 27345 0
27346 -27273 -27345 0
-27347 -27273 0
-27347 -27345 0
27347 27273 27345 0
-27348 -27346 0
-27348 -27347 0
27348 27346 27347 0
-27310 41 0
-27310 26154 0
27310 -41 -26154 0
-27311 -41 0
-27311 -26154 0
27311 41 26154 0
-27312 -27310 0
-27312 -27311 0
27312 27310 27311 0
-27349 13209 0
-27349 27312 0
27349 -13209 -27312 0
-27350 -13209 0
-27350 -27312 0
27350 13209 27312 0
-27351 -27349 0
-27351 -27350 0
27351 27349 27350 0
-27268 56 0
-27268 10826 0
27268 -56 -10826 0
-27269 -56 0
-27269 -10826 0
27269 56 10826 0
-27270 -27268 0
-27270 -27269 0
27270 27268 27269 0
-27322 18501 0
-27322 27270 0
27322 -18501 -27270 0
-27323 -18501 0
-27323 -27270 0
27323 18501 27270 0
-27324 -27322 0
-27324 -27323 0
27324 27322 27323 0
-27430 62 0
-27430 27324 0
27430 -62 -27324 0
-27431 -62 0
-27431 -27324 0
27431 62 27324 0
-27432 -27430 0
-27432 -27431 0
27432 27430 27431 0
-27514 27351 0
-27514 27432 0
27514 -27351 -27432 0
-27515 -27351 0
-27515 -27432 0
27515 27351 27432 0
-27516 -27514 0
-27516 -27515 0
27516 27514 27515 0
-27517 27348 0
-27517 27516 0
27517 -27348 -27516 0
-27518 -27348 0
-27518 -27516 0
27518 27348 27516 0
-27519 -27517 0
-27519 -27518 0
27519 27517 27518 0
-27478 77 0
-27478 19680 0
27478 -77 -19680 0
-27479 -77 0
-27479 -19680 0
27479 77 19680 0
-27480 -27478 0
-27480 -27479 0
27480 27478 27479 0
-27520 19836 0
-27520 27480 0
27520 -19836 -27480 0
-27521 -19836 0
-27521 -27480 0
27521 19836 27480 0
-27522 -27520 0
-27522 -27521 0
27522 27520 27521 0
-27646 27519 0
-27646 27522 0
27646 -27519 -27522 0
-27647 -27519 0
-27647 -27522 0
27647 27519 27522 0
-27648 -27646 0
-27648 -27647 0
27648 27646 27647 0
-27649 -149 0
-27649 27648 0
27649 149 -27648 0
-27650 149 0
-27650 -27648 0
27650 -149 27648 0
-27651 -27649 0
-27651 -27650 0
27651 27649 27650 0
-27670 13 0
-27670 11919 0
27670 -13 -11919 0
-27671 -13 0
-27671 -11919 0
27671 13 11919 0
-27672 -27670 0
-27672 -27671 0
27672 27670 27671 0
-27673 21720 0
-27673 27672 0
27673 -21720 -27672 0
-27674 -21720 0
-27674 -27672 0
27674 21720 27672 0
-27675 -27673 0
-27675 -27674 0
27675 27673 27674 0
-16147 16050 0
-16147 16065 0
16147 -16050 -16065 0
-16148 -16050 0
-16148 -16065 0
16148 16050 16065 0
-16149 -16147 0
-16149 -16148 0
16149 16147 16148 0
-27676 11522 0
-27676 21726 0
27676 -11522 -21726 0
-27677 -11522 0
-27677 -21726 0
27677 11522 21726 0
-27678 -27676 0
-27678 -27677 0
27678 27676 27677 0
-27787 16149 0
-27787 27678 0
27787 -16149 -27678 0
-27788 -16149 0
-27788 -27678 0
27788 16149 27678 0
-27789 -27787 0
-27789 -27788 0
27789 27787 27788 0
-27790 27675 0
-27790 27789 0
27790 -27675 -27789 0
-27791 -27675 0
-27791 -27789 0
27791 27675 27789 0
-27792 -27790 0
-27792 -27791 0
27792 27790 27791 0
-27724 45 0
-27724 14475 0
27724 -45 -14475 0
-27725 -45 0
-27725 -14475 0
27725 45 14475 0
-27726 -27724 0
-27726 -27725 0
27726 27724 27725 0
-27793 11295 0
-27793 27726 0
27793 -11295 -27726 0
-27794 -11295 0
-27794 -27726 0
27794 11295 27726 0
-27795 -27793 0
-27795 -27794 0
27795 27793 27794 0
-27652 10864 0
-27652 10902 0
27652 -10864 -10902 0
-27653 -10864 0
-27653 -10902 0
27653 10864 10902 0
-27654 -27652 0
-27654 -27653 0
27654 27652 27653 0
-27664 54 0
-27664 56 0
27664 -54 -56 0
-27665 -54 0
-27665 -56 0
27665 54 56 0
-27666 -27664 0
-27666 -27665 0
27666 27664 27665 0
-27745 27654 0
-27745 27666 0
27745 -27654 -27666 0
-27746 -27654 0
-27746 -27666 0
27746 27654 27666 0
-27747 -27745 0
-27747 -27746 0
27747 27745 27746 0
-27880 10600 0
-27880 27747 0
27880 -10600 -27747 0
-27881 -10600 0
-27881 -27747 0
27881 10600 27747 0
-27882 -27880 0
-27882 -27881 0
27882 27880 27881 0
-27964 27795 0
-27964 27882 0
27964 -27795 -27882 0
-27965 -27795 0
-27965 -27882 0
27965 27795 27882 0
-27966 -27964 0
-27966 -27965 0
27966 27964 27965 0
-27967 27792 0
-27967 27966 0
27967 -27792 -27966 0
-27968 -27792 0
-27968 -27966 0
27968 27792 27966 0
-27969 -27967 0
-27969 -27968 0
27969 27967 27968 0
-26575 69 0
-26575 72 0
26575 -69 -72 0
-26576 -69 0
-26576 -72 0
26576 69 72 0
-26577 -26575 0
-26577 -26576 0
26577 26575 26576 0
-27913 10291 0
-27913 26577 0
27913 -10291 -26577 0
-27914 -10291 0
-27914 -26577 0
27914 10291 26577 0
-27915 -27913 0
-27915 -27914 0
27915 27913 27914 0
-27772 10196 0
-27772 23853 0
27772 -10196 -23853 0
-27773 -10196 0
-27773 -23853 0
27773 10196 23853 0
-27774 -27772 0
-27774 -27773 0
27774 27772 27773 0
-27955 92 0
-27955 27774 0
27955 -92 -27774 0
-27956 -92 0
-27956 -27774 0
27956 92 27774 0
-27957 -27955 0
-27957 -27956 0
27957 27955 27956 0
-27970 27915 0
-27970 27957 0
27970 -27915 -27957 0
-27971 -27915 0
-27971 -27957 0
27971 27915 27957 0
-27972 -27970 0
-27972 -27971 0
27972 27970 27971 0
-28096 27969 0
-28096 27972 0
28096 -27969 -27972 0
-28097 -27969 0
-28097 -27972 0
28097 27969 27972 0
-28098 -28096 0
-28098 -28097 0
28098 28096 28097 0
-28099 -148 0
-28099 28098 0
28099 148 -28098 0
-28100 148 0
-28100 -28098 0
28100 -148 28098 0
-28101 -28099 0
-28101 -28100 0
28101 28099 28100 0
-28123 12528 0
-28123 17112 0
28123 -12528 -17112 0
-28124 -12528 0
-28124 -17112 0
28124 12528 17112 0
-28125 -28123 0
-28125 -28124 0
28125 28123 28124 0
-28126 13788 0
-28126 28125 0
28126 -13788 -28125 0
-28127 -13788 0
-28127 -28125 0
28127 13788 28125 0
-28128 -28126 0
-28128 -28127 0
28128 28126 28127 0
-28144 11484 0
-28144 17913 0
28144 -11484 -17913 0
-28145 -11484 0
-28145 -17913 0
28145 11484 17913 0
-28146 -28144 0
-28146 -28145 0
28146 28144 28145 0
-28225 21309 0
-28225 28146 0
28225 -21309 -28146 0
-28226 -21309 0
-28226 -28146 0
28226 21309 28146 0
-28227 -28225 0
-28227 -28226 0
28227 28225 28226 0
-28228 28128 0
-28228 28227 0
28228 -28128 -28227 0
-28229 -28128 0
-28229 -28227 0
28229 28128 28227 0
-28230 -28228 0
-28230 -28229 0
28230 28228 28229 0
-28165 45 0
-28165 10940 0
28165 -45 -10940 0
-28166 -45 0
-28166 -10940 0
28166 45 10940 0
-28167 -28165 0
-28167 -28166 0
28167 28165 28166 0
-28231 16080 0
-28231 28167 0
28231 -16080 -28167 0
-28232 -16080 0
-28232 -28167 0
28232 16080 28167 0
-28233 -28231 0
-28233 -28232 0
28233 28231 28232 0
-28108 53 0
-28108 10902 0
28108 -53 -10902 0
-28109 -53 0
-28109 -10902 0
28109 53 10902 0
-28110 -28108 0
-28110 -28109 0
28110 28108 28109 0
-28189 56 0
-28189 28110 0
28189 -56 -28110 0
-28190 -56 0
-28190 -28110 0
28190 56 28110 0
-28191 -28189 0
-28191 -28190 0
28191 28189 28190 0
-28324 13224 0
-28324 28191 0
28324 -13224 -28191 0
-28325 -13224 0
-28325 -28191 0
28325 13224 28191 0
-28326 -28324 0
-28326 -28325 0
28326 28324 28325 0
-28405 28233 0
-28405 28326 0
28405 -28233 -28326 0
-28406 -28233 0
-28406 -28326 0
28406 28233 28326 0
-28407 -28405 0
-28407 -28406 0
28407 28405 28406 0
-28408 28230 0
-28408 28407 0
28408 -28230 -28407 0
-28409 -28230 0
-28409 -28407 0
28409 28230 28407 0
-28410 -28408 0
-28410 -28409 0
28410 28408 28409 0
-15583 84 0
-15583 10158 0
15583 -84 -10158 0
-15584 -84 0
-15584 -10158 0
15584 84 10158 0
-15585 -15583 0
-15585 -15584 0
15585 15583 15584 0
-15883 92 0
-15883 15585 0
15883 -92 -15585 0
-15884 -92 0
-15884 -15585 0
15884 92 15585 0
-15885 -15883 0
-15885 -15884 0
15885 15883 15884 0
-28117 70 0
-28117 73 0
28117 -70 -73 0
-28118 -70 0
-28118 -73 0
28118 70 73 0
-28119 -28117 0
-28119 -28118 0
28119 28117 28118 0
-28363 15051 0
-28363 28119 0
28363 -15051 -28119 0
-28364 -15051 0
-28364 -28119 0
28364 15051 28119 0
-28365 -28363 0
-28365 -28364 0
28365 28363 28364 0
-28411 15885 0
-28411 28365 0
28411 -15885 -28365 0
-28412 -15885 0
-28412 -28365 0
28412 15885 28365 0
-28413 -28411 0
-28413 -28412 0
28413 28411 28412 0
-28528 28410 0
-28528 28413 0
28528 -28410 -28413 0
-28529 -28410 0
-28529 -28413 0
28529 28410 28413 0
-28530 -28528 0
-28530 -28529 0
28530 28528 28529 0
-28531 -147 0
-28531 28530 0
28531 147 -28530 0
-28532 147 0
-28532 -28530 0
28532 -147 28530 0
-28533 -28531 0
-28533 -28532 0
28533 28531 28532 0
-28534 5 0
-28534 11799 0
28534 -5 -11799 0
-28535 -5 0
-28535 -11799 0
28535 5 11799 0
-28536 -28534 0
-28536 -28535 0
28536 28534 28535 0
-28543 19596 0
-28543 28536 0
28543 -19596 -28536 0
-28544 -19596 0
-28544 -28536 0
28544 19596 28536 0
-28545 -28543 0
-28545 -28544 0
28545 28543 28544 0
-28558 29 0
-28558 23346 0
28558 -29 -23346 0
-28559 -29 0
-28559 -23346 0
28559 29 23346 0
-28560 -28558 0
-28560 -28559 0
28560 28558 28559 0
-28621 20 0
-28621 28560 0
28621 -20 -28560 0
-28622 -20 0
-28622 -28560 0
28622 20 28560 0
-28623 -28621 0
-28623 -28622 0
28623 28621 28622 0
-28624 28545 0
-28624 28623 0
28624 -28545 -28623 0
-28625 -28545 0
-28625 -28623 0
28625 28545 28623 0
-28626 -28624 0
-28626 -28625 0
28626 28624 28625 0
-28540 34 0
-28540 11270 0
28540 -34 -11270 0
-28541 -34 0
-28541 -11270 0
28541 34 11270 0
-28542 -28540 0
-28542 -28541 0
28542 28540 28541 0
-28627 17919 0
-28627 28542 0
28627 -17919 -28542 0
-28628 -17919 0
-28628 -28542 0
28628 17919 28542 0
-28629 -28627 0
-28629 -28628 0
28629 28627 28628 0
-28699 12729 0
-28699 15039 0
28699 -12729 -15039 0
-28700 -12729 0
-28700 -15039 0
28700 12729 15039 0
-28701 -28699 0
-28701 -28700 0
28701 28699 28700 0
-28777 28629 0
-28777 28701 0
28777 -28629 -28701 0
-28778 -28629 0
-28778 -28701 0
28778 28629 28701 0
-28779 -28777 0
-28779 -28778 0
28779 28777 28778 0
-28780 28626 0
-28780 28779 0
28780 -28626 -28779 0
-28781 -28626 0
-28781 -28779 0
28781 28626 28779 0
-28782 -28780 0
-28782 -28781 0
28782 28780 28781 0
-28603 10521 0
-28603 12606 0
28603 -10521 -12606 0
-28604 -10521 0
-28604 -12606 0
28604 10521 12606 0
-28605 -28603 0
-28605 -28604 0
28605 28603 28604 0
-28744 15165 0
-28744 28605 0
28744 -15165 -28605 0
-28745 -15165 0
-28745 -28605 0
28745 15165 28605 0
-28746 -28744 0
-28746 -28745 0
28746 28744 28745 0
-28783 92 0
-28783 28746 0
28783 -92 -28746 0
-28784 -92 0
-28784 -28746 0
28784 92 28746 0
-28785 -28783 0
-28785 -28784 0
28785 28783 28784 0
-28906 28782 0
-28906 28785 0
28906 -28782 -28785 0
-28907 -28782 0
-28907 -28785 0
28907 28782 28785 0
-28908 -28906 0
-28908 -28907 0
28908 28906 28907 0
-28909 -146 0
-28909 28908 0
28909 146 -28908 0
-28910 146 0
-28910 -28908 0
28910 -146 28908 0
-28911 -28909 0
-28911 -28910 0
28911 28909 28910 0
-13804 13 0
-13804 11687 0
13804 -13 -11687 0
-13805 -13 0
-13805 -11687 0
13805 13 11687 0
-13806 -13804 0
-13806 -13805 0
13806 13804 13805 0
-28912 17523 0
-28912 18471 0
28912 -17523 -18471 0
-28913 -17523 0
-28913 -18471 0
28913 17523 18471 0
-28914 -28912 0
-28914 -28913 0
28914 28912 28913 0
-28930 13806 0
-28930 28914 0
28930 -13806 -28914 0
-28931 -13806 0
-28931 -28914 0
28931 13806 28914 0
-28932 -28930 0
-28932 -28931 0
28932 28930 28931 0
-28933 11560 0
-28933 11617 0
28933 -11560 -11617 0
-28934 -11560 0
-28934 -11617 0
28934 11560 11617 0
-28935 -28933 0
-28935 -28934 0
28935 28933 28934 0
-29089 20805 0
-29089 28935 0
29089 -20805 -28935 0
-29090 -20805 0
-29090 -28935 0
29090 20805 28935 0
-29091 -29089 0
-29091 -29090 0
29091 29089 29090 0
-29092 28932 0
-29092 29091 0
29092 -28932 -29091 0
-29093 -28932 0
-29093 -29091 0
29093 28932 29091 0
-29094 -29092 0
-29094 -29093 0
29094 29092 29093 0
-28987 40 0
-28987 22854 0
28987 -40 -22854 0
-28988 -40 0
-28988 -22854 0
28988 40 22854 0
-28989 -28987 0
-28989 -28988 0
28989 28987 28988 0
-29005 11083 0
-29005 12573 0
29005 -11083 -12573 0
-29006 -11083 0
-29006 -12573 0
29006 11083 12573 0
-29007 -29005 0
-29007 -29006 0
29007 29005 29006 0
-29095 28989 0
-29095 29007 0
29095 -28989 -29007 0
-29096 -28989 0
-29096 -29007 0
29096 28989 29007 0
-29097 -29095 0
-29097 -29096 0
29097 29095 29096 0
-15136 52 0
-15136 56 0
15136 -52 -56 0
-15137 -52 0
-15137 -56 0
15137 52 56 0
-15138 -15136 0
-15138 -15137 0
15138 15136 15137 0
-29038 61 0
-29038 15573 0
29038 -61 -15573 0
-29039 -61 0
-29039 -15573 0
29039 61 15573 0
-29040 -29038 0
-29040 -29039 0
29040 29038 29039 0
-29188 15138 0
-29188 29040 0
29188 -15138 -29040 0
-29189 -15138 0
-29189 -29040 0
29189 15138 29040 0
-29190 -29188 0
-29190 -29189 0
29190 29188 29189 0
-29287 29097 0
-29287 29190 0
29287 -29097 -29190 0
-29288 -29097 0
-29288 -29190 0
29288 29097 29190 0
-29289 -29287 0
-29289 -29288 0
29289 29287 29288 0
-29290 29094 0
-29290 29289 0
29290 -29094 -29289 0
-29291 -29094 0
-29291 -29289 0
29291 29094 29289 0
-29292 -29290 0
-29292 -29291 0
29292 29290 29291 0
-29062 69 0
-29062 23847 0
29062 -69 -23847 0
-29063 -69 0
-29063 -23847 0
29063 69 23847 0
-29064 -29062 0
-29064 -29063 0
29064 29062 29063 0
-29236 22497 0
-29236 29064 0
29236 -22497 -29064 0
-29237 -22497 0
-29237 -29064 0
29237 22497 29064 0
-29238 -29236 0
-29238 -29237 0
29238 29236 29237 0
-29086 10234 0
-29086 23853 0
29086 -10234 -23853 0
-29087 -10234 0
-29087 -23853 0
29087 10234 23853 0
-29088 -29086 0
-29088 -29087 0
29088 29086 29087 0
-29281 92 0
-29281 29088 0
29281 -92 -29088 0
-29282 -92 0
-29282 -29088 0
29282 92 29088 0
-29283 -29281 0
-29283 -29282 0
29283 29281 29282 0
-29293 29238 0
-29293 29283 0
29293 -29238 -29283 0
-29294 -29238 0
-29294 -29283 0
29294 29238 29283 0
-29295 -29293 0
-29295 -29294 0
29295 29293 29294 0
-29419 29292 0
-29419 29295 0
29419 -29292 -29295 0
-29420 -29292 0
-29420 -29295 0
29420 29292 29295 0
-29421 -29419 0
-29421 -29420 0
29421 29419 29420 0
-29422 -145 0
-29422 29421 0
29422 145 -29421 0
-29423 145 0
-29423 -29421 0
29423 -145 29421 0
-29424 -29422 0
-29424 -29423 0
29424 29422 29423 0
-29425 6 0
-29425 18471 0
29425 -6 -18471 0
-29426 -6 0
-29426 -18471 0
29426 6 18471 0
-29427 -29425 0
-29427 -29426 0
29427 29425 29426 0
-29452 15 0
-29452 17112 0
29452 -15 -17112 0
-29453 -15 0
-29453 -17112 0
29453 15 17112 0
-29454 -29452 0
-29454 -29453 0
29454 29452 29453 0
-29455 29427 0
-29455 29454 0
29455 -29427 -29454 0
-29456 -29427 0
-29456 -29454 0
29456 29427 29454 0
-29457 -29455 0
-29457 -29456 0
29457 29455 29456 0
-29458 23337 0
-29458 23823 0
29458 -23337 -23823 0
-29459 -23337 0
-29459 -23823 0
29459 23337 23823 0
-29460 -29458 0
-29460 -29459 0
29460 29458 29459 0
-29611 20805 0
-29611 29460 0
29611 -20805 -29460 0
-29612 -20805 0
-29612 -29460 0
29612 20805 29460 0
-29613 -29611 0
-29613 -29612 0
29613 29611 29612 0
-29614 29457 0
-29614 29613 0
29614 -29457 -29613 0
-29615 -29457 0
-29615 -29613 0
29615 29457 29613 0
-29616 -29614 0
-29616 -29615 0
29616 29614 29615 0
-29515 35 0
-29515 11195 0
29515 -35 -11195 0
-29516 -35 0
-29516 -11195 0
29516 35 11195 0
-29517 -29515 0
-29517 -29516 0
29517 29515 29516 0
-29539 10638 0
-29539 25395 0
29539 -10638 -25395 0
-29540 -10638 0
-29540 -25395 0
29540 10638 25395 0
-29541 -29539 0
-29541 -29540 0
29541 29539 29540 0
-29617 29517 0
-29617 29541 0
29617 -29517 -29541 0
-29618 -29517 0
-29618 -29541 0
29618 29517 29541 0
-29619 -29617 0
-29619 -29618 0
29619 29617 29618 0
-29569 10688 0
-29569 16095 0
29569 -10688 -16095 0
-29570 -10688 0
-29570 -16095 0
29570 10688 16095 0
-29571 -29569 0
-29571 -29570 0
29571 29569 29570 0
-29710 15135 0
-29710 29571 0
29710 -15135 -29571 0
-29711 -15135 0
-29711 -29571 0
29711 15135 29571 0
-29712 -29710 0
-29712 -29711 0
29712 29710 29711 0
-29809 29619 0
-29809 29712 0
29809 -29619 -29712 0
-29810 -29619 0
-29810 -29712 0
29810 29619 29712 0
-29811 -29809 0
-29811 -29810 0
29811 29809 29810 0
-29812 29616 0
-29812 29811 0
29812 -29616 -29811 0
-29813 -29616 0
-29813 -29811 0
29813 29616 29811 0
-29814 -29812 0
-29814 -29813 0
29814 29812 29813 0
-26572 67 0
-26572 69 0
26572 -67 -69 0
-26573 -67 0
-26573 -69 0
26573 67 69 0
-26574 -26572 0
-26574 -26573 0
26574 26572 26573 0
-29758 25011 0
-29758 26574 0
29758 -25011 -26574 0
-29759 -25011 0
-29759 -26574 0
29759 25011 26574 0
-29760 -29758 0
-29760 -29759 0
29760 29758 29759 0
-25753 83 0
-25753 85 0
25753 -83 -85 0
-25754 -83 0
-25754 -85 0
25754 83 85 0
-25755 -25753 0
-25755 -25754 0
25755 25753 25754 0
-29605 13263 0
-29605 25755 0
29605 -13263 -25755 0
-29606 -13263 0
-29606 -25755 0
29606 13263 25755 0
-29607 -29605 0
-29607 -29606 0
29607 29605 29606 0
-29803 92 0
-29803 29607 0
29803 -92 -29607 0
-29804 -92 0
-29804 -29607 0
29804 92 29607 0
-29805 -29803 0
-29805 -29804 0
29805 29803 29804 0
-29815 29760 0
-29815 29805 0
29815 -29760 -29805 0
-29816 -29760 0
-29816 -29805 0
29816 29760 29805 0
-29817 -29815 0
-29817 -29816 0
29817 29815 29816 0
-29941 29814 0
-29941 29817 0
29941 -29814 -29817 0
-29942 -29814 0
-29942 -29817 0
29942 29814 29817 0
-29943 -29941 0
-29943 -29942 0
29943 29941 29942 0
-29944 -144 0
-29944 29943 0
29944 144 -29943 0
-29945 144 0
-29945 -29943 0
29945 -144 29943 0
-29946 -29944 0
-29946 -29945 0
29946 29944 29945 0
-29971 15093 0
-29971 27276 0
29971 -15093 -27276 0
-29972 -15093 0
-29972 -27276 0
29972 15093 27276 0
-29973 -29971 0
-29973 -29972 0
29973 29971 29972 0
-29974 20784 0
-29974 29973 0
29974 -20784 -29973 0
-29975 -20784 0
-29975 -29973 0
29975 20784 29973 0
-29976 -29974 0
-29976 -29975 0
29976 29974 29975 0
-29977 47 0
-29977 16638 0
29977 -47 -16638 0
-29978 -47 0
-29978 -16638 0
29978 47 16638 0
-29979 -29977 0
-29979 -29978 0
29979 29977 29978 0
-30088 21018 0
-30088 29979 0
30088 -21018 -29979 0
-30089 -21018 0
-30089 -29979 0
30089 21018 29979 0
-30090 -30088 0
-30090 -30089 0
30090 30088 30089 0
-30091 29976 0
-30091 30090 0
30091 -29976 -30090 0
-30092 -29976 0
-30092 -30090 0
30092 29976 30090 0
-30093 -30091 0
-30093 -30092 0
30093 30091 30092 0
-29962 71 0
-29962 10559 0
29962 -71 -10559 0
-29963 -71 0
-29963 -10559 0
29963 71 10559 0
-29964 -29962 0
-29964 -29963 0
29964 29962 29963 0
-30079 92 0
-30079 20910 0
30079 -92 -20910 0
-30080 -92 0
-30080 -20910 0
30080 92 20910 0
-30081 -30079 0
-30081 -30080 0
30081 30079 30080 0
-30094 29964 0
-30094 30081 0
30094 -29964 -30081 0
-30095 -29964 0
-30095 -30081 0
30095 29964 30081 0
-30096 -30094 0
-30096 -30095 0
30096 30094 30095 0
-30199 30093 0
-30199 30096 0
30199 -30093 -30096 0
-30200 -30093 0
-30200 -30096 0
30200 30093 30096 0
-30201 -30199 0
-30201 -30200 0
30201 30199 30200 0
-30202 -143 0
-30202 30201 0
30202 143 -30201 0
-30203 143 0
-30203 -30201 0
30203 -143 30201 0
-30204 -30202 0
-30204 -30203 0
30204 30202 30203 0
-30205 17523 0
-30205 19023 0
30205 -17523 -19023 0
-30206 -17523 0
-30206 -19023 0
30206 17523 19023 0
-30207 -30205 0
-30207 -30206 0
30207 30205 30206 0
-30211 15546 0
-30211 30207 0
30211 -15546 -30207 0
-30212 -15546 0
-30212 -30207 0
30212 15546 30207 0
-30213 -30211 0
-30213 -30212 0
30213 30211 30212 0
-30253 12555 0
-30253 17913 0
30253 -12555 -17913 0
-30254 -12555 0
-30254 -17913 0
30254 12555 17913 0
-30255 -30253 0
-30255 -30254 0
30255 30253 30254 0
-30355 22875 0
-30355 30255 0
30355 -22875 -30255 0
-30356 -22875 0
-30356 -30255 0
30356 22875 30255 0
-30357 -30355 0
-30357 -30356 0
30357 30355 30356 0
-30358 30213 0
-30358 30357 0
30358 -30213 -30357 0
-30359 -30213 0
-30359 -30357 0
30359 30213 30357 0
-30360 -30358 0
-30360 -30359 0
30360 30358 30359 0
-30208 40 0
-30208 11220 0
30208 -40 -11220 0
-30209 -40 0
-30209 -11220 0
30209 40 11220 0
-30210 -30208 0
-30210 -30209 0
30210 30208 30209 0
-30280 44 0
-30280 14475 0
30280 -44 -14475 0
-30281 -44 0
-30281 -14475 0
30281 44 14475 0
-30282 -30280 0
-30282 -30281 0
30282 30280 30281 0
-30361 30210 0
-30361 30282 0
30361 -30210 -30282 0
-30362 -30210 0
-30362 -30282 0
30362 30210 30282 0
-30363 -30361 0
-30363 -30362 0
30363 30361 30362 0
-30310 64 0
-30310 16662 0
30310 -64 -16662 0
-30311 -64 0
-30311 -16662 0
30311 64 16662 0
-30312 -30310 0
-30312 -30311 0
30312 30310 30311 0
-30454 19674 0
-30454 30312 0
30454 -19674 -30312 0
-30455 -19674 0
-30455 -30312 0
30455 19674 30312 0
-30456 -30454 0
-30456 -30455 0
30456 30454 30455 0
-30547 30363 0
-30547 30456 0
30547 -30363 -30456 0
-30548 -30363 0
-30548 -30456 0
30548 30363 30456 0
-30549 -30547 0
-30549 -30548 0
30549 30547 30548 0
-30550 30360 0
-30550 30549 0
30550 -30360 -30549 0
-30551 -30360 0
-30551 -30549 0
30551 30360 30549 0
-30552 -30550 0
-30552 -30551 0
30552 30550 30551 0
-19060 71 0
-19060 73 0
19060 -71 -73 0
-19061 -71 0
-19061 -73 0
19061 71 73 0
-19062 -19060 0
-19062 -19061 0
19062 19060 19061 0
-30331 19053 0
-30331 19062 0
30331 -19053 -19062 0
-30332 -19053 0
-30332 -19062 0
30332 19053 19062 0
-30333 -30331 0
-30333 -30332 0
30333 30331 30332 0
-30502 80 0
-30502 30333 0
30502 -80 -30333 0
-30503 -80 0
-30503 -30333 0
30503 80 30333 0
-30504 -30502 0
-30504 -30503 0
30504 30502 30503 0
-30352 87 0
-30352 17943 0
30352 -87 -17943 0
-30353 -87 0
-30353 -17943 0
30353 87 17943 0
-30354 -30352 0
-30354 -30353 0
30354 30352 30353 0
-30544 92 0
-30544 30354 0
30544 -92 -30354 0
-30545 -92 0
-30545 -30354 0
30545 92 30354 0
-30546 -30544 0
-30546 -30545 0
30546 30544 30545 0
-30553 30504 0
-30553 30546 0
30553 -30504 -30546 0
-30554 -30504 0
-30554 -30546 0
30554 30504 30546 0
-30555 -30553 0
-30555 -30554 0
30555 30553 30554 0
-30673 30552 0
-30673 30555 0
30673 -30552 -30555 0
-30674 -30552 0
-30674 -30555 0
30674 30552 30555 0
-30675 -30673 0
-30675 -30674 0
30675 30673 30674 0
-30676 -142 0
-30676 30675 0
30676 142 -30675 0
-30677 142 0
-30677 -30675 0
30677 -142 30675 0
-30678 -30676 0
-30678 -30677 0
30678 30676 30677 0
-30679 6 0
-30679 25383 0
30679 -6 -25383 0
-30680 -6 0
-30680 -25383 0
30680 6 25383 0
-30681 -30679 0
-30681 -30680 0
30681 30679 30680 0
-30685 15546 0
-30685 26571 0
30685 -15546 -26571 0
-30686 -15546 0
-30686 -26571 0
30686 15546 26571 0
-30687 -30685 0
-30687 -30686 0
30687 30685 30686 0
-30688 30681 0
-30688 30687 0
30688 -30681 -30687 0
-30689 -30681 0
-30689 -30687 0
30689 30681 30687 0
-30690 -30688 0
-30690 -30689 0
30690 30688 30689 0
-30718 16608 0
-30718 17913 0
30718 -16608 -17913 0
-30719 -16608 0
-30719 -17913 0
30719 16608 17913 0
-30720 -30718 0
-30720 -30719 0
30720 30718 30719 0
-30799 14454 0
-30799 30720 0
30799 -14454 -30720 0
-30800 -14454 0
-30800 -30720 0
30800 14454 30720 0
-30801 -30799 0
-30801 -30800 0
30801 30799 30800 0
-30802 30690 0
-30802 30801 0
30802 -30690 -30801 0
-30803 -30690 0
-30803 -30801 0
30803 30690 30801 0
-30804 -30802 0
-30804 -30803 0
30804 30802 30803 0
-30739 10940 0
-30739 23841 0
30739 -10940 -23841 0
-30740 -10940 0
-30740 -23841 0
30740 10940 23841 0
-30741 -30739 0
-30741 -30740 0
30741 30739 30740 0
-30805 11220 0
-30805 30741 0
30805 -11220 -30741 0
-30806 -11220 0
-30806 -30741 0
30806 11220 30741 0
-30807 -30805 0
-30807 -30806 0
30807 30805 30806 0
-30766 63 0
-30766 12591 0
30766 -63 -12591 0
-30767 -63 0
-30767 -12591 0
30767 63 12591 0
-30768 -30766 0
-30768 -30767 0
30768 30766 30767 0
-30895 23973 0
-30895 30768 0
30895 -23973 -30768 0
-30896 -23973 0
-30896 -30768 0
30896 23973 30768 0
-30897 -30895 0
-30897 -30896 0
30897 30895 30896 0
-30982 30807 0
-30982 30897 0
30982 -30807 -30897 0
-30983 -30807 0
-30983 -30897 0
30983 30807 30897 0
-30984 -30982 0
-30984 -30983 0
30984 30982 30983 0
-30985 30804 0
-30985 30984 0
30985 -30804 -30984 0
-30986 -30804 0
-30986 -30984 0
30986 30804 30984 0
-30987 -30985 0
-30987 -30986 0
30987 30985 30986 0
-30781 10540 0
-30781 11988 0
30781 -10540 -11988 0
-30782 -10540 0
-30782 -11988 0
30782 10540 11988 0
-30783 -30781 0
-30783 -30782 0
30783 30781 30782 0
-30940 13884 0
-30940 30783 0
30940 -13884 -30783 0
-30941 -13884 0
-30941 -30783 0
30941 13884 30783 0
-30942 -30940 0
-30942 -30941 0
30942 30940 30941 0
-30979 92 0
-30979 10196 0
30979 -92 -10196 0
-30980 -92 0
-30980 -10196 0
30980 92 10196 0
-30981 -30979 0
-30981 -30980 0
30981 30979 30980 0
-30988 30942 0
-30988 30981 0
30988 -30942 -30981 0
-30989 -30942 0
-30989 -30981 0
30989 30942 30981 0
-30990 -30988 0
-30990 -30989 0
30990 30988 30989 0
-31105 30987 0
-31105 30990 0
31105 -30987 -30990 0
-31106 -30987 0
-31106 -30990 0
31106 30987 30990 0
-31107 -31105 0
-31107 -31106 0
31107 31105 31106 0
-31108 -141 0
-31108 31107 0
31108 141 -31107 0
-31109 141 0
-31109 -31107 0
31109 -141 31107 0
-31110 -31108 0
-31110 -31109 0
31110 31108 31109 0
-31111 11799 0
-31111 17949 0
31111 -11799 -17949 0
-31112 -11799 0
-31112 -17949 0
31112 11799 17949 0
-31113 -31111 0
-31113 -31112 0
31113 31111 31112 0
-31126 17913 0
-31126 23343 0
31126 -17913 -23343 0
-31127 -17913 0
-31127 -23343 0
31127 17913 23343 0
-31128 -31126 0
-31128 -31127 0
31128 31126 31127 0
-31165 23 0
-31165 31128 0
31165 -23 -31128 0
-31166 -23 0
-31166 -31128 0
31166 23 31128 0
-31167 -31165 0
-31167 -31166 0
31167 31165 31166 0
-31168 31113 0
-31168 31167 0
31168 -31113 -31167 0
-31169 -31113 0
-31169 -31167 0
31169 31113 31167 0
-31170 -31168 0
-31170 -31169 0
31170 31168 31169 0
-31171 38 0
-31171 18000 0
31171 -38 -18000 0
-31172 -38 0
-31172 -18000 0
31172 38 18000 0
-31173 -31171 0
-31173 -31172 0
31173 31171 31172 0
-31264 18033 0
-31264 18597 0
31264 -18033 -18597 0
-31265 -18033 0
-31265 -18597 0
31265 18033 18597 0
-31266 -31264 0
-31266 -31265 0
31266 31264 31265 0
-31336 31173 0
-31336 31266 0
31336 -31173 -31266 0
-31337 -31173 0
-31337 -31266 0
31337 31173 31266 0
-31338 -31336 0
-31338 -31337 0
31338 31336 31337 0
-31339 31170 0
-31339 31338 0
31339 -31170 -31338 0
-31340 -31170 0
-31340 -31338 0
31340 31170 31338 0
-31341 -31339 0
-31341 -31340 0
31341 31339 31340 0
-17944 86 0
-17944 10196 0
17944 -86 -10196 0
-17945 -86 0
-17945 -10196 0
17945 86 10196 0
-17946 -17944 0
-17946 -17945 0
17946 17944 17945 0
-18298 92 0
-18298 17946 0
18298 -92 -17946 0
-18299 -92 0
-18299 -17946 0
18299 92 17946 0
-18300 -18298 0
-18300 -18299 0
18300 18298 18299 0
-31147 10442 0
-31147 17928 0
31147 -10442 -17928 0
-31148 -10442 0
-31148 -17928 0
31148 10442 17928 0
-31149 -31147 0
-31149 -31148 0
31149 31147 31148 0
-31297 10310 0
-31297 31149 0
31297 -10310 -31149 0
-31298 -10310 0
-31298 -31149 0
31298 10310 31149 0
-31299 -31297 0
-31299 -31298 0
31299 31297 31298 0
-31342 18300 0
-31342 31299 0
31342 -18300 -31299 0
-31343 -18300 0
-31343 -31299 0
31343 18300 31299 0
-31344 -31342 0
-31344 -31343 0
31344 31342 31343 0
-31465 31341 0
-31465 31344 0
31465 -31341 -31344 0
-31466 -31341 0
-31466 -31344 0
31466 31341 31344 0
-31467 -31465 0
-31467 -31466 0
31467 31465 31466 0
-31468 -140 0
-31468 31467 0
31468 140 -31467 0
-31469 140 0
-31469 -31467 0
31469 -140 31467 0
-31470 -31468 0
-31470 -31469 0
31470 31468 31469 0
-24388 14 0
-24388 11751 0
24388 -14 -11751 0
-24389 -14 0
-24389 -11751 0
24389 14 11751 0
-24390 -24388 0
-24390 -24389 0
24390 24388 24389 0
-31471 9 0
-31471 18471 0
31471 -9 -18471 0
-31472 -9 0
-31472 -18471 0
31472 9 18471 0
-31473 -31471 0
-31473 -31472 0
31473 31471 31472 0
-31486 24390 0
-31486 31473 0
31486 -24390 -31473 0
-31487 -24390 0
-31487 -31473 0
31487 24390 31473 0
-31488 -31486 0
-31488 -31487 0
31488 31486 31487 0
-15013 20 0
-15013 23 0
15013 -20 -23 0
-15014 -20 0
-15014 -23 0
15014 20 23 0
-15015 -15013 0
-15015 -15014 0
15015 15013 15014 0
-31504 13833 0
-31504 15555 0
31504 -13833 -15555 0
-31505 -13833 0
-31505 -15555 0
31505 13833 15555 0
-31506 -31504 0
-31506 -31505 0
31506 31504 31505 0
-31555 15015 0
-31555 31506 0
31555 -15015 -31506 0
-31556 -15015 0
-31556 -31506 0
31556 15015 31506 0
-31557 -31555 0
-31557 -31556 0
31557 31555 31556 0
-31558 31488 0
-31558 31557 0
31558 -31488 -31557 0
-31559 -31488 0
-31559 -31557 0
31559 31488 31557 0
-31560 -31558 0
-31560 -31559 0
31560 31558 31559 0
-31534 57 0
-31534 10902 0
31534 -57 -10902 0
-31535 -57 0
-31535 -10902 0
31535 57 10902 0
-31536 -31534 0
-31536 -31535 0
31536 31534 31535 0
-31519 10638 0
-31519 18489 0
31519 -10638 -18489 0
-31520 -10638 0
-31520 -18489 0
31520 10638 18489 0
-31521 -31519 0
-31521 -31520 0
31521 31519 31520 0
-31561 41 0
-31561 31521 0
31561 -41 -31521 0
-31562 -41 0
-31562 -31521 0
31562 41 31521 0
-31563 -31561 0
-31563 -31562 0
31563 31561 31562 0
-31696 31536 0
-31696 31563 0
31696 -31536 -31563 0
-31697 -31536 0
-31697 -31563 0
31697 31536 31563 0
-31698 -31696 0
-31698 -31697 0
31698 31696 31697 0
-31699 31560 0
-31699 31698 0
31699 -31560 -31698 0
-31700 -31560 0
-31700 -31698 0
31700 31560 31698 0
-31701 -31699 0
-31701 -31700 0
31701 31699 31700 0
-31540 72 0
-31540 19053 0
31540 -72 -19053 0
-31541 -72 0
-31541 -19053 0
31541 72 19053 0
-31542 -31540 0
-31542 -31541 0
31542 31540 31541 0
-31663 22497 0
-31663 31542 0
31663 -22497 -31542 0
-31664 -22497 0
-31664 -31542 0
31664 22497 31542 0
-31665 -31663 0
-31665 -31664 0
31665 31663 31664 0
-28120 84 0
-28120 86 0
28120 -84 -86 0
-28121 -84 0
-28121 -86 0
28121 84 86 0
-28122 -28120 0
-28122 -28121 0
28122 28120 28121 0
-31693 92 0
-31693 28122 0
31693 -92 -28122 0
-31694 -92 0
-31694 -28122 0
31694 92 28122 0
-31695 -31693 0
-31695 -31694 0
31695 31693 31694 0
-31702 31665 0
-31702 31695 0
31702 -31665 -31695 0
-31703 -31665 0
-31703 -31695 0
31703 31665 31695 0
-31704 -31702 0
-31704 -31703 0
31704 31702 31703 0
-31807 31701 0
-31807 31704 0
31807 -31701 -31704 0
-31808 -31701 0
-31808 -31704 0
31808 31701 31704 0
-31809 -31807 0
-31809 -31808 0
31809 31807 31808 0
-31810 -139 0
-31810 31809 0
31810 139 -31809 0
-31811 139 0
-31811 -31809 0
31811 -139 31809 0
-31812 -31810 0
-31812 -31811 0
31812 31810 31811 0
-31813 7 0
-31813 19023 0
31813 -7 -19023 0
-31814 -7 0
-31814 -19023 0
31814 7 19023 0
-31815 -31813 0
-31815 -31814 0
31815 31813 31814 0
-19027 14 0
-19027 16 0
19027 -14 -16 0
-19028 -14 0
-19028 -16 0
19028 14 16 0
-19029 -19027 0
-19029 -19028 0
19029 19027 19028 0
-31822 11767 0
-31822 19029 0
31822 -11767 -19029 0
-31823 -11767 0
-31823 -19029 0
31823 11767 19029 0
-31824 -31822 0
-31824 -31823 0
31824 31822 31823 0
-31825 31815 0
-31825 31824 0
31825 -31815 -31824 0
-31826 -31815 0
-31826 -31824 0
31826 31815 31824 0
-31827 -31825 0
-31827 -31826 0
31827 31825 31826 0
-31816 25 0
-31816 11560 0
31816 -25 -11560 0
-31817 -25 0
-31817 -11560 0
31817 25 11560 0
-31818 -31816 0
-31818 -31817 0
31818 31816 31817 0
-31828 20 0
-31828 31818 0
31828 -20 -31818 0
-31829 -20 0
-31829 -31818 0
31829 20 31818 0
-31830 -31828 0
-31830 -31829 0
31830 31828 31829 0
-31864 32 0
-31864 11446 0
31864 -32 -11446 0
-31865 -32 0
-31865 -11446 0
31865 32 11446 0
-31866 -31864 0
-31866 -31865 0
31866 31864 31865 0
-31924 31830 0
-31924 31866 0
31924 -31830 -31866 0
-31925 -31830 0
-31925 -31866 0
31925 31830 31866 0
-31926 -31924 0
-31926 -31925 0
31926 31924 31925 0
-31927 31827 0
-31927 31926 0
31927 -31827 -31926 0
-31928 -31827 0
-31928 -31926 0
31928 31827 31926 0
-31929 -31927 0
-31929 -31928 0
31929 31927 31928 0
-28921 44 0
-28921 12531 0
28921 -44 -12531 0
-28922 -44 0
-28922 -12531 0
28922 44 12531 0
-28923 -28921 0
-28923 -28922 0
28923 28921 28922 0
-31873 34 0
-31873 41 0
31873 -34 -41 0
-31874 -34 0
-31874 -41 0
31874 34 41 0
-31875 -31873 0
-31875 -31874 0
31875 31873 31874 0
-31930 28923 0
-31930 31875 0
31930 -28923 -31875 0
-31931 -28923 0
-31931 -31875 0
31931 28923 31875 0
-31932 -31930 0
-31932 -31931 0
31932 31930 31931 0
-32005 50 0
-32005 58 0
32005 -50 -58 0
-32006 -50 0
-32006 -58 0
32006 50 58 0
-32007 -32005 0
-32007 -32006 0
32007 32005 32006 0
-32080 31932 0
-32080 32007 0
32080 -31932 -32007 0
-32081 -31932 0
-32081 -32007 0
32081 31932 32007 0
-32082 -32080 0
-32082 -32081 0
32082 32080 32081 0
-32083 31929 0
-32083 32082 0
32083 -31929 -32082 0
-32084 -31929 0
-32084 -32082 0
32084 31929 32082 0
-32085 -32083 0
-32085 -32084 0
32085 32083 32084 0
-31897 10540 0
-31897 28119 0
31897 -10540 -28119 0
-31898 -10540 0
-31898 -28119 0
31898 10540 28119 0
-31899 -31897 0
-31899 -31898 0
31899 31897 31898 0
-32038 19065 0
-32038 31899 0
32038 -19065 -31899 0
-32039 -19065 0
-32039 -31899 0
32039 19065 31899 0
-32040 -32038 0
-32040 -32039 0
32040 32038 32039 0
-31921 13893 0
-31921 23853 0
31921 -13893 -23853 0
-31922 -13893 0
-31922 -23853 0
31922 13893 23853 0
-31923 -31921 0
-31923 -31922 0
31923 31921 31922 0
-32077 92 0
-32077 31923 0
32077 -92 -31923 0
-32078 -92 0
-32078 -31923 0
32078 92 31923 0
-32079 -32077 0
-32079 -32078 0
32079 32077 32078 0
-32086 32040 0
-32086 32079 0
32086 -32040 -32079 0
-32087 -32040 0
-32087 -32079 0
32087 32040 32079 0
-32088 -32086 0
-32088 -32087 0
32088 32086 32087 0
-32203 32085 0
-32203 32088 0
32203 -32085 -32088 0
-32204 -32085 0
-32204 -32088 0
32204 32085 32088 0
-32205 -32203 0
-32205 -32204 0
32205 32203 32204 0
-32206 -138 0
-32206 32205 0
32206 138 -32205 0
-32207 138 0
-32207 -32205 0
32207 -138 32205 0
-32208 -32206 0
-32208 -32207 0
32208 32206 32207 0
-32209 12534 0
-32209 15012 0
32209 -12534 -15012 0
-32210 -12534 0
-32210 -15012 0
32210 12534 15012 0
-32211 -32209 0
-32211 -32210 0
32211 32209 32210 0
-32212 10 0
-32212 19578 0
32212 -10 -19578 0
-32213 -10 0
-32213 -19578 0
32213 10 19578 0
-32214 -32212 0
-32214 -32213 0
32214 32212 32213 0
-32215 32211 0
-32215 32214 0
32215 -32211 -32214 0
-32216 -32211 0
-32216 -32214 0
32216 32211 32214 0
-32217 -32215 0
-32217 -32216 0
32217 32215 32216 0
-32236 13425 0
-32236 32217 0
32236 -13425 -32217 0
-32237 -13425 0
-32237 -32217 0
32237 13425 32217 0
-32238 -32236 0
-32238 -32237 0
32238 32236 32237 0
-32239 34 0
-32239 13209 0
32239 -34 -13209 0
-32240 -34 0
-32240 -13209 0
32240 34 13209 0
-32241 -32239 0
-32241 -32240 0
32241 32239 32240 0
-32230 58 0
-32230 65 0
32230 -58 -65 0
-32231 -58 0
-32231 -65 0
32231 58 65 0
-32232 -32230 0
-32232 -32231 0
32232 32230 32231 0
-32287 10788 0
-32287 32232 0
32287 -10788 -32232 0
-32288 -10788 0
-32288 -32232 0
32288 10788 32232 0
-32289 -32287 0
-32289 -32288 0
32289 32287 32288 0
-32356 32241 0
-32356 32289 0
32356 -32241 -32289 0
-32357 -32241 0
-32357 -32289 0
32357 32241 32289 0
-32358 -32356 0
-32358 -32357 0
32358 32356 32357 0
-32359 32238 0
-32359 32358 0
32359 -32238 -32358 0
-32360 -32238 0
-32360 -32358 0
32360 32238 32358 0
-32361 -32359 0
-32361 -32360 0
32361 32359 32360 0
-32353 92 0
-32353 26256 0
32353 -92 -26256 0
-32354 -92 0
-32354 -26256 0
32354 92 26256 0
-32355 -32353 0
-32355 -32354 0
32355 32353 32354 0
-32362 13566 0
-32362 32355 0
32362 -13566 -32355 0
-32363 -13566 0
-32363 -32355 0
32363 13566 32355 0
-32364 -32362 0
-32364 -32363 0
32364 32362 32363 0
-32488 32361 0
-32488 32364 0
32488 -32361 -32364 0
-32489 -32361 0
-32489 -32364 0
32489 32361 32364 0
-32490 -32488 0
-32490 -32489 0
32490 32488 32489 0
-32491 -137 0
-32491 32490 0
32491 137 -32490 0
-32492 137 0
-32492 -32490 0
32492 -137 32490 0
-32493 -32491 0
-32493 -32492 0
32493 32491 32492 0
-32494 2 0
-32494 4 0
32494 -2 -4 0
-32495 -2 0
-32495 -4 0
32495 2 4 0
-32496 -32494 0
-32496 -32495 0
32496 32494 32495 0
-32497 11895 0
-32497 32496 0
32497 -11895 -32496 0
-32498 -11895 0
-32498 -32496 0
32498 11895 32496 0
-32499 -32497 0
-32499 -32498 0
32499 32497 32498 0
-32500 31824 0
-32500 32499 0
32500 -31824 -32499 0
-32501 -31824 0
-32501 -32499 0
32501 31824 32499 0
-32502 -32500 0
-32502 -32501 0
32502 32500 32501 0
-32503 18 0
-32503 11925 0
32503 -18 -11925 0
-32504 -18 0
-32504 -11925 0
32504 18 11925 0
-32505 -32503 0
-32505 -32504 0
32505 32503 32504 0
-32539 15555 0
-32539 16065 0
32539 -15555 -16065 0
-32540 -15555 0
-32540 -16065 0
32540 15555 16065 0
-32541 -32539 0
-32541 -32540 0
32541 32539 32540 0
-32638 32505 0
-32638 32541 0
32638 -32505 -32541 0
-32639 -32505 0
-32639 -32541 0
32639 32505 32541 0
-32640 -32638 0
-32640 -32639 0
32640 32638 32639 0
-32641 32502 0
-32641 32640 0
32641 -32502 -32640 0
-32642 -32502 0
-32642 -32640 0
32642 32502 32640 0
-32643 -32641 0
-32643 -32642 0
32643 32641 32642 0
-32557 11320 0
-32557 21729 0
32557 -11320 -21729 0
-32558 -11320 0
-32558 -21729 0
32558 11320 21729 0
-32559 -32557 0
-32559 -32558 0
32559 32557 32558 0
-32572 44 0
-32572 13215 0
32572 -44 -13215 0
-32573 -44 0
-32573 -13215 0
32573 44 13215 0
-32574 -32572 0
-32574 -32573 0
32574 32572 32573 0
-32644 32559 0
-32644 32574 0
32644 -32559 -32574 0
-32645 -32559 0
-32645 -32574 0
32645 32559 32574 0
-32646 -32644 0
-32646 -32645 0
32646 32644 32645 0
-32737 12114 0
-32737 17232 0
32737 -12114 -17232 0
-32738 -12114 0
-32738 -17232 0
32738 12114 17232 0
-32739 -32737 0
-32739 -32738 0
32739 32737 32738 0
-32836 32646 0
-32836 32739 0
32836 -32646 -32739 0
-32837 -32646 0
-32837 -32739 0
32837 32646 32739 0
-32838 -32836 0
-32838 -32837 0
32838 32836 32837 0
-32839 32643 0
-32839 32838 0
32839 -32643 -32838 0
-32840 -32643 0
-32840 -32838 0
32840 32643 32838 0
-32841 -32839 0
-32841 -32840 0
32841 32839 32840 0
-32617 17928 0
-32617 28119 0
32617 -17928 -28119 0
-32618 -17928 0
-32618 -28119 0
32618 17928 28119 0
-32619 -32617 0
-32619 -32618 0
32619 32617 32618 0
-32629 12615 0
-32629 13263 0
32629 -12615 -13263 0
-32630 -12615 0
-32630 -13263 0
32630 12615 13263 0
-32631 -32629 0
-32631 -32630 0
32631 32629 32630 0
-32827 92 0
-32827 32631 0
32827 -92 -32631 0
-32828 -92 0
-32828 -32631 0
32828 92 32631 0
-32829 -32827 0
-32829 -32828 0
32829 32827 32828 0
-32842 32619 0
-32842 32829 0
32842 -32619 -32829 0
-32843 -32619 0
-32843 -32829 0
32843 32619 32829 0
-32844 -32842 0
-32844 -32843 0
32844 32842 32843 0
-32992 107 0
-32992 32844 0
32992 -107 -32844 0
-32993 -107 0
-32993 -32844 0
32993 107 32844 0
-32994 -32992 0
-32994 -32993 0
32994 32992 32993 0
-32995 32841 0
-32995 32994 0
32995 -32841 -32994 0
-32996 -32841 0
-32996 -32994 0
32996 32841 32994 0
-32997 -32995 0
-32997 -32996 0
32997 32995 32996 0
-32998 -136 0
-32998 32997 0
32998 136 -32997 0
-32999 136 0
-32999 -32997 0
32999 -136 32997 0
-33000 -32998 0
-33000 -32999 0
33000 32998 32999 0
-33001 12534 0
-33001 16584 0
33001 -12534 -16584 0
-33002 -12534 0
-33002 -16584 0
33002 12534 16584 0
-33003 -33001 0
-33003 -33002 0
33003 33001 33002 0
-33019 11703 0
-33019 11901 0
33019 -11703 -11901 0
-33020 -11703 0
-33020 -11901 0
33020 11703 11901 0
-33021 -33019 0
-33021 -33020 0
33021 33019 33020 0
-33022 33003 0
-33022 33021 0
33022 -33003 -33021 0
-33023 -33003 0
-33023 -33021 0
33023 33003 33021 0
-33024 -33022 0
-33024 -33023 0
33024 33022 33023 0
-33049 11484 0
-33049 16071 0
33049 -11484 -16071 0
-33050 -11484 0
-33050 -16071 0
33050 11484 16071 0
-33051 -33049 0
-33051 -33050 0
33051 33049 33050 0
-33148 12627 0
-33148 33051 0
33148 -12627 -33051 0
-33149 -12627 0
-33149 -33051 0
33149 12627 33051 0
-33150 -33148 0
-33150 -33149 0
33150 33148 33149 0
-33151 33024 0
-33151 33150 0
33151 -33024 -33150 0
-33152 -33024 0
-33152 -33150 0
33152 33024 33150 0
-33153 -33151 0
-33153 -33152 0
33153 33151 33152 0
-33073 41 0
-33073 23835 0
33073 -41 -23835 0
-33074 -41 0
-33074 -23835 0
33074 41 23835 0
-33075 -33073 0
-33075 -33074 0
33075 33073 33074 0
-33154 30741 0
-33154 33075 0
33154 -30741 -33075 0
-33155 -30741 0
-33155 -33075 0
33155 30741 33075 0
-33156 -33154 0
-33156 -33155 0
33156 33154 33155 0
-33013 61 0
-33013 63 0
33013 -61 -63 0
-33014 -61 0
-33014 -63 0
33014 61 63 0
-33015 -33013 0
-33015 -33014 0
33015 33013 33014 0
-33247 24972 0
-33247 33015 0
33247 -24972 -33015 0
-33248 -24972 0
-33248 -33015 0
33248 24972 33015 0
-33249 -33247 0
-33249 -33248 0
33249 33247 33248 0
-33343 33156 0
-33343 33249 0
33343 -33156 -33249 0
-33344 -33156 0
-33344 -33249 0
33344 33156 33249 0
-33345 -33343 0
-33345 -33344 0
33345 33343 33344 0
-33346 33153 0
-33346 33345 0
33346 -33153 -33345 0
-33347 -33153 0
-33347 -33345 0
33347 33153 33345 0
-33348 -33346 0
-33348 -33347 0
33348 33346 33347 0
-33016 66 0
-33016 10521 0
33016 -66 -10521 0
-33017 -66 0
-33017 -10521 0
33017 66 10521 0
-33018 -33016 0
-33018 -33017 0
33018 33016 33017 0
-33127 10442 0
-33127 33018 0
33127 -10442 -33018 0
-33128 -10442 0
-33128 -33018 0
33128 10442 33018 0
-33129 -33127 0
-33129 -33128 0
33129 33127 33128 0
-33292 81 0
-33292 33129 0
33292 -81 -33129 0
-33293 -81 0
-33293 -33129 0
33293 81 33129 0
-33294 -33292 0
-33294 -33293 0
33294 33292 33293 0
-33145 13263 0
-33145 25752 0
33145 -13263 -25752 0
-33146 -13263 0
-33146 -25752 0
33146 13263 25752 0
-33147 -33145 0
-33147 -33146 0
33147 33145 33146 0
-33340 92 0
-33340 33147 0
33340 -92 -33147 0
-33341 -92 0
-33341 -33147 0
33341 92 33147 0
-33342 -33340 0
-33342 -33341 0
33342 33340 33341 0
-33349 33294 0
-33349 33342 0
33349 -33294 -33342 0
-33350 -33294 0
-33350 -33342 0
33350 33294 33342 0
-33351 -33349 0
-33351 -33350 0
33351 33349 33350 0
-33499 107 0
-33499 33351 0
33499 -107 -33351 0
-33500 -107 0
-33500 -33351 0
33500 107 33351 0
-33501 -33499 0
-33501 -33500 0
33501 33499 33500 0
-33502 33348 0
-33502 33501 0
33502 -33348 -33501 0
-33503 -33348 0
-33503 -33501 0
33503 33348 33501 0
-33504 -33502 0
-33504 -33503 0
33504 33502 33503 0
-33505 -135 0
-33505 33504 0
33505 135 -33504 0
-33506 135 0
-33506 -33504 0
33506 -135 33504 0
-33507 -33505 0
-33507 -33506 0
33507 33505 33506 0
-33511 13167 0
-33511 26160 0
33511 -13167 -26160 0
-33512 -13167 0
-33512 -26160 0
33512 13167 26160 0
-33513 -33511 0
-33513 -33512 0
33513 33511 33512 0
-33586 13272 0
-33586 15018 0
33586 -13272 -15018 0
-33587 -13272 0
-33587 -15018 0
33587 13272 15018 0
-33588 -33586 0
-33588 -33587 0
33588 33586 33587 0
-33589 33513 0
-33589 33588 0
33589 -33513 -33588 0
-33590 -33513 0
-33590 -33588 0
33590 33513 33588 0
-33591 -33589 0
-33591 -33590 0
33591 33589 33590 0
-33565 62 0
-33565 20766 0
33565 -62 -20766 0
-33566 -62 0
-33566 -20766 0
33566 62 20766 0
-33567 -33565 0
-33567 -33566 0
33567 33565 33566 0
-33538 11952 0
-33538 26154 0
33538 -11952 -26154 0
-33539 -11952 0
-33539 -26154 0
33539 11952 26154 0
-33540 -33538 0
-33540 -33539 0
33540 33538 33539 0
-33556 10940 0
-33556 11114 0
33556 -10940 -11114 0
-33557 -10940 0
-33557 -11114 0
33557 10940 11114 0
-33558 -33556 0
-33558 -33557 0
33558 33556 33557 0
-33592 33540 0
-33592 33558 0
33592 -33540 -33558 0
-33593 -33540 0
-33593 -33558 0
33593 33540 33558 0
-33594 -33592 0
-33594 -33593 0
33594 33592 33593 0
-33730 33567 0
-33730 33594 0
33730 -33567 -33594 0
-33731 -33567 0
-33731 -33594 0
33731 33567 33594 0
-33732 -33730 0
-33732 -33731 0
33732 33730 33731 0
-33733 33591 0
-33733 33732 0
33733 -33591 -33732 0
-33734 -33591 0
-33734 -33732 0
33734 33591 33732 0
-33735 -33733 0
-33735 -33734 0
33735 33733 33734 0
-33583 13263 0
-33583 17943 0
33583 -13263 -17943 0
-33584 -13263 0
-33584 -17943 0
33584 13263 17943 0
-33585 -33583 0
-33585 -33584 0
33585 33583 33584 0
-33727 92 0
-33727 33585 0
33727 -92 -33585 0
-33728 -92 0
-33728 -33585 0
33728 92 33585 0
-33729 -33727 0
-33729 -33728 0
33729 33727 33728 0
-33736 26373 0
-33736 33729 0
33736 -26373 -33729 0
-33737 -26373 0
-33737 -33729 0
33737 26373 33729 0
-33738 -33736 0
-33738 -33737 0
33738 33736 33737 0
-33883 107 0
-33883 33738 0
33883 -107 -33738 0
-33884 -107 0
-33884 -33738 0
33884 107 33738 0
-33885 -33883 0
-33885 -33884 0
33885 33883 33884 0
-33886 33735 0
-33886 33885 0
33886 -33735 -33885 0
-33887 -33735 0
-33887 -33885 0
33887 33735 33885 0
-33888 -33886 0
-33888 -33887 0
33888 33886 33887 0
-33889 -134 0
-33889 33888 0
33889 134 -33888 0
-33890 134 0
-33890 -33888 0
33890 -134 33888 0
-33891 -33889 0
-33891 -33890 0
33891 33889 33890 0
-33892 13164 0
-33892 18474 0
33892 -13164 -18474 0
-33893 -13164 0
-33893 -18474 0
33893 13164 18474 0
-33894 -33892 0
-33894 -33893 0
33894 33892 33893 0
-33895 11735 0
-33895 15546 0
33895 -11735 -15546 0
-33896 -11735 0
-33896 -15546 0
33896 11735 15546 0
-33897 -33895 0
-33897 -33896 0
33897 33895 33896 0
-33898 33894 0
-33898 33897 0
33898 -33894 -33897 0
-33899 -33894 0
-33899 -33897 0
33899 33894 33897 0
-33900 -33898 0
-33900 -33899 0
33900 33898 33899 0
-33901 11598 0
-33901 14463 0
33901 -11598 -14463 0
-33902 -11598 0
-33902 -14463 0
33902 11598 14463 0
-33903 -33901 0
-33903 -33902 0
33903 33901 33902 0
-34003 18549 0
-34003 33903 0
34003 -18549 -33903 0
-34004 -18549 0
-34004 -33903 0
34004 18549 33903 0
-34005 -34003 0
-34005 -34004 0
34005 34003 34004 0
-34006 33900 0
-34006 34005 0
34006 -33900 -34005 0
-34007 -33900 0
-34007 -34005 0
34007 33900 34005 0
-34008 -34006 0
-34008 -34007 0
34008 34006 34007 0
-12565 36 0
-12565 38 0
12565 -36 -38 0
-12566 -36 0
-12566 -38 0
12566 36 38 0
-12567 -12565 0
-12567 -12566 0
12567 12565 12566 0
-33952 13215 0
-33952 18489 0
33952 -13215 -18489 0
-33953 -13215 0
-33953 -18489 0
33953 13215 18489 0
-33954 -33952 0
-33954 -33953 0
33954 33952 33953 0
-34009 12567 0
-34009 33954 0
34009 -12567 -33954 0
-34010 -12567 0
-34010 -33954 0
34010 12567 33954 0
-34011 -34009 0
-34011 -34010 0
34011 34009 34010 0
-33967 60 0
-33967 10600 0
33967 -60 -10600 0
-33968 -60 0
-33968 -10600 0
33968 60 10600 0
-33969 -33967 0
-33969 -33968 0
33969 33967 33968 0
-34090 15138 0
-34090 33969 0
34090 -15138 -33969 0
-34091 -15138 0
-34091 -33969 0
34091 15138 33969 0
-34092 -34090 0
-34092 -34091 0
34092 34090 34091 0
-34171 34011 0
-34171 34092 0
34171 -34011 -34092 0
-34172 -34011 0
-34172 -34092 0
34172 34011 34092 0
-34173 -34171 0
-34173 -34172 0
34173 34171 34172 0
-34174 34008 0
-34174 34173 0
34174 -34008 -34173 0
-34175 -34008 0
-34175 -34173 0
34175 34008 34173 0
-34176 -34174 0
-34176 -34175 0
34176 34174 34175 0
-33982 68 0
-33982 10464 0
33982 -68 -10464 0
-33983 -68 0
-33983 -10464 0
33983 68 10464 0
-33984 -33982 0
-33984 -33983 0
33984 33982 33983 0
-34123 13884 0
-34123 33984 0
34123 -13884 -33984 0
-34124 -13884 0
-34124 -33984 0
34124 13884 33984 0
-34125 -34123 0
-34125 -34124 0
34125 34123 34124 0
-34177 15375 0
-34177 34125 0
34177 -15375 -34125 0
-34178 -15375 0
-34178 -34125 0
34178 15375 34125 0
-34179 -34177 0
-34179 -34178 0
34179 34177 34178 0
-34318 107 0
-34318 34179 0
34318 -107 -34179 0
-34319 -107 0
-34319 -34179 0
34319 107 34179 0
-34320 -34318 0
-34320 -34319 0
34320 34318 34319 0
-34321 34176 0
-34321 34320 0
34321 -34176 -34320 0
-34322 -34176 0
-34322 -34320 0
34322 34176 34320 0
-34323 -34321 0
-34323 -34322 0
34323 34321 34322 0
-34324 -133 0
-34324 34323 0
34324 133 -34323 0
-34325 133 0
-34325 -34323 0
34325 -133 34323 0
-34326 -34324 0
-34326 -34325 0
34326 34324 34325 0
-34327 11815 0
-34327 13788 0
34327 -11815 -13788 0
-34328 -11815 0
-34328 -13788 0
34328 11815 13788 0
-34329 -34327 0
-34329 -34328 0
34329 34327 34328 0
-34333 11735 0
-34333 16056 0
34333 -11735 -16056 0
-34334 -11735 0
-34334 -16056 0
34334 11735 16056 0
-34335 -34333 0
-34335 -34334 0
34335 34333 34334 0
-34336 34329 0
-34336 34335 0
34336 -34329 -34335 0
-34337 -34329 0
-34337 -34335 0
34337 34329 34335 0
-34338 -34336 0
-34338 -34337 0
34338 34336 34337 0
-34339 11617 0
-34339 11925 0
34339 -11617 -11925 0
-34340 -11617 0
-34340 -11925 0
34340 11617 11925 0
-34341 -34339 0
-34341 -34340 0
34341 34339 34340 0
-34459 15612 0
-34459 34341 0
34459 -15612 -34341 0
-34460 -15612 0
-34460 -34341 0
34460 15612 34341 0
-34461 -34459 0
-34461 -34460 0
34461 34459 34460 0
-34462 34338 0
-34462 34461 0
34462 -34338 -34461 0
-34463 -34338 0
-34463 -34461 0
34463 34338 34461 0
-34464 -34462 0
-34464 -34463 0
34464 34462 34463 0
-34378 34 0
-34378 13845 0
34378 -34 -13845 0
-34379 -34 0
-34379 -13845 0
34379 34 13845 0
-34380 -34378 0
-34380 -34379 0
34380 34378 34379 0
-34393 48 0
-34393 23841 0
34393 -48 -23841 0
-34394 -48 0
-34394 -23841 0
34394 48 23841 0
-34395 -34393 0
-34395 -34394 0
34395 34393 34394 0
-34465 34380 0
-34465 34395 0
34465 -34380 -34395 0
-34466 -34380 0
-34466 -34395 0
34466 34380 34395 0
-34467 -34465 0
-34467 -34466 0
34467 34465 34466 0
-12115 51 0
-12115 56 0
12115 -51 -56 0
-12116 -51 0
-12116 -56 0
12116 51 56 0
-12117 -12115 0
-12117 -12116 0
12117 12115 12116 0
-34408 61 0
-34408 13224 0
34408 -61 -13224 0
-34409 -61 0
-34409 -13224 0
34409 61 13224 0
-34410 -34408 0
-34410 -34409 0
34410 34408 34409 0
-34555 12117 0
-34555 34410 0
34555 -12117 -34410 0
-34556 -12117 0
-34556 -34410 0
34556 12117 34410 0
-34557 -34555 0
-34557 -34556 0
34557 34555 34556 0
-34651 34467 0
-34651 34557 0
34651 -34467 -34557 0
-34652 -34467 0
-34652 -34557 0
34652 34467 34557 0
-34653 -34651 0
-34653 -34652 0
34653 34651 34652 0
-34654 34464 0
-34654 34653 0
34654 -34464 -34653 0
-34655 -34464 0
-34655 -34653 0
34655 34464 34653 0
-34656 -34654 0
-34656 -34655 0
34656 34654 34655 0
-34432 68 0
-34432 19059 0
34432 -68 -19059 0
-34433 -68 0
-34433 -19059 0
34433 68 19059 0
-34434 -34432 0
-34434 -34433 0
34434 34432 34433 0
-34603 15051 0
-34603 34434 0
34603 -15051 -34434 0
-34604 -15051 0
-34604 -34434 0
34604 15051 34434 0
-34605 -34603 0
-34605 -34604 0
34605 34603 34604 0
-34657 32355 0
-34657 34605 0
34657 -32355 -34605 0
-34658 -32355 0
-34658 -34605 0
34658 32355 34605 0
-34659 -34657 0
-34659 -34658 0
34659 34657 34658 0
-34804 107 0
-34804 34659 0
34804 -107 -34659 0
-34805 -107 0
-34805 -34659 0
34805 107 34659 0
-34806 -34804 0
-34806 -34805 0
34806 34804 34805 0
-34807 34656 0
-34807 34806 0
34807 -34656 -34806 0
-34808 -34656 0
-34808 -34806 0
34808 34656 34806 0
-34809 -34807 0
-34809 -34808 0
34809 34807 34808 0
-34810 -132 0
-34810 34809 0
34810 132 -34809 0
-34811 132 0
-34811 -34809 0
34811 -132 34809 0
-34812 -34810 0
-34812 -34811 0
34812 34810 34811 0
-34825 11735 0
-34825 13176 0
34825 -11735 -13176 0
-34826 -11735 0
-34826 -13176 0
34826 11735 13176 0
-34827 -34825 0
-34827 -34826 0
34827 34825 34826 0
-34828 11831 0
-34828 34827 0
34828 -11831 -34827 0
-34829 -11831 0
-34829 -34827 0
34829 11831 34827 0
-34830 -34828 0
-34830 -34829 0
34830 34828 34829 0
-34813 21 0
-34813 11636 0
34813 -21 -11636 0
-34814 -21 0
-34814 -11636 0
34814 21 11636 0
-34815 -34813 0
-34815 -34814 0
34815 34813 34814 0
-34831 11925 0
-34831 34815 0
34831 -11925 -34815 0
-34832 -11925 0
-34832 -34815 0
34832 11925 34815 0
-34833 -34831 0
-34833 -34832 0
34833 34831 34832 0
-34936 19617 0
-34936 34833 0
34936 -19617 -34833 0
-34937 -19617 0
-34937 -34833 0
34937 19617 34833 0
-34938 -34936 0
-34938 -34937 0
34938 34936 34937 0
-34939 34830 0
-34939 34938 0
34939 -34830 -34938 0
-34940 -34830 0
-34940 -34938 0
34940 34830 34938 0
-34941 -34939 0
-34941 -34940 0
34941 34939 34940 0
-34867 11320 0
-34867 16638 0
34867 -11320 -16638 0
-34868 -11320 0
-34868 -16638 0
34868 11320 16638 0
-34869 -34867 0
-34869 -34868 0
34869 34867 34868 0
-34942 11114 0
-34942 34869 0
34942 -11114 -34869 0
-34943 -11114 0
-34943 -34869 0
34943 11114 34869 0
-34944 -34942 0
-34944 -34943 0
34944 34942 34943 0
-34891 15039 0
-34891 20766 0
34891 -15039 -20766 0
-34892 -15039 0
-34892 -20766 0
34892 15039 20766 0
-34893 -34891 0
-34893 -34892 0
34893 34891 34892 0
-35035 12729 0
-35035 34893 0
35035 -12729 -34893 0
-35036 -12729 0
-35036 -34893 0
35036 12729 34893 0
-35037 -35035 0
-35037 -35036 0
35037 35035 35036 0
-35128 34944 0
-35128 35037 0
35128 -34944 -35037 0
-35129 -34944 0
-35129 -35037 0
35129 34944 35037 0
-35130 -35128 0
-35130 -35129 0
35130 35128 35129 0
-35131 34941 0
-35131 35130 0
35131 -34941 -35130 0
-35132 -34941 0
-35132 -35130 0
35132 34941 35130 0
-35133 -35131 0
-35133 -35132 0
35133 35131 35132 0
-34915 77 0
-34915 17934 0
34915 -77 -17934 0
-34916 -77 0
-34916 -17934 0
34916 77 17934 0
-34917 -34915 0
-34917 -34916 0
34917 34915 34916 0
-35083 19680 0
-35083 34917 0
35083 -19680 -34917 0
-35084 -19680 0
-35084 -34917 0
35084 19680 34917 0
-35085 -35083 0
-35085 -35084 0
35085 35083 35084 0
-35134 32355 0
-35134 35085 0
35134 -32355 -35085 0
-35135 -32355 0
-35135 -35085 0
35135 32355 35085 0
-35136 -35134 0
-35136 -35135 0
35136 35134 35135 0
-35278 107 0
-35278 35136 0
35278 -107 -35136 0
-35279 -107 0
-35279 -35136 0
35279 107 35136 0
-35280 -35278 0
-35280 -35279 0
35280 35278 35279 0
-35281 35133 0
-35281 35280 0
35281 -35133 -35280 0
-35282 -35133 0
-35282 -35280 0
35282 35133 35280 0
-35283 -35281 0
-35283 -35282 0
35283 35281 35282 0
-35284 -131 0
-35284 35283 0
35284 131 -35283 0
-35285 131 0
-35285 -35283 0
35285 -131 35283 0
-35286 -35284 0
-35286 -35285 0
35286 35284 35285 0
-35287 6 0
-35287 19023 0
35287 -6 -19023 0
-35288 -6 0
-35288 -19023 0
35288 6 19023 0
-35289 -35287 0
-35289 -35288 0
35289 35287 35288 0
-35308 11687 0
-35308 11735 0
35308 -11687 -11735 0
-35309 -11687 0
-35309 -11735 0
35309 11687 11735 0
-35310 -35308 0
-35310 -35309 0
35310 35308 35309 0
-35311 35289 0
-35311 35310 0
35311 -35289 -35310 0
-35312 -35289 0
-35312 -35310 0
35312 35289 35310 0
-35313 -35311 0
-35313 -35312 0
35313 35311 35312 0
-35314 11541 0
-35314 23337 0
35314 -11541 -23337 0
-35315 -11541 0
-35315 -23337 0
35315 11541 23337 0
-35316 -35314 0
-35316 -35315 0
35316 35314 35315 0
-35359 11940 0
-35359 12555 0
35359 -11940 -12555 0
-35360 -11940 0
-35360 -12555 0
35360 11940 12555 0
-35361 -35359 0
-35361 -35360 0
35361 35359 35360 0
-35491 35316 0
-35491 35361 0
35491 -35316 -35361 0
-35492 -35316 0
-35492 -35361 0
35492 35316 35361 0
-35493 -35491 0
-35493 -35492 0
35493 35491 35492 0
-35494 35313 0
-35494 35493 0
35494 -35313 -35493 0
-35495 -35313 0
-35495 -35493 0
35495 35313 35493 0
-35496 -35494 0
-35496 -35495 0
35496 35494 35495 0
-35383 11195 0
-35383 16080 0
35383 -11195 -16080 0
-35384 -11195 0
-35384 -16080 0
35384 11195 16080 0
-35385 -35383 0
-35385 -35384 0
35385 35383 35384 0
-35299 44 0
-35299 11114 0
35299 -44 -11114 0
-35300 -44 0
-35300 -11114 0
35300 44 11114 0
-35301 -35299 0
-35301 -35300 0
35301 35299 35300 0
-35407 21741 0
-35407 35301 0
35407 -21741 -35301 0
-35408 -21741 0
-35408 -35301 0
35408 21741 35301 0
-35409 -35407 0
-35409 -35408 0
35409 35407 35408 0
-35497 35385 0
-35497 35409 0
35497 -35385 -35409 0
-35498 -35385 0
-35498 -35409 0
35498 35385 35409 0
-35499 -35497 0
-35499 -35498 0
35499 35497 35498 0
-35302 58 0
-35302 10688 0
35302 -58 -10688 0
-35303 -58 0
-35303 -10688 0
35303 58 10688 0
-35304 -35302 0
-35304 -35303 0
35304 35302 35303 0
-35428 15573 0
-35428 35304 0
35428 -15573 -35304 0
-35429 -15573 0
-35429 -35304 0
35429 15573 35304 0
-35430 -35428 0
-35430 -35429 0
35430 35428 35429 0
-35590 56 0
-35590 35430 0
35590 -56 -35430 0
-35591 -56 0
-35591 -35430 0
35591 56 35430 0
-35592 -35590 0
-35592 -35591 0
35592 35590 35591 0
-35686 35499 0
-35686 35592 0
35686 -35499 -35592 0
-35687 -35499 0
-35687 -35592 0
35687 35499 35592 0
-35688 -35686 0
-35688 -35687 0
35688 35686 35687 0
-35689 35496 0
-35689 35688 0
35689 -35496 -35688 0
-35690 -35496 0
-35690 -35688 0
35690 35496 35688 0
-35691 -35689 0
-35691 -35690 0
35691 35689 35690 0
-35305 72 0
-35305 10483 0
35305 -72 -10483 0
-35306 -72 0
-35306 -10483 0
35306 72 10483 0
-35307 -35305 0
-35307 -35306 0
35307 35305 35306 0
-35452 26574 0
-35452 35307 0
35452 -26574 -35307 0
-35453 -26574 0
-35453 -35307 0
35453 26574 35307 0
-35454 -35452 0
-35454 -35453 0
35454 35452 35453 0
-35467 77 0
-35467 14493 0
35467 -77 -14493 0
-35468 -77 0
-35468 -14493 0
35468 77 14493 0
-35469 -35467 0
-35469 -35468 0
35469 35467 35468 0
-35638 35454 0
-35638 35469 0
35638 -35454 -35469 0
-35639 -35454 0
-35639 -35469 0
35639 35454 35469 0
-35640 -35638 0
-35640 -35639 0
35640 35638 35639 0
-35692 15879 0
-35692 35640 0
35692 -15879 -35640 0
-35693 -15879 0
-35693 -35640 0
35693 15879 35640 0
-35694 -35692 0
-35694 -35693 0
35694 35692 35693 0
-35836 107 0
-35836 35694 0
35836 -107 -35694 0
-35837 -107 0
-35837 -35694 0
35837 107 35694 0
-35838 -35836 0
-35838 -35837 0
35838 35836 35837 0
-35839 35691 0
-35839 35838 0
35839 -35691 -35838 0
-35840 -35691 0
-35840 -35838 0
35840 35691 35838 0
-35841 -35839 0
-35841 -35840 0
35841 35839 35840 0
-35842 -130 0
-35842 35841 0
35842 130 -35841 0
-35843 130 0
-35843 -35841 0
35843 -130 35841 0
-35844 -35842 0
-35844 -35843 0
35844 35842 35843 0
-29428 12 0
-29428 15 0
29428 -12 -15 0
-29429 -12 0
-29429 -15 0
29429 12 15 0
-29430 -29428 0
-29430 -29429 0
29430 29428 29429 0
-35848 25383 0
-35848 29430 0
35848 -25383 -29430 0
-35849 -25383 0
-35849 -29430 0
35849 25383 29430 0
-35850 -35848 0
-35850 -35849 0
35850 35848 35849 0
-35851 23 0
-35851 21726 0
35851 -23 -21726 0
-35852 -23 0
-35852 -21726 0
35852 23 21726 0
-35853 -35851 0
-35853 -35852 0
35853 35851 35852 0
-35884 17127 0
-35884 25392 0
35884 -17127 -25392 0
-35885 -17127 0
-35885 -25392 0
35885 17127 25392 0
-35886 -35884 0
-35886 -35885 0
35886 35884 35885 0
-35974 35853 0
-35974 35886 0
35974 -35853 -35886 0
-35975 -35853 0
-35975 -35886 0
35975 35853 35886 0
-35976 -35974 0
-35976 -35975 0
35976 35974 35975 0
-35977 35850 0
-35977 35976 0
35977 -35850 -35976 0
-35978 -35850 0
-35978 -35976 0
35978 35850 35976 0
-35979 -35977 0
-35979 -35978 0
35979 35977 35978 0
-35905 39 0
-35905 22854 0
35905 -39 -22854 0
-35906 -39 0
-35906 -22854 0
35906 39 22854 0
-35907 -35905 0
-35907 -35906 0
35907 35905 35906 0
-35980 29541 0
-35980 35907 0
35980 -29541 -35907 0
-35981 -29541 0
-35981 -35907 0
35981 29541 35907 0
-35982 -35980 0
-35982 -35981 0
35982 35980 35981 0
-35938 60 0
-35938 16095 0
35938 -60 -16095 0
-35939 -60 0
-35939 -16095 0
35939 60 16095 0
-35940 -35938 0
-35940 -35939 0
35940 35938 35939 0
-36073 10788 0
-36073 35940 0
36073 -10788 -35940 0
-36074 -10788 0
-36074 -35940 0
36074 10788 35940 0
-36075 -36073 0
-36075 -36074 0
36075 36073 36074 0
-36157 35982 0
-36157 36075 0
36157 -35982 -36075 0
-36158 -35982 0
-36158 -36075 0
36158 35982 36075 0
-36159 -36157 0
-36159 -36158 0
36159 36157 36158 0
-36160 35979 0
-36160 36159 0
36160 -35979 -36159 0
-36161 -35979 0
-36161 -36159 0
36161 35979 36159 0
-36162 -36160 0
-36162 -36161 0
36162 36160 36161 0
-35956 71 0
-35956 13878 0
35956 -71 -13878 0
-35957 -71 0
-35957 -13878 0
35957 71 13878 0
-35958 -35956 0
-35958 -35957 0
35958 35956 35957 0
-36115 22497 0
-36115 35958 0
36115 -22497 -35958 0
-36116 -22497 0
-36116 -35958 0
36116 22497 35958 0
-36117 -36115 0
-36117 -36116 0
36117 36115 36116 0
-36163 16437 0
-36163 36117 0
36163 -16437 -36117 0
-36164 -16437 0
-36164 -36117 0
36164 16437 36117 0
-36165 -36163 0
-36165 -36164 0
36165 36163 36164 0
-36298 107 0
-36298 129 0
36298 -107 -129 0
-36299 -107 0
-36299 -129 0
36299 107 129 0
-36300 -36298 0
-36300 -36299 0
36300 36298 36299 0
-36301 36165 0
-36301 36300 0
36301 -36165 -36300 0
-36302 -36165 0
-36302 -36300 0
36302 36165 36300 0
-36303 -36301 0
-36303 -36302 0
36303 36301 36302 0
-36304 36162 0
-36304 36303 0
36304 -36162 -36303 0
-36305 -36162 0
-36305 -36303 0
36305 36162 36303 0
-36306 -36304 0
-36306 -36305 0
36306 36304 36305 0
-36307 2 0
-36307 7 0
36307 -2 -7 0
-36308 -2 0
-36308 -7 0
36308 2 7 0
-36309 -36307 0
-36309 -36308 0
36309 36307 36308 0
-36310 11901 0
-36310 15546 0
36310 -11901 -15546 0
-36311 -11901 0
-36311 -15546 0
36311 11901 15546 0
-36312 -36310 0
-36312 -36311 0
36312 36310 36311 0
-36313 36309 0
-36313 36312 0
36313 -36309 -36312 0
-36314 -36309 0
-36314 -36312 0
36314 36309 36312 0
-36315 -36313 0
-36315 -36314 0
36315 36313 36314 0
-36370 12048 0
-36370 36315 0
36370 -12048 -36315 0
-36371 -12048 0
-36371 -36315 0
36371 12048 36315 0
-36372 -36370 0
-36372 -36371 0
36372 36370 36371 0
-36325 35 0
-36325 11952 0
36325 -35 -11952 0
-36326 -35 0
-36326 -11952 0
36326 35 11952 0
-36327 -36325 0
-36327 -36326 0
36327 36325 36326 0
-36373 25839 0
-36373 36327 0
36373 -25839 -36327 0
-36374 -25839 0
-36374 -36327 0
36374 25839 36327 0
-36375 -36373 0
-36375 -36374 0
36375 36373 36374 0
-36355 65 0
-36355 10738 0
36355 -65 -10738 0
-36356 -65 0
-36356 -10738 0
36356 65 10738 0
-36357 -36355 0
-36357 -36356 0
36357 36355 36356 0
-36460 15138 0
-36460 36357 0
36460 -15138 -36357 0
-36461 -15138 0
-36461 -36357 0
36461 15138 36357 0
-36462 -36460 0
-36462 -36461 0
36462 36460 36461 0
-36532 36375 0
-36532 36462 0
36532 -36375 -36462 0
-36533 -36375 0
-36533 -36462 0
36533 36375 36462 0
-36534 -36532 0
-36534 -36533 0
36534 36532 36533 0
-36535 36372 0
-36535 36534 0
36535 -36372 -36534 0
-36536 -36372 0
-36536 -36534 0
36536 36372 36534 0
-36537 -36535 0
-36537 -36536 0
36537 36535 36536 0
-36364 73 0
-36364 10540 0
36364 -73 -10540 0
-36365 -73 0
-36365 -10540 0
36365 73 10540 0
-36366 -36364 0
-36366 -36365 0
36366 36364 36365 0
-36499 79 0
-36499 36366 0
36499 -79 -36366 0
-36500 -79 0
-36500 -36366 0
36500 79 36366 0
-36501 -36499 0
-36501 -36500 0
36501 36499 36500 0
-36529 92 0
-36529 13893 0
36529 -92 -13893 0
-36530 -92 0
-36530 -13893 0
36530 92 13893 0
-36531 -36529 0
-36531 -36530 0
36531 36529 36530 0
-36538 36501 0
-36538 36531 0
36538 -36501 -36531 0
-36539 -36501 0
-36539 -36531 0
36539 36501 36531 0
-36540 -36538 0
-36540 -36539 0
36540 36538 36539 0
-36670 107 0
-36670 127 0
36670 -107 -127 0
-36671 -107 0
-36671 -127 0
36671 107 127 0
-36672 -36670 0
-36672 -36671 0
36672 36670 36671 0
-36673 36540 0
-36673 36672 0
36673 -36540 -36672 0
-36674 -36540 0
-36674 -36672 0
36674 36540 36672 0
-36675 -36673 0
-36675 -36674 0
36675 36673 36674 0
-36676 36537 0
-36676 36675 0
36676 -36537 -36675 0
-36677 -36537 0
-36677 -36675 0
36677 36537 36675 0
-36678 -36676 0
-36678 -36677 0
36678 36676 36677 0
-36679 26943 0
-36679 32496 0
36679 -26943 -32496 0
-36680 -26943 0
-36680 -32496 0
36680 26943 32496 0
-36681 -36679 0
-36681 -36680 0
36681 36679 36680 0
-36685 15546 0
-36685 26151 0
36685 -15546 -26151 0
-36686 -15546 0
-36686 -26151 0
36686 15546 26151 0
-36687 -36685 0
-36687 -36686 0
36687 36685 36686 0
-36688 36681 0
-36688 36687 0
36688 -36681 -36687 0
-36689 -36681 0
-36689 -36687 0
36689 36681 36687 0
-36690 -36688 0
-36690 -36689 0
36690 36688 36689 0
-36793 25 0
-36793 12669 0
36793 -25 -12669 0
-36794 -25 0
-36794 -12669 0
36794 25 12669 0
-36795 -36793 0
-36795 -36794 0
36795 36793 36794 0
-36796 36690 0
-36796 36795 0
36796 -36690 -36795 0
-36797 -36690 0
-36797 -36795 0
36797 36690 36795 0
-36798 -36796 0
-36798 -36797 0
36798 36796 36797 0
-36682 48 0
-36682 12531 0
36682 -48 -12531 0
-36683 -48 0
-36683 -12531 0
36683 48 12531 0
-36684 -36682 0
-36684 -36683 0
36684 36682 36683 0
-36733 35301 0
-36733 36684 0
36733 -35301 -36684 0
-36734 -35301 0
-36734 -36684 0
36734 35301 36684 0
-36735 -36733 0
-36735 -36734 0
36735 36733 36734 0
-36799 36327 0
-36799 36735 0
36799 -36327 -36735 0
-36800 -36327 0
-36800 -36735 0
36800 36327 36735 0
-36801 -36799 0
-36801 -36800 0
36801 36799 36800 0
-36751 51 0
-36751 10788 0
36751 -51 -10788 0
-36752 -51 0
-36752 -10788 0
36752 51 10788 0
-36753 -36751 0
-36753 -36752 0
36753 36751 36752 0
-36757 10600 0
-36757 10738 0
36757 -10600 -10738 0
-36758 -10600 0
-36758 -10738 0
36758 10600 10738 0
-36759 -36757 0
-36759 -36758 0
36759 36757 36758 0
-36889 36753 0
-36889 36759 0
36889 -36753 -36759 0
-36890 -36753 0
-36890 -36759 0
36890 36753 36759 0
-36891 -36889 0
-36891 -36890 0
36891 36889 36890 0
-36973 36801 0
-36973 36891 0
36973 -36801 -36891 0
-36974 -36801 0
-36974 -36891 0
36974 36801 36891 0
-36975 -36973 0
-36975 -36974 0
36975 36973 36974 0
-36976 36798 0
-36976 36975 0
36976 -36798 -36975 0
-36977 -36798 0
-36977 -36975 0
36977 36798 36975 0
-36978 -36976 0
-36978 -36977 0
36978 36976 36977 0
-36778 10442 0
-36778 19053 0
36778 -10442 -19053 0
-36779 -10442 0
-36779 -19053 0
36779 10442 19053 0
-36780 -36778 0
-36780 -36779 0
36780 36778 36779 0
-36937 20406 0
-36937 36780 0
36937 -20406 -36780 0
-36938 -20406 0
-36938 -36780 0
36938 20406 36780 0
-36939 -36937 0
-36939 -36938 0
36939 36937 36938 0
-36790 84 0
-36790 88 0
36790 -84 -88 0
-36791 -84 0
-36791 -88 0
36791 84 88 0
-36792 -36790 0
-36792 -36791 0
36792 36790 36791 0
-36970 92 0
-36970 36792 0
36970 -92 -36792 0
-36971 -92 0
-36971 -36792 0
36971 92 36792 0
-36972 -36970 0
-36972 -36971 0
36972 36970 36971 0
-36979 36939 0
-36979 36972 0
36979 -36939 -36972 0
-36980 -36939 0
-36980 -36972 0
36980 36939 36972 0
-36981 -36979 0
-36981 -36980 0
36981 36979 36980 0
-37111 107 0
-37111 126 0
37111 -107 -126 0
-37112 -107 0
-37112 -126 0
37112 107 126 0
-37113 -37111 0
-37113 -37112 0
37113 37111 37112 0
-37114 36981 0
-37114 37113 0
37114 -36981 -37113 0
-37115 -36981 0
-37115 -37113 0
37115 36981 37113 0
-37116 -37114 0
-37116 -37115 0
37116 37114 37115 0
-37117 36978 0
-37117 37116 0
37117 -36978 -37116 0
-37118 -36978 0
-37118 -37116 0
37118 36978 37116 0
-37119 -37117 0
-37119 -37118 0
37119 37117 37118 0
-37120 17949 0
-37120 24888 0
37120 -17949 -24888 0
-37121 -17949 0
-37121 -24888 0
37121 17949 24888 0
-37122 -37120 0
-37122 -37121 0
37122 37120 37121 0
-37159 11522 0
-37159 24927 0
37159 -11522 -24927 0
-37160 -11522 0
-37160 -24927 0
37160 11522 24927 0
-37161 -37159 0
-37161 -37160 0
37161 37159 37160 0
-37162 37122 0
-37162 37161 0
37162 -37122 -37161 0
-37163 -37122 0
-37163 -37161 0
37163 37122 37161 0
-37164 -37162 0
-37164 -37163 0
37164 37162 37163 0
-37165 13842 0
-37165 24957 0
37165 -13842 -24957 0
-37166 -13842 0
-37166 -24957 0
37166 13842 24957 0
-37167 -37165 0
-37167 -37166 0
37167 37165 37166 0
-37132 50 0
-37132 57 0
37132 -50 -57 0
-37133 -50 0
-37133 -57 0
37133 50 57 0
-37134 -37132 0
-37134 -37133 0
37134 37132 37133 0
-37243 24987 0
-37243 37134 0
37243 -24987 -37134 0
-37244 -24987 0
-37244 -37134 0
37244 24987 37134 0
-37245 -37243 0
-37245 -37244 0
37245 37243 37244 0
-37330 37167 0
-37330 37245 0
37330 -37167 -37245 0
-37331 -37167 0
-37331 -37245 0
37331 37167 37245 0
-37332 -37330 0
-37332 -37331 0
37332 37330 37331 0
-37333 37164 0
-37333 37332 0
37333 -37164 -37332 0
-37334 -37164 0
-37334 -37332 0
37334 37164 37332 0
-37335 -37333 0
-37335 -37334 0
37335 37333 37334 0
-37147 68 0
-37147 11988 0
37147 -68 -11988 0
-37148 -68 0
-37148 -11988 0
37148 68 11988 0
-37149 -37147 0
-37149 -37148 0
37149 37147 37148 0
-37288 19065 0
-37288 37149 0
37288 -19065 -37149 0
-37289 -19065 0
-37289 -37149 0
37289 19065 37149 0
-37290 -37288 0
-37290 -37289 0
37290 37288 37289 0
-25033 83 0
-25033 10136 0
25033 -83 -10136 0
-25034 -83 0
-25034 -10136 0
25034 83 10136 0
-25035 -25033 0
-25035 -25034 0
25035 25033 25034 0
-37327 92 0
-37327 25035 0
37327 -92 -25035 0
-37328 -92 0
-37328 -25035 0
37328 92 25035 0
-37329 -37327 0
-37329 -37328 0
37329 37327 37328 0
-37336 37290 0
-37336 37329 0
37336 -37290 -37329 0
-37337 -37290 0
-37337 -37329 0
37337 37290 37329 0
-37338 -37336 0
-37338 -37337 0
37338 37336 37337 0
-37471 107 0
-37471 125 0
37471 -107 -125 0
-37472 -107 0
-37472 -125 0
37472 107 125 0
-37473 -37471 0
-37473 -37472 0
37473 37471 37472 0
-37474 37338 0
-37474 37473 0
37474 -37338 -37473 0
-37475 -37338 0
-37475 -37473 0
37475 37338 37473 0
-37476 -37474 0
-37476 -37475 0
37476 37474 37475 0
-37477 37335 0
-37477 37476 0
37477 -37335 -37476 0
-37478 -37335 0
-37478 -37476 0
37478 37335 37476 0
-37479 -37477 0
-37479 -37478 0
37479 37477 37478 0
-37480 11799 0
-37480 11879 0
37480 -11799 -11879 0
-37481 -11799 0
-37481 -11879 0
37481 11799 11879 0
-37482 -37480 0
-37482 -37481 0
37482 37480 37481 0
-37486 16056 0
-37486 17112 0
37486 -16056 -17112 0
-37487 -16056 0
-37487 -17112 0
37487 16056 17112 0
-37488 -37486 0
-37488 -37487 0
37488 37486 37487 0
-37489 37482 0
-37489 37488 0
37489 -37482 -37488 0
-37490 -37482 0
-37490 -37488 0
37490 37482 37488 0
-37491 -37489 0
-37491 -37490 0
37491 37489 37490 0
-37513 32 0
-37513 13833 0
37513 -32 -13833 0
-37514 -32 0
-37514 -13833 0
37514 32 13833 0
-37515 -37513 0
-37515 -37514 0
37515 37513 37514 0
-37588 14463 0
-37588 37515 0
37588 -14463 -37515 0
-37589 -14463 0
-37589 -37515 0
37589 14463 37515 0
-37590 -37588 0
-37590 -37589 0
37590 37588 37589 0
-37591 37491 0
-37591 37590 0
37591 -37491 -37590 0
-37592 -37491 0
-37592 -37590 0
37592 37491 37590 0
-37593 -37591 0
-37593 -37592 0
37593 37591 37592 0
-37531 38 0
-37531 16080 0
37531 -38 -16080 0
-37532 -38 0
-37532 -16080 0
37532 38 16080 0
-37533 -37531 0
-37533 -37532 0
37533 37531 37532 0
-37552 12531 0
-37552 21732 0
37552 -12531 -21732 0
-37553 -12531 0
-37553 -21732 0
37553 12531 21732 0
-37554 -37552 0
-37554 -37553 0
37554 37552 37553 0
-37594 37533 0
-37594 37554 0
37594 -37533 -37554 0
-37595 -37533 0
-37595 -37554 0
37595 37533 37554 0
-37596 -37594 0
-37596 -37595 0
37596 37594 37595 0
-37684 15669 0
-37684 17568 0
37684 -15669 -17568 0
-37685 -15669 0
-37685 -17568 0
37685 15669 17568 0
-37686 -37684 0
-37686 -37685 0
37686 37684 37685 0
-37753 37596 0
-37753 37686 0
37753 -37596 -37686 0
-37754 -37596 0
-37754 -37686 0
37754 37596 37686 0
-37755 -37753 0
-37755 -37754 0
37755 37753 37754 0
-37756 37593 0
-37756 37755 0
37756 -37593 -37755 0
-37757 -37593 0
-37757 -37755 0
37757 37593 37755 0
-37758 -37756 0
-37758 -37757 0
37758 37756 37757 0
-37576 68 0
-37576 12606 0
37576 -68 -12606 0
-37577 -68 0
-37577 -12606 0
37577 68 12606 0
-37578 -37576 0
-37578 -37577 0
37578 37576 37577 0
-13894 85 0
-13894 10158 0
13894 -85 -10158 0
-13895 -85 0
-13895 -10158 0
13895 85 10158 0
-13896 -13894 0
-13896 -13895 0
13896 13894 13895 0
-37750 92 0
-37750 13896 0
37750 -92 -13896 0
-37751 -92 0
-37751 -13896 0
37751 92 13896 0
-37752 -37750 0
-37752 -37751 0
37752 37750 37751 0
-37759 37578 0
-37759 37752 0
37759 -37578 -37752 0
-37760 -37578 0
-37760 -37752 0
37760 37578 37752 0
-37761 -37759 0
-37761 -37760 0
37761 37759 37760 0
-37891 107 0
-37891 124 0
37891 -107 -124 0
-37892 -107 0
-37892 -124 0
37892 107 124 0
-37893 -37891 0
-37893 -37892 0
37893 37891 37892 0
-37894 37761 0
-37894 37893 0
37894 -37761 -37893 0
-37895 -37761 0
-37895 -37893 0
37895 37761 37893 0
-37896 -37894 0
-37896 -37895 0
37896 37894 37895 0
-37897 37758 0
-37897 37896 0
37897 -37758 -37896 0
-37898 -37758 0
-37898 -37896 0
37898 37758 37896 0
-37899 -37897 0
-37899 -37898 0
37899 37897 37898 0
-37900 3 0
-37900 11799 0
37900 -3 -11799 0
-37901 -3 0
-37901 -11799 0
37901 3 11799 0
-37902 -37900 0
-37902 -37901 0
37902 37900 37901 0
-37903 17 0
-37903 11703 0
37903 -17 -11703 0
-37904 -17 0
-37904 -11703 0
37904 17 11703 0
-37905 -37903 0
-37905 -37904 0
37905 37903 37904 0
-37912 10 0
-37912 37905 0
37912 -10 -37905 0
-37913 -10 0
-37913 -37905 0
37913 10 37905 0
-37914 -37912 0
-37914 -37913 0
37914 37912 37913 0
-37915 37902 0
-37915 37914 0
37915 -37902 -37914 0
-37916 -37902 0
-37916 -37914 0
37916 37902 37914 0
-37917 -37915 0
-37917 -37916 0
37917 37915 37916 0
-37918 19 0
-37918 14463 0
37918 -19 -14463 0
-37919 -19 0
-37919 -14463 0
37919 19 14463 0
-37920 -37918 0
-37920 -37919 0
37920 37918 37919 0
-37942 29 0
-37942 16071 0
37942 -29 -16071 0
-37943 -29 0
-37943 -16071 0
37943 29 16071 0
-37944 -37942 0
-37944 -37943 0
37944 37942 37943 0
-38020 37920 0
-38020 37944 0
38020 -37920 -37944 0
-38021 -37920 0
-38021 -37944 0
38021 37920 37944 0
-38022 -38020 0
-38022 -38021 0
38022 38020 38021 0
-38023 37917 0
-38023 38022 0
38023 -37917 -38022 0
-38024 -37917 0
-38024 -38022 0
38024 37917 38022 0
-38025 -38023 0
-38025 -38024 0
38025 38023 38024 0
-37966 11295 0
-37966 13845 0
37966 -11295 -13845 0
-37967 -11295 0
-37967 -13845 0
37967 11295 13845 0
-37968 -37966 0
-37968 -37967 0
37968 37966 37967 0
-37984 45 0
-37984 11964 0
37984 -45 -11964 0
-37985 -45 0
-37985 -11964 0
37985 45 11964 0
-37986 -37984 0
-37986 -37985 0
37986 37984 37985 0
-38026 37968 0
-38026 37986 0
38026 -37968 -37986 0
-38027 -37968 0
-38027 -37986 0
38027 37968 37986 0
-38028 -38026 0
-38028 -38027 0
38028 38026 38027 0
-38113 10883 0
-38113 25851 0
38113 -10883 -25851 0
-38114 -10883 0
-38114 -25851 0
38114 10883 25851 0
-38115 -38113 0
-38115 -38114 0
38115 38113 38114 0
-38182 38028 0
-38182 38115 0
38182 -38028 -38115 0
-38183 -38028 0
-38183 -38115 0
38183 38028 38115 0
-38184 -38182 0
-38184 -38183 0
38184 38182 38183 0
-38185 38025 0
-38185 38184 0
38185 -38025 -38184 0
-38186 -38025 0
-38186 -38184 0
38186 38025 38184 0
-38187 -38185 0
-38187 -38186 0
38187 38185 38186 0
-38011 10464 0
-38011 24405 0
38011 -10464 -24405 0
-38012 -10464 0
-38012 -24405 0
38012 10464 24405 0
-38013 -38011 0
-38013 -38012 0
38013 38011 38012 0
-38188 27957 0
-38188 38013 0
38188 -27957 -38013 0
-38189 -27957 0
-38189 -38013 0
38189 27957 38013 0
-38190 -38188 0
-38190 -38189 0
38190 38188 38189 0
-38338 107 0
-38338 123 0
38338 -107 -123 0
-38339 -107 0
-38339 -123 0
38339 107 123 0
-38340 -38338 0
-38340 -38339 0
38340 38338 38339 0
-38341 38190 0
-38341 38340 0
38341 -38190 -38340 0
-38342 -38190 0
-38342 -38340 0
38342 38190 38340 0
-38343 -38341 0
-38343 -38342 0
38343 38341 38342 0
-38344 38187 0
-38344 38343 0
38344 -38187 -38343 0
-38345 -38187 0
-38345 -38343 0
38345 38187 38343 0
-38346 -38344 0
-38346 -38345 0
38346 38344 38345 0
-38347 11799 0
-38347 20781 0
38347 -11799 -20781 0
-38348 -11799 0
-38348 -20781 0
38348 11799 20781 0
-38349 -38347 0
-38349 -38348 0
38349 38347 38348 0
-38353 29973 0
-38353 38349 0
38353 -29973 -38349 0
-38354 -29973 0
-38354 -38349 0
38354 29973 38349 0
-38355 -38353 0
-38355 -38354 0
38355 38353 38354 0
-38356 16638 0
-38356 17919 0
38356 -16638 -17919 0
-38357 -16638 0
-38357 -17919 0
38357 16638 17919 0
-38358 -38356 0
-38358 -38357 0
38358 38356 38357 0
-38407 21018 0
-38407 38358 0
38407 -21018 -38358 0
-38408 -21018 0
-38408 -38358 0
38408 21018 38358 0
-38409 -38407 0
-38409 -38408 0
38409 38407 38408 0
-38410 38355 0
-38410 38409 0
38410 -38355 -38409 0
-38411 -38355 0
-38411 -38409 0
38411 38355 38409 0
-38412 -38410 0
-38412 -38411 0
38412 38410 38411 0
-38494 10943 0
-38494 30096 0
38494 -10943 -30096 0
-38495 -10943 0
-38495 -30096 0
38495 10943 30096 0
-38496 -38494 0
-38496 -38495 0
38496 38494 38495 0
-38497 38412 0
-38497 38496 0
38497 -38412 -38496 0
-38498 -38412 0
-38498 -38496 0
38498 38412 38496 0
-38499 -38497 0
-38499 -38498 0
38499 38497 38498 0
-38500 5 0
-38500 8 0
38500 -5 -8 0
-38501 -5 0
-38501 -8 0
38501 5 8 0
-38502 -38500 0
-38502 -38501 0
38502 38500 38501 0
-38503 20781 0
-38503 38502 0
38503 -20781 -38502 0
-38504 -20781 0
-38504 -38502 0
38504 20781 38502 0
-38505 -38503 0
-38505 -38504 0
38505 38503 38504 0
-11935 29 0
-11935 31 0
11935 -29 -31 0
-11936 -29 0
-11936 -31 0
11936 29 31 0
-11937 -11935 0
-11937 -11936 0
11937 11935 11936 0
-38506 11617 0
-38506 23823 0
38506 -11617 -23823 0
-38507 -11617 0
-38507 -23823 0
38507 11617 23823 0
-38508 -38506 0
-38508 -38507 0
38508 38506 38507 0
-38566 11937 0
-38566 38508 0
38566 -11937 -38508 0
-38567 -11937 0
-38567 -38508 0
38567 11937 38508 0
-38568 -38566 0
-38568 -38567 0
38568 38566 38567 0
-38569 38505 0
-38569 38568 0
38569 -38505 -38568 0
-38570 -38505 0
-38570 -38568 0
38570 38505 38568 0
-38571 -38569 0
-38571 -38570 0
38571 38569 38570 0
-38572 47 0
-38572 13974 0
38572 -47 -13974 0
-38573 -47 0
-38573 -13974 0
38573 47 13974 0
-38574 -38572 0
-38574 -38573 0
38574 38572 38573 0
-38650 52 0
-38650 11979 0
38650 -52 -11979 0
-38651 -52 0
-38651 -11979 0
38651 52 11979 0
-38652 -38650 0
-38652 -38651 0
38652 38650 38651 0
-38713 38574 0
-38713 38652 0
38713 -38574 -38652 0
-38714 -38574 0
-38714 -38652 0
38714 38574 38652 0
-38715 -38713 0
-38715 -38714 0
38715 38713 38714 0
-38716 38571 0
-38716 38715 0
38716 -38571 -38715 0
-38717 -38571 0
-38717 -38715 0
38717 38571 38715 0
-38718 -38716 0
-38718 -38717 0
38718 38716 38717 0
-38710 107 0
-38710 121 0
38710 -107 -121 0
-38711 -107 0
-38711 -121 0
38711 107 121 0
-38712 -38710 0
-38712 -38711 0
38712 38710 38711 0
-38560 23853 0
-38560 25755 0
38560 -23853 -25755 0
-38561 -23853 0
-38561 -25755 0
38561 23853 25755 0
-38562 -38560 0
-38562 -38561 0
38562 38560 38561 0
-38542 67 0
-38542 10483 0
38542 -67 -10483 0
-38543 -67 0
-38543 -10483 0
38543 67 10483 0
-38544 -38542 0
-38544 -38543 0
38544 38542 38543 0
-38674 80 0
-38674 38544 0
38674 -80 -38544 0
-38675 -80 0
-38675 -38544 0
38675 80 38544 0
-38676 -38674 0
-38676 -38675 0
38676 38674 38675 0
-38719 38562 0
-38719 38676 0
38719 -38562 -38676 0
-38720 -38562 0
-38720 -38676 0
38720 38562 38676 0
-38721 -38719 0
-38721 -38720 0
38721 38719 38720 0
-38845 38712 0
-38845 38721 0
38845 -38712 -38721 0
-38846 -38712 0
-38846 -38721 0
38846 38712 38721 0
-38847 -38845 0
-38847 -38846 0
38847 38845 38846 0
-38848 38718 0
-38848 38847 0
38848 -38718 -38847 0
-38849 -38718 0
-38849 -38847 0
38849 38718 38847 0
-38850 -38848 0
-38850 -38849 0
38850 38848 38849 0
-38851 11863 0
-38851 11895 0
38851 -11863 -11895 0
-38852 -11863 0
-38852 -11895 0
38852 11863 11895 0
-38853 -38851 0
-38853 -38852 0
38853 38851 38852 0
-38854 25407 0
-38854 38853 0
38854 -25407 -38853 0
-38855 -25407 0
-38855 -38853 0
38855 25407 38853 0
-38856 -38854 0
-38856 -38855 0
38856 38854 38855 0
-38857 11925 0
-38857 21726 0
38857 -11925 -21726 0
-38858 -11925 0
-38858 -21726 0
38858 11925 21726 0
-38859 -38857 0
-38859 -38858 0
38859 38857 38858 0
-38893 11446 0
-38893 17127 0
38893 -11446 -17127 0
-38894 -11446 0
-38894 -17127 0
38894 11446 17127 0
-38895 -38893 0
-38895 -38894 0
38895 38893 38894 0
-38965 38859 0
-38965 38895 0
38965 -38859 -38895 0
-38966 -38859 0
-38966 -38895 0
38966 38859 38895 0
-38967 -38965 0
-38967 -38966 0
38967 38965 38966 0
-38968 38856 0
-38968 38967 0
38968 -38856 -38967 0
-38969 -38856 0
-38969 -38967 0
38969 38856 38967 0
-38970 -38968 0
-38970 -38969 0
38970 38968 38969 0
-38917 14469 0
-38917 23835 0
38917 -14469 -23835 0
-38918 -14469 0
-38918 -23835 0
38918 14469 23835 0
-38919 -38917 0
-38919 -38918 0
38919 38917 38918 0
-38971 47 0
-38971 38919 0
38971 -47 -38919 0
-38972 -47 0
-38972 -38919 0
38972 47 38919 0
-38973 -38971 0
-38973 -38972 0
38973 38971 38972 0
-39049 10883 0
-39049 12591 0
39049 -10883 -12591 0
-39050 -10883 0
-39050 -12591 0
39050 10883 12591 0
-39051 -39049 0
-39051 -39050 0
39051 39049 39050 0
-39142 38973 0
-39142 39051 0
39142 -38973 -39051 0
-39143 -38973 0
-39143 -39051 0
39143 38973 39051 0
-39144 -39142 0
-39144 -39143 0
39144 39142 39143 0
-39145 38970 0
-39145 39144 0
39145 -38970 -39144 0
-39146 -38970 0
-39146 -39144 0
39146 38970 39144 0
-39147 -39145 0
-39147 -39146 0
39147 39145 39146 0
-39139 107 0
-39139 120 0
39139 -107 -120 0
-39140 -107 0
-39140 -120 0
39140 107 120 0
-39141 -39139 0
-39141 -39140 0
39141 39139 39140 0
-38944 71 0
-38944 20772 0
38944 -71 -20772 0
-38945 -71 0
-38945 -20772 0
38945 71 20772 0
-38946 -38944 0
-38946 -38945 0
38946 38944 38945 0
-39094 10291 0
-39094 38946 0
39094 -10291 -38946 0
-39095 -10291 0
-39095 -38946 0
39095 10291 38946 0
-39096 -39094 0
-39096 -39095 0
39096 39094 39095 0
-39148 32631 0
-39148 39096 0
39148 -32631 -39096 0
-39149 -32631 0
-39149 -39096 0
39149 32631 39096 0
-39150 -39148 0
-39150 -39149 0
39150 39148 39149 0
-39289 39141 0
-39289 39150 0
39289 -39141 -39150 0
-39290 -39141 0
-39290 -39150 0
39290 39141 39150 0
-39291 -39289 0
-39291 -39290 0
39291 39289 39290 0
-39292 39147 0
-39292 39291 0
39292 -39147 -39291 0
-39293 -39147 0
-39293 -39291 0
39293 39147 39291 0
-39294 -39292 0
-39294 -39293 0
39294 39292 39293 0
-39295 11831 0
-39295 13164 0
39295 -11831 -13164 0
-39296 -11831 0
-39296 -13164 0
39296 11831 13164 0
-39297 -39295 0
-39297 -39296 0
39297 39295 39296 0
-39298 11 0
-39298 39297 0
39298 -11 -39297 0
-39299 -11 0
-39299 -39297 0
39299 11 39297 0
-39300 -39298 0
-39300 -39299 0
39300 39298 39299 0
-24928 32 0
-24928 11465 0
24928 -32 -11465 0
-24929 -32 0
-24929 -11465 0
24929 32 11465 0
-24930 -24928 0
-24930 -24929 0
24930 24928 24929 0
-39301 11598 0
-39301 20001 0
39301 -11598 -20001 0
-39302 -11598 0
-39302 -20001 0
39302 11598 20001 0
-39303 -39301 0
-39303 -39302 0
39303 39301 39302 0
-39364 24930 0
-39364 39303 0
39364 -24930 -39303 0
-39365 -24930 0
-39365 -39303 0
39365 24930 39303 0
-39366 -39364 0
-39366 -39365 0
39366 39364 39365 0
-39367 39300 0
-39367 39366 0
39367 -39300 -39366 0
-39368 -39300 0
-39368 -39366 0
39368 39300 39366 0
-39369 -39367 0
-39369 -39368 0
39369 39367 39368 0
-39370 47 0
-39370 27312 0
39370 -47 -27312 0
-39371 -47 0
-39371 -27312 0
39371 47 27312 0
-39372 -39370 0
-39372 -39371 0
39372 39370 39371 0
-39463 18597 0
-39463 32232 0
39463 -18597 -32232 0
-39464 -18597 0
-39464 -32232 0
39464 18597 32232 0
-39465 -39463 0
-39465 -39464 0
39465 39463 39464 0
-39550 39372 0
-39550 39465 0
39550 -39372 -39465 0
-39551 -39372 0
-39551 -39465 0
39551 39372 39465 0
-39552 -39550 0
-39552 -39551 0
39552 39550 39551 0
-39553 39369 0
-39553 39552 0
39553 -39369 -39552 0
-39554 -39369 0
-39554 -39552 0
39554 39369 39552 0
-39555 -39553 0
-39555 -39554 0
39555 39553 39554 0
-39547 107 0
-39547 119 0
39547 -107 -119 0
-39548 -107 0
-39548 -119 0
39548 107 119 0
-39549 -39547 0
-39549 -39548 0
39549 39547 39548 0
-39361 82 0
-39361 10136 0
39361 -82 -10136 0
-39362 -82 0
-39362 -10136 0
39362 82 10136 0
-39363 -39361 0
-39363 -39362 0
39363 39361 39362 0
-39337 71 0
-39337 17928 0
39337 -71 -17928 0
-39338 -71 0
-39338 -17928 0
39338 71 17928 0
-39339 -39337 0
-39339 -39338 0
39339 39337 39338 0
-39502 14493 0
-39502 39339 0
39502 -14493 -39339 0
-39503 -14493 0
-39503 -39339 0
39503 14493 39339 0
-39504 -39502 0
-39504 -39503 0
39504 39502 39503 0
-39556 39363 0
-39556 39504 0
39556 -39363 -39504 0
-39557 -39363 0
-39557 -39504 0
39557 39363 39504 0
-39558 -39556 0
-39558 -39557 0
39558 39556 39557 0
-39694 39549 0
-39694 39558 0
39694 -39549 -39558 0
-39695 -39549 0
-39695 -39558 0
39695 39549 39558 0
-39696 -39694 0
-39696 -39695 0
39696 39694 39695 0
-39697 39555 0
-39697 39696 0
39697 -39555 -39696 0
-39698 -39555 0
-39698 -39696 0
39698 39555 39696 0
-39699 -39697 0
-39699 -39698 0
39699 39697 39698 0
-39700 23808 0
-39700 25407 0
39700 -23808 -25407 0
-39701 -23808 0
-39701 -25407 0
39701 23808 25407 0
-39702 -39700 0
-39702 -39701 0
39702 39700 39701 0
-39703 21 0
-39703 11522 0
39703 -21 -11522 0
-39704 -21 0
-39704 -11522 0
39704 21 11522 0
-39705 -39703 0
-39705 -39704 0
39705 39703 39704 0
-39733 31 0
-39733 25392 0
39733 -31 -25392 0
-39734 -31 0
-39734 -25392 0
39734 31 25392 0
-39735 -39733 0
-39735 -39734 0
39735 39733 39734 0
-39820 39705 0
-39820 39735 0
39820 -39705 -39735 0
-39821 -39705 0
-39821 -39735 0
39821 39705 39735 0
-39822 -39820 0
-39822 -39821 0
39822 39820 39821 0
-39823 39702 0
-39823 39822 0
39823 -39702 -39822 0
-39824 -39702 0
-39824 -39822 0
39824 39702 39822 0
-39825 -39823 0
-39825 -39824 0
39825 39823 39824 0
-39748 36 0
-39748 11952 0
39748 -36 -11952 0
-39749 -36 0
-39749 -11952 0
39749 36 11952 0
-39750 -39748 0
-39750 -39749 0
39750 39748 39749 0
-39826 21741 0
-39826 39750 0
39826 -21741 -39750 0
-39827 -21741 0
-39827 -39750 0
39827 21741 39750 0
-39828 -39826 0
-39828 -39827 0
39828 39826 39827 0
-39784 59 0
-39784 10600 0
39784 -59 -10600 0
-39785 -59 0
-39785 -10600 0
39785 59 10600 0
-39786 -39784 0
-39786 -39785 0
39786 39784 39785 0
-39916 23973 0
-39916 39786 0
39916 -23973 -39786 0
-39917 -23973 0
-39917 -39786 0
39917 23973 39786 0
-39918 -39916 0
-39918 -39917 0
39918 39916 39917 0
-40009 39828 0
-40009 39918 0
40009 -39828 -39918 0
-40010 -39828 0
-40010 -39918 0
40010 39828 39918 0
-40011 -40009 0
-40011 -40010 0
40011 40009 40010 0
-40012 39825 0
-40012 40011 0
40012 -39825 -40011 0
-40013 -39825 0
-40013 -40011 0
40013 39825 40011 0
-40014 -40012 0
-40014 -40013 0
40014 40012 40013 0
-40006 107 0
-40006 118 0
40006 -107 -118 0
-40007 -107 0
-40007 -118 0
40007 107 118 0
-40008 -40006 0
-40008 -40007 0
40008 40006 40007 0
-39817 10136 0
-39817 25755 0
39817 -10136 -25755 0
-39818 -10136 0
-39818 -25755 0
39818 10136 25755 0
-39819 -39817 0
-39819 -39818 0
39819 39817 39818 0
-39793 66 0
-39793 71 0
39793 -66 -71 0
-39794 -66 0
-39794 -71 0
39794 66 71 0
-39795 -39793 0
-39795 -39794 0
39795 39793 39794 0
-39961 34917 0
-39961 39795 0
39961 -34917 -39795 0
-39962 -34917 0
-39962 -39795 0
39962 34917 39795 0
-39963 -39961 0
-39963 -39962 0
39963 39961 39962 0
-40015 39819 0
-40015 39963 0
40015 -39819 -39963 0
-40016 -39819 0
-40016 -39963 0
40016 39819 39963 0
-40017 -40015 0
-40017 -40016 0
40017 40015 40016 0
-40156 40008 0
-40156 40017 0
40156 -40008 -40017 0
-40157 -40008 0
-40157 -40017 0
40157 40008 40017 0
-40158 -40156 0
-40158 -40157 0
40158 40156 40157 0
-40159 40014 0
-40159 40158 0
40159 -40014 -40158 0
-40160 -40014 0
-40160 -40158 0
40160 40014 40158 0
-40161 -40159 0
-40161 -40160 0
40161 40159 40160 0
-40162 24384 0
-40162 25758 0
40162 -24384 -25758 0
-40163 -24384 0
-40163 -25758 0
40163 24384 25758 0
-40164 -40162 0
-40164 -40163 0
40164 40162 40163 0
-40165 19 0
-40165 24 0
40165 -19 -24 0
-40166 -19 0
-40166 -24 0
40166 19 24 0
-40167 -40165 0
-40167 -40166 0
40167 40165 40166 0
-40258 12669 0
-40258 40167 0
40258 -12669 -40167 0
-40259 -12669 0
-40259 -40167 0
40259 12669 40167 0
-40260 -40258 0
-40260 -40259 0
40260 40258 40259 0
-40261 40164 0
-40261 40260 0
40261 -40164 -40260 0
-40262 -40164 0
-40262 -40260 0
40262 40164 40260 0
-40263 -40261 0
-40263 -40262 0
40263 40261 40262 0
-40195 11958 0
-40195 36684 0
40195 -11958 -36684 0
-40196 -11958 0
-40196 -36684 0
40196 11958 36684 0
-40197 -40195 0
-40197 -40196 0
40197 40195 40196 0
-40264 13848 0
-40264 40197 0
40264 -13848 -40197 0
-40265 -13848 0
-40265 -40197 0
40265 13848 40197 0
-40266 -40264 0
-40266 -40265 0
40266 40264 40265 0
-40216 11979 0
-40216 13224 0
40216 -11979 -13224 0
-40217 -11979 0
-40217 -13224 0
40217 11979 13224 0
-40218 -40216 0
-40218 -40217 0
40218 40216 40217 0
-40354 12114 0
-40354 40218 0
40354 -12114 -40218 0
-40355 -12114 0
-40355 -40218 0
40355 12114 40218 0
-40356 -40354 0
-40356 -40355 0
40356 40354 40355 0
-40444 40266 0
-40444 40356 0
40444 -40266 -40356 0
-40445 -40266 0
-40445 -40356 0
40445 40266 40356 0
-40446 -40444 0
-40446 -40445 0
40446 40444 40445 0
-40447 40263 0
-40447 40446 0
40447 -40263 -40446 0
-40448 -40263 0
-40448 -40446 0
40448 40263 40446 0
-40449 -40447 0
-40449 -40448 0
40449 40447 40448 0
-40441 107 0
-40441 117 0
40441 -107 -117 0
-40442 -107 0
-40442 -117 0
40442 107 117 0
-40443 -40441 0
-40443 -40442 0
40443 40441 40442 0
-40255 87 0
-40255 10215 0
40255 -87 -10215 0
-40256 -87 0
-40256 -10215 0
40256 87 10215 0
-40257 -40255 0
-40257 -40256 0
40257 40255 40256 0
-15043 77 0
-15043 10310 0
15043 -77 -10310 0
-15044 -77 0
-15044 -10310 0
15044 77 10310 0
-15045 -15043 0
-15045 -15044 0
15045 15043 15044 0
-29965 67 0
-29965 71 0
29965 -67 -71 0
-29966 -67 0
-29966 -71 0
29966 67 71 0
-29967 -29965 0
-29967 -29966 0
29967 29965 29966 0
-40402 15045 0
-40402 29967 0
40402 -15045 -29967 0
-40403 -15045 0
-40403 -29967 0
40403 15045 29967 0
-40404 -40402 0
-40404 -40403 0
40404 40402 40403 0
-40450 40257 0
-40450 40404 0
40450 -40257 -40404 0
-40451 -40257 0
-40451 -40404 0
40451 40257 40404 0
-40452 -40450 0
-40452 -40451 0
40452 40450 40451 0
-40582 40443 0
-40582 40452 0
40582 -40443 -40452 0
-40583 -40443 0
-40583 -40452 0
40583 40443 40452 0
-40584 -40582 0
-40584 -40583 0
40584 40582 40583 0
-40585 40449 0
-40585 40584 0
40585 -40449 -40584 0
-40586 -40449 0
-40586 -40584 0
40586 40449 40584 0
-40587 -40585 0
-40587 -40586 0
40587 40585 40586 0
-40588 24888 0
-40588 26160 0
40588 -24888 -26160 0
-40589 -24888 0
-40589 -26160 0
40589 24888 26160 0
-40590 -40588 0
-40590 -40589 0
40590 40588 40589 0
-40645 11465 0
-40645 21264 0
40645 -11465 -21264 0
-40646 -11465 0
-40646 -21264 0
40646 11465 21264 0
-40647 -40645 0
-40647 -40646 0
40647 40645 40646 0
-40648 40590 0
-40648 40647 0
40648 -40590 -40647 0
-40649 -40590 0
-40649 -40647 0
40649 40590 40647 0
-40650 -40648 0
-40650 -40649 0
40650 40648 40649 0
-40609 35 0
-40609 16638 0
40609 -35 -16638 0
-40610 -35 0
-40610 -16638 0
40610 35 16638 0
-40611 -40609 0
-40611 -40610 0
40611 40609 40610 0
-40651 24957 0
-40651 40611 0
40651 -24957 -40611 0
-40652 -24957 0
-40652 -40611 0
40652 24957 40611 0
-40653 -40651 0
-40653 -40652 0
40653 40651 40652 0
-40624 13869 0
-40624 20766 0
40624 -13869 -20766 0
-40625 -13869 0
-40625 -20766 0
40625 13869 20766 0
-40626 -40624 0
-40626 -40625 0
40626 40624 40625 0
-40738 50 0
-40738 40626 0
40738 -50 -40626 0
-40739 -50 0
-40739 -40626 0
40739 50 40626 0
-40740 -40738 0
-40740 -40739 0
40740 40738 40739 0
-40801 40653 0
-40801 40740 0
40801 -40653 -40740 0
-40802 -40653 0
-40802 -40740 0
40802 40653 40740 0
-40803 -40801 0
-40803 -40802 0
40803 40801 40802 0
-40804 40650 0
-40804 40803 0
40804 -40650 -40803 0
-40805 -40650 0
-40805 -40803 0
40805 40650 40803 0
-40806 -40804 0
-40806 -40805 0
40806 40804 40805 0
-40783 15165 0
-40783 29964 0
40783 -15165 -29964 0
-40784 -15165 0
-40784 -29964 0
40784 15165 29964 0
-40785 -40783 0
-40785 -40784 0
40785 40783 40784 0
-40798 107 0
-40798 116 0
40798 -107 -116 0
-40799 -107 0
-40799 -116 0
40799 107 116 0
-40800 -40798 0
-40800 -40799 0
40800 40798 40799 0
-40912 40785 0
-40912 40800 0
40912 -40785 -40800 0
-40913 -40785 0
-40913 -40800 0
40913 40785 40800 0
-40914 -40912 0
-40914 -40913 0
40914 40912 40913 0
-40915 40806 0
-40915 40914 0
40915 -40806 -40914 0
-40916 -40806 0
-40916 -40914 0
40916 40806 40914 0
-40917 -40915 0
-40917 -40916 0
40917 40915 40916 0
-26965 12 0
-26965 16 0
26965 -12 -16 0
-26966 -12 0
-26966 -16 0
26966 12 16 0
-26967 -26965 0
-26967 -26966 0
26967 26965 26966 0
-40918 15012 0
-40918 17523 0
40918 -15012 -17523 0
-40919 -15012 0
-40919 -17523 0
40919 15012 17523 0
-40920 -40918 0
-40920 -40919 0
40920 40918 40919 0
-40924 26967 0
-40924 40920 0
40924 -26967 -40920 0
-40925 -26967 0
-40925 -40920 0
40925 26967 40920 0
-40926 -40924 0
-40926 -40925 0
40926 40924 40925 0
-40927 11560 0
-40927 21264 0
40927 -11560 -21264 0
-40928 -11560 0
-40928 -21264 0
40928 11560 21264 0
-40929 -40927 0
-40929 -40928 0
40929 40927 40928 0
-40969 31 0
-40969 16608 0
40969 -31 -16608 0
-40970 -31 0
-40970 -16608 0
40970 31 16608 0
-40971 -40969 0
-40971 -40970 0
40971 40969 40970 0
-41047 40929 0
-41047 40971 0
41047 -40929 -40971 0
-41048 -40929 0
-41048 -40971 0
41048 40929 40971 0
-41049 -41047 0
-41049 -41048 0
41049 41047 41048 0
-41050 40926 0
-41050 41049 0
41050 -40926 -41049 0
-41051 -40926 0
-41051 -41049 0
41051 40926 41049 0
-41052 -41050 0
-41052 -41051 0
41052 41050 41051 0
-40981 11195 0
-40981 11320 0
40981 -11195 -11320 0
-40982 -11195 0
-40982 -11320 0
40982 11195 11320 0
-40983 -40981 0
-40983 -40982 0
40983 40981 40982 0
-40993 21741 0
-40993 25395 0
40993 -21741 -25395 0
-40994 -21741 0
-40994 -25395 0
40994 21741 25395 0
-40995 -40993 0
-40995 -40994 0
40995 40993 40994 0
-41053 40983 0
-41053 40995 0
41053 -40983 -40995 0
-41054 -40983 0
-41054 -40995 0
41054 40983 40995 0
-41055 -41053 0
-41055 -41054 0
41055 41053 41054 0
-41017 15039 0
-41017 35304 0
41017 -15039 -35304 0
-41018 -15039 0
-41018 -35304 0
41018 15039 35304 0
-41019 -41017 0
-41019 -41018 0
41019 41017 41018 0
-41146 52 0
-41146 41019 0
41146 -52 -41019 0
-41147 -52 0
-41147 -41019 0
41147 52 41019 0
-41148 -41146 0
-41148 -41147 0
41148 41146 41147 0
-41236 41055 0
-41236 41148 0
41236 -41055 -41148 0
-41237 -41055 0
-41237 -41148 0
41237 41055 41148 0
-41238 -41236 0
-41238 -41237 0
41238 41236 41237 0
-41239 41052 0
-41239 41238 0
41239 -41052 -41238 0
-41240 -41052 0
-41240 -41238 0
41240 41052 41238 0
-41241 -41239 0
-41241 -41240 0
41241 41239 41240 0
-41233 107 0
-41233 115 0
41233 -107 -115 0
-41234 -107 0
-41234 -115 0
41234 107 115 0
-41235 -41233 0
-41235 -41234 0
41235 41233 41234 0
-41044 86 0
-41044 10234 0
41044 -86 -10234 0
-41045 -86 0
-41045 -10234 0
41045 86 10234 0
-41046 -41044 0
-41046 -41045 0
41046 41044 41045 0
-41041 66 0
-41041 19059 0
41041 -66 -19059 0
-41042 -66 0
-41042 -19059 0
41042 66 19059 0
-41043 -41041 0
-41043 -41042 0
41043 41041 41042 0
-41194 22497 0
-41194 41043 0
41194 -22497 -41043 0
-41195 -22497 0
-41195 -41043 0
41195 22497 41043 0
-41196 -41194 0
-41196 -41195 0
41196 41194 41195 0
-41242 41046 0
-41242 41196 0
41242 -41046 -41196 0
-41243 -41046 0
-41243 -41196 0
41243 41046 41196 0
-41244 -41242 0
-41244 -41243 0
41244 41242 41243 0
-41374 41235 0
-41374 41244 0
41374 -41235 -41244 0
-41375 -41235 0
-41375 -41244 0
41375 41235 41244 0
-41376 -41374 0
-41376 -41375 0
41376 41374 41375 0
-41377 41241 0
-41377 41376 0
41377 -41241 -41376 0
-41378 -41241 0
-41378 -41376 0
41378 41241 41376 0
-41379 -41377 0
-41379 -41378 0
41379 41377 41378 0
-41380 6 0
-41380 15012 0
41380 -6 -15012 0
-41381 -6 0
-41381 -15012 0
41381 6 15012 0
-41382 -41380 0
-41382 -41381 0
41382 41380 41381 0
-41383 10 0
-41383 11687 0
41383 -10 -11687 0
-41384 -10 0
-41384 -11687 0
41384 10 11687 0
-41385 -41383 0
-41385 -41384 0
41385 41383 41384 0
-41386 41382 0
-41386 41385 0
41386 -41382 -41385 0
-41387 -41382 0
-41387 -41385 0
41387 41382 41385 0
-41388 -41386 0
-41388 -41387 0
41388 41386 41387 0
-41488 29460 0
-41488 35886 0
41488 -29460 -35886 0
-41489 -29460 0
-41489 -35886 0
41489 29460 35886 0
-41490 -41488 0
-41490 -41489 0
41490 41488 41489 0
-41491 41388 0
-41491 41490 0
41491 -41388 -41490 0
-41492 -41388 0
-41492 -41490 0
41492 41388 41490 0
-41493 -41491 0
-41493 -41492 0
41493 41491 41492 0
-41422 39 0
-41422 16080 0
41422 -39 -16080 0
-41423 -39 0
-41423 -16080 0
41423 39 16080 0
-41424 -41422 0
-41424 -41423 0
41424 41422 41423 0
-41437 11052 0
-41437 36684 0
41437 -11052 -36684 0
-41438 -11052 0
-41438 -36684 0
41438 11052 36684 0
-41439 -41437 0
-41439 -41438 0
41439 41437 41438 0
-41494 41424 0
-41494 41439 0
41494 -41424 -41439 0
-41495 -41424 0
-41495 -41439 0
41495 41424 41439 0
-41496 -41494 0
-41496 -41495 0
41496 41494 41495 0
-41461 60 0
-41461 15573 0
41461 -60 -15573 0
-41462 -60 0
-41462 -15573 0
41462 60 15573 0
-41463 -41461 0
-41463 -41462 0
41463 41461 41462 0
-41587 18015 0
-41587 41463 0
41587 -18015 -41463 0
-41588 -18015 0
-41588 -41463 0
41588 18015 41463 0
-41589 -41587 0
-41589 -41588 0
41589 41587 41588 0
-41674 41496 0
-41674 41589 0
41674 -41496 -41589 0
-41675 -41496 0
-41675 -41589 0
41675 41496 41589 0
-41676 -41674 0
-41676 -41675 0
41676 41674 41675 0
-41677 41493 0
-41677 41676 0
41677 -41493 -41676 0
-41678 -41493 0
-41678 -41676 0
41678 41493 41676 0
-41679 -41677 0
-41679 -41678 0
41679 41677 41678 0
-41485 107 0
-41485 114 0
41485 -107 -114 0
-41486 -107 0
-41486 -114 0
41486 107 114 0
-41487 -41485 0
-41487 -41486 0
41487 41485 41486 0
-41482 86 0
-41482 25755 0
41482 -86 -25755 0
-41483 -86 0
-41483 -25755 0
41483 86 25755 0
-41484 -41482 0
-41484 -41483 0
41484 41482 41483 0
-41635 23001 0
-41635 25011 0
41635 -23001 -25011 0
-41636 -23001 0
-41636 -25011 0
41636 23001 25011 0
-41637 -41635 0
-41637 -41636 0
41637 41635 41636 0
-41680 41484 0
-41680 41637 0
41680 -41484 -41637 0
-41681 -41484 0
-41681 -41637 0
41681 41484 41637 0
-41682 -41680 0
-41682 -41681 0
41682 41680 41681 0
-41818 41487 0
-41818 41682 0
41818 -41487 -41682 0
-41819 -41487 0
-41819 -41682 0
41819 41487 41682 0
-41820 -41818 0
-41820 -41819 0
41820 41818 41819 0
-41821 41679 0
-41821 41820 0
41821 -41679 -41820 0
-41822 -41679 0
-41822 -41820 0
41822 41679 41820 0
-41823 -41821 0
-41823 -41822 0
41823 41821 41822 0
-41827 19617 0
-41827 27276 0
41827 -19617 -27276 0
-41828 -19617 0
-41828 -27276 0
41828 19617 27276 0
-41829 -41827 0
-41829 -41828 0
41829 41827 41828 0
-41830 19599 0
-41830 41829 0
41830 -19599 -41829 0
-41831 -19599 0
-41831 -41829 0
41831 19599 41829 0
-41832 -41830 0
-41832 -41831 0
41832 41830 41831 0
-41845 62 0
-41845 19674 0
41845 -62 -19674 0
-41846 -62 0
-41846 -19674 0
41846 62 19674 0
-41847 -41845 0
-41847 -41846 0
41847 41845 41846 0
-41866 19704 0
-41866 41847 0
41866 -19704 -41847 0
-41867 -19704 0
-41867 -41847 0
41867 19704 41847 0
-41868 -41866 0
-41868 -41867 0
41868 41866 41867 0
-41869 41832 0
-41869 41868 0
41869 -41832 -41868 0
-41870 -41832 0
-41870 -41868 0
41870 41832 41868 0
-41871 -41869 0
-41871 -41870 0
41871 41869 41870 0
-19915 19680 0
-19915 19695 0
19915 -19680 -19695 0
-19916 -19680 0
-19916 -19695 0
19916 19680 19695 0
-19917 -19915 0
-19917 -19916 0
19917 19915 19916 0
-41824 107 0
-41824 113 0
41824 -107 -113 0
-41825 -107 0
-41825 -113 0
41825 107 113 0
-41826 -41824 0
-41826 -41825 0
41826 41824 41825 0
-41992 19917 0
-41992 41826 0
41992 -19917 -41826 0
-41993 -19917 0
-41993 -41826 0
41993 19917 41826 0
-41994 -41992 0
-41994 -41993 0
41994 41992 41993 0
-41995 41871 0
-41995 41994 0
41995 -41871 -41994 0
-41996 -41871 0
-41996 -41994 0
41996 41871 41994 0
-41997 -41995 0
-41997 -41996 0
41997 41995 41996 0
-41998 9 0
-41998 15012 0
41998 -9 -15012 0
-41999 -9 0
-41999 -15012 0
41999 9 15012 0
-42000 -41998 0
-42000 -41999 0
42000 41998 41999 0
-42001 11703 0
-42001 11767 0
42001 -11703 -11767 0
-42002 -11703 0
-42002 -11767 0
42002 11703 11767 0
-42003 -42001 0
-42003 -42002 0
42003 42001 42002 0
-42004 42000 0
-42004 42003 0
42004 -42000 -42003 0
-42005 -42000 0
-42005 -42003 0
42005 42000 42003 0
-42006 -42004 0
-42006 -42005 0
42006 42004 42005 0
-42025 10959 0
-42025 11446 0
42025 -10959 -11446 0
-42026 -10959 0
-42026 -11446 0
42026 10959 11446 0
-42027 -42025 0
-42027 -42026 0
42027 42025 42026 0
-42103 27678 0
-42103 42027 0
42103 -27678 -42027 0
-42104 -27678 0
-42104 -42027 0
42104 27678 42027 0
-42105 -42103 0
-42105 -42104 0
42105 42103 42104 0
-42106 42006 0
-42106 42105 0
42106 -42006 -42105 0
-42107 -42006 0
-42107 -42105 0
42107 42006 42105 0
-42108 -42106 0
-42108 -42107 0
42108 42106 42107 0
-42055 12531 0
-42055 23841 0
42055 -12531 -23841 0
-42056 -12531 0
-42056 -23841 0
42056 12531 23841 0
-42057 -42055 0
-42057 -42056 0
42057 42055 42056 0
-42109 39750 0
-42109 42057 0
42109 -39750 -42057 0
-42110 -39750 0
-42110 -42057 0
42110 39750 42057 0
-42111 -42109 0
-42111 -42110 0
42111 42109 42110 0
-42070 64 0
-42070 10738 0
42070 -64 -10738 0
-42071 -64 0
-42071 -10738 0
42071 64 10738 0
-42072 -42070 0
-42072 -42071 0
42072 42070 42071 0
-42193 10902 0
-42193 42072 0
42193 -10902 -42072 0
-42194 -10902 0
-42194 -42072 0
42194 10902 42072 0
-42195 -42193 0
-42195 -42194 0
42195 42193 42194 0
-42274 42111 0
-42274 42195 0
42274 -42111 -42195 0
-42275 -42111 0
-42275 -42195 0
42275 42111 42195 0
-42276 -42274 0
-42276 -42275 0
42276 42274 42275 0
-42277 42108 0
-42277 42276 0
42277 -42108 -42276 0
-42278 -42108 0
-42278 -42276 0
42278 42108 42276 0
-42279 -42277 0
-42279 -42278 0
42279 42277 42278 0
-42100 107 0
-42100 112 0
42100 -107 -112 0
-42101 -107 0
-42101 -112 0
42101 107 112 0
-42102 -42100 0
-42102 -42101 0
42102 42100 42101 0
-42094 20016 0
-42094 23853 0
42094 -20016 -23853 0
-42095 -20016 0
-42095 -23853 0
42095 20016 23853 0
-42096 -42094 0
-42096 -42095 0
42096 42094 42095 0
-42085 10442 0
-42085 24405 0
42085 -10442 -24405 0
-42086 -10442 0
-42086 -24405 0
42086 10442 24405 0
-42087 -42085 0
-42087 -42086 0
42087 42085 42086 0
-42241 80 0
-42241 42087 0
42241 -80 -42087 0
-42242 -80 0
-42242 -42087 0
42242 80 42087 0
-42243 -42241 0
-42243 -42242 0
42243 42241 42242 0
-42280 42096 0
-42280 42243 0
42280 -42096 -42243 0
-42281 -42096 0
-42281 -42243 0
42281 42096 42243 0
-42282 -42280 0
-42282 -42281 0
42282 42280 42281 0
-42412 42102 0
-42412 42282 0
42412 -42102 -42282 0
-42413 -42102 0
-42413 -42282 0
42413 42102 42282 0
-42414 -42412 0
-42414 -42413 0
42414 42412 42413 0
-42415 42279 0
-42415 42414 0
42415 -42279 -42414 0
-42416 -42279 0
-42416 -42414 0
42416 42279 42414 0
-42417 -42415 0
-42417 -42416 0
42417 42415 42416 0
-42421 11913 0
-42421 19029 0
42421 -11913 -19029 0
-42422 -11913 0
-42422 -19029 0
42422 11913 19029 0
-42423 -42421 0
-42423 -42422 0
42423 42421 42422 0
-42424 42000 0
-42424 42423 0
42424 -42000 -42423 0
-42425 -42000 0
-42425 -42423 0
42425 42000 42423 0
-42426 -42424 0
-42426 -42425 0
42426 42424 42425 0
-42451 16050 0
-42451 23343 0
42451 -16050 -23343 0
-42452 -16050 0
-42452 -23343 0
42452 16050 23343 0
-42453 -42451 0
-42453 -42452 0
42453 42451 42452 0
-42541 22428 0
-42541 42453 0
42541 -22428 -42453 0
-42542 -22428 0
-42542 -42453 0
42542 22428 42453 0
-42543 -42541 0
-42543 -42542 0
42543 42541 42542 0
-42544 42426 0
-42544 42543 0
42544 -42426 -42543 0
-42545 -42426 0
-42545 -42543 0
42545 42426 42543 0
-42546 -42544 0
-42546 -42545 0
42546 42544 42545 0
-42418 34 0
-42418 37 0
42418 -34 -37 0
-42419 -34 0
-42419 -37 0
42419 34 37 0
-42420 -42418 0
-42420 -42419 0
42420 42418 42419 0
-42475 11952 0
-42475 42420 0
42475 -11952 -42420 0
-42476 -11952 0
-42476 -42420 0
42476 11952 42420 0
-42477 -42475 0
-42477 -42476 0
42477 42475 42476 0
-42496 16650 0
-42496 21741 0
42496 -16650 -21741 0
-42497 -16650 0
-42497 -21741 0
42497 16650 21741 0
-42498 -42496 0
-42498 -42497 0
42498 42496 42497 0
-42547 42477 0
-42547 42498 0
42547 -42477 -42498 0
-42548 -42477 0
-42548 -42498 0
42548 42477 42498 0
-42549 -42547 0
-42549 -42548 0
42549 42547 42548 0
-42505 57 0
-42505 21747 0
42505 -57 -21747 0
-42506 -57 0
-42506 -21747 0
42506 57 21747 0
-42507 -42505 0
-42507 -42506 0
42507 42505 42506 0
-42511 63 0
-42511 10738 0
42511 -63 -10738 0
-42512 -63 0
-42512 -10738 0
42512 63 10738 0
-42513 -42511 0
-42513 -42512 0
42513 42511 42512 0
-42640 42507 0
-42640 42513 0
42640 -42507 -42513 0
-42641 -42507 0
-42641 -42513 0
42641 42507 42513 0
-42642 -42640 0
-42642 -42641 0
42642 42640 42641 0
-42721 42549 0
-42721 42642 0
42721 -42549 -42642 0
-42722 -42549 0
-42722 -42642 0
42722 42549 42642 0
-42723 -42721 0
-42723 -42722 0
42723 42721 42722 0
-42724 42546 0
-42724 42723 0
42724 -42546 -42723 0
-42725 -42546 0
-42725 -42723 0
42725 42546 42723 0
-42726 -42724 0
-42726 -42725 0
42726 42724 42725 0
-42538 107 0
-42538 111 0
42538 -107 -111 0
-42539 -107 0
-42539 -111 0
42539 107 111 0
-42540 -42538 0
-42540 -42539 0
42540 42538 42539 0
-42523 19053 0
-42523 23847 0
42523 -19053 -23847 0
-42524 -19053 0
-42524 -23847 0
42524 19053 23847 0
-42525 -42523 0
-42525 -42524 0
42525 42523 42524 0
-42685 13884 0
-42685 42525 0
42685 -13884 -42525 0
-42686 -13884 0
-42686 -42525 0
42686 13884 42525 0
-42687 -42685 0
-42687 -42686 0
42687 42685 42686 0
-42727 13263 0
-42727 42687 0
42727 -13263 -42687 0
-42728 -13263 0
-42728 -42687 0
42728 13263 42687 0
-42729 -42727 0
-42729 -42728 0
42729 42727 42728 0
-42868 42540 0
-42868 42729 0
42868 -42540 -42729 0
-42869 -42540 0
-42869 -42729 0
42869 42540 42729 0
-42870 -42868 0
-42870 -42869 0
42870 42868 42869 0
-42871 42726 0
-42871 42870 0
42871 -42726 -42870 0
-42872 -42726 0
-42872 -42870 0
42872 42726 42870 0
-42873 -42871 0
-42873 -42872 0
42873 42871 42872 0
-42877 13809 0
-42877 14436 0
42877 -13809 -14436 0
-42878 -13809 0
-42878 -14436 0
42878 13809 14436 0
-42879 -42877 0
-42879 -42878 0
42879 42877 42878 0
-42880 15012 0
-42880 42879 0
42880 -15012 -42879 0
-42881 -15012 0
-42881 -42879 0
42881 15012 42879 0
-42882 -42880 0
-42882 -42881 0
42882 42880 42881 0
-42949 16707 0
-42949 22428 0
42949 -16707 -22428 0
-42950 -16707 0
-42950 -22428 0
42950 16707 22428 0
-42951 -42949 0
-42951 -42950 0
42951 42949 42950 0
-42952 42882 0
-42952 42951 0
42952 -42882 -42951 0
-42953 -42882 0
-42953 -42951 0
42953 42882 42951 0
-42954 -42952 0
-42954 -42953 0
42954 42952 42953 0
-42916 38 0
-42916 16626 0
42916 -38 -16626 0
-42917 -38 0
-42917 -16626 0
42917 38 16626 0
-42918 -42916 0
-42918 -42917 0
42918 42916 42917 0
-42955 16755 0
-42955 42918 0
42955 -16755 -42918 0
-42956 -16755 0
-42956 -42918 0
42956 16755 42918 0
-42957 -42955 0
-42957 -42956 0
42957 42955 42956 0
-39775 10788 0
-39775 10883 0
39775 -10788 -10883 0
-39776 -10788 0
-39776 -10883 0
39776 10788 10883 0
-39777 -39775 0
-39777 -39776 0
39777 39775 39776 0
-43048 18033 0
-43048 39777 0
43048 -18033 -39777 0
-43049 -18033 0
-43049 -39777 0
43049 18033 39777 0
-43050 -43048 0
-43050 -43049 0
43050 43048 43049 0
-43114 42957 0
-43114 43050 0
43114 -42957 -43050 0
-43115 -42957 0
-43115 -43050 0
43115 42957 43050 0
-43116 -43114 0
-43116 -43115 0
43116 43114 43115 0
-43117 42954 0
-43117 43116 0
43117 -42954 -43116 0
-43118 -42954 0
-43118 -43116 0
43118 42954 43116 0
-43119 -43117 0
-43119 -43118 0
43119 43117 43118 0
-42874 107 0
-42874 110 0
42874 -107 -110 0
-42875 -107 0
-42875 -110 0
42875 107 110 0
-42876 -42874 0
-42876 -42875 0
42876 42874 42875 0
-16963 10310 0
-16963 10502 0
16963 -10310 -10502 0
-16964 -10310 0
-16964 -10502 0
16964 10310 10502 0
-16965 -16963 0
-16965 -16964 0
16965 16963 16964 0
-43120 16965 0
-43120 25035 0
43120 -16965 -25035 0
-43121 -16965 0
-43121 -25035 0
43121 16965 25035 0
-43122 -43120 0
-43122 -43121 0
43122 43120 43121 0
-43243 42876 0
-43243 43122 0
43243 -42876 -43122 0
-43244 -42876 0
-43244 -43122 0
43244 42876 43122 0
-43245 -43243 0
-43245 -43244 0
43245 43243 43244 0
-43246 43119 0
-43246 43245 0
43246 -43119 -43245 0
-43247 -43119 0
-43247 -43245 0
43247 43119 43245 0
-43248 -43246 0
-43248 -43247 0
43248 43246 43247 0
-43249 11815 0
-43249 25383 0
43249 -11815 -25383 0
-43250 -11815 0
-43250 -25383 0
43250 11815 25383 0
-43251 -43249 0
-43251 -43250 0
43251 43249 43250 0
-43258 17109 0
-43258 37905 0
43258 -17109 -37905 0
-43259 -17109 0
-43259 -37905 0
43259 17109 37905 0
-43260 -43258 0
-43260 -43259 0
43260 43258 43259 0
-43261 43251 0
-43261 43260 0
43261 -43251 -43260 0
-43262 -43251 0
-43262 -43260 0
43262 43251 43260 0
-43263 -43261 0
-43263 -43262 0
43263 43261 43262 0
-43264 11617 0
-43264 20001 0
43264 -11617 -20001 0
-43265 -11617 0
-43265 -20001 0
43265 11617 20001 0
-43266 -43264 0
-43266 -43265 0
43266 43264 43265 0
-43306 11484 0
-43306 23346 0
43306 -11484 -23346 0
-43307 -11484 0
-43307 -23346 0
43307 11484 23346 0
-43308 -43306 0
-43308 -43307 0
43308 43306 43307 0
-43390 43266 0
-43390 43308 0
43390 -43266 -43308 0
-43391 -43266 0
-43391 -43308 0
43391 43266 43308 0
-43392 -43390 0
-43392 -43391 0
43392 43390 43391 0
-43393 43263 0
-43393 43392 0
43393 -43263 -43392 0
-43394 -43263 0
-43394 -43392 0
43394 43263 43392 0
-43395 -43393 0
-43395 -43394 0
43395 43393 43394 0
-43327 11270 0
-43327 13845 0
43327 -11270 -13845 0
-43328 -11270 0
-43328 -13845 0
43328 11270 13845 0
-43329 -43327 0
-43329 -43328 0
43329 43327 43328 0
-43351 10940 0
-43351 16650 0
43351 -10940 -16650 0
-43352 -10940 0
-43352 -16650 0
43352 10940 16650 0
-43353 -43351 0
-43353 -43352 0
43353 43351 43352 0
-43396 43329 0
-43396 43353 0
43396 -43329 -43353 0
-43397 -43329 0
-43397 -43353 0
43397 43329 43353 0
-43398 -43396 0
-43398 -43397 0
43398 43396 43397 0
-43489 11979 0
-43489 24486 0
43489 -11979 -24486 0
-43490 -11979 0
-43490 -24486 0
43490 11979 24486 0
-43491 -43489 0
-43491 -43490 0
43491 43489 43490 0
-43573 43398 0
-43573 43491 0
43573 -43398 -43491 0
-43574 -43398 0
-43574 -43491 0
43574 43398 43491 0
-43575 -43573 0
-43575 -43574 0
43575 43573 43574 0
-43576 43395 0
-43576 43575 0
43576 -43395 -43575 0
-43577 -43395 0
-43577 -43575 0
43577 43395 43575 0
-43578 -43576 0
-43578 -43577 0
43578 43576 43577 0
-43255 107 0
-43255 109 0
43255 -107 -109 0
-43256 -107 0
-43256 -109 0
43256 107 109 0
-43257 -43255 0
-43257 -43256 0
43257 43255 43256 0
-43387 10136 0
-43387 25752 0
43387 -10136 -25752 0
-43388 -10136 0
-43388 -25752 0
43388 10136 25752 0
-43389 -43387 0
-43389 -43388 0
43389 43387 43388 0
-43366 10521 0
-43366 19062 0
43366 -10521 -19062 0
-43367 -10521 0
-43367 -19062 0
43367 10521 19062 0
-43368 -43366 0
-43368 -43367 0
43368 43366 43367 0
-43528 22497 0
-43528 43368 0
43528 -22497 -43368 0
-43529 -22497 0
-43529 -43368 0
43529 22497 43368 0
-43530 -43528 0
-43530 -43529 0
43530 43528 43529 0
-43579 43389 0
-43579 43530 0
43579 -43389 -43530 0
-43580 -43389 0
-43580 -43530 0
43580 43389 43530 0
-43581 -43579 0
-43581 -43580 0
43581 43579 43580 0
-43729 43257 0
-43729 43581 0
43729 -43257 -43581 0
-43730 -43257 0
-43730 -43581 0
43730 43257 43581 0
-43731 -43729 0
-43731 -43730 0
43731 43729 43730 0
-43732 43578 0
-43732 43731 0
43732 -43578 -43731 0
-43733 -43578 0
-43733 -43731 0
43733 43578 43731 0
-43734 -43732 0
-43734 -43733 0
43734 43732 43733 0
-43741 15588 0
-43741 18477 0
43741 -15588 -18477 0
-43742 -15588 0
-43742 -18477 0
43742 15588 18477 0
-43743 -43741 0
-43743 -43742 0
43743 43741 43742 0
-43744 24 0
-43744 14454 0
43744 -24 -14454 0
-43745 -24 0
-43745 -14454 0
43745 24 14454 0
-43746 -43744 0
-43746 -43745 0
43746 43744 43745 0
-43798 15612 0
-43798 43746 0
43798 -15612 -43746 0
-43799 -15612 0
-43799 -43746 0
43799 15612 43746 0
-43800 -43798 0
-43800 -43799 0
43800 43798 43799 0
-43801 43743 0
-43801 43800 0
43801 -43743 -43800 0
-43802 -43743 0
-43802 -43800 0
43802 43743 43800 0
-43803 -43801 0
-43803 -43802 0
43803 43801 43802 0
-18571 48 0
-18571 18489 0
18571 -48 -18489 0
-18572 -48 0
-18572 -18489 0
18572 48 18489 0
-18573 -18571 0
-18573 -18572 0
18573 18571 18572 0
-43738 36 0
-43738 11220 0
43738 -36 -11220 0
-43739 -36 0
-43739 -11220 0
43739 36 11220 0
-43740 -43738 0
-43740 -43739 0
43740 43738 43739 0
-43804 18573 0
-43804 43740 0
43804 -18573 -43740 0
-43805 -18573 0
-43805 -43740 0
43805 18573 43740 0
-43806 -43804 0
-43806 -43805 0
43806 43804 43805 0
-43870 10713 0
-43870 12729 0
43870 -10713 -12729 0
-43871 -10713 0
-43871 -12729 0
43871 10713 12729 0
-43872 -43870 0
-43872 -43871 0
43872 43870 43871 0
-43924 43806 0
-43924 43872 0
43924 -43806 -43872 0
-43925 -43806 0
-43925 -43872 0
43925 43806 43872 0
-43926 -43924 0
-43926 -43925 0
43926 43924 43925 0
-43927 43803 0
-43927 43926 0
43927 -43803 -43926 0
-43928 -43803 0
-43928 -43926 0
43928 43803 43926 0
-43929 -43927 0
-43929 -43928 0
43929 43927 43928 0
-43735 107 0
-43735 108 0
43735 -107 -108 0
-43736 -107 0
-43736 -108 0
43736 107 108 0
-43737 -43735 0
-43737 -43736 0
43737 43735 43736 0
-43894 25011 0
-43894 33984 0
43894 -25011 -33984 0
-43895 -25011 0
-43895 -33984 0
43895 25011 33984 0
-43896 -43894 0
-43896 -43895 0
43896 43894 43895 0
-43930 40257 0
-43930 43896 0
43930 -40257 -43896 0
-43931 -40257 0
-43931 -43896 0
43931 40257 43896 0
-43932 -43930 0
-43932 -43931 0
43932 43930 43931 0
-44041 43737 0
-44041 43932 0
44041 -43737 -43932 0
-44042 -43737 0
-44042 -43932 0
44042 43737 43932 0
-44043 -44041 0
-44043 -44042 0
44043 44041 44042 0
-44044 43929 0
-44044 44043 0
44044 -43929 -44043 0
-44045 -43929 0
-44045 -44043 0
44045 43929 44043 0
-44046 -44044 0
-44046 -44045 0
44046 44044 44045 0
-44047 8 0
-44047 19023 0
44047 -8 -19023 0
-44048 -8 0
-44048 -19023 0
44048 8 19023 0
-44049 -44047 0
-44049 -44048 0
44049 44047 44048 0
-44050 10 0
-44050 19029 0
44050 -10 -19029 0
-44051 -10 0
-44051 -19029 0
44051 10 19029 0
-44052 -44050 0
-44052 -44051 0
44052 44050 44051 0
-44053 44049 0
-44053 44052 0
44053 -44049 -44052 0
-44054 -44049 0
-44054 -44052 0
44054 44049 44052 0
-44055 -44053 0
-44055 -44054 0
44055 44053 44054 0
-44098 27297 0
-44098 38508 0
44098 -27297 -38508 0
-44099 -27297 0
-44099 -38508 0
44099 27297 38508 0
-44100 -44098 0
-44100 -44099 0
44100 44098 44099 0
-44101 44055 0
-44101 44100 0
44101 -44055 -44100 0
-44102 -44055 0
-44102 -44100 0
44102 44055 44100 0
-44103 -44101 0
-44103 -44102 0
44103 44101 44102 0
-19045 44 0
-19045 46 0
19045 -44 -46 0
-19046 -44 0
-19046 -46 0
19046 44 46 0
-19047 -19045 0
-19047 -19046 0
19047 19045 19046 0
-44104 37 0
-44104 19047 0
44104 -37 -19047 0
-44105 -37 0
-44105 -19047 0
44105 37 19047 0
-44106 -44104 0
-44106 -44105 0
44106 44104 44105 0
-44089 52 0
-44089 10807 0
44089 -52 -10807 0
-44090 -52 0
-44090 -10807 0
44090 52 10807 0
-44091 -44089 0
-44091 -44090 0
44091 44089 44090 0
-44161 65 0
-44161 44091 0
44161 -65 -44091 0
-44162 -65 0
-44162 -44091 0
44162 65 44091 0
-44163 -44161 0
-44163 -44162 0
44163 44161 44162 0
-44245 44106 0
-44245 44163 0
44245 -44106 -44163 0
-44246 -44106 0
-44246 -44163 0
44246 44106 44163 0
-44247 -44245 0
-44247 -44246 0
44247 44245 44246 0
-44248 44103 0
-44248 44247 0
44248 -44103 -44247 0
-44249 -44103 0
-44249 -44247 0
44249 44103 44247 0
-44250 -44248 0
-44250 -44249 0
44250 44248 44249 0
-44197 80 0
-44197 34434 0
44197 -80 -34434 0
-44198 -80 0
-44198 -34434 0
44198 80 34434 0
-44199 -44197 0
-44199 -44198 0
44199 44197 44198 0
-44239 92 0
-44239 41484 0
44239 -92 -41484 0
-44240 -92 0
-44240 -41484 0
44240 92 41484 0
-44241 -44239 0
-44241 -44240 0
44241 44239 44240 0
-44251 44199 0
-44251 44241 0
44251 -44199 -44241 0
-44252 -44199 0
-44252 -44241 0
44252 44199 44241 0
-44253 -44251 0
-44253 -44252 0
44253 44251 44252 0
-44395 106 0
-44395 44253 0
44395 -106 -44253 0
-44396 -106 0
-44396 -44253 0
44396 106 44253 0
-44397 -44395 0
-44397 -44396 0
44397 44395 44396 0
-44398 44250 0
-44398 44397 0
44398 -44250 -44397 0
-44399 -44250 0
-44399 -44397 0
44399 44250 44397 0
-44400 -44398 0
-44400 -44399 0
44400 44398 44399 0
-44401 11895 0
-44401 25383 0
44401 -11895 -25383 0
-44402 -11895 0
-44402 -25383 0
44402 11895 25383 0
-44403 -44401 0
-44403 -44402 0
44403 44401 44402 0
-44410 11703 0
-44410 26571 0
44410 -11703 -26571 0
-44411 -11703 0
-44411 -26571 0
44411 11703 26571 0
-44412 -44410 0
-44412 -44411 0
44412 44410 44411 0
-44413 44403 0
-44413 44412 0
44413 -44403 -44412 0
-44414 -44403 0
-44414 -44412 0
44414 44403 44412 0
-44415 -44413 0
-44415 -44414 0
44415 44413 44414 0
-44404 24 0
-44404 11560 0
44404 -24 -11560 0
-44405 -24 0
-44405 -11560 0
44405 24 11560 0
-44406 -44404 0
-44406 -44405 0
44406 44404 44405 0
-44416 21726 0
-44416 44406 0
44416 -21726 -44406 0
-44417 -21726 0
-44417 -44406 0
44417 21726 44406 0
-44418 -44416 0
-44418 -44417 0
44418 44416 44417 0
-44509 27297 0
-44509 44418 0
44509 -27297 -44418 0
-44510 -27297 0
-44510 -44418 0
44510 27297 44418 0
-44511 -44509 0
-44511 -44510 0
44511 44509 44510 0
-44512 44415 0
-44512 44511 0
44512 -44415 -44511 0
-44513 -44415 0
-44513 -44511 0
44513 44415 44511 0
-44514 -44512 0
-44514 -44513 0
44514 44512 44513 0
-44515 11270 0
-44515 23841 0
44515 -11270 -23841 0
-44516 -11270 0
-44516 -23841 0
44516 11270 23841 0
-44517 -44515 0
-44517 -44516 0
44517 44515 44516 0
-44470 10883 0
-44470 27666 0
44470 -10883 -27666 0
-44471 -10883 0
-44471 -27666 0
44471 10883 27666 0
-44472 -44470 0
-44472 -44471 0
44472 44470 44471 0
-44590 10600 0
-44590 44472 0
44590 -10600 -44472 0
-44591 -10600 0
-44591 -44472 0
44591 10600 44472 0
-44592 -44590 0
-44592 -44591 0
44592 44590 44591 0
-44692 44517 0
-44692 44592 0
44692 -44517 -44592 0
-44693 -44517 0
-44693 -44592 0
44693 44517 44592 0
-44694 -44692 0
-44694 -44693 0
44694 44692 44693 0
-44695 44514 0
-44695 44694 0
44695 -44514 -44694 0
-44696 -44514 0
-44696 -44694 0
44696 44514 44694 0
-44697 -44695 0
-44697 -44696 0
44697 44695 44696 0
-44491 11988 0
-44491 24405 0
44491 -11988 -24405 0
-44492 -11988 0
-44492 -24405 0
44492 11988 24405 0
-44493 -44491 0
-44493 -44492 0
44493 44491 44492 0
-44638 10291 0
-44638 44493 0
44638 -10291 -44493 0
-44639 -10291 0
-44639 -44493 0
44639 10291 44493 0
-44640 -44638 0
-44640 -44639 0
44640 44638 44639 0
-44506 86 0
-44506 12615 0
44506 -86 -12615 0
-44507 -86 0
-44507 -12615 0
44507 86 12615 0
-44508 -44506 0
-44508 -44507 0
44508 44506 44507 0
-44683 92 0
-44683 44508 0
44683 -92 -44508 0
-44684 -92 0
-44684 -44508 0
44684 92 44508 0
-44685 -44683 0
-44685 -44684 0
44685 44683 44684 0
-44698 44640 0
-44698 44685 0
44698 -44640 -44685 0
-44699 -44640 0
-44699 -44685 0
44699 44640 44685 0
-44700 -44698 0
-44700 -44699 0
44700 44698 44699 0
-44851 105 0
-44851 44700 0
44851 -105 -44700 0
-44852 -105 0
-44852 -44700 0
44852 105 44700 0
-44853 -44851 0
-44853 -44852 0
44853 44851 44852 0
-44854 44697 0
-44854 44853 0
44854 -44697 -44853 0
-44855 -44697 0
-44855 -44853 0
44855 44697 44853 0
-44856 -44854 0
-44856 -44855 0
44856 44854 44855 0
-44857 5 0
-44857 19986 0
44857 -5 -19986 0
-44858 -5 0
-44858 -19986 0
44858 5 19986 0
-44859 -44857 0
-44859 -44858 0
44859 44857 44858 0
-44863 17 0
-44863 17109 0
44863 -17 -17109 0
-44864 -17 0
-44864 -17109 0
44864 17 17109 0
-44865 -44863 0
-44865 -44864 0
44865 44863 44864 0
-44866 44859 0
-44866 44865 0
44866 -44859 -44865 0
-44867 -44859 0
-44867 -44865 0
44867 44859 44865 0
-44868 -44866 0
-44868 -44867 0
44868 44866 44867 0
-23338 22 0
-23338 11598 0
23338 -22 -11598 0
-23339 -22 0
-23339 -11598 0
23339 22 11598 0
-23340 -23338 0
-23340 -23339 0
23340 23338 23339 0
-44929 23340 0
-44929 27297 0
44929 -23340 -27297 0
-44930 -23340 0
-44930 -27297 0
44930 23340 27297 0
-44931 -44929 0
-44931 -44930 0
44931 44929 44930 0
-44932 44868 0
-44932 44931 0
44932 -44868 -44931 0
-44933 -44868 0
-44933 -44931 0
44933 44868 44931 0
-44934 -44932 0
-44934 -44933 0
44934 44932 44933 0
-44935 11114 0
-44935 26154 0
44935 -11114 -26154 0
-44936 -11114 0
-44936 -26154 0
44936 11114 26154 0
-44937 -44935 0
-44937 -44936 0
44937 44935 44936 0
-44902 56 0
-44902 27654 0
44902 -56 -27654 0
-44903 -56 0
-44903 -27654 0
44903 56 27654 0
-44904 -44902 0
-44904 -44903 0
44904 44902 44903 0
-45019 13224 0
-45019 44904 0
45019 -13224 -44904 0
-45020 -13224 0
-45020 -44904 0
45020 13224 44904 0
-45021 -45019 0
-45021 -45020 0
45021 45019 45020 0
-45121 44937 0
-45121 45021 0
45121 -44937 -45021 0
-45122 -44937 0
-45122 -45021 0
45122 44937 45021 0
-45123 -45121 0
-45123 -45122 0
45123 45121 45122 0
-45124 44934 0
-45124 45123 0
45124 -44934 -45123 0
-45125 -44934 0
-45125 -45123 0
45125 44934 45123 0
-45126 -45124 0
-45126 -45125 0
45126 45124 45125 0
-44923 10442 0
-44923 10559 0
44923 -10442 -10559 0
-44924 -10442 0
-44924 -10559 0
44924 10442 10559 0
-44925 -44923 0
-44925 -44924 0
44925 44923 44924 0
-45067 14493 0
-45067 44925 0
45067 -14493 -44925 0
-45068 -14493 0
-45068 -44925 0
45068 14493 44925 0
-45069 -45067 0
-45069 -45068 0
45069 45067 45068 0
-45115 92 0
-45115 23493 0
45115 -92 -23493 0
-45116 -92 0
-45116 -23493 0
45116 92 23493 0
-45117 -45115 0
-45117 -45116 0
45117 45115 45116 0
-45127 45069 0
-45127 45117 0
45127 -45069 -45117 0
-45128 -45069 0
-45128 -45117 0
45128 45069 45117 0
-45129 -45127 0
-45129 -45128 0
45129 45127 45128 0
-45274 104 0
-45274 45129 0
45274 -104 -45129 0
-45275 -104 0
-45275 -45129 0
45275 104 45129 0
-45276 -45274 0
-45276 -45275 0
45276 45274 45275 0
-45277 45126 0
-45277 45276 0
45277 -45126 -45276 0
-45278 -45126 0
-45278 -45276 0
45278 45126 45276 0
-45279 -45277 0
-45279 -45278 0
45279 45277 45278 0
-45280 2 0
-45280 26943 0
45280 -2 -26943 0
-45281 -2 0
-45281 -26943 0
45281 2 26943 0
-45282 -45280 0
-45282 -45281 0
45282 45280 45281 0
-45286 12540 0
-45286 19029 0
45286 -12540 -19029 0
-45287 -12540 0
-45287 -19029 0
45287 12540 19029 0
-45288 -45286 0
-45288 -45287 0
45288 45286 45287 0
-45289 45282 0
-45289 45288 0
45289 -45282 -45288 0
-45290 -45282 0
-45290 -45288 0
45290 45282 45288 0
-45291 -45289 0
-45291 -45290 0
45291 45289 45290 0
-23818 21 0
-23818 23 0
23818 -21 -23 0
-23819 -21 0
-23819 -23 0
23819 21 23 0
-23820 -23818 0
-23820 -23819 0
23820 23818 23819 0
-45316 26 0
-45316 16050 0
45316 -26 -16050 0
-45317 -26 0
-45317 -16050 0
45317 26 16050 0
-45318 -45316 0
-45318 -45317 0
45318 45316 45317 0
-45382 23820 0
-45382 45318 0
45382 -23820 -45318 0
-45383 -23820 0
-45383 -45318 0
45383 23820 45318 0
-45384 -45382 0
-45384 -45383 0
45384 45382 45383 0
-45385 45291 0
-45385 45384 0
45385 -45291 -45384 0
-45386 -45291 0
-45386 -45384 0
45386 45291 45384 0
-45387 -45385 0
-45387 -45386 0
45387 45385 45386 0
-45346 49 0
-45346 18489 0
45346 -49 -18489 0
-45347 -49 0
-45347 -18489 0
45347 49 18489 0
-45348 -45346 0
-45348 -45347 0
45348 45346 45347 0
-45388 19635 0
-45388 45348 0
45388 -19635 -45348 0
-45389 -19635 0
-45389 -45348 0
45389 19635 45348 0
-45390 -45388 0
-45390 -45389 0
45390 45388 45389 0
-45478 12114 0
-45478 13869 0
45478 -12114 -13869 0
-45479 -12114 0
-45479 -13869 0
45479 12114 13869 0
-45480 -45478 0
-45480 -45479 0
45480 45478 45479 0
-45574 45390 0
-45574 45480 0
45574 -45390 -45480 0
-45575 -45390 0
-45575 -45480 0
45575 45390 45480 0
-45576 -45574 0
-45576 -45575 0
45576 45574 45575 0
-45577 45387 0
-45577 45576 0
45577 -45387 -45576 0
-45578 -45387 0
-45578 -45576 0
45578 45387 45576 0
-45579 -45577 0
-45579 -45578 0
45579 45577 45578 0
-45373 19053 0
-45373 19593 0
45373 -19053 -19593 0
-45374 -19053 0
-45374 -19593 0
45374 19053 19593 0
-45375 -45373 0
-45375 -45374 0
45375 45373 45374 0
-45526 34917 0
-45526 45375 0
45526 -34917 -45375 0
-45527 -34917 0
-45527 -45375 0
45527 34917 45375 0
-45528 -45526 0
-45528 -45527 0
45528 45526 45527 0
-45580 16437 0
-45580 45528 0
45580 -16437 -45528 0
-45581 -16437 0
-45581 -45528 0
45581 16437 45528 0
-45582 -45580 0
-45582 -45581 0
45582 45580 45581 0
-45724 103 0
-45724 45582 0
45724 -103 -45582 0
-45725 -103 0
-45725 -45582 0
45725 103 45582 0
-45726 -45724 0
-45726 -45725 0
45726 45724 45725 0
-45727 45579 0
-45727 45726 0
45727 -45579 -45726 0
-45728 -45579 0
-45728 -45726 0
45728 45579 45726 0
-45729 -45727 0
-45729 -45728 0
45729 45727 45728 0
-45730 9 0
-45730 32496 0
45730 -9 -32496 0
-45731 -9 0
-45731 -32496 0
45731 9 32496 0
-45732 -45730 0
-45732 -45731 0
45732 45730 45731 0
-45733 11703 0
-45733 11913 0
45733 -11703 -11913 0
-45734 -11703 0
-45734 -11913 0
45734 11703 11913 0
-45735 -45733 0
-45735 -45734 0
45735 45733 45734 0
-45736 45732 0
-45736 45735 0
45736 -45732 -45735 0
-45737 -45732 0
-45737 -45735 0
45737 45732 45735 0
-45738 -45736 0
-45738 -45737 0
45738 45736 45737 0
-45754 16065 0
-45754 23346 0
45754 -16065 -23346 0
-45755 -16065 0
-45755 -23346 0
45755 16065 23346 0
-45756 -45754 0
-45756 -45755 0
45756 45754 45755 0
-45820 23823 0
-45820 45756 0
45820 -23823 -45756 0
-45821 -23823 0
-45821 -45756 0
45821 23823 45756 0
-45822 -45820 0
-45822 -45821 0
45822 45820 45821 0
-45823 45738 0
-45823 45822 0
45823 -45738 -45822 0
-45824 -45738 0
-45824 -45822 0
45824 45738 45822 0
-45825 -45823 0
-45825 -45824 0
45825 45823 45824 0
-45826 24453 0
-45826 32574 0
45826 -24453 -32574 0
-45827 -24453 0
-45827 -32574 0
45827 24453 32574 0
-45828 -45826 0
-45828 -45827 0
45828 45826 45827 0
-45793 56 0
-45793 21747 0
45793 -56 -21747 0
-45794 -56 0
-45794 -21747 0
45794 56 21747 0
-45795 -45793 0
-45795 -45794 0
45795 45793 45794 0
-45919 13869 0
-45919 45795 0
45919 -13869 -45795 0
-45920 -13869 0
-45920 -45795 0
45920 13869 45795 0
-45921 -45919 0
-45921 -45920 0
45921 45919 45920 0
-46024 45828 0
-46024 45921 0
46024 -45828 -45921 0
-46025 -45828 0
-46025 -45921 0
46025 45828 45921 0
-46026 -46024 0
-46026 -46025 0
46026 46024 46025 0
-46027 45825 0
-46027 46026 0
46027 -45825 -46026 0
-46028 -45825 0
-46028 -46026 0
46028 45825 46026 0
-46029 -46027 0
-46029 -46028 0
46029 46027 46028 0
-45808 72 0
-45808 10521 0
45808 -72 -10521 0
-45809 -72 0
-45809 -10521 0
45809 72 10521 0
-45810 -45808 0
-45810 -45809 0
45810 45808 45809 0
-45964 15045 0
-45964 45810 0
45964 -15045 -45810 0
-45965 -15045 0
-45965 -45810 0
45965 15045 45810 0
-45966 -45964 0
-45966 -45965 0
45966 45964 45965 0
-46012 92 0
-46012 38562 0
46012 -92 -38562 0
-46013 -92 0
-46013 -38562 0
46013 92 38562 0
-46014 -46012 0
-46014 -46013 0
46014 46012 46013 0
-46030 45966 0
-46030 46014 0
46030 -45966 -46014 0
-46031 -45966 0
-46031 -46014 0
46031 45966 46014 0
-46032 -46030 0
-46032 -46031 0
46032 46030 46031 0
-46183 102 0
-46183 46032 0
46183 -102 -46032 0
-46184 -102 0
-46184 -46032 0
46184 102 46032 0
-46185 -46183 0
-46185 -46184 0
46185 46183 46184 0
-46186 46029 0
-46186 46185 0
46186 -46029 -46185 0
-46187 -46029 0
-46187 -46185 0
46187 46029 46185 0
-46188 -46186 0
-46188 -46187 0
46188 46186 46187 0
-46198 11408 0
-46198 16608 0
46198 -11408 -16608 0
-46199 -11408 0
-46199 -16608 0
46199 11408 16608 0
-46200 -46198 0
-46200 -46199 0
46200 46198 46199 0
-46207 15066 0
-46207 46200 0
46207 -15066 -46200 0
-46208 -15066 0
-46208 -46200 0
46208 15066 46200 0
-46209 -46207 0
-46209 -46208 0
46209 46207 46208 0
-46210 15063 0
-46210 46209 0
46210 -15063 -46209 0
-46211 -15063 0
-46211 -46209 0
46211 15063 46209 0
-46212 -46210 0
-46212 -46211 0
46212 46210 46211 0
-46273 15381 0
-46273 46212 0
46273 -15381 -46212 0
-46274 -15381 0
-46274 -46212 0
46274 15381 46212 0
-46275 -46273 0
-46275 -46274 0
46275 46273 46274 0
-46276 15165 0
-46276 15375 0
46276 -15165 -15375 0
-46277 -15165 0
-46277 -15375 0
46277 15165 15375 0
-46278 -46276 0
-46278 -46277 0
46278 46276 46277 0
-46411 101 0
-46411 46278 0
46411 -101 -46278 0
-46412 -101 0
-46412 -46278 0
46412 101 46278 0
-46413 -46411 0
-46413 -46412 0
46413 46411 46412 0
-46414 46275 0
-46414 46413 0
46414 -46275 -46413 0
-46415 -46275 0
-46415 -46413 0
46415 46275 46413 0
-46416 -46414 0
-46416 -46415 0
46416 46414 46415 0
-46417 8 0
-46417 13788 0
46417 -8 -13788 0
-46418 -8 0
-46418 -13788 0
46418 8 13788 0
-46419 -46417 0
-46419 -46418 0
46419 46417 46418 0
-46420 14 0
-46420 12540 0
46420 -14 -12540 0
-46421 -14 0
-46421 -12540 0
46421 14 12540 0
-46422 -46420 0
-46422 -46421 0
46422 46420 46421 0
-46423 46419 0
-46423 46422 0
46423 -46419 -46422 0
-46424 -46419 0
-46424 -46422 0
46424 46419 46422 0
-46425 -46423 0
-46425 -46424 0
46425 46423 46424 0
-46447 13833 0
-46447 17913 0
46447 -13833 -17913 0
-46448 -13833 0
-46448 -17913 0
46448 13833 17913 0
-46449 -46447 0
-46449 -46448 0
46449 46447 46448 0
-46495 22410 0
-46495 46449 0
46495 -22410 -46449 0
-46496 -22410 0
-46496 -46449 0
46496 22410 46449 0
-46497 -46495 0
-46497 -46496 0
46497 46495 46496 0
-46498 46425 0
-46498 46497 0
46498 -46425 -46497 0
-46499 -46425 0
-46499 -46497 0
46499 46425 46497 0
-46500 -46498 0
-46500 -46499 0
46500 46498 46499 0
-29437 45 0
-29437 10638 0
29437 -45 -10638 0
-29438 -45 0
-29438 -10638 0
29438 45 10638 0
-29439 -29437 0
-29439 -29438 0
29439 29437 29438 0
-46501 40 0
-46501 29439 0
46501 -40 -29439 0
-46502 -40 0
-46502 -29439 0
46502 40 29439 0
-46503 -46501 0
-46503 -46502 0
46503 46501 46502 0
-46591 19674 0
-46591 29040 0
46591 -19674 -29040 0
-46592 -19674 0
-46592 -29040 0
46592 19674 29040 0
-46593 -46591 0
-46593 -46592 0
46593 46591 46592 0
-46702 46503 0
-46702 46593 0
46702 -46503 -46593 0
-46703 -46503 0
-46703 -46593 0
46703 46503 46593 0
-46704 -46702 0
-46704 -46703 0
46704 46702 46703 0
-46705 46500 0
-46705 46704 0
46705 -46500 -46704 0
-46706 -46500 0
-46706 -46704 0
46706 46500 46704 0
-46707 -46705 0
-46707 -46706 0
46707 46705 46706 0
-39340 71 0
-39340 10540 0
39340 -71 -10540 0
-39341 -71 0
-39341 -10540 0
39341 71 10540 0
-39342 -39340 0
-39342 -39341 0
39342 39340 39341 0
-46639 22497 0
-46639 39342 0
46639 -22497 -39342 0
-46640 -22497 0
-46640 -39342 0
46640 22497 39342 0
-46641 -46639 0
-46641 -46640 0
46641 46639 46640 0
-46492 10136 0
-46492 10196 0
46492 -10136 -10196 0
-46493 -10136 0
-46493 -10196 0
46493 10136 10196 0
-46494 -46492 0
-46494 -46493 0
46494 46492 46493 0
-46687 92 0
-46687 46494 0
46687 -92 -46494 0
-46688 -92 0
-46688 -46494 0
46688 92 46494 0
-46689 -46687 0
-46689 -46688 0
46689 46687 46688 0
-46708 46641 0
-46708 46689 0
46708 -46641 -46689 0
-46709 -46641 0
-46709 -46689 0
46709 46641 46689 0
-46710 -46708 0
-46710 -46709 0
46710 46708 46709 0
-46855 100 0
-46855 46710 0
46855 -100 -46710 0
-46856 -100 0
-46856 -46710 0
46856 100 46710 0
-46857 -46855 0
-46857 -46856 0
46857 46855 46856 0
-46858 46707 0
-46858 46857 0
46858 -46707 -46857 0
-46859 -46707 0
-46859 -46857 0
46859 46707 46857 0
-46860 -46858 0
-46860 -46859 0
46860 46858 46859 0
-46861 5 0
-46861 11895 0
46861 -5 -11895 0
-46862 -5 0
-46862 -11895 0
46862 5 11895 0
-46863 -46861 0
-46863 -46862 0
46863 46861 46862 0
-46864 42423 0
-46864 46863 0
46864 -42423 -46863 0
-46865 -42423 0
-46865 -46863 0
46865 42423 46863 0
-46866 -46864 0
-46866 -46865 0
46866 46864 46865 0
-46960 17970 0
-46960 22875 0
46960 -17970 -22875 0
-46961 -17970 0
-46961 -22875 0
46961 17970 22875 0
-46962 -46960 0
-46962 -46961 0
46962 46960 46961 0
-46963 46866 0
-46963 46962 0
46963 -46866 -46962 0
-46964 -46866 0
-46964 -46962 0
46964 46866 46962 0
-46965 -46963 0
-46965 -46964 0
46965 46963 46964 0
-46909 34 0
-46909 11195 0
46909 -34 -11195 0
-46910 -34 0
-46910 -11195 0
46910 34 11195 0
-46911 -46909 0
-46911 -46910 0
46911 46909 46910 0
-46924 43 0
-46924 21741 0
46924 -43 -21741 0
-46925 -43 0
-46925 -21741 0
46925 43 21741 0
-46926 -46924 0
-46926 -46925 0
46926 46924 46925 0
-46966 46911 0
-46966 46926 0
46966 -46911 -46926 0
-46967 -46911 0
-46967 -46926 0
46967 46911 46926 0
-46968 -46966 0
-46968 -46967 0
46968 46966 46967 0
-47059 19674 0
-47059 29571 0
47059 -19674 -29571 0
-47060 -19674 0
-47060 -29571 0
47060 19674 29571 0
-47061 -47059 0
-47061 -47060 0
47061 47059 47060 0
-47164 46968 0
-47164 47061 0
47164 -46968 -47061 0
-47165 -46968 0
-47165 -47061 0
47165 46968 47061 0
-47166 -47164 0
-47166 -47165 0
47166 47164 47165 0
-47167 46965 0
-47167 47166 0
47167 -46965 -47166 0
-47168 -46965 0
-47168 -47166 0
47168 46965 47166 0
-47169 -47167 0
-47169 -47168 0
47169 47167 47168 0
-19162 10483 0
-19162 19053 0
19162 -10483 -19053 0
-19163 -10483 0
-19163 -19053 0
19163 10483 19053 0
-19164 -19162 0
-19164 -19163 0
19164 19162 19163 0
-47107 19065 0
-47107 19164 0
47107 -19065 -19164 0
-47108 -19065 0
-47108 -19164 0
47108 19065 19164 0
-47109 -47107 0
-47109 -47108 0
47109 47107 47108 0
-47149 92 0
-47149 20097 0
47149 -92 -20097 0
-47150 -92 0
-47150 -20097 0
47150 92 20097 0
-47151 -47149 0
-47151 -47150 0
47151 47149 47150 0
-47170 47109 0
-47170 47151 0
47170 -47109 -47151 0
-47171 -47109 0
-47171 -47151 0
47171 47109 47151 0
-47172 -47170 0
-47172 -47171 0
47172 47170 47171 0
-47311 99 0
-47311 47172 0
47311 -99 -47172 0
-47312 -99 0
-47312 -47172 0
47312 99 47172 0
-47313 -47311 0
-47313 -47312 0
47313 47311 47312 0
-47314 47169 0
-47314 47313 0
47314 -47169 -47313 0
-47315 -47169 0
-47315 -47313 0
47315 47169 47313 0
-47316 -47314 0
-47316 -47315 0
47316 47314 47315 0
-47317 11831 0
-47317 18471 0
47317 -11831 -18471 0
-47318 -11831 0
-47318 -18471 0
47318 11831 18471 0
-47319 -47317 0
-47319 -47318 0
47319 47317 47318 0
-47320 34827 0
-47320 47319 0
47320 -34827 -47319 0
-47321 -34827 0
-47321 -47319 0
47321 34827 47319 0
-47322 -47320 0
-47322 -47321 0
47322 47320 47321 0
-47350 11934 0
-47350 23346 0
47350 -11934 -23346 0
-47351 -11934 0
-47351 -23346 0
47351 11934 23346 0
-47352 -47350 0
-47352 -47351 0
47352 47350 47351 0
-47389 23361 0
-47389 47352 0
47389 -23361 -47352 0
-47390 -23361 0
-47390 -47352 0
47390 23361 47352 0
-47391 -47389 0
-47391 -47390 0
47391 47389 47390 0
-47392 47322 0
-47392 47391 0
47392 -47322 -47391 0
-47393 -47322 0
-47393 -47391 0
47393 47322 47391 0
-47394 -47392 0
-47394 -47393 0
47394 47392 47393 0
-47353 34 0
-47353 30210 0
47353 -34 -30210 0
-47354 -34 0
-47354 -30210 0
47354 34 30210 0
-47355 -47353 0
-47355 -47354 0
47355 47353 47354 0
-47377 13215 0
-47377 16650 0
47377 -13215 -16650 0
-47378 -13215 0
-47378 -16650 0
47378 13215 16650 0
-47379 -47377 0
-47379 -47378 0
47379 47377 47378 0
-47395 47355 0
-47395 47379 0
47395 -47355 -47379 0
-47396 -47355 0
-47396 -47379 0
47396 47355 47379 0
-47397 -47395 0
-47397 -47396 0
47397 47395 47396 0
-47482 19674 0
-47482 20766 0
47482 -19674 -20766 0
-47483 -19674 0
-47483 -20766 0
47483 19674 20766 0
-47484 -47482 0
-47484 -47483 0
47484 47482 47483 0
-47575 47397 0
-47575 47484 0
47575 -47397 -47484 0
-47576 -47397 0
-47576 -47484 0
47576 47397 47484 0
-47577 -47575 0
-47577 -47576 0
47577 47575 47576 0
-47578 47394 0
-47578 47577 0
47578 -47394 -47577 0
-47579 -47394 0
-47579 -47577 0
47579 47394 47577 0
-47580 -47578 0
-47580 -47579 0
47580 47578 47579 0
-13240 10483 0
-13240 10521 0
13240 -10483 -10521 0
-13241 -10483 0
-13241 -10521 0
13241 10483 10521 0
-13242 -13240 0
-13242 -13241 0
13242 13240 13241 0
-47521 10272 0
-47521 13242 0
47521 -10272 -13242 0
-47522 -10272 0
-47522 -13242 0
47522 10272 13242 0
-47523 -47521 0
-47523 -47522 0
47523 47521 47522 0
-47563 92 0
-47563 39363 0
47563 -92 -39363 0
-47564 -92 0
-47564 -39363 0
47564 92 39363 0
-47565 -47563 0
-47565 -47564 0
47565 47563 47564 0
-47581 47523 0
-47581 47565 0
47581 -47523 -47565 0
-47582 -47523 0
-47582 -47565 0
47582 47523 47565 0
-47583 -47581 0
-47583 -47582 0
47583 47581 47582 0
-47722 98 0
-47722 47583 0
47722 -98 -47583 0
-47723 -98 0
-47723 -47583 0
47723 98 47583 0
-47724 -47722 0
-47724 -47723 0
47724 47722 47723 0
-47725 47580 0
-47725 47724 0
47725 -47580 -47724 0
-47726 -47580 0
-47726 -47724 0
47726 47580 47724 0
-47727 -47725 0
-47727 -47726 0
47727 47725 47726 0
-47728 2 0
-47728 14430 0
47728 -2 -14430 0
-47729 -2 0
-47729 -14430 0
47729 2 14430 0
-47730 -47728 0
-47730 -47729 0
47730 47728 47729 0
-47731 11919 0
-47731 26151 0
47731 -11919 -26151 0
-47732 -11919 0
-47732 -26151 0
47732 11919 26151 0
-47733 -47731 0
-47733 -47732 0
47733 47731 47732 0
-47734 47730 0
-47734 47733 0
47734 -47730 -47733 0
-47735 -47730 0
-47735 -47733 0
47735 47730 47733 0
-47736 -47734 0
-47736 -47735 0
47736 47734 47735 0
-47737 23 0
-47737 19995 0
47737 -23 -19995 0
-47738 -23 0
-47738 -19995 0
47738 23 19995 0
-47739 -47737 0
-47739 -47738 0
47739 47737 47738 0
-47764 12555 0
-47764 16617 0
47764 -12555 -16617 0
-47765 -12555 0
-47765 -16617 0
47765 12555 16617 0
-47766 -47764 0
-47766 -47765 0
47766 47764 47765 0
-47836 47739 0
-47836 47766 0
47836 -47739 -47766 0
-47837 -47739 0
-47837 -47766 0
47837 47739 47766 0
-47838 -47836 0
-47838 -47837 0
47838 47836 47837 0
-47839 47736 0
-47839 47838 0
47839 -47736 -47838 0
-47840 -47736 0
-47840 -47838 0
47840 47736 47838 0
-47841 -47839 0
-47841 -47840 0
47841 47839 47840 0
-47803 17136 0
-47803 17919 0
47803 -17136 -17919 0
-47804 -17136 0
-47804 -17919 0
47804 17136 17919 0
-47805 -47803 0
-47805 -47804 0
47805 47803 47804 0
-47842 14469 0
-47842 47805 0
47842 -14469 -47805 0
-47843 -14469 0
-47843 -47805 0
47843 14469 47805 0
-47844 -47842 0
-47844 -47843 0
47844 47842 47843 0
-47815 65 0
-47815 12591 0
47815 -65 -12591 0
-47816 -65 0
-47816 -12591 0
47816 65 12591 0
-47817 -47815 0
-47817 -47816 0
47817 47815 47816 0
-47935 19674 0
-47935 47817 0
47935 -19674 -47817 0
-47936 -19674 0
-47936 -47817 0
47936 19674 47817 0
-47937 -47935 0
-47937 -47936 0
47937 47935 47936 0
-48016 47844 0
-48016 47937 0
48016 -47844 -47937 0
-48017 -47844 0
-48017 -47937 0
48017 47844 47937 0
-48018 -48016 0
-48018 -48017 0
48018 48016 48017 0
-48019 47841 0
-48019 48018 0
48019 -47841 -48018 0
-48020 -47841 0
-48020 -48018 0
48020 47841 48018 0
-48021 -48019 0
-48021 -48020 0
48021 48019 48020 0
-47827 19062 0
-47827 26574 0
47827 -19062 -26574 0
-47828 -19062 0
-47828 -26574 0
47828 19062 26574 0
-47829 -47827 0
-47829 -47828 0
47829 47827 47828 0
-47977 20013 0
-47977 47829 0
47977 -20013 -47829 0
-47978 -20013 0
-47978 -47829 0
47978 20013 47829 0
-47979 -47977 0
-47979 -47978 0
47979 47977 47978 0
-47830 87 0
-47830 25755 0
47830 -87 -25755 0
-47831 -87 0
-47831 -25755 0
47831 87 25755 0
-47832 -47830 0
-47832 -47831 0
47832 47830 47831 0
-47833 92 0
-47833 97 0
47833 -92 -97 0
-47834 -92 0
-47834 -97 0
47834 92 97 0
-47835 -47833 0
-47835 -47834 0
47835 47833 47834 0
-48004 47832 0
-48004 47835 0
48004 -47832 -47835 0
-48005 -47832 0
-48005 -47835 0
48005 47832 47835 0
-48006 -48004 0
-48006 -48005 0
48006 48004 48005 0
-48022 47979 0
-48022 48006 0
48022 -47979 -48006 0
-48023 -47979 0
-48023 -48006 0
48023 47979 48006 0
-48024 -48022 0
-48024 -48023 0
48024 48022 48023 0
-48139 48021 0
-48139 48024 0
48139 -48021 -48024 0
-48140 -48021 0
-48140 -48024 0
48140 48021 48024 0
-48141 -48139 0
-48141 -48140 0
48141 48139 48140 0
-48151 17 0
-48151 11751 0
48151 -17 -11751 0
-48152 -17 0
-48152 -11751 0
48152 17 11751 0
-48153 -48151 0
-48153 -48152 0
48153 48151 48152 0
-48154 32499 0
-48154 48153 0
48154 -32499 -48153 0
-48155 -32499 0
-48155 -48153 0
48155 32499 48153 0
-48156 -48154 0
-48156 -48155 0
48156 48154 48155 0
-48157 19 0
-48157 11560 0
48157 -19 -11560 0
-48158 -19 0
-48158 -11560 0
48158 19 11560 0
-48159 -48157 0
-48159 -48158 0
48159 48157 48158 0
-48244 46200 0
-48244 48159 0
48244 -46200 -48159 0
-48245 -46200 0
-48245 -48159 0
48245 46200 48159 0
-48246 -48244 0
-48246 -48245 0
48246 48244 48245 0
-48247 48156 0
-48247 48246 0
48247 -48156 -48246 0
-48248 -48156 0
-48248 -48246 0
48248 48156 48246 0
-48249 -48247 0
-48249 -48248 0
48249 48247 48248 0
-48250 12711 0
-48250 13848 0
48250 -12711 -13848 0
-48251 -12711 0
-48251 -13848 0
48251 12711 13848 0
-48252 -48250 0
-48252 -48251 0
48252 48250 48251 0
-48214 10600 0
-48214 16092 0
48214 -10600 -16092 0
-48215 -10600 0
-48215 -16092 0
48215 10600 16092 0
-48216 -48214 0
-48216 -48215 0
48216 48214 48215 0
-48343 23973 0
-48343 48216 0
48343 -23973 -48216 0
-48344 -23973 0
-48344 -48216 0
48344 23973 48216 0
-48345 -48343 0
-48345 -48344 0
48345 48343 48344 0
-48448 48252 0
-48448 48345 0
48448 -48252 -48345 0
-48449 -48252 0
-48449 -48345 0
48449 48252 48345 0
-48450 -48448 0
-48450 -48449 0
48450 48448 48449 0
-48451 48249 0
-48451 48450 0
48451 -48249 -48450 0
-48452 -48249 0
-48452 -48450 0
48452 48249 48450 0
-48453 -48451 0
-48453 -48452 0
48453 48451 48452 0
-48229 66 0
-48229 11988 0
48229 -66 -11988 0
-48230 -66 0
-48230 -11988 0
48230 66 11988 0
-48231 -48229 0
-48231 -48230 0
48231 48229 48230 0
-48391 78 0
-48391 48231 0
48391 -78 -48231 0
-48392 -78 0
-48392 -48231 0
48392 78 48231 0
-48393 -48391 0
-48393 -48392 0
48393 48391 48392 0
-48241 92 0
-48241 96 0
48241 -92 -96 0
-48242 -92 0
-48242 -96 0
48242 92 96 0
-48243 -48241 0
-48243 -48242 0
48243 48241 48242 0
-48436 11997 0
-48436 48243 0
48436 -11997 -48243 0
-48437 -11997 0
-48437 -48243 0
48437 11997 48243 0
-48438 -48436 0
-48438 -48437 0
48438 48436 48437 0
-48454 48393 0
-48454 48438 0
48454 -48393 -48438 0
-48455 -48393 0
-48455 -48438 0
48455 48393 48438 0
-48456 -48454 0
-48456 -48455 0
48456 48454 48455 0
-48592 48453 0
-48592 48456 0
48592 -48453 -48456 0
-48593 -48453 0
-48593 -48456 0
48593 48453 48456 0
-48594 -48592 0
-48594 -48593 0
48594 48592 48593 0
-19573 11 0
-19573 14 0
19573 -11 -14 0
-19574 -11 0
-19574 -14 0
19574 11 14 0
-19575 -19573 0
-19575 -19574 0
19575 19573 19574 0
-48601 19575 0
-48601 23328 0
48601 -19575 -23328 0
-48602 -19575 0
-48602 -23328 0
48602 19575 23328 0
-48603 -48601 0
-48603 -48602 0
48603 48601 48602 0
-48604 11560 0
-48604 23337 0
48604 -11560 -23337 0
-48605 -11560 0
-48605 -23337 0
48605 11560 23337 0
-48606 -48604 0
-48606 -48605 0
48606 48604 48605 0
-48679 31128 0
-48679 48606 0
48679 -31128 -48606 0
-48680 -31128 0
-48680 -48606 0
48680 31128 48606 0
-48681 -48679 0
-48681 -48680 0
48681 48679 48680 0
-48682 48603 0
-48682 48681 0
48682 -48603 -48681 0
-48683 -48603 0
-48683 -48681 0
48683 48603 48681 0
-48684 -48682 0
-48684 -48683 0
48684 48682 48683 0
-48685 15111 0
-48685 21273 0
48685 -15111 -21273 0
-48686 -15111 0
-48686 -21273 0
48686 15111 21273 0
-48687 -48685 0
-48687 -48686 0
48687 48685 48686 0
-48661 10619 0
-48661 35304 0
48661 -10619 -35304 0
-48662 -10619 0
-48662 -35304 0
48662 10619 35304 0
-48663 -48661 0
-48663 -48662 0
48663 48661 48662 0
-48763 18597 0
-48763 48663 0
48763 -18597 -48663 0
-48764 -18597 0
-48764 -48663 0
48764 18597 48663 0
-48765 -48763 0
-48765 -48764 0
48765 48763 48764 0
-48871 48687 0
-48871 48765 0
48871 -48687 -48765 0
-48872 -48687 0
-48872 -48765 0
48872 48687 48765 0
-48873 -48871 0
-48873 -48872 0
48873 48871 48872 0
-48874 48684 0
-48874 48873 0
48874 -48684 -48873 0
-48875 -48684 0
-48875 -48873 0
48875 48684 48873 0
-48876 -48874 0
-48876 -48875 0
48876 48874 48875 0
-31153 68 0
-31153 10442 0
31153 -68 -10442 0
-31154 -68 0
-31154 -10442 0
31154 68 10442 0
-31155 -31153 0
-31155 -31154 0
31155 31153 31154 0
-48808 25011 0
-48808 31155 0
48808 -25011 -31155 0
-48809 -25011 0
-48809 -31155 0
48809 25011 31155 0
-48810 -48808 0
-48810 -48809 0
48810 48808 48809 0
-48598 92 0
-48598 95 0
48598 -92 -95 0
-48599 -92 0
-48599 -95 0
48599 92 95 0
-48600 -48598 0
-48600 -48599 0
48600 48598 48599 0
-48856 18093 0
-48856 48600 0
48856 -18093 -48600 0
-48857 -18093 0
-48857 -48600 0
48857 18093 48600 0
-48858 -48856 0
-48858 -48857 0
48858 48856 48857 0
-48877 48810 0
-48877 48858 0
48877 -48810 -48858 0
-48878 -48810 0
-48878 -48858 0
48878 48810 48858 0
-48879 -48877 0
-48879 -48878 0
48879 48877 48878 0
-49012 48876 0
-49012 48879 0
49012 -48876 -48879 0
-49013 -48876 0
-49013 -48879 0
49013 48876 48879 0
-49014 -49012 0
-49014 -49013 0
49014 49012 49013 0
-49015 8 0
-49015 11831 0
49015 -8 -11831 0
-49016 -8 0
-49016 -11831 0
49016 8 11831 0
-49017 -49015 0
-49017 -49016 0
49017 49015 49016 0
-49018 11879 0
-49018 49017 0
49018 -11879 -49017 0
-49019 -11879 0
-49019 -49017 0
49019 11879 49017 0
-49020 -49018 0
-49020 -49019 0
49020 49018 49019 0
-49024 19071 0
-49024 49020 0
49024 -19071 -49020 0
-49025 -19071 0
-49025 -49020 0
49025 19071 49020 0
-49026 -49024 0
-49026 -49025 0
49026 49024 49025 0
-49027 19995 0
-49027 31818 0
49027 -19995 -31818 0
-49028 -19995 0
-49028 -31818 0
49028 19995 31818 0
-49029 -49027 0
-49029 -49028 0
49029 49027 49028 0
-49063 15555 0
-49063 23343 0
49063 -15555 -23343 0
-49064 -15555 0
-49064 -23343 0
49064 15555 23343 0
-49065 -49063 0
-49065 -49064 0
49065 49063 49064 0
-49147 49029 0
-49147 49065 0
49147 -49029 -49065 0
-49148 -49029 0
-49148 -49065 0
49148 49029 49065 0
-49149 -49147 0
-49149 -49148 0
49149 49147 49148 0
-49150 49026 0
-49150 49149 0
49150 -49026 -49149 0
-49151 -49026 0
-49151 -49149 0
49151 49026 49149 0
-49152 -49150 0
-49152 -49151 0
49152 49150 49151 0
-49078 34 0
-49078 11220 0
49078 -34 -11220 0
-49079 -34 0
-49079 -11220 0
49079 34 11220 0
-49080 -49078 0
-49080 -49079 0
49080 49078 49079 0
-49087 45 0
-49087 36684 0
49087 -45 -36684 0
-49088 -45 0
-49088 -36684 0
49088 45 36684 0
-49089 -49087 0
-49089 -49088 0
49089 49087 49088 0
-49153 49080 0
-49153 49089 0
49153 -49080 -49089 0
-49154 -49080 0
-49154 -49089 0
49154 49080 49089 0
-49155 -49153 0
-49155 -49154 0
49155 49153 49154 0
-49108 12591 0
-49108 15573 0
49108 -12591 -15573 0
-49109 -12591 0
-49109 -15573 0
49109 12591 15573 0
-49110 -49108 0
-49110 -49109 0
49110 49108 49109 0
-49240 31536 0
-49240 49110 0
49240 -31536 -49110 0
-49241 -31536 0
-49241 -49110 0
49241 31536 49110 0
-49242 -49240 0
-49242 -49241 0
49242 49240 49241 0
-49351 49155 0
-49351 49242 0
49351 -49155 -49242 0
-49352 -49155 0
-49352 -49242 0
49352 49155 49242 0
-49353 -49351 0
-49353 -49352 0
49353 49351 49352 0
-49354 49152 0
-49354 49353 0
49354 -49152 -49353 0
-49355 -49152 0
-49355 -49353 0
49355 49152 49353 0
-49356 -49354 0
-49356 -49355 0
49356 49354 49355 0
-49126 10540 0
-49126 19593 0
49126 -10540 -19593 0
-49127 -10540 0
-49127 -19593 0
49127 10540 19593 0
-49128 -49126 0
-49128 -49127 0
49128 49126 49127 0
-49288 81 0
-49288 49128 0
49288 -81 -49128 0
-49289 -81 0
-49289 -49128 0
49289 81 49128 0
-49290 -49288 0
-49290 -49289 0
49290 49288 49289 0
-49021 92 0
-49021 94 0
49021 -92 -94 0
-49022 -92 0
-49022 -94 0
49022 92 94 0
-49023 -49021 0
-49023 -49022 0
49023 49021 49022 0
-49141 17943 0
-49141 23853 0
49141 -17943 -23853 0
-49142 -17943 0
-49142 -23853 0
49142 17943 23853 0
-49143 -49141 0
-49143 -49142 0
49143 49141 49142 0
-49336 49023 0
-49336 49143 0
49336 -49023 -49143 0
-49337 -49023 0
-49337 -49143 0
49337 49023 49143 0
-49338 -49336 0
-49338 -49337 0
49338 49336 49337 0
-49357 49290 0
-49357 49338 0
49357 -49290 -49338 0
-49358 -49290 0
-49358 -49338 0
49358 49290 49338 0
-49359 -49357 0
-49359 -49358 0
49359 49357 49358 0
-49489 49356 0
-49489 49359 0
49489 -49356 -49359 0
-49490 -49356 0
-49490 -49359 0
49490 49356 49359 0
-49491 -49489 0
-49491 -49490 0
49491 49489 49490 0
-49495 3 0
-49495 18474 0
49495 -3 -18474 0
-49496 -3 0
-49496 -18474 0
49496 3 18474 0
-49497 -49495 0
-49497 -49496 0
49497 49495 49496 0
-49498 37905 0
-49498 49497 0
49498 -37905 -49497 0
-49499 -37905 0
-49499 -49497 0
49499 37905 49497 0
-49500 -49498 0
-49500 -49499 0
49500 49498 49499 0
-14458 21 0
-14458 11541 0
14458 -21 -11541 0
-14459 -21 0
-14459 -11541 0
14459 21 11541 0
-14460 -14458 0
-14460 -14459 0
14460 14458 14459 0
-49528 10959 0
-49528 13833 0
49528 -10959 -13833 0
-49529 -10959 0
-49529 -13833 0
49529 10959 13833 0
-49530 -49528 0
-49530 -49529 0
49530 49528 49529 0
-49588 14460 0
-49588 49530 0
49588 -14460 -49530 0
-49589 -14460 0
-49589 -49530 0
49589 14460 49530 0
-49590 -49588 0
-49590 -49589 0
49590 49588 49589 0
-49591 49500 0
-49591 49590 0
49591 -49500 -49590 0
-49592 -49500 0
-49592 -49590 0
49592 49500 49590 0
-49593 -49591 0
-49593 -49592 0
49593 49591 49592 0
-11959 45 0
-11959 47 0
11959 -45 -47 0
-11960 -45 0
-11960 -47 0
11960 45 47 0
-11961 -11959 0
-11961 -11960 0
11961 11959 11960 0
-49594 38 0
-49594 11961 0
49594 -38 -11961 0
-49595 -38 0
-49595 -11961 0
49595 38 11961 0
-49596 -49594 0
-49596 -49595 0
49596 49594 49595 0
-49555 59 0
-49555 16095 0
49555 -59 -16095 0
-49556 -59 0
-49556 -16095 0
49556 59 16095 0
-49557 -49555 0
-49557 -49556 0
49557 49555 49556 0
-49663 37134 0
-49663 49557 0
49663 -37134 -49557 0
-49664 -37134 0
-49664 -49557 0
49664 37134 49557 0
-49665 -49663 0
-49665 -49664 0
49665 49663 49664 0
-49750 49596 0
-49750 49665 0
49750 -49596 -49665 0
-49751 -49596 0
-49751 -49665 0
49751 49596 49665 0
-49752 -49750 0
-49752 -49751 0
49752 49750 49751 0
-49753 49593 0
-49753 49752 0
49753 -49593 -49752 0
-49754 -49593 0
-49754 -49752 0
49754 49593 49752 0
-49755 -49753 0
-49755 -49754 0
49755 49753 49754 0
-49570 72 0
-49570 33018 0
49570 -72 -33018 0
-49571 -72 0
-49571 -33018 0
49571 72 33018 0
-49572 -49570 0
-49572 -49571 0
49572 49570 49571 0
-49705 81 0
-49705 49572 0
49705 -81 -49572 0
-49706 -81 0
-49706 -49572 0
49706 81 49572 0
-49707 -49705 0
-49707 -49706 0
49707 49705 49706 0
-49492 92 0
-49492 93 0
49492 -92 -93 0
-49493 -92 0
-49493 -93 0
49493 92 93 0
-49494 -49492 0
-49494 -49493 0
49494 49492 49493 0
-49741 15585 0
-49741 49494 0
49741 -15585 -49494 0
-49742 -15585 0
-49742 -49494 0
49742 15585 49494 0
-49743 -49741 0
-49743 -49742 0
49743 49741 49742 0
-49756 49707 0
-49756 49743 0
49756 -49707 -49743 0
-49757 -49707 0
-49757 -49743 0
49757 49707 49743 0
-49758 -49756 0
-49758 -49757 0
49758 49756 49757 0
-49876 49755 0
-49876 49758 0
49876 -49755 -49758 0
-49877 -49755 0
-49877 -49758 0
49877 49755 49758 0
-49878 -49876 0
-49878 -49877 0
49878 49876 49877 0
-49879 4 0
-49879 7 0
49879 -4 -7 0
-49880 -4 0
-49880 -7 0
49880 4 7 0
-49881 -49879 0
-49881 -49880 0
49881 49879 49880 0
-49897 16 0
-49897 26571 0
49897 -16 -26571 0
-49898 -16 0
-49898 -26571 0
49898 16 26571 0
-49899 -49897 0
-49899 -49898 0
49899 49897 49898 0
-49900 49881 0
-49900 49899 0
49900 -49881 -49899 0
-49901 -49881 0
-49901 -49899 0
49901 49881 49899 0
-49902 -49900 0
-49902 -49901 0
49902 49900 49901 0
-49906 40 0
-49906 42420 0
49906 -40 -42420 0
-49907 -40 0
-49907 -42420 0
49907 40 42420 0
-49908 -49906 0
-49908 -49907 0
49908 49906 49907 0
-49954 16200 0
-49954 49908 0
49954 -16200 -49908 0
-49955 -16200 0
-49955 -49908 0
49955 16200 49908 0
-49956 -49954 0
-49956 -49955 0
49956 49954 49955 0
-26950 52 0
-26950 55 0
26950 -52 -55 0
-26951 -52 0
-26951 -55 0
26951 52 55 0
-26952 -26950 0
-26952 -26951 0
26952 26950 26951 0
-49891 58 0
-49891 61 0
49891 -58 -61 0
-49892 -58 0
-49892 -61 0
49892 58 61 0
-49893 -49891 0
-49893 -49892 0
49893 49891 49892 0
-50020 26952 0
-50020 49893 0
50020 -26952 -49893 0
-50021 -26952 0
-50021 -49893 0
50021 26952 49893 0
-50022 -50020 0
-50022 -50021 0
50022 50020 50021 0
-50059 49956 0
-50059 50022 0
50059 -49956 -50022 0
-50060 -49956 0
-50060 -50022 0
50060 49956 50022 0
-50061 -50059 0
-50061 -50060 0
50061 50059 50060 0
-50062 49902 0
-50062 50061 0
50062 -49902 -50061 0
-50063 -49902 0
-50063 -50061 0
50063 49902 50061 0
-50064 -50062 0
-50064 -50063 0
50064 50062 50063 0
-49945 88 0
-49945 13893 0
49945 -88 -13893 0
-49946 -88 0
-49946 -13893 0
49946 88 13893 0
-49947 -49945 0
-49947 -49946 0
49947 49945 49946 0
-50056 91 0
-50056 49947 0
50056 -91 -49947 0
-50057 -91 0
-50057 -49947 0
50057 91 49947 0
-50058 -50056 0
-50058 -50057 0
50058 50056 50057 0
-50065 79 0
-50065 50058 0
50065 -79 -50058 0
-50066 -79 0
-50066 -50058 0
50066 79 50058 0
-50067 -50065 0
-50067 -50066 0
50067 50065 50066 0
-50158 50064 0
-50158 50067 0
50158 -50064 -50067 0
-50159 -50064 0
-50159 -50067 0
50159 50064 50067 0
-50160 -50158 0
-50160 -50159 0
50160 50158 50159 0
-50218 90 0
-50218 12618 0
50218 -90 -12618 0
-50219 -90 0
-50219 -12618 0
50219 90 12618 0
-50220 -50218 0
-50220 -50219 0
50220 50218 50219 0
-50311 20406 0
-50311 50220 0
50311 -20406 -50220 0
-50312 -20406 0
-50312 -50220 0
50312 20406 50220 0
-50313 -50311 0
-50313 -50312 0
50313 50311 50312 0
-50161 3 0
-50161 26943 0
50161 -3 -26943 0
-50162 -3 0
-50162 -26943 0
50162 3 26943 0
-50163 -50161 0
-50163 -50162 0
50163 50161 50162 0
-50173 29430 0
-50173 50163 0
50173 -29430 -50163 0
-50174 -29430 0
-50174 -50163 0
50174 29430 50163 0
-50175 -50173 0
-50175 -50174 0
50175 50173 50174 0
-50221 33 0
-50221 50175 0
50221 -33 -50175 0
-50222 -33 0
-50222 -50175 0
50222 33 50175 0
-50223 -50221 0
-50223 -50222 0
50223 50221 50222 0
-50185 48 0
-50185 21732 0
50185 -48 -21732 0
-50186 -48 0
-50186 -21732 0
50186 48 21732 0
-50187 -50185 0
-50187 -50186 0
50187 50185 50186 0
-50224 17130 0
-50224 50187 0
50224 -17130 -50187 0
-50225 -17130 0
-50225 -50187 0
50225 17130 50187 0
-50226 -50224 0
-50226 -50225 0
50226 50224 50225 0
-50167 54 0
-50167 57 0
50167 -54 -57 0
-50168 -54 0
-50168 -57 0
50168 54 57 0
-50169 -50167 0
-50169 -50168 0
50169 50167 50168 0
-50197 51 0
-50197 50169 0
50197 -51 -50169 0
-50198 -51 0
-50198 -50169 0
50198 51 50169 0
-50199 -50197 0
-50199 -50198 0
50199 50197 50198 0
-50293 60 0
-50293 50199 0
50293 -60 -50199 0
-50294 -60 0
-50294 -50199 0
50294 60 50199 0
-50295 -50293 0
-50295 -50294 0
50295 50293 50294 0
-50329 50226 0
-50329 50295 0
50329 -50226 -50295 0
-50330 -50226 0
-50330 -50295 0
50330 50226 50295 0
-50331 -50329 0
-50331 -50330 0
50331 50329 50330 0
-50332 50223 0
-50332 50331 0
50332 -50223 -50331 0
-50333 -50223 0
-50333 -50331 0
50333 50223 50331 0
-50334 -50332 0
-50334 -50333 0
50334 50332 50333 0
-50425 50313 0
-50425 50334 0
50425 -50313 -50334 0
-50426 -50313 0
-50426 -50334 0
50426 50313 50334 0
-50427 -50425 0
-50427 -50426 0
50427 50425 50426 0
-50434 86 0
-50434 89 0
50434 -86 -89 0
-50435 -86 0
-50435 -89 0
50435 86 89 0
-50436 -50434 0
-50436 -50435 0
50436 50434 50435 0
-50476 83 0
-50476 50436 0
50476 -83 -50436 0
-50477 -83 0
-50477 -50436 0
50477 83 50436 0
-50478 -50476 0
-50478 -50477 0
50478 50476 50477 0
-50569 19065 0
-50569 50478 0
50569 -19065 -50478 0
-50570 -19065 0
-50570 -50478 0
50570 19065 50478 0
-50571 -50569 0
-50571 -50570 0
50571 50569 50570 0
-50428 8 0
-50428 18471 0
50428 -8 -18471 0
-50429 -8 0
-50429 -18471 0
50429 8 18471 0
-50430 -50428 0
-50430 -50429 0
50430 50428 50429 0
-50437 19575 0
-50437 50430 0
50437 -19575 -50430 0
-50438 -19575 0
-50438 -50430 0
50438 19575 50430 0
-50439 -50437 0
-50439 -50438 0
50439 50437 50438 0
-50482 32 0
-50482 50439 0
50482 -32 -50439 0
-50483 -32 0
-50483 -50439 0
50483 32 50439 0
-50484 -50482 0
-50484 -50483 0
50484 50482 50483 0
-25747 44 0
-25747 47 0
25747 -44 -47 0
-25748 -44 0
-25748 -47 0
25748 44 47 0
-25749 -25747 0
-25749 -25748 0
25749 25747 25748 0
-50485 25749 0
-50485 36327 0
50485 -25749 -36327 0
-50486 -25749 0
-50486 -36327 0
50486 25749 36327 0
-50487 -50485 0
-50487 -50486 0
50487 50485 50486 0
-50431 50 0
-50431 53 0
50431 -50 -53 0
-50432 -50 0
-50432 -53 0
50432 50 53 0
-50433 -50431 0
-50433 -50432 0
50433 50431 50432 0
-50467 56 0
-50467 50433 0
50467 -56 -50433 0
-50468 -56 0
-50468 -50433 0
50468 56 50433 0
-50469 -50467 0
-50469 -50468 0
50469 50467 50468 0
-50557 59 0
-50557 50469 0
50557 -59 -50469 0
-50558 -59 0
-50558 -50469 0
50558 59 50469 0
-50559 -50557 0
-50559 -50558 0
50559 50557 50558 0
-50590 50487 0
-50590 50559 0
50590 -50487 -50559 0
-50591 -50487 0
-50591 -50559 0
50591 50487 50559 0
-50592 -50590 0
-50592 -50591 0
50592 50590 50591 0
-50593 50484 0
-50593 50592 0
50593 -50484 -50592 0
-50594 -50484 0
-50594 -50592 0
50594 50484 50592 0
-50595 -50593 0
-50595 -50594 0
50595 50593 50594 0
-50683 50571 0
-50683 50595 0
50683 -50571 -50595 0
-50684 -50571 0
-50684 -50595 0
50684 50571 50595 0
-50685 -50683 0
-50685 -50684 0
50685 50683 50684 0
-50737 67 0
-50737 28119 0
50737 -67 -28119 0
-50738 -67 0
-50738 -28119 0
50738 67 28119 0
-50739 -50737 0
-50739 -50738 0
50739 50737 50738 0
-50830 76 0
-50830 50739 0
50830 -76 -50739 0
-50831 -76 0
-50831 -50739 0
50831 76 50739 0
-50832 -50830 0
-50832 -50831 0
50832 50830 50831 0
-16066 28 0
-16066 31 0
16066 -28 -31 0
-16067 -28 0
-16067 -31 0
16067 28 31 0
-16068 -16066 0
-16068 -16067 0
16068 16066 16067 0
-50689 19 0
-50689 25743 0
50689 -19 -25743 0
-50690 -19 0
-50690 -25743 0
50690 19 25743 0
-50691 -50689 0
-50691 -50690 0
50691 50689 50690 0
-50749 16068 0
-50749 50691 0
50749 -16068 -50691 0
-50750 -16068 0
-50750 -50691 0
50750 16068 50691 0
-50751 -50749 0
-50751 -50750 0
50751 50749 50750 0
-50752 49902 0
-50752 50751 0
50752 -49902 -50751 0
-50753 -49902 0
-50753 -50751 0
50753 49902 50751 0
-50754 -50752 0
-50754 -50753 0
50754 50752 50753 0
-50722 64 0
-50722 49893 0
50722 -64 -49893 0
-50723 -64 0
-50723 -49893 0
50723 64 49893 0
-50724 -50722 0
-50724 -50723 0
50724 50722 50723 0
-50782 26952 0
-50782 50724 0
50782 -26952 -50724 0
-50783 -26952 0
-50783 -50724 0
50783 26952 50724 0
-50784 -50782 0
-50784 -50783 0
50784 50782 50783 0
-50836 49 0
-50836 50784 0
50836 -49 -50784 0
-50837 -49 0
-50837 -50784 0
50837 49 50784 0
-50838 -50836 0
-50838 -50837 0
50838 50836 50837 0
-50839 50754 0
-50839 50838 0
50839 -50754 -50838 0
-50840 -50754 0
-50840 -50838 0
50840 50754 50838 0
-50841 -50839 0
-50841 -50840 0
50841 50839 50840 0
-50920 50832 0
-50920 50841 0
50920 -50832 -50841 0
-50921 -50832 0
-50921 -50841 0
50921 50832 50841 0
-50922 -50920 0
-50922 -50921 0
50922 50920 50921 0
-50971 72 0
-50971 13878 0
50971 -72 -13878 0
-50972 -72 0
-50972 -13878 0
50972 72 13878 0
-50973 -50971 0
-50973 -50972 0
50973 50971 50972 0
-51061 75 0
-51061 50973 0
51061 -75 -50973 0
-51062 -75 0
-51062 -50973 0
51062 75 50973 0
-51063 -51061 0
-51063 -51062 0
51063 51061 51062 0
-28102 27 0
-28102 30 0
28102 -27 -30 0
-28103 -27 0
-28103 -30 0
28103 27 30 0
-28104 -28102 0
-28104 -28103 0
28104 28102 28103 0
-50926 24 0
-50926 19995 0
50926 -24 -19995 0
-50927 -24 0
-50927 -19995 0
50927 24 19995 0
-50928 -50926 0
-50928 -50927 0
50928 50926 50927 0
-50980 28104 0
-50980 50928 0
50980 -28104 -50928 0
-50981 -28104 0
-50981 -50928 0
50981 28104 50928 0
-50982 -50980 0
-50982 -50981 0
50982 50980 50981 0
-50983 50175 0
-50983 50982 0
50983 -50175 -50982 0
-50984 -50175 0
-50984 -50982 0
50984 50175 50982 0
-50985 -50983 0
-50985 -50984 0
50985 50983 50984 0
-21748 60 0
-21748 63 0
21748 -60 -63 0
-21749 -60 0
-21749 -63 0
21749 60 63 0
-21750 -21748 0
-21750 -21749 0
21750 21748 21749 0
-51013 21750 0
-51013 50199 0
51013 -21750 -50199 0
-51014 -21750 0
-51014 -50199 0
51014 21750 50199 0
-51015 -51013 0
-51015 -51014 0
51015 51013 51014 0
-51064 48 0
-51064 51015 0
51064 -48 -51015 0
-51065 -48 0
-51065 -51015 0
51065 48 51015 0
-51066 -51064 0
-51066 -51065 0
51066 51064 51065 0
-51067 50985 0
-51067 51066 0
51067 -50985 -51066 0
-51068 -50985 0
-51068 -51066 0
51068 50985 51066 0
-51069 -51067 0
-51069 -51068 0
51069 51067 51068 0
-51145 51063 0
-51145 51069 0
51145 -51063 -51069 0
-51146 -51063 0
-51146 -51069 0
51146 51063 51069 0
-51147 -51145 0
-51147 -51146 0
51147 51145 51146 0
-17929 68 0
-17929 71 0
17929 -68 -71 0
-17930 -68 0
-17930 -71 0
17930 68 71 0
-17931 -17929 0
-17931 -17930 0
17931 17929 17930 0
-51193 74 0
-51193 17931 0
51193 -74 -17931 0
-51194 -74 0
-51194 -17931 0
51194 74 17931 0
-51195 -51193 0
-51195 -51194 0
51195 51193 51194 0
-51151 11 0
-51151 15546 0
51151 -11 -15546 0
-51152 -11 0
-51152 -15546 0
51152 11 15546 0
-51153 -51151 0
-51153 -51152 0
51153 51151 51152 0
-51154 50430 0
-51154 51153 0
51154 -50430 -51153 0
-51155 -50430 0
-51155 -51153 0
51155 50430 51153 0
-51156 -51154 0
-51156 -51155 0
51156 51154 51155 0
-51196 11934 0
-51196 15015 0
51196 -11934 -15015 0
-51197 -11934 0
-51197 -15015 0
51197 11934 15015 0
-51198 -51196 0
-51198 -51197 0
51198 51196 51197 0
-51199 51156 0
-51199 51198 0
51199 -51156 -51198 0
-51200 -51156 0
-51200 -51198 0
51200 51156 51198 0
-51201 -51199 0
-51201 -51200 0
51201 51199 51200 0
-51229 49557 0
-51229 50469 0
51229 -49557 -50469 0
-51230 -49557 0
-51230 -50469 0
51230 49557 50469 0
-51231 -51229 0
-51231 -51230 0
51231 51229 51230 0
-51277 47 0
-51277 51231 0
51277 -47 -51231 0
-51278 -47 0
-51278 -51231 0
51278 47 51231 0
-51279 -51277 0
-51279 -51278 0
51279 51277 51278 0
-51280 51201 0
-51280 51279 0
51280 -51201 -51279 0
-51281 -51201 0
-51281 -51279 0
51281 51201 51279 0
-51282 -51280 0
-51282 -51281 0
51282 51280 51281 0
-51355 51195 0
-51355 51282 0
51355 -51195 -51282 0
-51356 -51195 0
-51356 -51282 0
51356 51195 51282 0
-51357 -51355 0
-51357 -51356 0
51357 51355 51356 0
-51358 -51147 0
-51358 -51357 0
51358 51147 51357 0
-51359 -50922 0
-51359 51358 0
51359 50922 -51358 0
-51360 -50685 0
-51360 51359 0
51360 50685 -51359 0
-51361 -50427 0
-51361 51360 0
51361 50427 -51360 0
-51362 -50160 0
-51362 51361 0
51362 50160 -51361 0
-51363 -49878 0
-51363 51362 0
51363 49878 -51362 0
-51364 -49491 0
-51364 51363 0
51364 49491 -51363 0
-51365 -49014 0
-51365 51364 0
51365 49014 -51364 0
-51366 -48594 0
-51366 51365 0
51366 48594 -51365 0
-51367 -48141 0
-51367 51366 0
51367 48141 -51366 0
-51368 -47727 0
-51368 51367 0
51368 47727 -51367 0
-51369 -47316 0
-51369 51368 0
51369 47316 -51368 0
-51370 -46860 0
-51370 51369 0
51370 46860 -51369 0
-51371 -46416 0
-51371 51370 0
51371 46416 -51370 0
-51372 -46188 0
-51372 51371 0
51372 46188 -51371 0
-51373 -45729 0
-51373 51372 0
51373 45729 -51372 0
-51374 -45279 0
-51374 51373 0
51374 45279 -51373 0
-51375 -44856 0
-51375 51374 0
51375 44856 -51374 0
-51376 -44400 0
-51376 51375 0
51376 44400 -51375 0
-51377 -44046 0
-51377 51376 0
51377 44046 -51376 0
-51378 -43734 0
-51378 51377 0
51378 43734 -51377 0
-51379 -43248 0
-51379 51378 0
51379 43248 -51378 0
-51380 -42873 0
-51380 51379 0
51380 42873 -51379 0
-51381 -42417 0
-51381 51380 0
51381 42417 -51380 0
-51382 -41997 0
-51382 51381 0
51382 41997 -51381 0
-51383 -41823 0
-51383 51382 0
51383 41823 -51382 0
-51384 -41379 0
-51384 51383 0
51384 41379 -51383 0
-51385 -40917 0
-51385 51384 0
51385 40917 -51384 0
-51386 -40587 0
-51386 51385 0
51386 40587 -51385 0
-51387 -40161 0
-51387 51386 0
51387 40161 -51386 0
-51388 -39699 0
-51388 51387 0
51388 39699 -51387 0
-51389 -39294 0
-51389 51388 0
51389 39294 -51388 0
-51390 -38850 0
-51390 51389 0
51390 38850 -51389 0
-51391 -38499 0
-51391 51390 0
51391 38499 -51390 0
-51392 -38346 0
-51392 51391 0
51392 38346 -51391 0
-51393 -37899 0
-51393 51392 0
51393 37899 -51392 0
-51394 -37479 0
-51394 51393 0
51394 37479 -51393 0
-51395 -37119 0
-51395 51394 0
51395 37119 -51394 0
-51396 -36678 0
-51396 51395 0
51396 36678 -51395 0
-51397 -11366 0
-51397 51396 0
51397 11366 -51396 0
-51398 -36306 0
-51398 51397 0
51398 36306 -51397 0
-51399 35844 0
-51399 51398 0
51399 -35844 -51398 0
-51400 35286 0
-51400 51399 0
51400 -35286 -51399 0
-51401 34812 0
-51401 51400 0
51401 -34812 -51400 0
-51402 34326 0
-51402 51401 0
51402 -34326 -51401 0
-51403 33891 0
-51403 51402 0
51403 -33891 -51402 0
-51404 33507 0
-51404 51403 0
51404 -33507 -51403 0
-51405 33000 0
-51405 51404 0
51405 -33000 -51404 0
-51406 32493 0
-51406 51405 0
51406 -32493 -51405 0
-51407 32208 0
-51407 51406 0
51407 -32208 -51406 0
-51408 31812 0
-51408 51407 0
51408 -31812 -51407 0
-51409 31470 0
-51409 51408 0
51409 -31470 -51408 0
-51410 31110 0
-51410 51409 0
51410 -31110 -51409 0
-51411 30678 0
-51411 51410 0
51411 -30678 -51410 0
-51412 30204 0
-51412 51411 0
51412 -30204 -51411 0
-51413 29946 0
-51413 51412 0
51413 -29946 -51412 0
-51414 29424 0
-51414 51413 0
51414 -29424 -51413 0
-51415 28911 0
-51415 51414 0
51415 -28911 -51414 0
-51416 28533 0
-51416 51415 0
51416 -28533 -51415 0
-51417 28101 0
-51417 51416 0
51417 -28101 -51416 0
-51418 27651 0
-51418 51417 0
51418 -27651 -51417 0
-51419 27255 0
-51419 51418 0
51419 -27255 -51418 0
-51420 26940 0
-51420 51419 0
51420 -26940 -51419 0
-51421 26565 0
-51421 51420 0
51421 -26565 -51420 0
-51422 26145 0
-51422 51421 0
51422 -26145 -51421 0
-51423 25734 0
-51423 51422 0
51423 -25734 -51422 0
-51424 25380 0
-51424 51423 0
51424 -25380 -51423 0
-51425 24885 0
-51425 51424 0
51425 -24885 -51424 0
-51426 24381 0
-51426 51425 0
51426 -24381 -51425 0
-51427 23805 0
-51427 51426 0
51427 -23805 -51426 0
-51428 23325 0
-51428 51427 0
51428 -23325 -51427 0
-51429 22836 0
-51429 51428 0
51429 -22836 -51428 0
-51430 22389 0
-51430 51429 0
51430 -22389 -51429 0
-51431 22191 0
-51431 51430 0
51431 -22191 -51430 0
-51432 21717 0
-51432 51431 0
51432 -21717 -51431 0
-51433 21252 0
-51433 51432 0
51433 -21252 -51432 0
-51434 20748 0
-51434 51433 0
51434 -20748 -51433 0
-51435 20391 0
-51435 51434 0
51435 -20391 -51434 0
-51436 19983 0
-51436 51435 0
51436 -19983 -51435 0
-51437 19569 0
-51437 51436 0
51437 -19569 -51436 0
-51438 19020 0
-51438 51437 0
51438 -19020 -51437 0
-51439 18468 0
-51439 51438 0
51439 -18468 -51438 0
-51440 17901 0
-51440 51439 0
51440 -17901 -51439 0
-51441 17520 0
-51441 51440 0
51441 -17520 -51440 0
-51442 17106 0
-51442 51441 0
51442 -17106 -51441 0
-51443 16581 0
-51443 51442 0
51443 -16581 -51442 0
-51444 16047 0
-51444 51443 0
51444 -16047 -51443 0
-51445 15540 0
-51445 51444 0
51445 -15540 -51444 0
-51446 15009 0
-51446 51445 0
51446 -15009 -51445 0
-51447 14427 0
-51447 51446 0
51447 -14427 -51446 0
-51448 13785 0
-51448 51447 0
51448 -13785 -51447 0
-51449 13161 0
-51449 51448 0
51449 -13161 -51448 0
-51450 12525 0
-51450 51449 0
51450 -12525 -51449 0
-51451 11892 0
-51451 -51450 0
51451 -11892 51450 0
-51486 -293 0
-51486 301 0
51486 293 -301 0
-51481 -292 0
-51481 300 0
51481 292 -300 0
-51476 -291 0
-51476 299 0
51476 291 -299 0
-51471 -290 0
-51471 298 0
51471 290 -298 0
-51466 -289 0
-51466 297 0
51466 289 -297 0
-51461 -288 0
-51461 296 0
51461 288 -296 0
-51456 -287 0
-51456 295 0
51456 287 -295 0
-51452 -286 0
-51452 294 0
51452 286 -294 0
-51453 286 0
-51453 -294 0
51453 -286 294 0
-51454 -51452 0
-51454 -51453 0
51454 51452 51453 0
-51455 -51452 0
-51455 -51454 0
51455 51452 51454 0
-51457 287 0
-51457 -295 0
51457 -287 295 0
-51458 -51456 0
-51458 -51457 0
51458 51456 51457 0
-51459 -51455 0
-51459 51458 0
51459 51455 -51458 0
-51460 -51456 0
-51460 -51459 0
51460 51456 51459 0
-51462 288 0
-51462 -296 0
51462 -288 296 0
-51463 -51461 0
-51463 -51462 0
51463 51461 51462 0
-51464 -51460 0
-51464 51463 0
51464 51460 -51463 0
-51465 -51461 0
-51465 -51464 0
51465 51461 51464 0
-51467 289 0
-51467 -297 0
51467 -289 297 0
-51468 -51466 0
-51468 -51467 0
51468 51466 51467 0
-51469 -51465 0
-51469 51468 0
51469 51465 -51468 0
-51470 -51466 0
-51470 -51469 0
51470 51466 51469 0
-51472 290 0
-51472 -298 0
51472 -290 298 0
-51473 -51471 0
-51473 -51472 0
51473 51471 51472 0
-51474 -51470 0
-51474 51473 0
51474 51470 -51473 0
-51475 -51471 0
-51475 -51474 0
51475 51471 51474 0
-51477 291 0
-51477 -299 0
51477 -291 299 0
-51478 -51476 0
-51478 -51477 0
51478 51476 51477 0
-51479 -51475 0
-51479 51478 0
51479 51475 -51478 0
-51480 -51476 0
-51480 -51479 0
51480 51476 51479 0
-51482 292 0
-51482 -300 0
51482 -292 300 0
-51483 -51481 0
-51483 -51482 0
51483 51481 51482 0
-51484 -51480 0
-51484 51483 0
51484 51480 -51483 0
-51485 -51481 0
-51485 -51484 0
51485 51481 51484 0
-51487 293 0
-51487 -301 0
51487 -293 301 0
-51488 -51486 0
-51488 -51487 0
51488 51486 51487 0
-51489 -51485 0
-51489 51488 0
51489 51485 -51488 0
-51490 -51486 0
-51490 -51489 0
51490 51486 51489 0
-51491 51451 0
-51491 -51490 0
51491 -51451 51490 0
-51526 -285 0
-51526 293 0
51526 285 -293 0
-51521 -284 0
-51521 292 0
51521 284 -292 0
-51516 -283 0
-51516 291 0
51516 283 -291 0
-51511 -282 0
-51511 290 0
51511 282 -290 0
-51506 -281 0
-51506 289 0
51506 281 -289 0
-51501 -280 0
-51501 288 0
51501 280 -288 0
-51496 -279 0
-51496 287 0
51496 279 -287 0
-51492 -278 0
-51492 286 0
51492 278 -286 0
-51493 278 0
-51493 -286 0
51493 -278 286 0
-51494 -51492 0
-51494 -51493 0
51494 51492 51493 0
-51495 -51492 0
-51495 -51494 0
51495 51492 51494 0
-51497 279 0
-51497 -287 0
51497 -279 287 0
-51498 -51496 0
-51498 -51497 0
51498 51496 51497 0
-51499 -51495 0
-51499 51498 0
51499 51495 -51498 0
-51500 -51496 0
-51500 -51499 0
51500 51496 51499 0
-51502 280 0
-51502 -288 0
51502 -280 288 0
-51503 -51501 0
-51503 -51502 0
51503 51501 51502 0
-51504 -51500 0
-51504 51503 0
51504 51500 -51503 0
-51505 -51501 0
-51505 -51504 0
51505 51501 51504 0
-51507 281 0
-51507 -289 0
51507 -281 289 0
-51508 -51506 0
-51508 -51507 0
51508 51506 51507 0
-51509 -51505 0
-51509 51508 0
51509 51505 -51508 0
-51510 -51506 0
-51510 -51509 0
51510 51506 51509 0
-51512 282 0
-51512 -290 0
51512 -282 290 0
-51513 -51511 0
-51513 -51512 0
51513 51511 51512 0
-51514 -51510 0
-51514 51513 0
51514 51510 -51513 0
-51515 -51511 0
-51515 -51514 0
51515 51511 51514 0
-51517 283 0
-51517 -291 0
51517 -283 291 0
-51518 -51516 0
-51518 -51517 0
51518 51516 51517 0
-51519 -51515 0
-51519 51518 0
51519 51515 -51518 0
-51520 -51516 0
-51520 -51519 0
51520 51516 51519 0
-51522 284 0
-51522 -292 0
51522 -284 292 0
-51523 -51521 0
-51523 -51522 0
51523 51521 51522 0
-51524 -51520 0
-51524 51523 0
51524 51520 -51523 0
-51525 -51521 0
-51525 -51524 0
51525 51521 51524 0
-51527 285 0
-51527 -293 0
51527 -285 293 0
-51528 -51526 0
-51528 -51527 0
51528 51526 51527 0
-51529 -51525 0
-51529 51528 0
51529 51525 -51528 0
-51530 -51526 0
-51530 -51529 0
51530 51526 51529 0
-51531 51491 0
-51531 -51530 0
51531 -51491 51530 0
-51566 -277 0
-51566 285 0
51566 277 -285 0
-51561 -276 0
-51561 284 0
51561 276 -284 0
-51556 -275 0
-51556 283 0
51556 275 -283 0
-51551 -274 0
-51551 282 0
51551 274 -282 0
-51546 -273 0
-51546 281 0
51546 273 -281 0
-51541 -272 0
-51541 280 0
51541 272 -280 0
-51536 -271 0
-51536 279 0
51536 271 -279 0
-51532 -270 0
-51532 278 0
51532 270 -278 0
-51533 270 0
-51533 -278 0
51533 -270 278 0
-51534 -51532 0
-51534 -51533 0
51534 51532 51533 0
-51535 -51532 0
-51535 -51534 0
51535 51532 51534 0
-51537 271 0
-51537 -279 0
51537 -271 279 0
-51538 -51536 0
-51538 -51537 0
51538 51536 51537 0
-51539 -51535 0
-51539 51538 0
51539 51535 -51538 0
-51540 -51536 0
-51540 -51539 0
51540 51536 51539 0
-51542 272 0
-51542 -280 0
51542 -272 280 0
-51543 -51541 0
-51543 -51542 0
51543 51541 51542 0
-51544 -51540 0
-51544 51543 0
51544 51540 -51543 0
-51545 -51541 0
-51545 -51544 0
51545 51541 51544 0
-51547 273 0
-51547 -281 0
51547 -273 281 0
-51548 -51546 0
-51548 -51547 0
51548 51546 51547 0
-51549 -51545 0
-51549 51548 0
51549 51545 -51548 0
-51550 -51546 0
-51550 -51549 0
51550 51546 51549 0
-51552 274 0
-51552 -282 0
51552 -274 282 0
-51553 -51551 0
-51553 -51552 0
51553 51551 51552 0
-51554 -51550 0
-51554 51553 0
51554 51550 -51553 0
-51555 -51551 0
-51555 -51554 0
51555 51551 51554 0
-51557 275 0
-51557 -283 0
51557 -275 283 0
-51558 -51556 0
-51558 -51557 0
51558 51556 51557 0
-51559 -51555 0
-51559 51558 0
51559 51555 -51558 0
-51560 -51556 0
-51560 -51559 0
51560 51556 51559 0
-51562 276 0
-51562 -284 0
51562 -276 284 0
-51563 -51561 0
-51563 -51562 0
51563 51561 51562 0
-51564 -51560 0
-51564 51563 0
51564 51560 -51563 0
-51565 -51561 0
-51565 -51564 0
51565 51561 51564 0
-51567 277 0
-51567 -285 0
51567 -277 285 0
-51568 -51566 0
-51568 -51567 0
51568 51566 51567 0
-51569 -51565 0
-51569 51568 0
51569 51565 -51568 0
-51570 -51566 0
-51570 -51569 0
51570 51566 51569 0
-51571 51531 0
-51571 -51570 0
51571 -51531 51570 0
-51606 -269 0
-51606 277 0
51606 269 -277 0
-51601 -268 0
-51601 276 0
51601 268 -276 0
-51596 -267 0
-51596 275 0
51596 267 -275 0
-51591 -266 0
-51591 274 0
51591 266 -274 0
-51586 -265 0
-51586 273 0
51586 265 -273 0
-51581 -264 0
-51581 272 0
51581 264 -272 0
-51576 -263 0
-51576 271 0
51576 263 -271 0
-51572 -262 0
-51572 270 0
51572 262 -270 0
-51573 262 0
-51573 -270 0
51573 -262 270 0
-51574 -51572 0
-51574 -51573 0
51574 51572 51573 0
-51575 -51572 0
-51575 -51574 0
51575 51572 51574 0
-51577 263 0
-51577 -271 0
51577 -263 271 0
-51578 -51576 0
-51578 -51577 0
51578 51576 51577 0
-51579 -51575 0
-51579 51578 0
51579 51575 -51578 0
-51580 -51576 0
-51580 -51579 0
51580 51576 51579 0
-51582 264 0
-51582 -272 0
51582 -264 272 0
-51583 -51581 0
-51583 -51582 0
51583 51581 51582 0
-51584 -51580 0
-51584 51583 0
51584 51580 -51583 0
-51585 -51581 0
-51585 -51584 0
51585 51581 51584 0
-51587 265 0
-51587 -273 0
51587 -265 273 0
-51588 -51586 0
-51588 -51587 0
51588 51586 51587 0
-51589 -51585 0
-51589 51588 0
51589 51585 -51588 0
-51590 -51586 0
-51590 -51589 0
51590 51586 51589 0
-51592 266 0
-51592 -274 0
51592 -266 274 0
-51593 -51591 0
-51593 -51592 0
51593 51591 51592 0
-51594 -51590 0
-51594 51593 0
51594 51590 -51593 0
-51595 -51591 0
-51595 -51594 0
51595 51591 51594 0
-51597 267 0
-51597 -275 0
51597 -267 275 0
-51598 -51596 0
-51598 -51597 0
51598 51596 51597 0
-51599 -51595 0
-51599 51598 0
51599 51595 -51598 0
-51600 -51596 0
-51600 -51599 0
51600 51596 51599 0
-51602 268 0
-51602 -276 0
51602 -268 276 0
-51603 -51601 0
-51603 -51602 0
51603 51601 51602 0
-51604 -51600 0
-51604 51603 0
51604 51600 -51603 0
-51605 -51601 0
-51605 -51604 0
51605 51601 51604 0
-51607 269 0
-51607 -277 0
51607 -269 277 0
-51608 -51606 0
-51608 -51607 0
51608 51606 51607 0
-51609 -51605 0
-51609 51608 0
51609 51605 -51608 0
-51610 -51606 0
-51610 -51609 0
51610 51606 51609 0
-51611 51571 0
-51611 -51610 0
51611 -51571 51610 0
-51646 -261 0
-51646 269 0
51646 261 -269 0
-51641 -260 0
-51641 268 0
51641 260 -268 0
-51636 -259 0
-51636 267 0
51636 259 -267 0
-51631 -258 0
-51631 266 0
51631 258 -266 0
-51626 -257 0
-51626 265 0
51626 257 -265 0
-51621 -256 0
-51621 264 0
51621 256 -264 0
-51616 -255 0
-51616 263 0
51616 255 -263 0
-51612 -254 0
-51612 262 0
51612 254 -262 0
-51613 254 0
-51613 -262 0
51613 -254 262 0
-51614 -51612 0
-51614 -51613 0
51614 51612 51613 0
-51615 -51612 0
-51615 -51614 0
51615 51612 51614 0
-51617 255 0
-51617 -263 0
51617 -255 263 0
-51618 -51616 0
-51618 -51617 0
51618 51616 51617 0
-51619 -51615 0
-51619 51618 0
51619 51615 -51618 0
-51620 -51616 0
-51620 -51619 0
51620 51616 51619 0
-51622 256 0
-51622 -264 0
51622 -256 264 0
-51623 -51621 0
-51623 -51622 0
51623 51621 51622 0
-51624 -51620 0
-51624 51623 0
51624 51620 -51623 0
-51625 -51621 0
-51625 -51624 0
51625 51621 51624 0
-51627 257 0
-51627 -265 0
51627 -257 265 0
-51628 -51626 0
-51628 -51627 0
51628 51626 51627 0
-51629 -51625 0
-51629 51628 0
51629 51625 -51628 0
-51630 -51626 0
-51630 -51629 0
51630 51626 51629 0
-51632 258 0
-51632 -266 0
51632 -258 266 0
-51633 -51631 0
-51633 -51632 0
51633 51631 51632 0
-51634 -51630 0
-51634 51633 0
51634 51630 -51633 0
-51635 -51631 0
-51635 -51634 0
51635 51631 51634 0
-51637 259 0
-51637 -267 0
51637 -259 267 0
-51638 -51636 0
-51638 -51637 0
51638 51636 51637 0
-51639 -51635 0
-51639 51638 0
51639 51635 -51638 0
-51640 -51636 0
-51640 -51639 0
51640 51636 51639 0
-51642 260 0
-51642 -268 0
51642 -260 268 0
-51643 -51641 0
-51643 -51642 0
51643 51641 51642 0
-51644 -51640 0
-51644 51643 0
51644 51640 -51643 0
-51645 -51641 0
-51645 -51644 0
51645 51641 51644 0
-51647 261 0
-51647 -269 0
51647 -261 269 0
-51648 -51646 0
-51648 -51647 0
51648 51646 51647 0
-51649 -51645 0
-51649 51648 0
51649 51645 -51648 0
-51650 -51646 0
-51650 -51649 0
51650 51646 51649 0
-51651 51611 0
-51651 -51650 0
51651 -51611 51650 0
-51686 -253 0
-51686 261 0
51686 253 -261 0
-51681 -252 0
-51681 260 0
51681 252 -260 0
-51676 -251 0
-51676 259 0
51676 251 -259 0
-51671 -250 0
-51671 258 0
51671 250 -258 0
-51666 -249 0
-51666 257 0
51666 249 -257 0
-51661 -248 0
-51661 256 0
51661 248 -256 0
-51656 -247 0
-51656 255 0
51656 247 -255 0
-51652 -246 0
-51652 254 0
51652 246 -254 0
-51653 246 0
-51653 -254 0
51653 -246 254 0
-51654 -51652 0
-51654 -51653 0
51654 51652 51653 0
-51655 -51652 0
-51655 -51654 0
51655 51652 51654 0
-51657 247 0
-51657 -255 0
51657 -247 255 0
-51658 -51656 0
-51658 -51657 0
51658 51656 51657 0
-51659 -51655 0
-51659 51658 0
51659 51655 -51658 0
-51660 -51656 0
-51660 -51659 0
51660 51656 51659 0
-51662 248 0
-51662 -256 0
51662 -248 256 0
-51663 -51661 0
-51663 -51662 0
51663 51661 51662 0
-51664 -51660 0
-51664 51663 0
51664 51660 -51663 0
-51665 -51661 0
-51665 -51664 0
51665 51661 51664 0
-51667 249 0
-51667 -257 0
51667 -249 257 0
-51668 -51666 0
-51668 -51667 0
51668 51666 51667 0
-51669 -51665 0
-51669 51668 0
51669 51665 -51668 0
-51670 -51666 0
-51670 -51669 0
51670 51666 51669 0
-51672 250 0
-51672 -258 0
51672 -250 258 0
-51673 -51671 0
-51673 -51672 0
51673 51671 51672 0
-51674 -51670 0
-51674 51673 0
51674 51670 -51673 0
-51675 -51671 0
-51675 -51674 0
51675 51671 51674 0
-51677 251 0
-51677 -259 0
51677 -251 259 0
-51678 -51676 0
-51678 -51677 0
51678 51676 51677 0
-51679 -51675 0
-51679 51678 0
51679 51675 -51678 0
-51680 -51676 0
-51680 -51679 0
51680 51676 51679 0
-51682 252 0
-51682 -260 0
51682 -252 260 0
-51683 -51681 0
-51683 -51682 0
51683 51681 51682 0
-51684 -51680 0
-51684 51683 0
51684 51680 -51683 0
-51685 -51681 0
-51685 -51684 0
51685 51681 51684 0
-51687 253 0
-51687 -261 0
51687 -253 261 0
-51688 -51686 0
-51688 -51687 0
51688 51686 51687 0
-51689 -51685 0
-51689 51688 0
51689 51685 -51688 0
-51690 -51686 0
-51690 -51689 0
51690 51686 51689 0
-51691 51651 0
-51691 -51690 0
51691 -51651 51690 0
-51726 -245 0
-51726 253 0
51726 245 -253 0
-51721 -244 0
-51721 252 0
51721 244 -252 0
-51716 -243 0
-51716 251 0
51716 243 -251 0
-51711 -242 0
-51711 250 0
51711 242 -250 0
-51706 -241 0
-51706 249 0
51706 241 -249 0
-51701 -240 0
-51701 248 0
51701 240 -248 0
-51696 -239 0
-51696 247 0
51696 239 -247 0
-51692 -238 0
-51692 246 0
51692 238 -246 0
-51693 238 0
-51693 -246 0
51693 -238 246 0
-51694 -51692 0
-51694 -51693 0
51694 51692 51693 0
-51695 -51692 0
-51695 -51694 0
51695 51692 51694 0
-51697 239 0
-51697 -247 0
51697 -239 247 0
-51698 -51696 0
-51698 -51697 0
51698 51696 51697 0
-51699 -51695 0
-51699 51698 0
51699 51695 -51698 0
-51700 -51696 0
-51700 -51699 0
51700 51696 51699 0
-51702 240 0
-51702 -248 0
51702 -240 248 0
-51703 -51701 0
-51703 -51702 0
51703 51701 51702 0
-51704 -51700 0
-51704 51703 0
51704 51700 -51703 0
-51705 -51701 0
-51705 -51704 0
51705 51701 51704 0
-51707 241 0
-51707 -249 0
51707 -241 249 0
-51708 -51706 0
-51708 -51707 0
51708 51706 51707 0
-51709 -51705 0
-51709 51708 0
51709 51705 -51708 0
-51710 -51706 0
-51710 -51709 0
51710 51706 51709 0
-51712 242 0
-51712 -250 0
51712 -242 250 0
-51713 -51711 0
-51713 -51712 0
51713 51711 51712 0
-51714 -51710 0
-51714 51713 0
51714 51710 -51713 0
-51715 -51711 0
-51715 -51714 0
51715 51711 51714 0
-51717 243 0
-51717 -251 0
51717 -243 251 0
-51718 -51716 0
-51718 -51717 0
51718 51716 51717 0
-51719 -51715 0
-51719 51718 0
51719 51715 -51718 0
-51720 -51716 0
-51720 -51719 0
51720 51716 51719 0
-51722 244 0
-51722 -252 0
51722 -244 252 0
-51723 -51721 0
-51723 -51722 0
51723 51721 51722 0
-51724 -51720 0
-51724 51723 0
51724 51720 -51723 0
-51725 -51721 0
-51725 -51724 0
51725 51721 51724 0
-51727 245 0
-51727 -253 0
51727 -245 253 0
-51728 -51726 0
-51728 -51727 0
51728 51726 51727 0
-51729 -51725 0
-51729 51728 0
51729 51725 -51728 0
-51730 -51726 0
-51730 -51729 0
51730 51726 51729 0
-51731 51691 0
-51731 -51730 0
51731 -51691 51730 0
-51766 -237 0
-51766 245 0
51766 237 -245 0
-51761 -236 0
-51761 244 0
51761 236 -244 0
-51756 -235 0
-51756 243 0
51756 235 -243 0
-51751 -234 0
-51751 242 0
51751 234 -242 0
-51746 -233 0
-51746 241 0
51746 233 -241 0
-51741 -232 0
-51741 240 0
51741 232 -240 0
-51736 -231 0
-51736 239 0
51736 231 -239 0
-51732 -230 0
-51732 238 0
51732 230 -238 0
-51733 230 0
-51733 -238 0
51733 -230 238 0
-51734 -51732 0
-51734 -51733 0
51734 51732 51733 0
-51735 -51732 0
-51735 -51734 0
51735 51732 51734 0
-51737 231 0
-51737 -239 0
51737 -231 239 0
-51738 -51736 0
-51738 -51737 0
51738 51736 51737 0
-51739 -51735 0
-51739 51738 0
51739 51735 -51738 0
-51740 -51736 0
-51740 -51739 0
51740 51736 51739 0
-51742 232 0
-51742 -240 0
51742 -232 240 0
-51743 -51741 0
-51743 -51742 0
51743 51741 51742 0
-51744 -51740 0
-51744 51743 0
51744 51740 -51743 0
-51745 -51741 0
-51745 -51744 0
51745 51741 51744 0
-51747 233 0
-51747 -241 0
51747 -233 241 0
-51748 -51746 0
-51748 -51747 0
51748 51746 51747 0
-51749 -51745 0
-51749 51748 0
51749 51745 -51748 0
-51750 -51746 0
-51750 -51749 0
51750 51746 51749 0
-51752 234 0
-51752 -242 0
51752 -234 242 0
-51753 -51751 0
-51753 -51752 0
51753 51751 51752 0
-51754 -51750 0
-51754 51753 0
51754 51750 -51753 0
-51755 -51751 0
-51755 -51754 0
51755 51751 51754 0
-51757 235 0
-51757 -243 0
51757 -235 243 0
-51758 -51756 0
-51758 -51757 0
51758 51756 51757 0
-51759 -51755 0
-51759 51758 0
51759 51755 -51758 0
-51760 -51756 0
-51760 -51759 0
51760 51756 51759 0
-51762 236 0
-51762 -244 0
51762 -236 244 0
-51763 -51761 0
-51763 -51762 0
51763 51761 51762 0
-51764 -51760 0
-51764 51763 0
51764 51760 -51763 0
-51765 -51761 0
-51765 -51764 0
51765 51761 51764 0
-51767 237 0
-51767 -245 0
51767 -237 245 0
-51768 -51766 0
-51768 -51767 0
51768 51766 51767 0
-51769 -51765 0
-51769 51768 0
51769 51765 -51768 0
-51770 -51766 0
-51770 -51769 0
51770 51766 51769 0
-51771 51731 0
-51771 -51770 0
51771 -51731 51770 0
-51806 -229 0
-51806 237 0
51806 229 -237 0
-51801 -228 0
-51801 236 0
51801 228 -236 0
-51796 -227 0
-51796 235 0
51796 227 -235 0
-51791 -226 0
-51791 234 0
51791 226 -234 0
-51786 -225 0
-51786 233 0
51786 225 -233 0
-51781 -224 0
-51781 232 0
51781 224 -232 0
-51776 -223 0
-51776 231 0
51776 223 -231 0
-51772 -222 0
-51772 230 0
51772 222 -230 0
-51773 222 0
-51773 -230 0
51773 -222 230 0
-51774 -51772 0
-51774 -51773 0
51774 51772 51773 0
-51775 -51772 0
-51775 -51774 0
51775 51772 51774 0
-51777 223 0
-51777 -231 0
51777 -223 231 0
-51778 -51776 0
-51778 -51777 0
51778 51776 51777 0
-51779 -51775 0
-51779 51778 0
51779 51775 -51778 0
-51780 -51776 0
-51780 -51779 0
51780 51776 51779 0
-51782 224 0
-51782 -232 0
51782 -224 232 0
-51783 -51781 0
-51783 -51782 0
51783 51781 51782 0
-51784 -51780 0
-51784 51783 0
51784 51780 -51783 0
-51785 -51781 0
-51785 -51784 0
51785 51781 51784 0
-51787 225 0
-51787 -233 0
51787 -225 233 0
-51788 -51786 0
-51788 -51787 0
51788 51786 51787 0
-51789 -51785 0
-51789 51788 0
51789 51785 -51788 0
-51790 -51786 0
-51790 -51789 0
51790 51786 51789 0
-51792 226 0
-51792 -234 0
51792 -226 234 0
-51793 -51791 0
-51793 -51792 0
51793 51791 51792 0
-51794 -51790 0
-51794 51793 0
51794 51790 -51793 0
-51795 -51791 0
-51795 -51794 0
51795 51791 51794 0
-51797 227 0
-51797 -235 0
51797 -227 235 0
-51798 -51796 0
-51798 -51797 0
51798 51796 51797 0
-51799 -51795 0
-51799 51798 0
51799 51795 -51798 0
-51800 -51796 0
-51800 -51799 0
51800 51796 51799 0
-51802 228 0
-51802 -236 0
51802 -228 236 0
-51803 -51801 0
-51803 -51802 0
51803 51801 51802 0
-51804 -51800 0
-51804 51803 0
51804 51800 -51803 0
-51805 -51801 0
-51805 -51804 0
51805 51801 51804 0
-51807 229 0
-51807 -237 0
51807 -229 237 0
-51808 -51806 0
-51808 -51807 0
51808 51806 51807 0
-51809 -51805 0
-51809 51808 0
51809 51805 -51808 0
-51810 -51806 0
-51810 -51809 0
51810 51806 51809 0
-51811 51771 0
-51811 -51810 0
51811 -51771 51810 0
-51846 -221 0
-51846 229 0
51846 221 -229 0
-51841 -220 0
-51841 228 0
51841 220 -228 0
-51836 -219 0
-51836 227 0
51836 219 -227 0
-51831 -218 0
-51831 226 0
51831 218 -226 0
-51826 -217 0
-51826 225 0
51826 217 -225 0
-51821 -216 0
-51821 224 0
51821 216 -224 0
-51816 -215 0
-51816 223 0
51816 215 -223 0
-51812 -214 0
-51812 222 0
51812 214 -222 0
-51813 214 0
-51813 -222 0
51813 -214 222 0
-51814 -51812 0
-51814 -51813 0
51814 51812 51813 0
-51815 -51812 0
-51815 -51814 0
51815 51812 51814 0
-51817 215 0
-51817 -223 0
51817 -215 223 0
-51818 -51816 0
-51818 -51817 0
51818 51816 51817 0
-51819 -51815 0
-51819 51818 0
51819 51815 -51818 0
-51820 -51816 0
-51820 -51819 0
51820 51816 51819 0
-51822 216 0
-51822 -224 0
51822 -216 224 0
-51823 -51821 0
-51823 -51822 0
51823 51821 51822 0
-51824 -51820 0
-51824 51823 0
51824 51820 -51823 0
-51825 -51821 0
-51825 -51824 0
51825 51821 51824 0
-51827 217 0
-51827 -225 0
51827 -217 225 0
-51828 -51826 0
-51828 -51827 0
51828 51826 51827 0
-51829 -51825 0
-51829 51828 0
51829 51825 -51828 0
-51830 -51826 0
-51830 -51829 0
51830 51826 51829 0
-51832 218 0
-51832 -226 0
51832 -218 226 0
-51833 -51831 0
-51833 -51832 0
51833 51831 51832 0
-51834 -51830 0
-51834 51833 0
51834 51830 -51833 0
-51835 -51831 0
-51835 -51834 0
51835 51831 51834 0
-51837 219 0
-51837 -227 0
51837 -219 227 0
-51838 -51836 0
-51838 -51837 0
51838 51836 51837 0
-51839 -51835 0
-51839 51838 0
51839 51835 -51838 0
-51840 -51836 0
-51840 -51839 0
51840 51836 51839 0
-51842 220 0
-51842 -228 0
51842 -220 228 0
-51843 -51841 0
-51843 -51842 0
51843 51841 51842 0
-51844 -51840 0
-51844 51843 0
51844 51840 -51843 0
-51845 -51841 0
-51845 -51844 0
51845 51841 51844 0
-51847 221 0
-51847 -229 0
51847 -221 229 0
-51848 -51846 0
-51848 -51847 0
51848 51846 51847 0
-51849 -51845 0
-51849 51848 0
51849 51845 -51848 0
-51850 -51846 0
-51850 -51849 0
51850 51846 51849 0
-51851 51811 0
-51851 -51850 0
51851 -51811 51850 0
-51886 -213 0
-51886 221 0
51886 213 -221 0
-51881 -212 0
-51881 220 0
51881 212 -220 0
-51876 -211 0
-51876 219 0
51876 211 -219 0
-51871 -210 0
-51871 218 0
51871 210 -218 0
-51866 -209 0
-51866 217 0
51866 209 -217 0
-51861 -208 0
-51861 216 0
51861 208 -216 0
-51856 -207 0
-51856 215 0
51856 207 -215 0
-51852 -206 0
-51852 214 0
51852 206 -214 0
-51853 206 0
-51853 -214 0
51853 -206 214 0
-51854 -51852 0
-51854 -51853 0
51854 51852 51853 0
-51855 -51852 0
-51855 -51854 0
51855 51852 51854 0
-51857 207 0
-51857 -215 0
51857 -207 215 0
-51858 -51856 0
-51858 -51857 0
51858 51856 51857 0
-51859 -51855 0
-51859 51858 0
51859 51855 -51858 0
-51860 -51856 0
-51860 -51859 0
51860 51856 51859 0
-51862 208 0
-51862 -216 0
51862 -208 216 0
-51863 -51861 0
-51863 -51862 0
51863 51861 51862 0
-51864 -51860 0
-51864 51863 0
51864 51860 -51863 0
-51865 -51861 0
-51865 -51864 0
51865 51861 51864 0
-51867 209 0
-51867 -217 0
51867 -209 217 0
-51868 -51866 0
-51868 -51867 0
51868 51866 51867 0
-51869 -51865 0
-51869 51868 0
51869 51865 -51868 0
-51870 -51866 0
-51870 -51869 0
51870 51866 51869 0
-51872 210 0
-51872 -218 0
51872 -210 218 0
-51873 -51871 0
-51873 -51872 0
51873 51871 51872 0
-51874 -51870 0
-51874 51873 0
51874 51870 -51873 0
-51875 -51871 0
-51875 -51874 0
51875 51871 51874 0
-51877 211 0
-51877 -219 0
51877 -211 219 0
-51878 -51876 0
-51878 -51877 0
51878 51876 51877 0
-51879 -51875 0
-51879 51878 0
51879 51875 -51878 0
-51880 -51876 0
-51880 -51879 0
51880 51876 51879 0
-51882 212 0
-51882 -220 0
51882 -212 220 0
-51883 -51881 0
-51883 -51882 0
51883 51881 51882 0
-51884 -51880 0
-51884 51883 0
51884 51880 -51883 0
-51885 -51881 0
-51885 -51884 0
51885 51881 51884 0
-51887 213 0
-51887 -221 0
51887 -213 221 0
-51888 -51886 0
-51888 -51887 0
51888 51886 51887 0
-51889 -51885 0
-51889 51888 0
51889 51885 -51888 0
-51890 -51886 0
-51890 -51889 0
51890 51886 51889 0
-51891 51851 0
-51891 -51890 0
51891 -51851 51890 0
-51926 -205 0
-51926 213 0
51926 205 -213 0
-51921 -204 0
-51921 212 0
51921 204 -212 0
-51916 -203 0
-51916 211 0
51916 203 -211 0
-51911 -202 0
-51911 210 0
51911 202 -210 0
-51906 -201 0
-51906 209 0
51906 201 -209 0
-51901 -200 0
-51901 208 0
51901 200 -208 0
-51896 -199 0
-51896 207 0
51896 199 -207 0
-51892 -198 0
-51892 206 0
51892 198 -206 0
-51893 198 0
-51893 -206 0
51893 -198 206 0
-51894 -51892 0
-51894 -51893 0
51894 51892 51893 0
-51895 -51892 0
-51895 -51894 0
51895 51892 51894 0
-51897 199 0
-51897 -207 0
51897 -199 207 0
-51898 -51896 0
-51898 -51897 0
51898 51896 51897 0
-51899 -51895 0
-51899 51898 0
51899 51895 -51898 0
-51900 -51896 0
-51900 -51899 0
51900 51896 51899 0
-51902 200 0
-51902 -208 0
51902 -200 208 0
-51903 -51901 0
-51903 -51902 0
51903 51901 51902 0
-51904 -51900 0
-51904 51903 0
51904 51900 -51903 0
-51905 -51901 0
-51905 -51904 0
51905 51901 51904 0
-51907 201 0
-51907 -209 0
51907 -201 209 0
-51908 -51906 0
-51908 -51907 0
51908 51906 51907 0
-51909 -51905 0
-51909 51908 0
51909 51905 -51908 0
-51910 -51906 0
-51910 -51909 0
51910 51906 51909 0
-51912 202 0
-51912 -210 0
51912 -202 210 0
-51913 -51911 0
-51913 -51912 0
51913 51911 51912 0
-51914 -51910 0
-51914 51913 0
51914 51910 -51913 0
-51915 -51911 0
-51915 -51914 0
51915 51911 51914 0
-51917 203 0
-51917 -211 0
51917 -203 211 0
-51918 -51916 0
-51918 -51917 0
51918 51916 51917 0
-51919 -51915 0
-51919 51918 0
51919 51915 -51918 0
-51920 -51916 0
-51920 -51919 0
51920 51916 51919 0
-51922 204 0
-51922 -212 0
51922 -204 212 0
-51923 -51921 0
-51923 -51922 0
51923 51921 51922 0
-51924 -51920 0
-51924 51923 0
51924 51920 -51923 0
-51925 -51921 0
-51925 -51924 0
51925 51921 51924 0
-51927 205 0
-51927 -213 0
51927 -205 213 0
-51928 -51926 0
-51928 -51927 0
51928 51926 51927 0
-51929 -51925 0
-51929 51928 0
51929 51925 -51928 0
-51930 -51926 0
-51930 -51929 0
51930 51926 51929 0
-51931 51891 0
-51931 -51930 0
51931 -51891 51930 0
-51966 -197 0
-51966 205 0
51966 197 -205 0
-51961 -196 0
-51961 204 0
51961 196 -204 0
-51956 -195 0
-51956 203 0
51956 195 -203 0
-51951 -194 0
-51951 202 0
51951 194 -202 0
-51946 -193 0
-51946 201 0
51946 193 -201 0
-51941 -192 0
-51941 200 0
51941 192 -200 0
-51936 -191 0
-51936 199 0
51936 191 -199 0
-51932 -190 0
-51932 198 0
51932 190 -198 0
-51933 190 0
-51933 -198 0
51933 -190 198 0
-51934 -51932 0
-51934 -51933 0
51934 51932 51933 0
-51935 -51932 0
-51935 -51934 0
51935 51932 51934 0
-51937 191 0
-51937 -199 0
51937 -191 199 0
-51938 -51936 0
-51938 -51937 0
51938 51936 51937 0
-51939 -51935 0
-51939 51938 0
51939 51935 -51938 0
-51940 -51936 0
-51940 -51939 0
51940 51936 51939 0
-51942 192 0
-51942 -200 0
51942 -192 200 0
-51943 -51941 0
-51943 -51942 0
51943 51941 51942 0
-51944 -51940 0
-51944 51943 0
51944 51940 -51943 0
-51945 -51941 0
-51945 -51944 0
51945 51941 51944 0
-51947 193 0
-51947 -201 0
51947 -193 201 0
-51948 -51946 0
-51948 -51947 0
51948 51946 51947 0
-51949 -51945 0
-51949 51948 0
51949 51945 -51948 0
-51950 -51946 0
-51950 -51949 0
51950 51946 51949 0
-51952 194 0
-51952 -202 0
51952 -194 202 0
-51953 -51951 0
-51953 -51952 0
51953 51951 51952 0
-51954 -51950 0
-51954 51953 0
51954 51950 -51953 0
-51955 -51951 0
-51955 -51954 0
51955 51951 51954 0
-51957 195 0
-51957 -203 0
51957 -195 203 0
-51958 -51956 0
-51958 -51957 0
51958 51956 51957 0
-51959 -51955 0
-51959 51958 0
51959 51955 -51958 0
-51960 -51956 0
-51960 -51959 0
51960 51956 51959 0
-51962 196 0
-51962 -204 0
51962 -196 204 0
-51963 -51961 0
-51963 -51962 0
51963 51961 51962 0
-51964 -51960 0
-51964 51963 0
51964 51960 -51963 0
-51965 -51961 0
-51965 -51964 0
51965 51961 51964 0
-51967 197 0
-51967 -205 0
51967 -197 205 0
-51968 -51966 0
-51968 -51967 0
51968 51966 51967 0
-51969 -51965 0
-51969 51968 0
51969 51965 -51968 0
-51970 -51966 0
-51970 -51969 0
51970 51966 51969 0
-51971 51931 0
-51971 -51970 0
51971 -51931 51970 0
-52006 -189 0
-52006 197 0
52006 189 -197 0
-52001 -188 0
-52001 196 0
52001 188 -196 0
-51996 -187 0
-51996 195 0
51996 187 -195 0
-51991 -186 0
-51991 194 0
51991 186 -194 0
-51986 -185 0
-51986 193 0
51986 185 -193 0
-51981 -184 0
-51981 192 0
51981 184 -192 0
-51976 -183 0
-51976 191 0
51976 183 -191 0
-51972 -182 0
-51972 190 0
51972 182 -190 0
-51973 182 0
-51973 -190 0
51973 -182 190 0
-51974 -51972 0
-51974 -51973 0
51974 51972 51973 0
-51975 -51972 0
-51975 -51974 0
51975 51972 51974 0
-51977 183 0
-51977 -191 0
51977 -183 191 0
-51978 -51976 0
-51978 -51977 0
51978 51976 51977 0
-51979 -51975 0
-51979 51978 0
51979 51975 -51978 0
-51980 -51976 0
-51980 -51979 0
51980 51976 51979 0
-51982 184 0
-51982 -192 0
51982 -184 192 0
-51983 -51981 0
-51983 -51982 0
51983 51981 51982 0
-51984 -51980 0
-51984 51983 0
51984 51980 -51983 0
-51985 -51981 0
-51985 -51984 0
51985 51981 51984 0
-51987 185 0
-51987 -193 0
51987 -185 193 0
-51988 -51986 0
-51988 -51987 0
51988 51986 51987 0
-51989 -51985 0
-51989 51988 0
51989 51985 -51988 0
-51990 -51986 0
-51990 -51989 0
51990 51986 51989 0
-51992 186 0
-51992 -194 0
51992 -186 194 0
-51993 -51991 0
-51993 -51992 0
51993 51991 51992 0
-51994 -51990 0
-51994 51993 0
51994 51990 -51993 0
-51995 -51991 0
-51995 -51994 0
51995 51991 51994 0
-51997 187 0
-51997 -195 0
51997 -187 195 0
-51998 -51996 0
-51998 -51997 0
51998 51996 51997 0
-51999 -51995 0
-51999 51998 0
51999 51995 -51998 0
-52000 -51996 0
-52000 -51999 0
52000 51996 51999 0
-52002 188 0
-52002 -196 0
52002 -188 196 0
-52003 -52001 0
-52003 -52002 0
52003 52001 52002 0
-52004 -52000 0
-52004 52003 0
52004 52000 -52003 0
-52005 -52001 0
-52005 -52004 0
52005 52001 52004 0
-52007 189 0
-52007 -197 0
52007 -189 197 0
-52008 -52006 0
-52008 -52007 0
52008 52006 52007 0
-52009 -52005 0
-52009 52008 0
52009 52005 -52008 0
-52010 -52006 0
-52010 -52009 0
52010 52006 52009 0
-52011 51971 0
-52011 -52010 0
52011 -51971 52010 0
52011 0
