p cnf 658 1678
19 -643 0
-19 643 0
34 -658 0
-34 658 0
33 -657 0
-33 657 0
32 -656 0
-32 656 0
30 -654 0
-30 654 0
31 -655 0
-31 655 0
-36 30 0
-36 -31 0
36 -30 31 0
-40 -32 0
-40 36 0
40 32 -36 0
-48 -33 0
-48 40 0
48 33 -40 0
-80 34 0
-80 48 0
80 -34 -48 0
29 -653 0
-29 653 0
28 -652 0
-28 652 0
27 -651 0
-27 651 0
25 -649 0
-25 649 0
26 -650 0
-26 650 0
-82 25 0
-82 -26 0
82 -25 26 0
-86 -27 0
-86 82 0
86 27 -82 0
-94 -28 0
-94 86 0
94 28 -86 0
-126 29 0
-126 94 0
126 -29 -94 0
24 -648 0
-24 648 0
23 -647 0
-23 647 0
22 -646 0
-22 646 0
20 -644 0
-20 644 0
21 -645 0
-21 645 0
-128 20 0
-128 -21 0
128 -20 21 0
-132 -22 0
-132 128 0
132 22 -128 0
-140 -23 0
-140 132 0
140 23 -132 0
-172 24 0
-172 140 0
172 -24 -140 0
-190 -126 0
-190 -172 0
190 126 172 0
-208 -80 0
-208 190 0
208 80 -190 0
-260 19 0
-260 208 0
260 -19 -208 0
-261 -19 0
-261 -208 0
261 19 208 0
-262 -260 0
-262 -261 0
262 260 261 0
18 -642 0
-18 642 0
-35 -30 0
-35 -31 0
35 30 31 0
-39 -32 0
-39 35 0
39 32 -35 0
-47 -33 0
-47 39 0
47 33 -39 0
-79 34 0
-79 47 0
79 -34 -47 0
-81 -25 0
-81 -26 0
81 25 26 0
-85 -27 0
-85 81 0
85 27 -81 0
-93 -28 0
-93 85 0
93 28 -85 0
-125 29 0
-125 93 0
125 -29 -93 0
-127 -20 0
-127 -21 0
127 20 21 0
-131 -22 0
-131 127 0
131 22 -127 0
-139 -23 0
-139 131 0
139 23 -131 0
-171 24 0
-171 139 0
171 -24 -139 0
-189 -125 0
-189 -171 0
189 125 171 0
-207 -79 0
-207 189 0
207 79 -189 0
-257 18 0
-257 207 0
257 -18 -207 0
-258 -18 0
-258 -207 0
258 18 207 0
-259 -257 0
-259 -258 0
259 257 258 0
17 -641 0
-17 641 0
-38 30 0
-38 31 0
38 -30 -31 0
-46 32 0
-46 38 0
46 -32 -38 0
-62 33 0
-62 46 0
62 -33 -46 0
-78 -34 0
-78 62 0
78 34 -62 0
-84 25 0
-84 26 0
84 -25 -26 0
-92 27 0
-92 84 0
92 -27 -84 0
-108 28 0
-108 92 0
108 -28 -92 0
-124 -29 0
-124 108 0
124 29 -108 0
-130 20 0
-130 21 0
130 -20 -21 0
-138 22 0
-138 130 0
138 -22 -130 0
-154 23 0
-154 138 0
154 -23 -138 0
-170 -24 0
-170 154 0
170 24 -154 0
-188 -124 0
-188 -170 0
188 124 170 0
-206 -78 0
-206 188 0
206 78 -188 0
-254 17 0
-254 206 0
254 -17 -206 0
-255 -17 0
-255 -206 0
255 17 206 0
-256 -254 0
-256 -255 0
256 254 255 0
16 -640 0
-16 640 0
-37 -30 0
-37 31 0
37 30 -31 0
-45 32 0
-45 37 0
45 -32 -37 0
-61 33 0
-61 45 0
61 -33 -45 0
-77 -34 0
-77 61 0
77 34 -61 0
-83 -25 0
-83 26 0
83 25 -26 0
-91 27 0
-91 83 0
91 -27 -83 0
-107 28 0
-107 91 0
107 -28 -91 0
-123 -29 0
-123 107 0
123 29 -107 0
-129 -20 0
-129 21 0
129 20 -21 0
-137 22 0
-137 129 0
137 -22 -129 0
-153 23 0
-153 137 0
153 -23 -137 0
-169 -24 0
-169 153 0
169 24 -153 0
-187 -123 0
-187 -169 0
187 123 169 0
-205 -77 0
-205 187 0
205 77 -187 0
-251 16 0
-251 205 0
251 -16 -205 0
-252 -16 0
-252 -205 0
252 16 205 0
-253 -251 0
-253 -252 0
253 251 252 0
15 -639 0
-15 639 0
-44 32 0
-44 36 0
44 -32 -36 0
-60 33 0
-60 44 0
60 -33 -44 0
-76 -34 0
-76 60 0
76 34 -60 0
-90 27 0
-90 82 0
90 -27 -82 0
-106 28 0
-106 90 0
106 -28 -90 0
-122 -29 0
-122 106 0
122 29 -106 0
-136 22 0
-136 128 0
136 -22 -128 0
-152 23 0
-152 136 0
152 -23 -136 0
-168 -24 0
-168 152 0
168 24 -152 0
-186 -122 0
-186 -168 0
186 122 168 0
-204 -76 0
-204 186 0
204 76 -186 0
-248 15 0
-248 204 0
248 -15 -204 0
-249 -15 0
-249 -204 0
249 15 204 0
-250 -248 0
-250 -249 0
250 248 249 0
14 -638 0
-14 638 0
-43 32 0
-43 35 0
43 -32 -35 0
-59 33 0
-59 43 0
59 -33 -43 0
-75 -34 0
-75 59 0
75 34 -59 0
-89 27 0
-89 81 0
89 -27 -81 0
-105 28 0
-105 89 0
105 -28 -89 0
-121 -29 0
-121 105 0
121 29 -105 0
-135 22 0
-135 127 0
135 -22 -127 0
-151 23 0
-151 135 0
151 -23 -135 0
-167 -24 0
-167 151 0
167 24 -151 0
-185 -121 0
-185 -167 0
185 121 167 0
-203 -75 0
-203 185 0
203 75 -185 0
-245 14 0
-245 203 0
245 -14 -203 0
-246 -14 0
-246 -203 0
246 14 203 0
-247 -245 0
-247 -246 0
247 245 246 0
13 -637 0
-13 637 0
-42 -32 0
-42 38 0
42 32 -38 0
-58 33 0
-58 42 0
58 -33 -42 0
-74 -34 0
-74 58 0
74 34 -58 0
-88 -27 0
-88 84 0
88 27 -84 0
-104 28 0
-104 88 0
104 -28 -88 0
-120 -29 0
-120 104 0
120 29 -104 0
-134 -22 0
-134 130 0
134 22 -130 0
-150 23 0
-150 134 0
150 -23 -134 0
-166 -24 0
-166 150 0
166 24 -150 0
-184 -120 0
-184 -166 0
184 120 166 0
-202 -74 0
-202 184 0
202 74 -184 0
-242 13 0
-242 202 0
242 -13 -202 0
-243 -13 0
-243 -202 0
243 13 202 0
-244 -242 0
-244 -243 0
244 242 243 0
12 -636 0
-12 636 0
-41 -32 0
-41 37 0
41 32 -37 0
-57 33 0
-57 41 0
57 -33 -41 0
-73 -34 0
-73 57 0
73 34 -57 0
-87 -27 0
-87 83 0
87 27 -83 0
-103 28 0
-103 87 0
103 -28 -87 0
-119 -29 0
-119 103 0
119 29 -103 0
-133 -22 0
-133 129 0
133 22 -129 0
-149 23 0
-149 133 0
149 -23 -133 0
-165 -24 0
-165 149 0
165 24 -149 0
-183 -119 0
-183 -165 0
183 119 165 0
-201 -73 0
-201 183 0
201 73 -183 0
-239 12 0
-239 201 0
239 -12 -201 0
-240 -12 0
-240 -201 0
240 12 201 0
-241 -239 0
-241 -240 0
241 239 240 0
11 -635 0
-11 635 0
-56 33 0
-56 40 0
56 -33 -40 0
-72 -34 0
-72 56 0
72 34 -56 0
-102 28 0
-102 86 0
102 -28 -86 0
-118 -29 0
-118 102 0
118 29 -102 0
-148 23 0
-148 132 0
148 -23 -132 0
-164 -24 0
-164 148 0
164 24 -148 0
-182 -118 0
-182 -164 0
182 118 164 0
-200 -72 0
-200 182 0
200 72 -182 0
-236 11 0
-236 200 0
236 -11 -200 0
-237 -11 0
-237 -200 0
237 11 200 0
-238 -236 0
-238 -237 0
238 236 237 0
10 -634 0
-10 634 0
-55 33 0
-55 39 0
55 -33 -39 0
-71 -34 0
-71 55 0
71 34 -55 0
-101 28 0
-101 85 0
101 -28 -85 0
-117 -29 0
-117 101 0
117 29 -101 0
-147 23 0
-147 131 0
147 -23 -131 0
-163 -24 0
-163 147 0
163 24 -147 0
-181 -117 0
-181 -163 0
181 117 163 0
-199 -71 0
-199 181 0
199 71 -181 0
-233 10 0
-233 199 0
233 -10 -199 0
-234 -10 0
-234 -199 0
234 10 199 0
-235 -233 0
-235 -234 0
235 233 234 0
9 -633 0
-9 633 0
-54 -33 0
-54 46 0
54 33 -46 0
-70 -34 0
-70 54 0
70 34 -54 0
-100 -28 0
-100 92 0
100 28 -92 0
-116 -29 0
-116 100 0
116 29 -100 0
-146 -23 0
-146 138 0
146 23 -138 0
-162 -24 0
-162 146 0
162 24 -146 0
-180 -116 0
-180 -162 0
180 116 162 0
-198 -70 0
-198 180 0
198 70 -180 0
-230 9 0
-230 198 0
230 -9 -198 0
-231 -9 0
-231 -198 0
231 9 198 0
-232 -230 0
-232 -231 0
232 230 231 0
8 -632 0
-8 632 0
-53 -33 0
-53 45 0
53 33 -45 0
-69 -34 0
-69 53 0
69 34 -53 0
-99 -28 0
-99 91 0
99 28 -91 0
-115 -29 0
-115 99 0
115 29 -99 0
-145 -23 0
-145 137 0
145 23 -137 0
-161 -24 0
-161 145 0
161 24 -145 0
-179 -115 0
-179 -161 0
179 115 161 0
-197 -69 0
-197 179 0
197 69 -179 0
-227 8 0
-227 197 0
227 -8 -197 0
-228 -8 0
-228 -197 0
228 8 197 0
-229 -227 0
-229 -228 0
229 227 228 0
7 -631 0
-7 631 0
-52 -33 0
-52 44 0
52 33 -44 0
-68 -34 0
-68 52 0
68 34 -52 0
-98 -28 0
-98 90 0
98 28 -90 0
-114 -29 0
-114 98 0
114 29 -98 0
-144 -23 0
-144 136 0
144 23 -136 0
-160 -24 0
-160 144 0
160 24 -144 0
-178 -114 0
-178 -160 0
178 114 160 0
-196 -68 0
-196 178 0
196 68 -178 0
-224 7 0
-224 196 0
224 -7 -196 0
-225 -7 0
-225 -196 0
225 7 196 0
-226 -224 0
-226 -225 0
226 224 225 0
6 -630 0
-6 630 0
-51 -33 0
-51 43 0
51 33 -43 0
-67 -34 0
-67 51 0
67 34 -51 0
-97 -28 0
-97 89 0
97 28 -89 0
-113 -29 0
-113 97 0
113 29 -97 0
-143 -23 0
-143 135 0
143 23 -135 0
-159 -24 0
-159 143 0
159 24 -143 0
-177 -113 0
-177 -159 0
177 113 159 0
-195 -67 0
-195 177 0
195 67 -177 0
-221 6 0
-221 195 0
221 -6 -195 0
-222 -6 0
-222 -195 0
222 6 195 0
-223 -221 0
-223 -222 0
223 221 222 0
5 -629 0
-5 629 0
-50 -33 0
-50 42 0
50 33 -42 0
-66 -34 0
-66 50 0
66 34 -50 0
-96 -28 0
-96 88 0
96 28 -88 0
-112 -29 0
-112 96 0
112 29 -96 0
-142 -23 0
-142 134 0
142 23 -134 0
-158 -24 0
-158 142 0
158 24 -142 0
-176 -112 0
-176 -158 0
176 112 158 0
-194 -66 0
-194 176 0
194 66 -176 0
-218 5 0
-218 194 0
218 -5 -194 0
-219 -5 0
-219 -194 0
219 5 194 0
-220 -218 0
-220 -219 0
220 218 219 0
4 -628 0
-4 628 0
-49 -33 0
-49 41 0
49 33 -41 0
-65 -34 0
-65 49 0
65 34 -49 0
-95 -28 0
-95 87 0
95 28 -87 0
-111 -29 0
-111 95 0
111 29 -95 0
-141 -23 0
-141 133 0
141 23 -133 0
-157 -24 0
-157 141 0
157 24 -141 0
-175 -111 0
-175 -157 0
175 111 157 0
-193 -65 0
-193 175 0
193 65 -175 0
-215 4 0
-215 193 0
215 -4 -193 0
-216 -4 0
-216 -193 0
216 4 193 0
-217 -215 0
-217 -216 0
217 215 216 0
2 -626 0
-2 626 0
-63 -34 0
-63 47 0
63 34 -47 0
-109 -29 0
-109 93 0
109 29 -93 0
-155 -24 0
-155 139 0
155 24 -139 0
-173 -109 0
-173 -155 0
173 109 155 0
-191 -63 0
-191 173 0
191 63 -173 0
-209 2 0
-209 191 0
209 -2 -191 0
-210 -2 0
-210 -191 0
210 2 191 0
-211 -209 0
-211 -210 0
211 209 210 0
3 -627 0
-3 627 0
-64 -34 0
-64 48 0
64 34 -48 0
-110 -29 0
-110 94 0
110 29 -94 0
-156 -24 0
-156 140 0
156 24 -140 0
-174 -110 0
-174 -156 0
174 110 156 0
-192 -64 0
-192 174 0
192 64 -174 0
-212 3 0
-212 192 0
212 -3 -192 0
-213 -3 0
-213 -192 0
213 3 192 0
-214 -212 0
-214 -213 0
214 212 213 0
-263 211 0
-263 214 0
263 -211 -214 0
-264 217 0
-264 263 0
264 -217 -263 0
-265 220 0
-265 264 0
265 -220 -264 0
-266 223 0
-266 265 0
266 -223 -265 0
-267 226 0
-267 266 0
267 -226 -266 0
-268 229 0
-268 267 0
268 -229 -267 0
-269 232 0
-269 268 0
269 -232 -268 0
-270 235 0
-270 269 0
270 -235 -269 0
-271 238 0
-271 270 0
271 -238 -270 0
-272 241 0
-272 271 0
272 -241 -271 0
-273 244 0
-273 272 0
273 -244 -272 0
-274 247 0
-274 273 0
274 -247 -273 0
-275 250 0
-275 274 0
275 -250 -274 0
-276 253 0
-276 275 0
276 -253 -275 0
-277 256 0
-277 276 0
277 -256 -276 0
-278 259 0
-278 277 0
278 -259 -277 0
-279 262 0
-279 278 0
279 -262 -278 0
-280 18 0
-280 19 0
280 -18 -19 0
-281 -18 0
-281 -19 0
281 18 19 0
-282 -280 0
-282 -281 0
282 280 281 0
-283 4 0
-283 8 0
283 -4 -8 0
-284 -4 0
-284 -8 0
284 4 8 0
-285 -283 0
-285 -284 0
285 283 284 0
-295 10 0
-295 16 0
295 -10 -16 0
-296 -10 0
-296 -16 0
296 10 16 0
-297 -295 0
-297 -296 0
297 295 296 0
-298 285 0
-298 297 0
298 -285 -297 0
-299 -285 0
-299 -297 0
299 285 297 0
-300 -298 0
-300 -299 0
300 298 299 0
-301 282 0
-301 300 0
301 -282 -300 0
-302 -282 0
-302 -300 0
302 282 300 0
-303 -301 0
-303 -302 0
303 301 302 0
-304 279 0
-304 -303 0
304 -279 303 0
-311 3 0
-311 9 0
311 -3 -9 0
-312 -3 0
-312 -9 0
312 3 9 0
-313 -311 0
-313 -312 0
313 311 312 0
-314 15 0
-314 17 0
314 -15 -17 0
-315 -15 0
-315 -17 0
315 15 17 0
-316 -314 0
-316 -315 0
316 314 315 0
-320 10 0
-320 316 0
320 -10 -316 0
-321 -10 0
-321 -316 0
321 10 316 0
-322 -320 0
-322 -321 0
322 320 321 0
-323 313 0
-323 322 0
323 -313 -322 0
-324 -313 0
-324 -322 0
324 313 322 0
-325 -323 0
-325 -324 0
325 323 324 0
-326 18 0
-326 325 0
326 -18 -325 0
-327 -18 0
-327 -325 0
327 18 325 0
-328 -326 0
-328 -327 0
328 326 327 0
-329 304 0
-329 -328 0
329 -304 328 0
-330 8 0
-330 9 0
330 -8 -9 0
-331 -8 0
-331 -9 0
331 8 9 0
-332 -330 0
-332 -331 0
332 330 331 0
-333 2 0
-333 332 0
333 -2 -332 0
-334 -2 0
-334 -332 0
334 2 332 0
-335 -333 0
-335 -334 0
335 333 334 0
-336 14 0
-336 17 0
336 -14 -17 0
-337 -14 0
-337 -17 0
337 14 17 0
-338 -336 0
-338 -337 0
338 336 337 0
-342 335 0
-342 338 0
342 -335 -338 0
-343 -335 0
-343 -338 0
343 335 338 0
-344 -342 0
-344 -343 0
344 342 343 0
-345 19 0
-345 344 0
345 -19 -344 0
-346 -19 0
-346 -344 0
346 19 344 0
-347 -345 0
-347 -346 0
347 345 346 0
-348 329 0
-348 -347 0
348 -329 347 0
-352 5 0
-352 7 0
352 -5 -7 0
-353 -5 0
-353 -7 0
353 5 7 0
-354 -352 0
-354 -353 0
354 352 353 0
-349 15 0
-349 16 0
349 -15 -16 0
-350 -15 0
-350 -16 0
350 15 16 0
-351 -349 0
-351 -350 0
351 349 350 0
-355 10 0
-355 13 0
355 -10 -13 0
-356 -10 0
-356 -13 0
356 10 13 0
-357 -355 0
-357 -356 0
357 355 356 0
-367 351 0
-367 357 0
367 -351 -357 0
-368 -351 0
-368 -357 0
368 351 357 0
-369 -367 0
-369 -368 0
369 367 368 0
-370 354 0
-370 369 0
370 -354 -369 0
-371 -354 0
-371 -369 0
371 354 369 0
-372 -370 0
-372 -371 0
372 370 371 0
-373 348 0
-373 -372 0
373 -348 372 0
-374 6 0
-374 7 0
374 -6 -7 0
-375 -6 0
-375 -7 0
375 6 7 0
-376 -374 0
-376 -375 0
376 374 375 0
-380 9 0
-380 376 0
380 -9 -376 0
-381 -9 0
-381 -376 0
381 9 376 0
-382 -380 0
-382 -381 0
382 380 381 0
-377 14 0
-377 15 0
377 -14 -15 0
-378 -14 0
-378 -15 0
378 14 15 0
-379 -377 0
-379 -378 0
379 377 378 0
-392 12 0
-392 379 0
392 -12 -379 0
-393 -12 0
-393 -379 0
393 12 379 0
-394 -392 0
-394 -393 0
394 392 393 0
-395 382 0
-395 394 0
395 -382 -394 0
-396 -382 0
-396 -394 0
396 382 394 0
-397 -395 0
-397 -396 0
397 395 396 0
-398 373 0
-398 -397 0
398 -373 397 0
-402 6 0
-402 8 0
402 -6 -8 0
-403 -6 0
-403 -8 0
403 6 8 0
-404 -402 0
-404 -403 0
404 402 403 0
-405 5 0
-405 404 0
405 -5 -404 0
-406 -5 0
-406 -404 0
406 5 404 0
-407 -405 0
-407 -406 0
407 405 406 0
-414 14 0
-414 16 0
414 -14 -16 0
-415 -14 0
-415 -16 0
415 14 16 0
-416 -414 0
-416 -415 0
416 414 415 0
-417 11 0
-417 416 0
417 -11 -416 0
-418 -11 0
-418 -416 0
418 11 416 0
-419 -417 0
-419 -418 0
419 417 418 0
-420 407 0
-420 419 0
420 -407 -419 0
-421 -407 0
-421 -419 0
421 407 419 0
-422 -420 0
-422 -421 0
422 420 421 0
-423 398 0
-423 -422 0
423 -398 422 0
-427 12 0
-427 13 0
427 -12 -13 0
-428 -12 0
-428 -13 0
428 12 13 0
-429 -427 0
-429 -428 0
429 427 428 0
-424 2 0
-424 4 0
424 -2 -4 0
-425 -2 0
-425 -4 0
425 2 4 0
-426 -424 0
-426 -425 0
426 424 425 0
-430 7 0
-430 426 0
430 -7 -426 0
-431 -7 0
-431 -426 0
431 7 426 0
-432 -430 0
-432 -431 0
432 430 431 0
-433 429 0
-433 432 0
433 -429 -432 0
-434 -429 0
-434 -432 0
434 429 432 0
-435 -433 0
-435 -434 0
435 433 434 0
-436 19 0
-436 435 0
436 -19 -435 0
-437 -19 0
-437 -435 0
437 19 435 0
-438 -436 0
-438 -437 0
438 436 437 0
-439 423 0
-439 -438 0
439 -423 438 0
-443 11 0
-443 12 0
443 -11 -12 0
-444 -11 0
-444 -12 0
444 11 12 0
-445 -443 0
-445 -444 0
445 443 444 0
-440 3 0
-440 4 0
440 -3 -4 0
-441 -3 0
-441 -4 0
441 3 4 0
-442 -440 0
-442 -441 0
442 440 441 0
-446 6 0
-446 442 0
446 -6 -442 0
-447 -6 0
-447 -442 0
447 6 442 0
-448 -446 0
-448 -447 0
448 446 447 0
-449 445 0
-449 448 0
449 -445 -448 0
-450 -445 0
-450 -448 0
450 445 448 0
-451 -449 0
-451 -450 0
451 449 450 0
-452 18 0
-452 451 0
452 -18 -451 0
-453 -18 0
-453 -451 0
453 18 451 0
-454 -452 0
-454 -453 0
454 452 453 0
-455 439 0
-455 -454 0
455 -439 454 0
-456 2 0
-456 3 0
456 -2 -3 0
-457 -2 0
-457 -3 0
457 2 3 0
-458 -456 0
-458 -457 0
458 456 457 0
-459 5 0
-459 458 0
459 -5 -458 0
-460 -5 0
-460 -458 0
460 5 458 0
-461 -459 0
-461 -460 0
461 459 460 0
-462 11 0
-462 13 0
462 -11 -13 0
-463 -11 0
-463 -13 0
463 11 13 0
-464 -462 0
-464 -463 0
464 462 463 0
-465 17 0
-465 464 0
465 -17 -464 0
-466 -17 0
-466 -464 0
466 17 464 0
-467 -465 0
-467 -466 0
467 465 466 0
-468 461 0
-468 467 0
468 -461 -467 0
-469 -461 0
-469 -467 0
469 461 467 0
-470 -468 0
-470 -469 0
470 468 469 0
-471 455 0
-471 -470 0
471 -455 470 0
-472 4 0
-472 5 0
472 -4 -5 0
-473 -4 0
-473 -5 0
473 4 5 0
-474 -472 0
-474 -473 0
474 472 473 0
-475 2 0
-475 474 0
475 -2 -474 0
-476 -2 0
-476 -474 0
476 2 474 0
-477 -475 0
-477 -476 0
477 475 476 0
-478 376 0
-478 477 0
478 -376 -477 0
-479 -376 0
-479 -477 0
479 376 477 0
-480 -478 0
-480 -479 0
480 478 479 0
-481 -19 0
-481 480 0
481 19 -480 0
-482 19 0
-482 -480 0
482 -19 480 0
-483 -481 0
-483 -482 0
483 481 482 0
-484 3 0
-484 474 0
484 -3 -474 0
-485 -3 0
-485 -474 0
485 3 474 0
-486 -484 0
-486 -485 0
486 484 485 0
-487 376 0
-487 486 0
487 -376 -486 0
-488 -376 0
-488 -486 0
488 376 486 0
-489 -487 0
-489 -488 0
489 487 488 0
-490 -18 0
-490 489 0
490 18 -489 0
-491 18 0
-491 -489 0
491 -18 489 0
-492 -490 0
-492 -491 0
492 490 491 0
-493 376 0
-493 461 0
493 -376 -461 0
-494 -376 0
-494 -461 0
494 376 461 0
-495 -493 0
-495 -494 0
495 493 494 0
-496 17 0
-496 495 0
496 -17 -495 0
-497 -17 0
-497 -495 0
497 17 495 0
-498 -496 0
-498 -497 0
498 496 497 0
-499 4 0
-499 376 0
499 -4 -376 0
-500 -4 0
-500 -376 0
500 4 376 0
-501 -499 0
-501 -500 0
501 499 500 0
-502 16 0
-502 501 0
502 -16 -501 0
-503 -16 0
-503 -501 0
503 16 501 0
-504 -502 0
-504 -503 0
504 502 503 0
-505 3 0
-505 5 0
505 -3 -5 0
-506 -3 0
-506 -5 0
506 3 5 0
-507 -505 0
-507 -506 0
507 505 506 0
-508 6 0
-508 507 0
508 -6 -507 0
-509 -6 0
-509 -507 0
509 6 507 0
-510 -508 0
-510 -509 0
510 508 509 0
-511 15 0
-511 510 0
511 -15 -510 0
-512 -15 0
-512 -510 0
512 15 510 0
-513 -511 0
-513 -512 0
513 511 512 0
-514 2 0
-514 5 0
514 -2 -5 0
-515 -2 0
-515 -5 0
515 2 5 0
-516 -514 0
-516 -515 0
516 514 515 0
-517 7 0
-517 516 0
517 -7 -516 0
-518 -7 0
-518 -516 0
518 7 516 0
-519 -517 0
-519 -518 0
519 517 518 0
-520 14 0
-520 519 0
520 -14 -519 0
-521 -14 0
-521 -519 0
521 14 519 0
-522 -520 0
-522 -521 0
522 520 521 0
-526 8 0
-526 376 0
526 -8 -376 0
-527 -8 0
-527 -376 0
527 8 376 0
-528 -526 0
-528 -527 0
528 526 527 0
-529 426 0
-529 528 0
529 -426 -528 0
-530 -426 0
-530 -528 0
530 426 528 0
-531 -529 0
-531 -530 0
531 529 530 0
-532 13 0
-532 531 0
532 -13 -531 0
-533 -13 0
-533 -531 0
533 13 531 0
-534 -532 0
-534 -533 0
534 532 533 0
-523 7 0
-523 8 0
523 -7 -8 0
-524 -7 0
-524 -8 0
524 7 8 0
-525 -523 0
-525 -524 0
525 523 524 0
-535 477 0
-535 525 0
535 -477 -525 0
-536 -477 0
-536 -525 0
536 477 525 0
-537 -535 0
-537 -536 0
537 535 536 0
-538 12 0
-538 537 0
538 -12 -537 0
-539 -12 0
-539 -537 0
539 12 537 0
-540 -538 0
-540 -539 0
540 538 539 0
-541 8 0
-541 426 0
541 -8 -426 0
-542 -8 0
-542 -426 0
542 8 426 0
-543 -541 0
-543 -542 0
543 541 542 0
-544 11 0
-544 543 0
544 -11 -543 0
-545 -11 0
-545 -543 0
545 11 543 0
-546 -544 0
-546 -545 0
546 544 545 0
-547 458 0
-547 528 0
547 -458 -528 0
-548 -458 0
-548 -528 0
548 458 528 0
-549 -547 0
-549 -548 0
549 547 548 0
-553 10 0
-553 549 0
553 -10 -549 0
-554 -10 0
-554 -549 0
554 10 549 0
-555 -553 0
-555 -554 0
555 553 554 0
-556 7 0
-556 332 0
556 -7 -332 0
-557 -7 0
-557 -332 0
557 7 332 0
-558 -556 0
-558 -557 0
558 556 557 0
-559 486 0
-559 558 0
559 -486 -558 0
-560 -486 0
-560 -558 0
560 486 558 0
-561 -559 0
-561 -560 0
561 559 560 0
-565 -555 0
-565 -561 0
565 555 561 0
-566 -546 0
-566 565 0
566 546 -565 0
-567 -540 0
-567 566 0
567 540 -566 0
-568 -534 0
-568 567 0
568 534 -567 0
-569 -522 0
-569 568 0
569 522 -568 0
-570 -513 0
-570 569 0
570 513 -569 0
-571 -504 0
-571 570 0
571 504 -570 0
-572 -498 0
-572 571 0
572 498 -571 0
-573 492 0
-573 572 0
573 -492 -572 0
-574 483 0
-574 573 0
574 -483 -573 0
-575 471 0
-575 -574 0
575 -471 574 0
-595 -29 0
-595 34 0
595 29 -34 0
-590 -28 0
-590 33 0
590 28 -33 0
-585 -27 0
-585 32 0
585 27 -32 0
-580 -26 0
-580 31 0
580 26 -31 0
-576 -25 0
-576 30 0
576 25 -30 0
-577 25 0
-577 -30 0
577 -25 30 0
-578 -576 0
-578 -577 0
578 576 577 0
-579 -576 0
-579 -578 0
579 576 578 0
-581 26 0
-581 -31 0
581 -26 31 0
-582 -580 0
-582 -581 0
582 580 581 0
-583 -579 0
-583 582 0
583 579 -582 0
-584 -580 0
-584 -583 0
584 580 583 0
-586 27 0
-586 -32 0
586 -27 32 0
-587 -585 0
-587 -586 0
587 585 586 0
-588 -584 0
-588 587 0
588 584 -587 0
-589 -585 0
-589 -588 0
589 585 588 0
-591 28 0
-591 -33 0
591 -28 33 0
-592 -590 0
-592 -591 0
592 590 591 0
-593 -589 0
-593 592 0
593 589 -592 0
-594 -590 0
-594 -593 0
594 590 593 0
-596 29 0
-596 -34 0
596 -29 34 0
-597 -595 0
-597 -596 0
597 595 596 0
-598 -594 0
-598 597 0
598 594 -597 0
-599 -595 0
-599 -598 0
599 595 598 0
-600 575 0
-600 -599 0
600 -575 599 0
-620 -24 0
-620 29 0
620 24 -29 0
-615 -23 0
-615 28 0
615 23 -28 0
-610 -22 0
-610 27 0
610 22 -27 0
-605 -21 0
-605 26 0
605 21 -26 0
-601 -20 0
-601 25 0
601 20 -25 0
-602 20 0
-602 -25 0
602 -20 25 0
-603 -601 0
-603 -602 0
603 601 602 0
-604 -601 0
-604 -603 0
604 601 603 0
-606 21 0
-606 -26 0
606 -21 26 0
-607 -605 0
-607 -606 0
607 605 606 0
-608 -604 0
-608 607 0
608 604 -607 0
-609 -605 0
-609 -608 0
609 605 608 0
-611 22 0
-611 -27 0
611 -22 27 0
-612 -610 0
-612 -611 0
612 610 611 0
-613 -609 0
-613 612 0
613 609 -612 0
-614 -610 0
-614 -613 0
614 610 613 0
-616 23 0
-616 -28 0
616 -23 28 0
-617 -615 0
-617 -616 0
617 615 616 0
-618 -614 0
-618 617 0
618 614 -617 0
-619 -615 0
-619 -618 0
619 615 618 0
-621 24 0
-621 -29 0
621 -24 29 0
-622 -620 0
-622 -621 0
622 620 621 0
-623 -619 0
-623 622 0
623 619 -622 0
-624 -620 0
-624 -623 0
624 620 623 0
-625 600 0
-625 -624 0
625 -600 624 0
625 0
