p cnf 40014 47182
181 -39894 0
-181 39894 0
301 -40014 0
-301 40014 0
300 -40013 0
-300 40013 0
299 -40012 0
-299 40012 0
298 -40011 0
-298 40011 0
297 -40010 0
-297 40010 0
296 -40009 0
-296 40009 0
294 -40007 0
-294 40007 0
295 -40008 0
-295 40008 0
-305 294 0
-305 295 0
305 -294 -295 0
-309 -296 0
-309 305 0
309 296 -305 0
-317 -297 0
-317 309 0
317 297 -309 0
-349 298 0
-349 317 0
349 -298 -317 0
-413 299 0
-413 349 0
413 -299 -349 0
-477 -300 0
-477 413 0
477 300 -413 0
-733 301 0
-733 477 0
733 -301 -477 0
293 -40006 0
-293 40006 0
292 -40005 0
-292 40005 0
291 -40004 0
-291 40004 0
290 -40003 0
-290 40003 0
289 -40002 0
-289 40002 0
288 -40001 0
-288 40001 0
286 -39999 0
-286 39999 0
287 -40000 0
-287 40000 0
-737 286 0
-737 287 0
737 -286 -287 0
-741 -288 0
-741 737 0
741 288 -737 0
-749 -289 0
-749 741 0
749 289 -741 0
-781 290 0
-781 749 0
781 -290 -749 0
-845 291 0
-845 781 0
845 -291 -781 0
-909 -292 0
-909 845 0
909 292 -845 0
-1165 293 0
-1165 909 0
1165 -293 -909 0
285 -39998 0
-285 39998 0
284 -39997 0
-284 39997 0
283 -39996 0
-283 39996 0
282 -39995 0
-282 39995 0
281 -39994 0
-281 39994 0
280 -39993 0
-280 39993 0
278 -39991 0
-278 39991 0
279 -39992 0
-279 39992 0
-1169 278 0
-1169 279 0
1169 -278 -279 0
-1173 -280 0
-1173 1169 0
1173 280 -1169 0
-1181 -281 0
-1181 1173 0
1181 281 -1173 0
-1213 282 0
-1213 1181 0
1213 -282 -1181 0
-1277 283 0
-1277 1213 0
1277 -283 -1213 0
-1341 -284 0
-1341 1277 0
1341 284 -1277 0
-1597 285 0
-1597 1341 0
1597 -285 -1341 0
277 -39990 0
-277 39990 0
276 -39989 0
-276 39989 0
275 -39988 0
-275 39988 0
274 -39987 0
-274 39987 0
273 -39986 0
-273 39986 0
272 -39985 0
-272 39985 0
270 -39983 0
-270 39983 0
271 -39984 0
-271 39984 0
-1601 270 0
-1601 271 0
1601 -270 -271 0
-1605 -272 0
-1605 1601 0
1605 272 -1601 0
-1613 -273 0
-1613 1605 0
1613 273 -1605 0
-1645 274 0
-1645 1613 0
1645 -274 -1613 0
-1709 275 0
-1709 1645 0
1709 -275 -1645 0
-1773 -276 0
-1773 1709 0
1773 276 -1709 0
-2029 277 0
-2029 1773 0
2029 -277 -1773 0
269 -39982 0
-269 39982 0
268 -39981 0
-268 39981 0
267 -39980 0
-267 39980 0
266 -39979 0
-266 39979 0
265 -39978 0
-265 39978 0
264 -39977 0
-264 39977 0
262 -39975 0
-262 39975 0
263 -39976 0
-263 39976 0
-2033 262 0
-2033 263 0
2033 -262 -263 0
-2037 -264 0
-2037 2033 0
2037 264 -2033 0
-2045 -265 0
-2045 2037 0
2045 265 -2037 0
-2077 266 0
-2077 2045 0
2077 -266 -2045 0
-2141 267 0
-2141 2077 0
2141 -267 -2077 0
-2205 -268 0
-2205 2141 0
2205 268 -2141 0
-2461 269 0
-2461 2205 0
2461 -269 -2205 0
261 -39974 0
-261 39974 0
260 -39973 0
-260 39973 0
259 -39972 0
-259 39972 0
258 -39971 0
-258 39971 0
257 -39970 0
-257 39970 0
256 -39969 0
-256 39969 0
254 -39967 0
-254 39967 0
255 -39968 0
-255 39968 0
-2465 254 0
-2465 255 0
2465 -254 -255 0
-2469 -256 0
-2469 2465 0
2469 256 -2465 0
-2477 -257 0
-2477 2469 0
2477 257 -2469 0
-2509 258 0
-2509 2477 0
2509 -258 -2477 0
-2573 259 0
-2573 2509 0
2573 -259 -2509 0
-2637 -260 0
-2637 2573 0
2637 260 -2573 0
-2893 261 0
-2893 2637 0
2893 -261 -2637 0
253 -39966 0
-253 39966 0
252 -39965 0
-252 39965 0
251 -39964 0
-251 39964 0
250 -39963 0
-250 39963 0
249 -39962 0
-249 39962 0
248 -39961 0
-248 39961 0
246 -39959 0
-246 39959 0
247 -39960 0
-247 39960 0
-2897 246 0
-2897 247 0
2897 -246 -247 0
-2901 -248 0
-2901 2897 0
2901 248 -2897 0
-2909 -249 0
-2909 2901 0
2909 249 -2901 0
-2941 250 0
-2941 2909 0
2941 -250 -2909 0
-3005 251 0
-3005 2941 0
3005 -251 -2941 0
-3069 -252 0
-3069 3005 0
3069 252 -3005 0
-3325 253 0
-3325 3069 0
3325 -253 -3069 0
245 -39958 0
-245 39958 0
244 -39957 0
-244 39957 0
243 -39956 0
-243 39956 0
242 -39955 0
-242 39955 0
241 -39954 0
-241 39954 0
240 -39953 0
-240 39953 0
238 -39951 0
-238 39951 0
239 -39952 0
-239 39952 0
-3329 238 0
-3329 239 0
3329 -238 -239 0
-3333 -240 0
-3333 3329 0
3333 240 -3329 0
-3341 -241 0
-3341 3333 0
3341 241 -3333 0
-3373 242 0
-3373 3341 0
3373 -242 -3341 0
-3437 243 0
-3437 3373 0
3437 -243 -3373 0
-3501 -244 0
-3501 3437 0
3501 244 -3437 0
-3757 245 0
-3757 3501 0
3757 -245 -3501 0
237 -39950 0
-237 39950 0
236 -39949 0
-236 39949 0
235 -39948 0
-235 39948 0
234 -39947 0
-234 39947 0
233 -39946 0
-233 39946 0
232 -39945 0
-232 39945 0
230 -39943 0
-230 39943 0
231 -39944 0
-231 39944 0
-3761 230 0
-3761 231 0
3761 -230 -231 0
-3765 -232 0
-3765 3761 0
3765 232 -3761 0
-3773 -233 0
-3773 3765 0
3773 233 -3765 0
-3805 234 0
-3805 3773 0
3805 -234 -3773 0
-3869 235 0
-3869 3805 0
3869 -235 -3805 0
-3933 -236 0
-3933 3869 0
3933 236 -3869 0
-4189 237 0
-4189 3933 0
4189 -237 -3933 0
229 -39942 0
-229 39942 0
228 -39941 0
-228 39941 0
227 -39940 0
-227 39940 0
226 -39939 0
-226 39939 0
225 -39938 0
-225 39938 0
224 -39937 0
-224 39937 0
222 -39935 0
-222 39935 0
223 -39936 0
-223 39936 0
-4193 222 0
-4193 223 0
4193 -222 -223 0
-4197 -224 0
-4197 4193 0
4197 224 -4193 0
-4205 -225 0
-4205 4197 0
4205 225 -4197 0
-4237 226 0
-4237 4205 0
4237 -226 -4205 0
-4301 227 0
-4301 4237 0
4301 -227 -4237 0
-4365 -228 0
-4365 4301 0
4365 228 -4301 0
-4621 229 0
-4621 4365 0
4621 -229 -4365 0
221 -39934 0
-221 39934 0
220 -39933 0
-220 39933 0
219 -39932 0
-219 39932 0
218 -39931 0
-218 39931 0
217 -39930 0
-217 39930 0
216 -39929 0
-216 39929 0
214 -39927 0
-214 39927 0
215 -39928 0
-215 39928 0
-4625 214 0
-4625 215 0
4625 -214 -215 0
-4629 -216 0
-4629 4625 0
4629 216 -4625 0
-4637 -217 0
-4637 4629 0
4637 217 -4629 0
-4669 218 0
-4669 4637 0
4669 -218 -4637 0
-4733 219 0
-4733 4669 0
4733 -219 -4669 0
-4797 -220 0
-4797 4733 0
4797 220 -4733 0
-5053 221 0
-5053 4797 0
5053 -221 -4797 0
213 -39926 0
-213 39926 0
212 -39925 0
-212 39925 0
211 -39924 0
-211 39924 0
210 -39923 0
-210 39923 0
209 -39922 0
-209 39922 0
208 -39921 0
-208 39921 0
206 -39919 0
-206 39919 0
207 -39920 0
-207 39920 0
-5057 206 0
-5057 207 0
5057 -206 -207 0
-5061 -208 0
-5061 5057 0
5061 208 -5057 0
-5069 -209 0
-5069 5061 0
5069 209 -5061 0
-5101 210 0
-5101 5069 0
5101 -210 -5069 0
-5165 211 0
-5165 5101 0
5165 -211 -5101 0
-5229 -212 0
-5229 5165 0
5229 212 -5165 0
-5485 213 0
-5485 5229 0
5485 -213 -5229 0
205 -39918 0
-205 39918 0
204 -39917 0
-204 39917 0
203 -39916 0
-203 39916 0
202 -39915 0
-202 39915 0
201 -39914 0
-201 39914 0
200 -39913 0
-200 39913 0
198 -39911 0
-198 39911 0
199 -39912 0
-199 39912 0
-5489 198 0
-5489 199 0
5489 -198 -199 0
-5493 -200 0
-5493 5489 0
5493 200 -5489 0
-5501 -201 0
-5501 5493 0
5501 201 -5493 0
-5533 202 0
-5533 5501 0
5533 -202 -5501 0
-5597 203 0
-5597 5533 0
5597 -203 -5533 0
-5661 -204 0
-5661 5597 0
5661 204 -5597 0
-5917 205 0
-5917 5661 0
5917 -205 -5661 0
197 -39910 0
-197 39910 0
196 -39909 0
-196 39909 0
195 -39908 0
-195 39908 0
194 -39907 0
-194 39907 0
193 -39906 0
-193 39906 0
192 -39905 0
-192 39905 0
190 -39903 0
-190 39903 0
191 -39904 0
-191 39904 0
-5921 190 0
-5921 191 0
5921 -190 -191 0
-5925 -192 0
-5925 5921 0
5925 192 -5921 0
-5933 -193 0
-5933 5925 0
5933 193 -5925 0
-5965 194 0
-5965 5933 0
5965 -194 -5933 0
-6029 195 0
-6029 5965 0
6029 -195 -5965 0
-6093 -196 0
-6093 6029 0
6093 196 -6029 0
-6349 197 0
-6349 6093 0
6349 -197 -6093 0
189 -39902 0
-189 39902 0
188 -39901 0
-188 39901 0
187 -39900 0
-187 39900 0
186 -39899 0
-186 39899 0
185 -39898 0
-185 39898 0
184 -39897 0
-184 39897 0
182 -39895 0
-182 39895 0
183 -39896 0
-183 39896 0
-6353 182 0
-6353 183 0
6353 -182 -183 0
-6357 -184 0
-6357 6353 0
6357 184 -6353 0
-6365 -185 0
-6365 6357 0
6365 185 -6357 0
-6397 186 0
-6397 6365 0
6397 -186 -6365 0
-6461 187 0
-6461 6397 0
6461 -187 -6397 0
-6525 -188 0
-6525 6461 0
6525 188 -6461 0
-6781 189 0
-6781 6525 0
6781 -189 -6525 0
-6961 -6349 0
-6961 -6781 0
6961 6349 6781 0
-7141 -5917 0
-7141 6961 0
7141 5917 -6961 0
-7321 -5485 0
-7321 7141 0
7321 5485 -7141 0
-7501 -5053 0
-7501 7321 0
7501 5053 -7321 0
-7681 -4621 0
-7681 7501 0
7681 4621 -7501 0
-7861 -4189 0
-7861 7681 0
7861 4189 -7681 0
-8041 -3757 0
-8041 7861 0
8041 3757 -7861 0
-8221 -3325 0
-8221 8041 0
8221 3325 -8041 0
-8401 -2893 0
-8401 8221 0
8401 2893 -8221 0
-8581 -2461 0
-8581 8401 0
8581 2461 -8401 0
-8761 -2029 0
-8761 8581 0
8761 2029 -8581 0
-8941 -1597 0
-8941 8761 0
8941 1597 -8761 0
-9121 -1165 0
-9121 8941 0
9121 1165 -8941 0
-9301 -733 0
-9301 9121 0
9301 733 -9121 0
-9839 181 0
-9839 9301 0
9839 -181 -9301 0
-9840 -181 0
-9840 -9301 0
9840 181 9301 0
-9841 -9839 0
-9841 -9840 0
9841 9839 9840 0
180 -39893 0
-180 39893 0
-304 -294 0
-304 295 0
304 294 -295 0
-308 -296 0
-308 304 0
308 296 -304 0
-316 -297 0
-316 308 0
316 297 -308 0
-348 298 0
-348 316 0
348 -298 -316 0
-412 299 0
-412 348 0
412 -299 -348 0
-476 -300 0
-476 412 0
476 300 -412 0
-732 301 0
-732 476 0
732 -301 -476 0
-736 -286 0
-736 287 0
736 286 -287 0
-740 -288 0
-740 736 0
740 288 -736 0
-748 -289 0
-748 740 0
748 289 -740 0
-780 290 0
-780 748 0
780 -290 -748 0
-844 291 0
-844 780 0
844 -291 -780 0
-908 -292 0
-908 844 0
908 292 -844 0
-1164 293 0
-1164 908 0
1164 -293 -908 0
-1168 -278 0
-1168 279 0
1168 278 -279 0
-1172 -280 0
-1172 1168 0
1172 280 -1168 0
-1180 -281 0
-1180 1172 0
1180 281 -1172 0
-1212 282 0
-1212 1180 0
1212 -282 -1180 0
-1276 283 0
-1276 1212 0
1276 -283 -1212 0
-1340 -284 0
-1340 1276 0
1340 284 -1276 0
-1596 285 0
-1596 1340 0
1596 -285 -1340 0
-1600 -270 0
-1600 271 0
1600 270 -271 0
-1604 -272 0
-1604 1600 0
1604 272 -1600 0
-1612 -273 0
-1612 1604 0
1612 273 -1604 0
-1644 274 0
-1644 1612 0
1644 -274 -1612 0
-1708 275 0
-1708 1644 0
1708 -275 -1644 0
-1772 -276 0
-1772 1708 0
1772 276 -1708 0
-2028 277 0
-2028 1772 0
2028 -277 -1772 0
-2032 -262 0
-2032 263 0
2032 262 -263 0
-2036 -264 0
-2036 2032 0
2036 264 -2032 0
-2044 -265 0
-2044 2036 0
2044 265 -2036 0
-2076 266 0
-2076 2044 0
2076 -266 -2044 0
-2140 267 0
-2140 2076 0
2140 -267 -2076 0
-2204 -268 0
-2204 2140 0
2204 268 -2140 0
-2460 269 0
-2460 2204 0
2460 -269 -2204 0
-2464 -254 0
-2464 255 0
2464 254 -255 0
-2468 -256 0
-2468 2464 0
2468 256 -2464 0
-2476 -257 0
-2476 2468 0
2476 257 -2468 0
-2508 258 0
-2508 2476 0
2508 -258 -2476 0
-2572 259 0
-2572 2508 0
2572 -259 -2508 0
-2636 -260 0
-2636 2572 0
2636 260 -2572 0
-2892 261 0
-2892 2636 0
2892 -261 -2636 0
-2896 -246 0
-2896 247 0
2896 246 -247 0
-2900 -248 0
-2900 2896 0
2900 248 -2896 0
-2908 -249 0
-2908 2900 0
2908 249 -2900 0
-2940 250 0
-2940 2908 0
2940 -250 -2908 0
-3004 251 0
-3004 2940 0
3004 -251 -2940 0
-3068 -252 0
-3068 3004 0
3068 252 -3004 0
-3324 253 0
-3324 3068 0
3324 -253 -3068 0
-3328 -238 0
-3328 239 0
3328 238 -239 0
-3332 -240 0
-3332 3328 0
3332 240 -3328 0
-3340 -241 0
-3340 3332 0
3340 241 -3332 0
-3372 242 0
-3372 3340 0
3372 -242 -3340 0
-3436 243 0
-3436 3372 0
3436 -243 -3372 0
-3500 -244 0
-3500 3436 0
3500 244 -3436 0
-3756 245 0
-3756 3500 0
3756 -245 -3500 0
-3760 -230 0
-3760 231 0
3760 230 -231 0
-3764 -232 0
-3764 3760 0
3764 232 -3760 0
-3772 -233 0
-3772 3764 0
3772 233 -3764 0
-3804 234 0
-3804 3772 0
3804 -234 -3772 0
-3868 235 0
-3868 3804 0
3868 -235 -3804 0
-3932 -236 0
-3932 3868 0
3932 236 -3868 0
-4188 237 0
-4188 3932 0
4188 -237 -3932 0
-4192 -222 0
-4192 223 0
4192 222 -223 0
-4196 -224 0
-4196 4192 0
4196 224 -4192 0
-4204 -225 0
-4204 4196 0
4204 225 -4196 0
-4236 226 0
-4236 4204 0
4236 -226 -4204 0
-4300 227 0
-4300 4236 0
4300 -227 -4236 0
-4364 -228 0
-4364 4300 0
4364 228 -4300 0
-4620 229 0
-4620 4364 0
4620 -229 -4364 0
-4624 -214 0
-4624 215 0
4624 214 -215 0
-4628 -216 0
-4628 4624 0
4628 216 -4624 0
-4636 -217 0
-4636 4628 0
4636 217 -4628 0
-4668 218 0
-4668 4636 0
4668 -218 -4636 0
-4732 219 0
-4732 4668 0
4732 -219 -4668 0
-4796 -220 0
-4796 4732 0
4796 220 -4732 0
-5052 221 0
-5052 4796 0
5052 -221 -4796 0
-5056 -206 0
-5056 207 0
5056 206 -207 0
-5060 -208 0
-5060 5056 0
5060 208 -5056 0
-5068 -209 0
-5068 5060 0
5068 209 -5060 0
-5100 210 0
-5100 5068 0
5100 -210 -5068 0
-5164 211 0
-5164 5100 0
5164 -211 -5100 0
-5228 -212 0
-5228 5164 0
5228 212 -5164 0
-5484 213 0
-5484 5228 0
5484 -213 -5228 0
-5488 -198 0
-5488 199 0
5488 198 -199 0
-5492 -200 0
-5492 5488 0
5492 200 -5488 0
-5500 -201 0
-5500 5492 0
5500 201 -5492 0
-5532 202 0
-5532 5500 0
5532 -202 -5500 0
-5596 203 0
-5596 5532 0
5596 -203 -5532 0
-5660 -204 0
-5660 5596 0
5660 204 -5596 0
-5916 205 0
-5916 5660 0
5916 -205 -5660 0
-5920 -190 0
-5920 191 0
5920 190 -191 0
-5924 -192 0
-5924 5920 0
5924 192 -5920 0
-5932 -193 0
-5932 5924 0
5932 193 -5924 0
-5964 194 0
-5964 5932 0
5964 -194 -5932 0
-6028 195 0
-6028 5964 0
6028 -195 -5964 0
-6092 -196 0
-6092 6028 0
6092 196 -6028 0
-6348 197 0
-6348 6092 0
6348 -197 -6092 0
-6352 -182 0
-6352 183 0
6352 182 -183 0
-6356 -184 0
-6356 6352 0
6356 184 -6352 0
-6364 -185 0
-6364 6356 0
6364 185 -6356 0
-6396 186 0
-6396 6364 0
6396 -186 -6364 0
-6460 187 0
-6460 6396 0
6460 -187 -6396 0
-6524 -188 0
-6524 6460 0
6524 188 -6460 0
-6780 189 0
-6780 6524 0
6780 -189 -6524 0
-6960 -6348 0
-6960 -6780 0
6960 6348 6780 0
-7140 -5916 0
-7140 6960 0
7140 5916 -6960 0
-7320 -5484 0
-7320 7140 0
7320 5484 -7140 0
-7500 -5052 0
-7500 7320 0
7500 5052 -7320 0
-7680 -4620 0
-7680 7500 0
7680 4620 -7500 0
-7860 -4188 0
-7860 7680 0
7860 4188 -7680 0
-8040 -3756 0
-8040 7860 0
8040 3756 -7860 0
-8220 -3324 0
-8220 8040 0
8220 3324 -8040 0
-8400 -2892 0
-8400 8220 0
8400 2892 -8220 0
-8580 -2460 0
-8580 8400 0
8580 2460 -8400 0
-8760 -2028 0
-8760 8580 0
8760 2028 -8580 0
-8940 -1596 0
-8940 8760 0
8940 1596 -8760 0
-9120 -1164 0
-9120 8940 0
9120 1164 -8940 0
-9300 -732 0
-9300 9120 0
9300 732 -9120 0
-9836 180 0
-9836 9300 0
9836 -180 -9300 0
-9837 -180 0
-9837 -9300 0
9837 180 9300 0
-9838 -9836 0
-9838 -9837 0
9838 9836 9837 0
179 -39892 0
-179 39892 0
-303 294 0
-303 -295 0
303 -294 295 0
-307 -296 0
-307 303 0
307 296 -303 0
-315 -297 0
-315 307 0
315 297 -307 0
-347 298 0
-347 315 0
347 -298 -315 0
-411 299 0
-411 347 0
411 -299 -347 0
-475 -300 0
-475 411 0
475 300 -411 0
-731 301 0
-731 475 0
731 -301 -475 0
-735 286 0
-735 -287 0
735 -286 287 0
-739 -288 0
-739 735 0
739 288 -735 0
-747 -289 0
-747 739 0
747 289 -739 0
-779 290 0
-779 747 0
779 -290 -747 0
-843 291 0
-843 779 0
843 -291 -779 0
-907 -292 0
-907 843 0
907 292 -843 0
-1163 293 0
-1163 907 0
1163 -293 -907 0
-1167 278 0
-1167 -279 0
1167 -278 279 0
-1171 -280 0
-1171 1167 0
1171 280 -1167 0
-1179 -281 0
-1179 1171 0
1179 281 -1171 0
-1211 282 0
-1211 1179 0
1211 -282 -1179 0
-1275 283 0
-1275 1211 0
1275 -283 -1211 0
-1339 -284 0
-1339 1275 0
1339 284 -1275 0
-1595 285 0
-1595 1339 0
1595 -285 -1339 0
-1599 270 0
-1599 -271 0
1599 -270 271 0
-1603 -272 0
-1603 1599 0
1603 272 -1599 0
-1611 -273 0
-1611 1603 0
1611 273 -1603 0
-1643 274 0
-1643 1611 0
1643 -274 -1611 0
-1707 275 0
-1707 1643 0
1707 -275 -1643 0
-1771 -276 0
-1771 1707 0
1771 276 -1707 0
-2027 277 0
-2027 1771 0
2027 -277 -1771 0
-2031 262 0
-2031 -263 0
2031 -262 263 0
-2035 -264 0
-2035 2031 0
2035 264 -2031 0
-2043 -265 0
-2043 2035 0
2043 265 -2035 0
-2075 266 0
-2075 2043 0
2075 -266 -2043 0
-2139 267 0
-2139 2075 0
2139 -267 -2075 0
-2203 -268 0
-2203 2139 0
2203 268 -2139 0
-2459 269 0
-2459 2203 0
2459 -269 -2203 0
-2463 254 0
-2463 -255 0
2463 -254 255 0
-2467 -256 0
-2467 2463 0
2467 256 -2463 0
-2475 -257 0
-2475 2467 0
2475 257 -2467 0
-2507 258 0
-2507 2475 0
2507 -258 -2475 0
-2571 259 0
-2571 2507 0
2571 -259 -2507 0
-2635 -260 0
-2635 2571 0
2635 260 -2571 0
-2891 261 0
-2891 2635 0
2891 -261 -2635 0
-2895 246 0
-2895 -247 0
2895 -246 247 0
-2899 -248 0
-2899 2895 0
2899 248 -2895 0
-2907 -249 0
-2907 2899 0
2907 249 -2899 0
-2939 250 0
-2939 2907 0
2939 -250 -2907 0
-3003 251 0
-3003 2939 0
3003 -251 -2939 0
-3067 -252 0
-3067 3003 0
3067 252 -3003 0
-3323 253 0
-3323 3067 0
3323 -253 -3067 0
-3327 238 0
-3327 -239 0
3327 -238 239 0
-3331 -240 0
-3331 3327 0
3331 240 -3327 0
-3339 -241 0
-3339 3331 0
3339 241 -3331 0
-3371 242 0
-3371 3339 0
3371 -242 -3339 0
-3435 243 0
-3435 3371 0
3435 -243 -3371 0
-3499 -244 0
-3499 3435 0
3499 244 -3435 0
-3755 245 0
-3755 3499 0
3755 -245 -3499 0
-3759 230 0
-3759 -231 0
3759 -230 231 0
-3763 -232 0
-3763 3759 0
3763 232 -3759 0
-3771 -233 0
-3771 3763 0
3771 233 -3763 0
-3803 234 0
-3803 3771 0
3803 -234 -3771 0
-3867 235 0
-3867 3803 0
3867 -235 -3803 0
-3931 -236 0
-3931 3867 0
3931 236 -3867 0
-4187 237 0
-4187 3931 0
4187 -237 -3931 0
-4191 222 0
-4191 -223 0
4191 -222 223 0
-4195 -224 0
-4195 4191 0
4195 224 -4191 0
-4203 -225 0
-4203 4195 0
4203 225 -4195 0
-4235 226 0
-4235 4203 0
4235 -226 -4203 0
-4299 227 0
-4299 4235 0
4299 -227 -4235 0
-4363 -228 0
-4363 4299 0
4363 228 -4299 0
-4619 229 0
-4619 4363 0
4619 -229 -4363 0
-4623 214 0
-4623 -215 0
4623 -214 215 0
-4627 -216 0
-4627 4623 0
4627 216 -4623 0
-4635 -217 0
-4635 4627 0
4635 217 -4627 0
-4667 218 0
-4667 4635 0
4667 -218 -4635 0
-4731 219 0
-4731 4667 0
4731 -219 -4667 0
-4795 -220 0
-4795 4731 0
4795 220 -4731 0
-5051 221 0
-5051 4795 0
5051 -221 -4795 0
-5055 206 0
-5055 -207 0
5055 -206 207 0
-5059 -208 0
-5059 5055 0
5059 208 -5055 0
-5067 -209 0
-5067 5059 0
5067 209 -5059 0
-5099 210 0
-5099 5067 0
5099 -210 -5067 0
-5163 211 0
-5163 5099 0
5163 -211 -5099 0
-5227 -212 0
-5227 5163 0
5227 212 -5163 0
-5483 213 0
-5483 5227 0
5483 -213 -5227 0
-5487 198 0
-5487 -199 0
5487 -198 199 0
-5491 -200 0
-5491 5487 0
5491 200 -5487 0
-5499 -201 0
-5499 5491 0
5499 201 -5491 0
-5531 202 0
-5531 5499 0
5531 -202 -5499 0
-5595 203 0
-5595 5531 0
5595 -203 -5531 0
-5659 -204 0
-5659 5595 0
5659 204 -5595 0
-5915 205 0
-5915 5659 0
5915 -205 -5659 0
-5919 190 0
-5919 -191 0
5919 -190 191 0
-5923 -192 0
-5923 5919 0
5923 192 -5919 0
-5931 -193 0
-5931 5923 0
5931 193 -5923 0
-5963 194 0
-5963 5931 0
5963 -194 -5931 0
-6027 195 0
-6027 5963 0
6027 -195 -5963 0
-6091 -196 0
-6091 6027 0
6091 196 -6027 0
-6347 197 0
-6347 6091 0
6347 -197 -6091 0
-6351 182 0
-6351 -183 0
6351 -182 183 0
-6355 -184 0
-6355 6351 0
6355 184 -6351 0
-6363 -185 0
-6363 6355 0
6363 185 -6355 0
-6395 186 0
-6395 6363 0
6395 -186 -6363 0
-6459 187 0
-6459 6395 0
6459 -187 -6395 0
-6523 -188 0
-6523 6459 0
6523 188 -6459 0
-6779 189 0
-6779 6523 0
6779 -189 -6523 0
-6959 -6347 0
-6959 -6779 0
6959 6347 6779 0
-7139 -5915 0
-7139 6959 0
7139 5915 -6959 0
-7319 -5483 0
-7319 7139 0
7319 5483 -7139 0
-7499 -5051 0
-7499 7319 0
7499 5051 -7319 0
-7679 -4619 0
-7679 7499 0
7679 4619 -7499 0
-7859 -4187 0
-7859 7679 0
7859 4187 -7679 0
-8039 -3755 0
-8039 7859 0
8039 3755 -7859 0
-8219 -3323 0
-8219 8039 0
8219 3323 -8039 0
-8399 -2891 0
-8399 8219 0
8399 2891 -8219 0
-8579 -2459 0
-8579 8399 0
8579 2459 -8399 0
-8759 -2027 0
-8759 8579 0
8759 2027 -8579 0
-8939 -1595 0
-8939 8759 0
8939 1595 -8759 0
-9119 -1163 0
-9119 8939 0
9119 1163 -8939 0
-9299 -731 0
-9299 9119 0
9299 731 -9119 0
-9833 179 0
-9833 9299 0
9833 -179 -9299 0
-9834 -179 0
-9834 -9299 0
9834 179 9299 0
-9835 -9833 0
-9835 -9834 0
9835 9833 9834 0
178 -39891 0
-178 39891 0
-302 -294 0
-302 -295 0
302 294 295 0
-306 -296 0
-306 302 0
306 296 -302 0
-314 -297 0
-314 306 0
314 297 -306 0
-346 298 0
-346 314 0
346 -298 -314 0
-410 299 0
-410 346 0
410 -299 -346 0
-474 -300 0
-474 410 0
474 300 -410 0
-730 301 0
-730 474 0
730 -301 -474 0
-734 -286 0
-734 -287 0
734 286 287 0
-738 -288 0
-738 734 0
738 288 -734 0
-746 -289 0
-746 738 0
746 289 -738 0
-778 290 0
-778 746 0
778 -290 -746 0
-842 291 0
-842 778 0
842 -291 -778 0
-906 -292 0
-906 842 0
906 292 -842 0
-1162 293 0
-1162 906 0
1162 -293 -906 0
-1166 -278 0
-1166 -279 0
1166 278 279 0
-1170 -280 0
-1170 1166 0
1170 280 -1166 0
-1178 -281 0
-1178 1170 0
1178 281 -1170 0
-1210 282 0
-1210 1178 0
1210 -282 -1178 0
-1274 283 0
-1274 1210 0
1274 -283 -1210 0
-1338 -284 0
-1338 1274 0
1338 284 -1274 0
-1594 285 0
-1594 1338 0
1594 -285 -1338 0
-1598 -270 0
-1598 -271 0
1598 270 271 0
-1602 -272 0
-1602 1598 0
1602 272 -1598 0
-1610 -273 0
-1610 1602 0
1610 273 -1602 0
-1642 274 0
-1642 1610 0
1642 -274 -1610 0
-1706 275 0
-1706 1642 0
1706 -275 -1642 0
-1770 -276 0
-1770 1706 0
1770 276 -1706 0
-2026 277 0
-2026 1770 0
2026 -277 -1770 0
-2030 -262 0
-2030 -263 0
2030 262 263 0
-2034 -264 0
-2034 2030 0
2034 264 -2030 0
-2042 -265 0
-2042 2034 0
2042 265 -2034 0
-2074 266 0
-2074 2042 0
2074 -266 -2042 0
-2138 267 0
-2138 2074 0
2138 -267 -2074 0
-2202 -268 0
-2202 2138 0
2202 268 -2138 0
-2458 269 0
-2458 2202 0
2458 -269 -2202 0
-2462 -254 0
-2462 -255 0
2462 254 255 0
-2466 -256 0
-2466 2462 0
2466 256 -2462 0
-2474 -257 0
-2474 2466 0
2474 257 -2466 0
-2506 258 0
-2506 2474 0
2506 -258 -2474 0
-2570 259 0
-2570 2506 0
2570 -259 -2506 0
-2634 -260 0
-2634 2570 0
2634 260 -2570 0
-2890 261 0
-2890 2634 0
2890 -261 -2634 0
-2894 -246 0
-2894 -247 0
2894 246 247 0
-2898 -248 0
-2898 2894 0
2898 248 -2894 0
-2906 -249 0
-2906 2898 0
2906 249 -2898 0
-2938 250 0
-2938 2906 0
2938 -250 -2906 0
-3002 251 0
-3002 2938 0
3002 -251 -2938 0
-3066 -252 0
-3066 3002 0
3066 252 -3002 0
-3322 253 0
-3322 3066 0
3322 -253 -3066 0
-3326 -238 0
-3326 -239 0
3326 238 239 0
-3330 -240 0
-3330 3326 0
3330 240 -3326 0
-3338 -241 0
-3338 3330 0
3338 241 -3330 0
-3370 242 0
-3370 3338 0
3370 -242 -3338 0
-3434 243 0
-3434 3370 0
3434 -243 -3370 0
-3498 -244 0
-3498 3434 0
3498 244 -3434 0
-3754 245 0
-3754 3498 0
3754 -245 -3498 0
-3758 -230 0
-3758 -231 0
3758 230 231 0
-3762 -232 0
-3762 3758 0
3762 232 -3758 0
-3770 -233 0
-3770 3762 0
3770 233 -3762 0
-3802 234 0
-3802 3770 0
3802 -234 -3770 0
-3866 235 0
-3866 3802 0
3866 -235 -3802 0
-3930 -236 0
-3930 3866 0
3930 236 -3866 0
-4186 237 0
-4186 3930 0
4186 -237 -3930 0
-4190 -222 0
-4190 -223 0
4190 222 223 0
-4194 -224 0
-4194 4190 0
4194 224 -4190 0
-4202 -225 0
-4202 4194 0
4202 225 -4194 0
-4234 226 0
-4234 4202 0
4234 -226 -4202 0
-4298 227 0
-4298 4234 0
4298 -227 -4234 0
-4362 -228 0
-4362 4298 0
4362 228 -4298 0
-4618 229 0
-4618 4362 0
4618 -229 -4362 0
-4622 -214 0
-4622 -215 0
4622 214 215 0
-4626 -216 0
-4626 4622 0
4626 216 -4622 0
-4634 -217 0
-4634 4626 0
4634 217 -4626 0
-4666 218 0
-4666 4634 0
4666 -218 -4634 0
-4730 219 0
-4730 4666 0
4730 -219 -4666 0
-4794 -220 0
-4794 4730 0
4794 220 -4730 0
-5050 221 0
-5050 4794 0
5050 -221 -4794 0
-5054 -206 0
-5054 -207 0
5054 206 207 0
-5058 -208 0
-5058 5054 0
5058 208 -5054 0
-5066 -209 0
-5066 5058 0
5066 209 -5058 0
-5098 210 0
-5098 5066 0
5098 -210 -5066 0
-5162 211 0
-5162 5098 0
5162 -211 -5098 0
-5226 -212 0
-5226 5162 0
5226 212 -5162 0
-5482 213 0
-5482 5226 0
5482 -213 -5226 0
-5486 -198 0
-5486 -199 0
5486 198 199 0
-5490 -200 0
-5490 5486 0
5490 200 -5486 0
-5498 -201 0
-5498 5490 0
5498 201 -5490 0
-5530 202 0
-5530 5498 0
5530 -202 -5498 0
-5594 203 0
-5594 5530 0
5594 -203 -5530 0
-5658 -204 0
-5658 5594 0
5658 204 -5594 0
-5914 205 0
-5914 5658 0
5914 -205 -5658 0
-5918 -190 0
-5918 -191 0
5918 190 191 0
-5922 -192 0
-5922 5918 0
5922 192 -5918 0
-5930 -193 0
-5930 5922 0
5930 193 -5922 0
-5962 194 0
-5962 5930 0
5962 -194 -5930 0
-6026 195 0
-6026 5962 0
6026 -195 -5962 0
-6090 -196 0
-6090 6026 0
6090 196 -6026 0
-6346 197 0
-6346 6090 0
6346 -197 -6090 0
-6350 -182 0
-6350 -183 0
6350 182 183 0
-6354 -184 0
-6354 6350 0
6354 184 -6350 0
-6362 -185 0
-6362 6354 0
6362 185 -6354 0
-6394 186 0
-6394 6362 0
6394 -186 -6362 0
-6458 187 0
-6458 6394 0
6458 -187 -6394 0
-6522 -188 0
-6522 6458 0
6522 188 -6458 0
-6778 189 0
-6778 6522 0
6778 -189 -6522 0
-6958 -6346 0
-6958 -6778 0
6958 6346 6778 0
-7138 -5914 0
-7138 6958 0
7138 5914 -6958 0
-7318 -5482 0
-7318 7138 0
7318 5482 -7138 0
-7498 -5050 0
-7498 7318 0
7498 5050 -7318 0
-7678 -4618 0
-7678 7498 0
7678 4618 -7498 0
-7858 -4186 0
-7858 7678 0
7858 4186 -7678 0
-8038 -3754 0
-8038 7858 0
8038 3754 -7858 0
-8218 -3322 0
-8218 8038 0
8218 3322 -8038 0
-8398 -2890 0
-8398 8218 0
8398 2890 -8218 0
-8578 -2458 0
-8578 8398 0
8578 2458 -8398 0
-8758 -2026 0
-8758 8578 0
8758 2026 -8578 0
-8938 -1594 0
-8938 8758 0
8938 1594 -8758 0
-9118 -1162 0
-9118 8938 0
9118 1162 -8938 0
-9298 -730 0
-9298 9118 0
9298 730 -9118 0
-9830 178 0
-9830 9298 0
9830 -178 -9298 0
-9831 -178 0
-9831 -9298 0
9831 178 9298 0
-9832 -9830 0
-9832 -9831 0
9832 9830 9831 0
177 -39890 0
-177 39890 0
-313 296 0
-313 305 0
313 -296 -305 0
-329 297 0
-329 313 0
329 -297 -313 0
-345 -298 0
-345 329 0
345 298 -329 0
-409 299 0
-409 345 0
409 -299 -345 0
-473 -300 0
-473 409 0
473 300 -409 0
-729 301 0
-729 473 0
729 -301 -473 0
-745 288 0
-745 737 0
745 -288 -737 0
-761 289 0
-761 745 0
761 -289 -745 0
-777 -290 0
-777 761 0
777 290 -761 0
-841 291 0
-841 777 0
841 -291 -777 0
-905 -292 0
-905 841 0
905 292 -841 0
-1161 293 0
-1161 905 0
1161 -293 -905 0
-1177 280 0
-1177 1169 0
1177 -280 -1169 0
-1193 281 0
-1193 1177 0
1193 -281 -1177 0
-1209 -282 0
-1209 1193 0
1209 282 -1193 0
-1273 283 0
-1273 1209 0
1273 -283 -1209 0
-1337 -284 0
-1337 1273 0
1337 284 -1273 0
-1593 285 0
-1593 1337 0
1593 -285 -1337 0
-1609 272 0
-1609 1601 0
1609 -272 -1601 0
-1625 273 0
-1625 1609 0
1625 -273 -1609 0
-1641 -274 0
-1641 1625 0
1641 274 -1625 0
-1705 275 0
-1705 1641 0
1705 -275 -1641 0
-1769 -276 0
-1769 1705 0
1769 276 -1705 0
-2025 277 0
-2025 1769 0
2025 -277 -1769 0
-2041 264 0
-2041 2033 0
2041 -264 -2033 0
-2057 265 0
-2057 2041 0
2057 -265 -2041 0
-2073 -266 0
-2073 2057 0
2073 266 -2057 0
-2137 267 0
-2137 2073 0
2137 -267 -2073 0
-2201 -268 0
-2201 2137 0
2201 268 -2137 0
-2457 269 0
-2457 2201 0
2457 -269 -2201 0
-2473 256 0
-2473 2465 0
2473 -256 -2465 0
-2489 257 0
-2489 2473 0
2489 -257 -2473 0
-2505 -258 0
-2505 2489 0
2505 258 -2489 0
-2569 259 0
-2569 2505 0
2569 -259 -2505 0
-2633 -260 0
-2633 2569 0
2633 260 -2569 0
-2889 261 0
-2889 2633 0
2889 -261 -2633 0
-2905 248 0
-2905 2897 0
2905 -248 -2897 0
-2921 249 0
-2921 2905 0
2921 -249 -2905 0
-2937 -250 0
-2937 2921 0
2937 250 -2921 0
-3001 251 0
-3001 2937 0
3001 -251 -2937 0
-3065 -252 0
-3065 3001 0
3065 252 -3001 0
-3321 253 0
-3321 3065 0
3321 -253 -3065 0
-3337 240 0
-3337 3329 0
3337 -240 -3329 0
-3353 241 0
-3353 3337 0
3353 -241 -3337 0
-3369 -242 0
-3369 3353 0
3369 242 -3353 0
-3433 243 0
-3433 3369 0
3433 -243 -3369 0
-3497 -244 0
-3497 3433 0
3497 244 -3433 0
-3753 245 0
-3753 3497 0
3753 -245 -3497 0
-3769 232 0
-3769 3761 0
3769 -232 -3761 0
-3785 233 0
-3785 3769 0
3785 -233 -3769 0
-3801 -234 0
-3801 3785 0
3801 234 -3785 0
-3865 235 0
-3865 3801 0
3865 -235 -3801 0
-3929 -236 0
-3929 3865 0
3929 236 -3865 0
-4185 237 0
-4185 3929 0
4185 -237 -3929 0
-4201 224 0
-4201 4193 0
4201 -224 -4193 0
-4217 225 0
-4217 4201 0
4217 -225 -4201 0
-4233 -226 0
-4233 4217 0
4233 226 -4217 0
-4297 227 0
-4297 4233 0
4297 -227 -4233 0
-4361 -228 0
-4361 4297 0
4361 228 -4297 0
-4617 229 0
-4617 4361 0
4617 -229 -4361 0
-4633 216 0
-4633 4625 0
4633 -216 -4625 0
-4649 217 0
-4649 4633 0
4649 -217 -4633 0
-4665 -218 0
-4665 4649 0
4665 218 -4649 0
-4729 219 0
-4729 4665 0
4729 -219 -4665 0
-4793 -220 0
-4793 4729 0
4793 220 -4729 0
-5049 221 0
-5049 4793 0
5049 -221 -4793 0
-5065 208 0
-5065 5057 0
5065 -208 -5057 0
-5081 209 0
-5081 5065 0
5081 -209 -5065 0
-5097 -210 0
-5097 5081 0
5097 210 -5081 0
-5161 211 0
-5161 5097 0
5161 -211 -5097 0
-5225 -212 0
-5225 5161 0
5225 212 -5161 0
-5481 213 0
-5481 5225 0
5481 -213 -5225 0
-5497 200 0
-5497 5489 0
5497 -200 -5489 0
-5513 201 0
-5513 5497 0
5513 -201 -5497 0
-5529 -202 0
-5529 5513 0
5529 202 -5513 0
-5593 203 0
-5593 5529 0
5593 -203 -5529 0
-5657 -204 0
-5657 5593 0
5657 204 -5593 0
-5913 205 0
-5913 5657 0
5913 -205 -5657 0
-5929 192 0
-5929 5921 0
5929 -192 -5921 0
-5945 193 0
-5945 5929 0
5945 -193 -5929 0
-5961 -194 0
-5961 5945 0
5961 194 -5945 0
-6025 195 0
-6025 5961 0
6025 -195 -5961 0
-6089 -196 0
-6089 6025 0
6089 196 -6025 0
-6345 197 0
-6345 6089 0
6345 -197 -6089 0
-6361 184 0
-6361 6353 0
6361 -184 -6353 0
-6377 185 0
-6377 6361 0
6377 -185 -6361 0
-6393 -186 0
-6393 6377 0
6393 186 -6377 0
-6457 187 0
-6457 6393 0
6457 -187 -6393 0
-6521 -188 0
-6521 6457 0
6521 188 -6457 0
-6777 189 0
-6777 6521 0
6777 -189 -6521 0
-6957 -6345 0
-6957 -6777 0
6957 6345 6777 0
-7137 -5913 0
-7137 6957 0
7137 5913 -6957 0
-7317 -5481 0
-7317 7137 0
7317 5481 -7137 0
-7497 -5049 0
-7497 7317 0
7497 5049 -7317 0
-7677 -4617 0
-7677 7497 0
7677 4617 -7497 0
-7857 -4185 0
-7857 7677 0
7857 4185 -7677 0
-8037 -3753 0
-8037 7857 0
8037 3753 -7857 0
-8217 -3321 0
-8217 8037 0
8217 3321 -8037 0
-8397 -2889 0
-8397 8217 0
8397 2889 -8217 0
-8577 -2457 0
-8577 8397 0
8577 2457 -8397 0
-8757 -2025 0
-8757 8577 0
8757 2025 -8577 0
-8937 -1593 0
-8937 8757 0
8937 1593 -8757 0
-9117 -1161 0
-9117 8937 0
9117 1161 -8937 0
-9297 -729 0
-9297 9117 0
9297 729 -9117 0
-9827 177 0
-9827 9297 0
9827 -177 -9297 0
-9828 -177 0
-9828 -9297 0
9828 177 9297 0
-9829 -9827 0
-9829 -9828 0
9829 9827 9828 0
176 -39889 0
-176 39889 0
-312 296 0
-312 304 0
312 -296 -304 0
-328 297 0
-328 312 0
328 -297 -312 0
-344 -298 0
-344 328 0
344 298 -328 0
-408 299 0
-408 344 0
408 -299 -344 0
-472 -300 0
-472 408 0
472 300 -408 0
-728 301 0
-728 472 0
728 -301 -472 0
-744 288 0
-744 736 0
744 -288 -736 0
-760 289 0
-760 744 0
760 -289 -744 0
-776 -290 0
-776 760 0
776 290 -760 0
-840 291 0
-840 776 0
840 -291 -776 0
-904 -292 0
-904 840 0
904 292 -840 0
-1160 293 0
-1160 904 0
1160 -293 -904 0
-1176 280 0
-1176 1168 0
1176 -280 -1168 0
-1192 281 0
-1192 1176 0
1192 -281 -1176 0
-1208 -282 0
-1208 1192 0
1208 282 -1192 0
-1272 283 0
-1272 1208 0
1272 -283 -1208 0
-1336 -284 0
-1336 1272 0
1336 284 -1272 0
-1592 285 0
-1592 1336 0
1592 -285 -1336 0
-1608 272 0
-1608 1600 0
1608 -272 -1600 0
-1624 273 0
-1624 1608 0
1624 -273 -1608 0
-1640 -274 0
-1640 1624 0
1640 274 -1624 0
-1704 275 0
-1704 1640 0
1704 -275 -1640 0
-1768 -276 0
-1768 1704 0
1768 276 -1704 0
-2024 277 0
-2024 1768 0
2024 -277 -1768 0
-2040 264 0
-2040 2032 0
2040 -264 -2032 0
-2056 265 0
-2056 2040 0
2056 -265 -2040 0
-2072 -266 0
-2072 2056 0
2072 266 -2056 0
-2136 267 0
-2136 2072 0
2136 -267 -2072 0
-2200 -268 0
-2200 2136 0
2200 268 -2136 0
-2456 269 0
-2456 2200 0
2456 -269 -2200 0
-2472 256 0
-2472 2464 0
2472 -256 -2464 0
-2488 257 0
-2488 2472 0
2488 -257 -2472 0
-2504 -258 0
-2504 2488 0
2504 258 -2488 0
-2568 259 0
-2568 2504 0
2568 -259 -2504 0
-2632 -260 0
-2632 2568 0
2632 260 -2568 0
-2888 261 0
-2888 2632 0
2888 -261 -2632 0
-2904 248 0
-2904 2896 0
2904 -248 -2896 0
-2920 249 0
-2920 2904 0
2920 -249 -2904 0
-2936 -250 0
-2936 2920 0
2936 250 -2920 0
-3000 251 0
-3000 2936 0
3000 -251 -2936 0
-3064 -252 0
-3064 3000 0
3064 252 -3000 0
-3320 253 0
-3320 3064 0
3320 -253 -3064 0
-3336 240 0
-3336 3328 0
3336 -240 -3328 0
-3352 241 0
-3352 3336 0
3352 -241 -3336 0
-3368 -242 0
-3368 3352 0
3368 242 -3352 0
-3432 243 0
-3432 3368 0
3432 -243 -3368 0
-3496 -244 0
-3496 3432 0
3496 244 -3432 0
-3752 245 0
-3752 3496 0
3752 -245 -3496 0
-3768 232 0
-3768 3760 0
3768 -232 -3760 0
-3784 233 0
-3784 3768 0
3784 -233 -3768 0
-3800 -234 0
-3800 3784 0
3800 234 -3784 0
-3864 235 0
-3864 3800 0
3864 -235 -3800 0
-3928 -236 0
-3928 3864 0
3928 236 -3864 0
-4184 237 0
-4184 3928 0
4184 -237 -3928 0
-4200 224 0
-4200 4192 0
4200 -224 -4192 0
-4216 225 0
-4216 4200 0
4216 -225 -4200 0
-4232 -226 0
-4232 4216 0
4232 226 -4216 0
-4296 227 0
-4296 4232 0
4296 -227 -4232 0
-4360 -228 0
-4360 4296 0
4360 228 -4296 0
-4616 229 0
-4616 4360 0
4616 -229 -4360 0
-4632 216 0
-4632 4624 0
4632 -216 -4624 0
-4648 217 0
-4648 4632 0
4648 -217 -4632 0
-4664 -218 0
-4664 4648 0
4664 218 -4648 0
-4728 219 0
-4728 4664 0
4728 -219 -4664 0
-4792 -220 0
-4792 4728 0
4792 220 -4728 0
-5048 221 0
-5048 4792 0
5048 -221 -4792 0
-5064 208 0
-5064 5056 0
5064 -208 -5056 0
-5080 209 0
-5080 5064 0
5080 -209 -5064 0
-5096 -210 0
-5096 5080 0
5096 210 -5080 0
-5160 211 0
-5160 5096 0
5160 -211 -5096 0
-5224 -212 0
-5224 5160 0
5224 212 -5160 0
-5480 213 0
-5480 5224 0
5480 -213 -5224 0
-5496 200 0
-5496 5488 0
5496 -200 -5488 0
-5512 201 0
-5512 5496 0
5512 -201 -5496 0
-5528 -202 0
-5528 5512 0
5528 202 -5512 0
-5592 203 0
-5592 5528 0
5592 -203 -5528 0
-5656 -204 0
-5656 5592 0
5656 204 -5592 0
-5912 205 0
-5912 5656 0
5912 -205 -5656 0
-5928 192 0
-5928 5920 0
5928 -192 -5920 0
-5944 193 0
-5944 5928 0
5944 -193 -5928 0
-5960 -194 0
-5960 5944 0
5960 194 -5944 0
-6024 195 0
-6024 5960 0
6024 -195 -5960 0
-6088 -196 0
-6088 6024 0
6088 196 -6024 0
-6344 197 0
-6344 6088 0
6344 -197 -6088 0
-6360 184 0
-6360 6352 0
6360 -184 -6352 0
-6376 185 0
-6376 6360 0
6376 -185 -6360 0
-6392 -186 0
-6392 6376 0
6392 186 -6376 0
-6456 187 0
-6456 6392 0
6456 -187 -6392 0
-6520 -188 0
-6520 6456 0
6520 188 -6456 0
-6776 189 0
-6776 6520 0
6776 -189 -6520 0
-6956 -6344 0
-6956 -6776 0
6956 6344 6776 0
-7136 -5912 0
-7136 6956 0
7136 5912 -6956 0
-7316 -5480 0
-7316 7136 0
7316 5480 -7136 0
-7496 -5048 0
-7496 7316 0
7496 5048 -7316 0
-7676 -4616 0
-7676 7496 0
7676 4616 -7496 0
-7856 -4184 0
-7856 7676 0
7856 4184 -7676 0
-8036 -3752 0
-8036 7856 0
8036 3752 -7856 0
-8216 -3320 0
-8216 8036 0
8216 3320 -8036 0
-8396 -2888 0
-8396 8216 0
8396 2888 -8216 0
-8576 -2456 0
-8576 8396 0
8576 2456 -8396 0
-8756 -2024 0
-8756 8576 0
8756 2024 -8576 0
-8936 -1592 0
-8936 8756 0
8936 1592 -8756 0
-9116 -1160 0
-9116 8936 0
9116 1160 -8936 0
-9296 -728 0
-9296 9116 0
9296 728 -9116 0
-9824 176 0
-9824 9296 0
9824 -176 -9296 0
-9825 -176 0
-9825 -9296 0
9825 176 9296 0
-9826 -9824 0
-9826 -9825 0
9826 9824 9825 0
175 -39888 0
-175 39888 0
-311 296 0
-311 303 0
311 -296 -303 0
-327 297 0
-327 311 0
327 -297 -311 0
-343 -298 0
-343 327 0
343 298 -327 0
-407 299 0
-407 343 0
407 -299 -343 0
-471 -300 0
-471 407 0
471 300 -407 0
-727 301 0
-727 471 0
727 -301 -471 0
-743 288 0
-743 735 0
743 -288 -735 0
-759 289 0
-759 743 0
759 -289 -743 0
-775 -290 0
-775 759 0
775 290 -759 0
-839 291 0
-839 775 0
839 -291 -775 0
-903 -292 0
-903 839 0
903 292 -839 0
-1159 293 0
-1159 903 0
1159 -293 -903 0
-1175 280 0
-1175 1167 0
1175 -280 -1167 0
-1191 281 0
-1191 1175 0
1191 -281 -1175 0
-1207 -282 0
-1207 1191 0
1207 282 -1191 0
-1271 283 0
-1271 1207 0
1271 -283 -1207 0
-1335 -284 0
-1335 1271 0
1335 284 -1271 0
-1591 285 0
-1591 1335 0
1591 -285 -1335 0
-1607 272 0
-1607 1599 0
1607 -272 -1599 0
-1623 273 0
-1623 1607 0
1623 -273 -1607 0
-1639 -274 0
-1639 1623 0
1639 274 -1623 0
-1703 275 0
-1703 1639 0
1703 -275 -1639 0
-1767 -276 0
-1767 1703 0
1767 276 -1703 0
-2023 277 0
-2023 1767 0
2023 -277 -1767 0
-2039 264 0
-2039 2031 0
2039 -264 -2031 0
-2055 265 0
-2055 2039 0
2055 -265 -2039 0
-2071 -266 0
-2071 2055 0
2071 266 -2055 0
-2135 267 0
-2135 2071 0
2135 -267 -2071 0
-2199 -268 0
-2199 2135 0
2199 268 -2135 0
-2455 269 0
-2455 2199 0
2455 -269 -2199 0
-2471 256 0
-2471 2463 0
2471 -256 -2463 0
-2487 257 0
-2487 2471 0
2487 -257 -2471 0
-2503 -258 0
-2503 2487 0
2503 258 -2487 0
-2567 259 0
-2567 2503 0
2567 -259 -2503 0
-2631 -260 0
-2631 2567 0
2631 260 -2567 0
-2887 261 0
-2887 2631 0
2887 -261 -2631 0
-2903 248 0
-2903 2895 0
2903 -248 -2895 0
-2919 249 0
-2919 2903 0
2919 -249 -2903 0
-2935 -250 0
-2935 2919 0
2935 250 -2919 0
-2999 251 0
-2999 2935 0
2999 -251 -2935 0
-3063 -252 0
-3063 2999 0
3063 252 -2999 0
-3319 253 0
-3319 3063 0
3319 -253 -3063 0
-3335 240 0
-3335 3327 0
3335 -240 -3327 0
-3351 241 0
-3351 3335 0
3351 -241 -3335 0
-3367 -242 0
-3367 3351 0
3367 242 -3351 0
-3431 243 0
-3431 3367 0
3431 -243 -3367 0
-3495 -244 0
-3495 3431 0
3495 244 -3431 0
-3751 245 0
-3751 3495 0
3751 -245 -3495 0
-3767 232 0
-3767 3759 0
3767 -232 -3759 0
-3783 233 0
-3783 3767 0
3783 -233 -3767 0
-3799 -234 0
-3799 3783 0
3799 234 -3783 0
-3863 235 0
-3863 3799 0
3863 -235 -3799 0
-3927 -236 0
-3927 3863 0
3927 236 -3863 0
-4183 237 0
-4183 3927 0
4183 -237 -3927 0
-4199 224 0
-4199 4191 0
4199 -224 -4191 0
-4215 225 0
-4215 4199 0
4215 -225 -4199 0
-4231 -226 0
-4231 4215 0
4231 226 -4215 0
-4295 227 0
-4295 4231 0
4295 -227 -4231 0
-4359 -228 0
-4359 4295 0
4359 228 -4295 0
-4615 229 0
-4615 4359 0
4615 -229 -4359 0
-4631 216 0
-4631 4623 0
4631 -216 -4623 0
-4647 217 0
-4647 4631 0
4647 -217 -4631 0
-4663 -218 0
-4663 4647 0
4663 218 -4647 0
-4727 219 0
-4727 4663 0
4727 -219 -4663 0
-4791 -220 0
-4791 4727 0
4791 220 -4727 0
-5047 221 0
-5047 4791 0
5047 -221 -4791 0
-5063 208 0
-5063 5055 0
5063 -208 -5055 0
-5079 209 0
-5079 5063 0
5079 -209 -5063 0
-5095 -210 0
-5095 5079 0
5095 210 -5079 0
-5159 211 0
-5159 5095 0
5159 -211 -5095 0
-5223 -212 0
-5223 5159 0
5223 212 -5159 0
-5479 213 0
-5479 5223 0
5479 -213 -5223 0
-5495 200 0
-5495 5487 0
5495 -200 -5487 0
-5511 201 0
-5511 5495 0
5511 -201 -5495 0
-5527 -202 0
-5527 5511 0
5527 202 -5511 0
-5591 203 0
-5591 5527 0
5591 -203 -5527 0
-5655 -204 0
-5655 5591 0
5655 204 -5591 0
-5911 205 0
-5911 5655 0
5911 -205 -5655 0
-5927 192 0
-5927 5919 0
5927 -192 -5919 0
-5943 193 0
-5943 5927 0
5943 -193 -5927 0
-5959 -194 0
-5959 5943 0
5959 194 -5943 0
-6023 195 0
-6023 5959 0
6023 -195 -5959 0
-6087 -196 0
-6087 6023 0
6087 196 -6023 0
-6343 197 0
-6343 6087 0
6343 -197 -6087 0
-6359 184 0
-6359 6351 0
6359 -184 -6351 0
-6375 185 0
-6375 6359 0
6375 -185 -6359 0
-6391 -186 0
-6391 6375 0
6391 186 -6375 0
-6455 187 0
-6455 6391 0
6455 -187 -6391 0
-6519 -188 0
-6519 6455 0
6519 188 -6455 0
-6775 189 0
-6775 6519 0
6775 -189 -6519 0
-6955 -6343 0
-6955 -6775 0
6955 6343 6775 0
-7135 -5911 0
-7135 6955 0
7135 5911 -6955 0
-7315 -5479 0
-7315 7135 0
7315 5479 -7135 0
-7495 -5047 0
-7495 7315 0
7495 5047 -7315 0
-7675 -4615 0
-7675 7495 0
7675 4615 -7495 0
-7855 -4183 0
-7855 7675 0
7855 4183 -7675 0
-8035 -3751 0
-8035 7855 0
8035 3751 -7855 0
-8215 -3319 0
-8215 8035 0
8215 3319 -8035 0
-8395 -2887 0
-8395 8215 0
8395 2887 -8215 0
-8575 -2455 0
-8575 8395 0
8575 2455 -8395 0
-8755 -2023 0
-8755 8575 0
8755 2023 -8575 0
-8935 -1591 0
-8935 8755 0
8935 1591 -8755 0
-9115 -1159 0
-9115 8935 0
9115 1159 -8935 0
-9295 -727 0
-9295 9115 0
9295 727 -9115 0
-9821 175 0
-9821 9295 0
9821 -175 -9295 0
-9822 -175 0
-9822 -9295 0
9822 175 9295 0
-9823 -9821 0
-9823 -9822 0
9823 9821 9822 0
174 -39887 0
-174 39887 0
-310 296 0
-310 302 0
310 -296 -302 0
-326 297 0
-326 310 0
326 -297 -310 0
-342 -298 0
-342 326 0
342 298 -326 0
-406 299 0
-406 342 0
406 -299 -342 0
-470 -300 0
-470 406 0
470 300 -406 0
-726 301 0
-726 470 0
726 -301 -470 0
-742 288 0
-742 734 0
742 -288 -734 0
-758 289 0
-758 742 0
758 -289 -742 0
-774 -290 0
-774 758 0
774 290 -758 0
-838 291 0
-838 774 0
838 -291 -774 0
-902 -292 0
-902 838 0
902 292 -838 0
-1158 293 0
-1158 902 0
1158 -293 -902 0
-1174 280 0
-1174 1166 0
1174 -280 -1166 0
-1190 281 0
-1190 1174 0
1190 -281 -1174 0
-1206 -282 0
-1206 1190 0
1206 282 -1190 0
-1270 283 0
-1270 1206 0
1270 -283 -1206 0
-1334 -284 0
-1334 1270 0
1334 284 -1270 0
-1590 285 0
-1590 1334 0
1590 -285 -1334 0
-1606 272 0
-1606 1598 0
1606 -272 -1598 0
-1622 273 0
-1622 1606 0
1622 -273 -1606 0
-1638 -274 0
-1638 1622 0
1638 274 -1622 0
-1702 275 0
-1702 1638 0
1702 -275 -1638 0
-1766 -276 0
-1766 1702 0
1766 276 -1702 0
-2022 277 0
-2022 1766 0
2022 -277 -1766 0
-2038 264 0
-2038 2030 0
2038 -264 -2030 0
-2054 265 0
-2054 2038 0
2054 -265 -2038 0
-2070 -266 0
-2070 2054 0
2070 266 -2054 0
-2134 267 0
-2134 2070 0
2134 -267 -2070 0
-2198 -268 0
-2198 2134 0
2198 268 -2134 0
-2454 269 0
-2454 2198 0
2454 -269 -2198 0
-2470 256 0
-2470 2462 0
2470 -256 -2462 0
-2486 257 0
-2486 2470 0
2486 -257 -2470 0
-2502 -258 0
-2502 2486 0
2502 258 -2486 0
-2566 259 0
-2566 2502 0
2566 -259 -2502 0
-2630 -260 0
-2630 2566 0
2630 260 -2566 0
-2886 261 0
-2886 2630 0
2886 -261 -2630 0
-2902 248 0
-2902 2894 0
2902 -248 -2894 0
-2918 249 0
-2918 2902 0
2918 -249 -2902 0
-2934 -250 0
-2934 2918 0
2934 250 -2918 0
-2998 251 0
-2998 2934 0
2998 -251 -2934 0
-3062 -252 0
-3062 2998 0
3062 252 -2998 0
-3318 253 0
-3318 3062 0
3318 -253 -3062 0
-3334 240 0
-3334 3326 0
3334 -240 -3326 0
-3350 241 0
-3350 3334 0
3350 -241 -3334 0
-3366 -242 0
-3366 3350 0
3366 242 -3350 0
-3430 243 0
-3430 3366 0
3430 -243 -3366 0
-3494 -244 0
-3494 3430 0
3494 244 -3430 0
-3750 245 0
-3750 3494 0
3750 -245 -3494 0
-3766 232 0
-3766 3758 0
3766 -232 -3758 0
-3782 233 0
-3782 3766 0
3782 -233 -3766 0
-3798 -234 0
-3798 3782 0
3798 234 -3782 0
-3862 235 0
-3862 3798 0
3862 -235 -3798 0
-3926 -236 0
-3926 3862 0
3926 236 -3862 0
-4182 237 0
-4182 3926 0
4182 -237 -3926 0
-4198 224 0
-4198 4190 0
4198 -224 -4190 0
-4214 225 0
-4214 4198 0
4214 -225 -4198 0
-4230 -226 0
-4230 4214 0
4230 226 -4214 0
-4294 227 0
-4294 4230 0
4294 -227 -4230 0
-4358 -228 0
-4358 4294 0
4358 228 -4294 0
-4614 229 0
-4614 4358 0
4614 -229 -4358 0
-4630 216 0
-4630 4622 0
4630 -216 -4622 0
-4646 217 0
-4646 4630 0
4646 -217 -4630 0
-4662 -218 0
-4662 4646 0
4662 218 -4646 0
-4726 219 0
-4726 4662 0
4726 -219 -4662 0
-4790 -220 0
-4790 4726 0
4790 220 -4726 0
-5046 221 0
-5046 4790 0
5046 -221 -4790 0
-5062 208 0
-5062 5054 0
5062 -208 -5054 0
-5078 209 0
-5078 5062 0
5078 -209 -5062 0
-5094 -210 0
-5094 5078 0
5094 210 -5078 0
-5158 211 0
-5158 5094 0
5158 -211 -5094 0
-5222 -212 0
-5222 5158 0
5222 212 -5158 0
-5478 213 0
-5478 5222 0
5478 -213 -5222 0
-5494 200 0
-5494 5486 0
5494 -200 -5486 0
-5510 201 0
-5510 5494 0
5510 -201 -5494 0
-5526 -202 0
-5526 5510 0
5526 202 -5510 0
-5590 203 0
-5590 5526 0
5590 -203 -5526 0
-5654 -204 0
-5654 5590 0
5654 204 -5590 0
-5910 205 0
-5910 5654 0
5910 -205 -5654 0
-5926 192 0
-5926 5918 0
5926 -192 -5918 0
-5942 193 0
-5942 5926 0
5942 -193 -5926 0
-5958 -194 0
-5958 5942 0
5958 194 -5942 0
-6022 195 0
-6022 5958 0
6022 -195 -5958 0
-6086 -196 0
-6086 6022 0
6086 196 -6022 0
-6342 197 0
-6342 6086 0
6342 -197 -6086 0
-6358 184 0
-6358 6350 0
6358 -184 -6350 0
-6374 185 0
-6374 6358 0
6374 -185 -6358 0
-6390 -186 0
-6390 6374 0
6390 186 -6374 0
-6454 187 0
-6454 6390 0
6454 -187 -6390 0
-6518 -188 0
-6518 6454 0
6518 188 -6454 0
-6774 189 0
-6774 6518 0
6774 -189 -6518 0
-6954 -6342 0
-6954 -6774 0
6954 6342 6774 0
-7134 -5910 0
-7134 6954 0
7134 5910 -6954 0
-7314 -5478 0
-7314 7134 0
7314 5478 -7134 0
-7494 -5046 0
-7494 7314 0
7494 5046 -7314 0
-7674 -4614 0
-7674 7494 0
7674 4614 -7494 0
-7854 -4182 0
-7854 7674 0
7854 4182 -7674 0
-8034 -3750 0
-8034 7854 0
8034 3750 -7854 0
-8214 -3318 0
-8214 8034 0
8214 3318 -8034 0
-8394 -2886 0
-8394 8214 0
8394 2886 -8214 0
-8574 -2454 0
-8574 8394 0
8574 2454 -8394 0
-8754 -2022 0
-8754 8574 0
8754 2022 -8574 0
-8934 -1590 0
-8934 8754 0
8934 1590 -8754 0
-9114 -1158 0
-9114 8934 0
9114 1158 -8934 0
-9294 -726 0
-9294 9114 0
9294 726 -9114 0
-9818 174 0
-9818 9294 0
9818 -174 -9294 0
-9819 -174 0
-9819 -9294 0
9819 174 9294 0
-9820 -9818 0
-9820 -9819 0
9820 9818 9819 0
173 -39886 0
-173 39886 0
-325 297 0
-325 309 0
325 -297 -309 0
-341 -298 0
-341 325 0
341 298 -325 0
-405 299 0
-405 341 0
405 -299 -341 0
-469 -300 0
-469 405 0
469 300 -405 0
-725 301 0
-725 469 0
725 -301 -469 0
-757 289 0
-757 741 0
757 -289 -741 0
-773 -290 0
-773 757 0
773 290 -757 0
-837 291 0
-837 773 0
837 -291 -773 0
-901 -292 0
-901 837 0
901 292 -837 0
-1157 293 0
-1157 901 0
1157 -293 -901 0
-1189 281 0
-1189 1173 0
1189 -281 -1173 0
-1205 -282 0
-1205 1189 0
1205 282 -1189 0
-1269 283 0
-1269 1205 0
1269 -283 -1205 0
-1333 -284 0
-1333 1269 0
1333 284 -1269 0
-1589 285 0
-1589 1333 0
1589 -285 -1333 0
-1621 273 0
-1621 1605 0
1621 -273 -1605 0
-1637 -274 0
-1637 1621 0
1637 274 -1621 0
-1701 275 0
-1701 1637 0
1701 -275 -1637 0
-1765 -276 0
-1765 1701 0
1765 276 -1701 0
-2021 277 0
-2021 1765 0
2021 -277 -1765 0
-2053 265 0
-2053 2037 0
2053 -265 -2037 0
-2069 -266 0
-2069 2053 0
2069 266 -2053 0
-2133 267 0
-2133 2069 0
2133 -267 -2069 0
-2197 -268 0
-2197 2133 0
2197 268 -2133 0
-2453 269 0
-2453 2197 0
2453 -269 -2197 0
-2485 257 0
-2485 2469 0
2485 -257 -2469 0
-2501 -258 0
-2501 2485 0
2501 258 -2485 0
-2565 259 0
-2565 2501 0
2565 -259 -2501 0
-2629 -260 0
-2629 2565 0
2629 260 -2565 0
-2885 261 0
-2885 2629 0
2885 -261 -2629 0
-2917 249 0
-2917 2901 0
2917 -249 -2901 0
-2933 -250 0
-2933 2917 0
2933 250 -2917 0
-2997 251 0
-2997 2933 0
2997 -251 -2933 0
-3061 -252 0
-3061 2997 0
3061 252 -2997 0
-3317 253 0
-3317 3061 0
3317 -253 -3061 0
-3349 241 0
-3349 3333 0
3349 -241 -3333 0
-3365 -242 0
-3365 3349 0
3365 242 -3349 0
-3429 243 0
-3429 3365 0
3429 -243 -3365 0
-3493 -244 0
-3493 3429 0
3493 244 -3429 0
-3749 245 0
-3749 3493 0
3749 -245 -3493 0
-3781 233 0
-3781 3765 0
3781 -233 -3765 0
-3797 -234 0
-3797 3781 0
3797 234 -3781 0
-3861 235 0
-3861 3797 0
3861 -235 -3797 0
-3925 -236 0
-3925 3861 0
3925 236 -3861 0
-4181 237 0
-4181 3925 0
4181 -237 -3925 0
-4213 225 0
-4213 4197 0
4213 -225 -4197 0
-4229 -226 0
-4229 4213 0
4229 226 -4213 0
-4293 227 0
-4293 4229 0
4293 -227 -4229 0
-4357 -228 0
-4357 4293 0
4357 228 -4293 0
-4613 229 0
-4613 4357 0
4613 -229 -4357 0
-4645 217 0
-4645 4629 0
4645 -217 -4629 0
-4661 -218 0
-4661 4645 0
4661 218 -4645 0
-4725 219 0
-4725 4661 0
4725 -219 -4661 0
-4789 -220 0
-4789 4725 0
4789 220 -4725 0
-5045 221 0
-5045 4789 0
5045 -221 -4789 0
-5077 209 0
-5077 5061 0
5077 -209 -5061 0
-5093 -210 0
-5093 5077 0
5093 210 -5077 0
-5157 211 0
-5157 5093 0
5157 -211 -5093 0
-5221 -212 0
-5221 5157 0
5221 212 -5157 0
-5477 213 0
-5477 5221 0
5477 -213 -5221 0
-5509 201 0
-5509 5493 0
5509 -201 -5493 0
-5525 -202 0
-5525 5509 0
5525 202 -5509 0
-5589 203 0
-5589 5525 0
5589 -203 -5525 0
-5653 -204 0
-5653 5589 0
5653 204 -5589 0
-5909 205 0
-5909 5653 0
5909 -205 -5653 0
-5941 193 0
-5941 5925 0
5941 -193 -5925 0
-5957 -194 0
-5957 5941 0
5957 194 -5941 0
-6021 195 0
-6021 5957 0
6021 -195 -5957 0
-6085 -196 0
-6085 6021 0
6085 196 -6021 0
-6341 197 0
-6341 6085 0
6341 -197 -6085 0
-6373 185 0
-6373 6357 0
6373 -185 -6357 0
-6389 -186 0
-6389 6373 0
6389 186 -6373 0
-6453 187 0
-6453 6389 0
6453 -187 -6389 0
-6517 -188 0
-6517 6453 0
6517 188 -6453 0
-6773 189 0
-6773 6517 0
6773 -189 -6517 0
-6953 -6341 0
-6953 -6773 0
6953 6341 6773 0
-7133 -5909 0
-7133 6953 0
7133 5909 -6953 0
-7313 -5477 0
-7313 7133 0
7313 5477 -7133 0
-7493 -5045 0
-7493 7313 0
7493 5045 -7313 0
-7673 -4613 0
-7673 7493 0
7673 4613 -7493 0
-7853 -4181 0
-7853 7673 0
7853 4181 -7673 0
-8033 -3749 0
-8033 7853 0
8033 3749 -7853 0
-8213 -3317 0
-8213 8033 0
8213 3317 -8033 0
-8393 -2885 0
-8393 8213 0
8393 2885 -8213 0
-8573 -2453 0
-8573 8393 0
8573 2453 -8393 0
-8753 -2021 0
-8753 8573 0
8753 2021 -8573 0
-8933 -1589 0
-8933 8753 0
8933 1589 -8753 0
-9113 -1157 0
-9113 8933 0
9113 1157 -8933 0
-9293 -725 0
-9293 9113 0
9293 725 -9113 0
-9815 173 0
-9815 9293 0
9815 -173 -9293 0
-9816 -173 0
-9816 -9293 0
9816 173 9293 0
-9817 -9815 0
-9817 -9816 0
9817 9815 9816 0
172 -39885 0
-172 39885 0
-324 297 0
-324 308 0
324 -297 -308 0
-340 -298 0
-340 324 0
340 298 -324 0
-404 299 0
-404 340 0
404 -299 -340 0
-468 -300 0
-468 404 0
468 300 -404 0
-724 301 0
-724 468 0
724 -301 -468 0
-756 289 0
-756 740 0
756 -289 -740 0
-772 -290 0
-772 756 0
772 290 -756 0
-836 291 0
-836 772 0
836 -291 -772 0
-900 -292 0
-900 836 0
900 292 -836 0
-1156 293 0
-1156 900 0
1156 -293 -900 0
-1188 281 0
-1188 1172 0
1188 -281 -1172 0
-1204 -282 0
-1204 1188 0
1204 282 -1188 0
-1268 283 0
-1268 1204 0
1268 -283 -1204 0
-1332 -284 0
-1332 1268 0
1332 284 -1268 0
-1588 285 0
-1588 1332 0
1588 -285 -1332 0
-1620 273 0
-1620 1604 0
1620 -273 -1604 0
-1636 -274 0
-1636 1620 0
1636 274 -1620 0
-1700 275 0
-1700 1636 0
1700 -275 -1636 0
-1764 -276 0
-1764 1700 0
1764 276 -1700 0
-2020 277 0
-2020 1764 0
2020 -277 -1764 0
-2052 265 0
-2052 2036 0
2052 -265 -2036 0
-2068 -266 0
-2068 2052 0
2068 266 -2052 0
-2132 267 0
-2132 2068 0
2132 -267 -2068 0
-2196 -268 0
-2196 2132 0
2196 268 -2132 0
-2452 269 0
-2452 2196 0
2452 -269 -2196 0
-2484 257 0
-2484 2468 0
2484 -257 -2468 0
-2500 -258 0
-2500 2484 0
2500 258 -2484 0
-2564 259 0
-2564 2500 0
2564 -259 -2500 0
-2628 -260 0
-2628 2564 0
2628 260 -2564 0
-2884 261 0
-2884 2628 0
2884 -261 -2628 0
-2916 249 0
-2916 2900 0
2916 -249 -2900 0
-2932 -250 0
-2932 2916 0
2932 250 -2916 0
-2996 251 0
-2996 2932 0
2996 -251 -2932 0
-3060 -252 0
-3060 2996 0
3060 252 -2996 0
-3316 253 0
-3316 3060 0
3316 -253 -3060 0
-3348 241 0
-3348 3332 0
3348 -241 -3332 0
-3364 -242 0
-3364 3348 0
3364 242 -3348 0
-3428 243 0
-3428 3364 0
3428 -243 -3364 0
-3492 -244 0
-3492 3428 0
3492 244 -3428 0
-3748 245 0
-3748 3492 0
3748 -245 -3492 0
-3780 233 0
-3780 3764 0
3780 -233 -3764 0
-3796 -234 0
-3796 3780 0
3796 234 -3780 0
-3860 235 0
-3860 3796 0
3860 -235 -3796 0
-3924 -236 0
-3924 3860 0
3924 236 -3860 0
-4180 237 0
-4180 3924 0
4180 -237 -3924 0
-4212 225 0
-4212 4196 0
4212 -225 -4196 0
-4228 -226 0
-4228 4212 0
4228 226 -4212 0
-4292 227 0
-4292 4228 0
4292 -227 -4228 0
-4356 -228 0
-4356 4292 0
4356 228 -4292 0
-4612 229 0
-4612 4356 0
4612 -229 -4356 0
-4644 217 0
-4644 4628 0
4644 -217 -4628 0
-4660 -218 0
-4660 4644 0
4660 218 -4644 0
-4724 219 0
-4724 4660 0
4724 -219 -4660 0
-4788 -220 0
-4788 4724 0
4788 220 -4724 0
-5044 221 0
-5044 4788 0
5044 -221 -4788 0
-5076 209 0
-5076 5060 0
5076 -209 -5060 0
-5092 -210 0
-5092 5076 0
5092 210 -5076 0
-5156 211 0
-5156 5092 0
5156 -211 -5092 0
-5220 -212 0
-5220 5156 0
5220 212 -5156 0
-5476 213 0
-5476 5220 0
5476 -213 -5220 0
-5508 201 0
-5508 5492 0
5508 -201 -5492 0
-5524 -202 0
-5524 5508 0
5524 202 -5508 0
-5588 203 0
-5588 5524 0
5588 -203 -5524 0
-5652 -204 0
-5652 5588 0
5652 204 -5588 0
-5908 205 0
-5908 5652 0
5908 -205 -5652 0
-5940 193 0
-5940 5924 0
5940 -193 -5924 0
-5956 -194 0
-5956 5940 0
5956 194 -5940 0
-6020 195 0
-6020 5956 0
6020 -195 -5956 0
-6084 -196 0
-6084 6020 0
6084 196 -6020 0
-6340 197 0
-6340 6084 0
6340 -197 -6084 0
-6372 185 0
-6372 6356 0
6372 -185 -6356 0
-6388 -186 0
-6388 6372 0
6388 186 -6372 0
-6452 187 0
-6452 6388 0
6452 -187 -6388 0
-6516 -188 0
-6516 6452 0
6516 188 -6452 0
-6772 189 0
-6772 6516 0
6772 -189 -6516 0
-6952 -6340 0
-6952 -6772 0
6952 6340 6772 0
-7132 -5908 0
-7132 6952 0
7132 5908 -6952 0
-7312 -5476 0
-7312 7132 0
7312 5476 -7132 0
-7492 -5044 0
-7492 7312 0
7492 5044 -7312 0
-7672 -4612 0
-7672 7492 0
7672 4612 -7492 0
-7852 -4180 0
-7852 7672 0
7852 4180 -7672 0
-8032 -3748 0
-8032 7852 0
8032 3748 -7852 0
-8212 -3316 0
-8212 8032 0
8212 3316 -8032 0
-8392 -2884 0
-8392 8212 0
8392 2884 -8212 0
-8572 -2452 0
-8572 8392 0
8572 2452 -8392 0
-8752 -2020 0
-8752 8572 0
8752 2020 -8572 0
-8932 -1588 0
-8932 8752 0
8932 1588 -8752 0
-9112 -1156 0
-9112 8932 0
9112 1156 -8932 0
-9292 -724 0
-9292 9112 0
9292 724 -9112 0
-9812 172 0
-9812 9292 0
9812 -172 -9292 0
-9813 -172 0
-9813 -9292 0
9813 172 9292 0
-9814 -9812 0
-9814 -9813 0
9814 9812 9813 0
171 -39884 0
-171 39884 0
-323 297 0
-323 307 0
323 -297 -307 0
-339 -298 0
-339 323 0
339 298 -323 0
-403 299 0
-403 339 0
403 -299 -339 0
-467 -300 0
-467 403 0
467 300 -403 0
-723 301 0
-723 467 0
723 -301 -467 0
-755 289 0
-755 739 0
755 -289 -739 0
-771 -290 0
-771 755 0
771 290 -755 0
-835 291 0
-835 771 0
835 -291 -771 0
-899 -292 0
-899 835 0
899 292 -835 0
-1155 293 0
-1155 899 0
1155 -293 -899 0
-1187 281 0
-1187 1171 0
1187 -281 -1171 0
-1203 -282 0
-1203 1187 0
1203 282 -1187 0
-1267 283 0
-1267 1203 0
1267 -283 -1203 0
-1331 -284 0
-1331 1267 0
1331 284 -1267 0
-1587 285 0
-1587 1331 0
1587 -285 -1331 0
-1619 273 0
-1619 1603 0
1619 -273 -1603 0
-1635 -274 0
-1635 1619 0
1635 274 -1619 0
-1699 275 0
-1699 1635 0
1699 -275 -1635 0
-1763 -276 0
-1763 1699 0
1763 276 -1699 0
-2019 277 0
-2019 1763 0
2019 -277 -1763 0
-2051 265 0
-2051 2035 0
2051 -265 -2035 0
-2067 -266 0
-2067 2051 0
2067 266 -2051 0
-2131 267 0
-2131 2067 0
2131 -267 -2067 0
-2195 -268 0
-2195 2131 0
2195 268 -2131 0
-2451 269 0
-2451 2195 0
2451 -269 -2195 0
-2483 257 0
-2483 2467 0
2483 -257 -2467 0
-2499 -258 0
-2499 2483 0
2499 258 -2483 0
-2563 259 0
-2563 2499 0
2563 -259 -2499 0
-2627 -260 0
-2627 2563 0
2627 260 -2563 0
-2883 261 0
-2883 2627 0
2883 -261 -2627 0
-2915 249 0
-2915 2899 0
2915 -249 -2899 0
-2931 -250 0
-2931 2915 0
2931 250 -2915 0
-2995 251 0
-2995 2931 0
2995 -251 -2931 0
-3059 -252 0
-3059 2995 0
3059 252 -2995 0
-3315 253 0
-3315 3059 0
3315 -253 -3059 0
-3347 241 0
-3347 3331 0
3347 -241 -3331 0
-3363 -242 0
-3363 3347 0
3363 242 -3347 0
-3427 243 0
-3427 3363 0
3427 -243 -3363 0
-3491 -244 0
-3491 3427 0
3491 244 -3427 0
-3747 245 0
-3747 3491 0
3747 -245 -3491 0
-3779 233 0
-3779 3763 0
3779 -233 -3763 0
-3795 -234 0
-3795 3779 0
3795 234 -3779 0
-3859 235 0
-3859 3795 0
3859 -235 -3795 0
-3923 -236 0
-3923 3859 0
3923 236 -3859 0
-4179 237 0
-4179 3923 0
4179 -237 -3923 0
-4211 225 0
-4211 4195 0
4211 -225 -4195 0
-4227 -226 0
-4227 4211 0
4227 226 -4211 0
-4291 227 0
-4291 4227 0
4291 -227 -4227 0
-4355 -228 0
-4355 4291 0
4355 228 -4291 0
-4611 229 0
-4611 4355 0
4611 -229 -4355 0
-4643 217 0
-4643 4627 0
4643 -217 -4627 0
-4659 -218 0
-4659 4643 0
4659 218 -4643 0
-4723 219 0
-4723 4659 0
4723 -219 -4659 0
-4787 -220 0
-4787 4723 0
4787 220 -4723 0
-5043 221 0
-5043 4787 0
5043 -221 -4787 0
-5075 209 0
-5075 5059 0
5075 -209 -5059 0
-5091 -210 0
-5091 5075 0
5091 210 -5075 0
-5155 211 0
-5155 5091 0
5155 -211 -5091 0
-5219 -212 0
-5219 5155 0
5219 212 -5155 0
-5475 213 0
-5475 5219 0
5475 -213 -5219 0
-5507 201 0
-5507 5491 0
5507 -201 -5491 0
-5523 -202 0
-5523 5507 0
5523 202 -5507 0
-5587 203 0
-5587 5523 0
5587 -203 -5523 0
-5651 -204 0
-5651 5587 0
5651 204 -5587 0
-5907 205 0
-5907 5651 0
5907 -205 -5651 0
-5939 193 0
-5939 5923 0
5939 -193 -5923 0
-5955 -194 0
-5955 5939 0
5955 194 -5939 0
-6019 195 0
-6019 5955 0
6019 -195 -5955 0
-6083 -196 0
-6083 6019 0
6083 196 -6019 0
-6339 197 0
-6339 6083 0
6339 -197 -6083 0
-6371 185 0
-6371 6355 0
6371 -185 -6355 0
-6387 -186 0
-6387 6371 0
6387 186 -6371 0
-6451 187 0
-6451 6387 0
6451 -187 -6387 0
-6515 -188 0
-6515 6451 0
6515 188 -6451 0
-6771 189 0
-6771 6515 0
6771 -189 -6515 0
-6951 -6339 0
-6951 -6771 0
6951 6339 6771 0
-7131 -5907 0
-7131 6951 0
7131 5907 -6951 0
-7311 -5475 0
-7311 7131 0
7311 5475 -7131 0
-7491 -5043 0
-7491 7311 0
7491 5043 -7311 0
-7671 -4611 0
-7671 7491 0
7671 4611 -7491 0
-7851 -4179 0
-7851 7671 0
7851 4179 -7671 0
-8031 -3747 0
-8031 7851 0
8031 3747 -7851 0
-8211 -3315 0
-8211 8031 0
8211 3315 -8031 0
-8391 -2883 0
-8391 8211 0
8391 2883 -8211 0
-8571 -2451 0
-8571 8391 0
8571 2451 -8391 0
-8751 -2019 0
-8751 8571 0
8751 2019 -8571 0
-8931 -1587 0
-8931 8751 0
8931 1587 -8751 0
-9111 -1155 0
-9111 8931 0
9111 1155 -8931 0
-9291 -723 0
-9291 9111 0
9291 723 -9111 0
-9809 171 0
-9809 9291 0
9809 -171 -9291 0
-9810 -171 0
-9810 -9291 0
9810 171 9291 0
-9811 -9809 0
-9811 -9810 0
9811 9809 9810 0
170 -39883 0
-170 39883 0
-322 297 0
-322 306 0
322 -297 -306 0
-338 -298 0
-338 322 0
338 298 -322 0
-402 299 0
-402 338 0
402 -299 -338 0
-466 -300 0
-466 402 0
466 300 -402 0
-722 301 0
-722 466 0
722 -301 -466 0
-754 289 0
-754 738 0
754 -289 -738 0
-770 -290 0
-770 754 0
770 290 -754 0
-834 291 0
-834 770 0
834 -291 -770 0
-898 -292 0
-898 834 0
898 292 -834 0
-1154 293 0
-1154 898 0
1154 -293 -898 0
-1186 281 0
-1186 1170 0
1186 -281 -1170 0
-1202 -282 0
-1202 1186 0
1202 282 -1186 0
-1266 283 0
-1266 1202 0
1266 -283 -1202 0
-1330 -284 0
-1330 1266 0
1330 284 -1266 0
-1586 285 0
-1586 1330 0
1586 -285 -1330 0
-1618 273 0
-1618 1602 0
1618 -273 -1602 0
-1634 -274 0
-1634 1618 0
1634 274 -1618 0
-1698 275 0
-1698 1634 0
1698 -275 -1634 0
-1762 -276 0
-1762 1698 0
1762 276 -1698 0
-2018 277 0
-2018 1762 0
2018 -277 -1762 0
-2050 265 0
-2050 2034 0
2050 -265 -2034 0
-2066 -266 0
-2066 2050 0
2066 266 -2050 0
-2130 267 0
-2130 2066 0
2130 -267 -2066 0
-2194 -268 0
-2194 2130 0
2194 268 -2130 0
-2450 269 0
-2450 2194 0
2450 -269 -2194 0
-2482 257 0
-2482 2466 0
2482 -257 -2466 0
-2498 -258 0
-2498 2482 0
2498 258 -2482 0
-2562 259 0
-2562 2498 0
2562 -259 -2498 0
-2626 -260 0
-2626 2562 0
2626 260 -2562 0
-2882 261 0
-2882 2626 0
2882 -261 -2626 0
-2914 249 0
-2914 2898 0
2914 -249 -2898 0
-2930 -250 0
-2930 2914 0
2930 250 -2914 0
-2994 251 0
-2994 2930 0
2994 -251 -2930 0
-3058 -252 0
-3058 2994 0
3058 252 -2994 0
-3314 253 0
-3314 3058 0
3314 -253 -3058 0
-3346 241 0
-3346 3330 0
3346 -241 -3330 0
-3362 -242 0
-3362 3346 0
3362 242 -3346 0
-3426 243 0
-3426 3362 0
3426 -243 -3362 0
-3490 -244 0
-3490 3426 0
3490 244 -3426 0
-3746 245 0
-3746 3490 0
3746 -245 -3490 0
-3778 233 0
-3778 3762 0
3778 -233 -3762 0
-3794 -234 0
-3794 3778 0
3794 234 -3778 0
-3858 235 0
-3858 3794 0
3858 -235 -3794 0
-3922 -236 0
-3922 3858 0
3922 236 -3858 0
-4178 237 0
-4178 3922 0
4178 -237 -3922 0
-4210 225 0
-4210 4194 0
4210 -225 -4194 0
-4226 -226 0
-4226 4210 0
4226 226 -4210 0
-4290 227 0
-4290 4226 0
4290 -227 -4226 0
-4354 -228 0
-4354 4290 0
4354 228 -4290 0
-4610 229 0
-4610 4354 0
4610 -229 -4354 0
-4642 217 0
-4642 4626 0
4642 -217 -4626 0
-4658 -218 0
-4658 4642 0
4658 218 -4642 0
-4722 219 0
-4722 4658 0
4722 -219 -4658 0
-4786 -220 0
-4786 4722 0
4786 220 -4722 0
-5042 221 0
-5042 4786 0
5042 -221 -4786 0
-5074 209 0
-5074 5058 0
5074 -209 -5058 0
-5090 -210 0
-5090 5074 0
5090 210 -5074 0
-5154 211 0
-5154 5090 0
5154 -211 -5090 0
-5218 -212 0
-5218 5154 0
5218 212 -5154 0
-5474 213 0
-5474 5218 0
5474 -213 -5218 0
-5506 201 0
-5506 5490 0
5506 -201 -5490 0
-5522 -202 0
-5522 5506 0
5522 202 -5506 0
-5586 203 0
-5586 5522 0
5586 -203 -5522 0
-5650 -204 0
-5650 5586 0
5650 204 -5586 0
-5906 205 0
-5906 5650 0
5906 -205 -5650 0
-5938 193 0
-5938 5922 0
5938 -193 -5922 0
-5954 -194 0
-5954 5938 0
5954 194 -5938 0
-6018 195 0
-6018 5954 0
6018 -195 -5954 0
-6082 -196 0
-6082 6018 0
6082 196 -6018 0
-6338 197 0
-6338 6082 0
6338 -197 -6082 0
-6370 185 0
-6370 6354 0
6370 -185 -6354 0
-6386 -186 0
-6386 6370 0
6386 186 -6370 0
-6450 187 0
-6450 6386 0
6450 -187 -6386 0
-6514 -188 0
-6514 6450 0
6514 188 -6450 0
-6770 189 0
-6770 6514 0
6770 -189 -6514 0
-6950 -6338 0
-6950 -6770 0
6950 6338 6770 0
-7130 -5906 0
-7130 6950 0
7130 5906 -6950 0
-7310 -5474 0
-7310 7130 0
7310 5474 -7130 0
-7490 -5042 0
-7490 7310 0
7490 5042 -7310 0
-7670 -4610 0
-7670 7490 0
7670 4610 -7490 0
-7850 -4178 0
-7850 7670 0
7850 4178 -7670 0
-8030 -3746 0
-8030 7850 0
8030 3746 -7850 0
-8210 -3314 0
-8210 8030 0
8210 3314 -8030 0
-8390 -2882 0
-8390 8210 0
8390 2882 -8210 0
-8570 -2450 0
-8570 8390 0
8570 2450 -8390 0
-8750 -2018 0
-8750 8570 0
8750 2018 -8570 0
-8930 -1586 0
-8930 8750 0
8930 1586 -8750 0
-9110 -1154 0
-9110 8930 0
9110 1154 -8930 0
-9290 -722 0
-9290 9110 0
9290 722 -9110 0
-9806 170 0
-9806 9290 0
9806 -170 -9290 0
-9807 -170 0
-9807 -9290 0
9807 170 9290 0
-9808 -9806 0
-9808 -9807 0
9808 9806 9807 0
169 -39882 0
-169 39882 0
-321 -297 0
-321 313 0
321 297 -313 0
-337 -298 0
-337 321 0
337 298 -321 0
-401 299 0
-401 337 0
401 -299 -337 0
-465 -300 0
-465 401 0
465 300 -401 0
-721 301 0
-721 465 0
721 -301 -465 0
-753 -289 0
-753 745 0
753 289 -745 0
-769 -290 0
-769 753 0
769 290 -753 0
-833 291 0
-833 769 0
833 -291 -769 0
-897 -292 0
-897 833 0
897 292 -833 0
-1153 293 0
-1153 897 0
1153 -293 -897 0
-1185 -281 0
-1185 1177 0
1185 281 -1177 0
-1201 -282 0
-1201 1185 0
1201 282 -1185 0
-1265 283 0
-1265 1201 0
1265 -283 -1201 0
-1329 -284 0
-1329 1265 0
1329 284 -1265 0
-1585 285 0
-1585 1329 0
1585 -285 -1329 0
-1617 -273 0
-1617 1609 0
1617 273 -1609 0
-1633 -274 0
-1633 1617 0
1633 274 -1617 0
-1697 275 0
-1697 1633 0
1697 -275 -1633 0
-1761 -276 0
-1761 1697 0
1761 276 -1697 0
-2017 277 0
-2017 1761 0
2017 -277 -1761 0
-2049 -265 0
-2049 2041 0
2049 265 -2041 0
-2065 -266 0
-2065 2049 0
2065 266 -2049 0
-2129 267 0
-2129 2065 0
2129 -267 -2065 0
-2193 -268 0
-2193 2129 0
2193 268 -2129 0
-2449 269 0
-2449 2193 0
2449 -269 -2193 0
-2481 -257 0
-2481 2473 0
2481 257 -2473 0
-2497 -258 0
-2497 2481 0
2497 258 -2481 0
-2561 259 0
-2561 2497 0
2561 -259 -2497 0
-2625 -260 0
-2625 2561 0
2625 260 -2561 0
-2881 261 0
-2881 2625 0
2881 -261 -2625 0
-2913 -249 0
-2913 2905 0
2913 249 -2905 0
-2929 -250 0
-2929 2913 0
2929 250 -2913 0
-2993 251 0
-2993 2929 0
2993 -251 -2929 0
-3057 -252 0
-3057 2993 0
3057 252 -2993 0
-3313 253 0
-3313 3057 0
3313 -253 -3057 0
-3345 -241 0
-3345 3337 0
3345 241 -3337 0
-3361 -242 0
-3361 3345 0
3361 242 -3345 0
-3425 243 0
-3425 3361 0
3425 -243 -3361 0
-3489 -244 0
-3489 3425 0
3489 244 -3425 0
-3745 245 0
-3745 3489 0
3745 -245 -3489 0
-3777 -233 0
-3777 3769 0
3777 233 -3769 0
-3793 -234 0
-3793 3777 0
3793 234 -3777 0
-3857 235 0
-3857 3793 0
3857 -235 -3793 0
-3921 -236 0
-3921 3857 0
3921 236 -3857 0
-4177 237 0
-4177 3921 0
4177 -237 -3921 0
-4209 -225 0
-4209 4201 0
4209 225 -4201 0
-4225 -226 0
-4225 4209 0
4225 226 -4209 0
-4289 227 0
-4289 4225 0
4289 -227 -4225 0
-4353 -228 0
-4353 4289 0
4353 228 -4289 0
-4609 229 0
-4609 4353 0
4609 -229 -4353 0
-4641 -217 0
-4641 4633 0
4641 217 -4633 0
-4657 -218 0
-4657 4641 0
4657 218 -4641 0
-4721 219 0
-4721 4657 0
4721 -219 -4657 0
-4785 -220 0
-4785 4721 0
4785 220 -4721 0
-5041 221 0
-5041 4785 0
5041 -221 -4785 0
-5073 -209 0
-5073 5065 0
5073 209 -5065 0
-5089 -210 0
-5089 5073 0
5089 210 -5073 0
-5153 211 0
-5153 5089 0
5153 -211 -5089 0
-5217 -212 0
-5217 5153 0
5217 212 -5153 0
-5473 213 0
-5473 5217 0
5473 -213 -5217 0
-5505 -201 0
-5505 5497 0
5505 201 -5497 0
-5521 -202 0
-5521 5505 0
5521 202 -5505 0
-5585 203 0
-5585 5521 0
5585 -203 -5521 0
-5649 -204 0
-5649 5585 0
5649 204 -5585 0
-5905 205 0
-5905 5649 0
5905 -205 -5649 0
-5937 -193 0
-5937 5929 0
5937 193 -5929 0
-5953 -194 0
-5953 5937 0
5953 194 -5937 0
-6017 195 0
-6017 5953 0
6017 -195 -5953 0
-6081 -196 0
-6081 6017 0
6081 196 -6017 0
-6337 197 0
-6337 6081 0
6337 -197 -6081 0
-6369 -185 0
-6369 6361 0
6369 185 -6361 0
-6385 -186 0
-6385 6369 0
6385 186 -6369 0
-6449 187 0
-6449 6385 0
6449 -187 -6385 0
-6513 -188 0
-6513 6449 0
6513 188 -6449 0
-6769 189 0
-6769 6513 0
6769 -189 -6513 0
-6949 -6337 0
-6949 -6769 0
6949 6337 6769 0
-7129 -5905 0
-7129 6949 0
7129 5905 -6949 0
-7309 -5473 0
-7309 7129 0
7309 5473 -7129 0
-7489 -5041 0
-7489 7309 0
7489 5041 -7309 0
-7669 -4609 0
-7669 7489 0
7669 4609 -7489 0
-7849 -4177 0
-7849 7669 0
7849 4177 -7669 0
-8029 -3745 0
-8029 7849 0
8029 3745 -7849 0
-8209 -3313 0
-8209 8029 0
8209 3313 -8029 0
-8389 -2881 0
-8389 8209 0
8389 2881 -8209 0
-8569 -2449 0
-8569 8389 0
8569 2449 -8389 0
-8749 -2017 0
-8749 8569 0
8749 2017 -8569 0
-8929 -1585 0
-8929 8749 0
8929 1585 -8749 0
-9109 -1153 0
-9109 8929 0
9109 1153 -8929 0
-9289 -721 0
-9289 9109 0
9289 721 -9109 0
-9803 169 0
-9803 9289 0
9803 -169 -9289 0
-9804 -169 0
-9804 -9289 0
9804 169 9289 0
-9805 -9803 0
-9805 -9804 0
9805 9803 9804 0
168 -39881 0
-168 39881 0
-320 -297 0
-320 312 0
320 297 -312 0
-336 -298 0
-336 320 0
336 298 -320 0
-400 299 0
-400 336 0
400 -299 -336 0
-464 -300 0
-464 400 0
464 300 -400 0
-720 301 0
-720 464 0
720 -301 -464 0
-752 -289 0
-752 744 0
752 289 -744 0
-768 -290 0
-768 752 0
768 290 -752 0
-832 291 0
-832 768 0
832 -291 -768 0
-896 -292 0
-896 832 0
896 292 -832 0
-1152 293 0
-1152 896 0
1152 -293 -896 0
-1184 -281 0
-1184 1176 0
1184 281 -1176 0
-1200 -282 0
-1200 1184 0
1200 282 -1184 0
-1264 283 0
-1264 1200 0
1264 -283 -1200 0
-1328 -284 0
-1328 1264 0
1328 284 -1264 0
-1584 285 0
-1584 1328 0
1584 -285 -1328 0
-1616 -273 0
-1616 1608 0
1616 273 -1608 0
-1632 -274 0
-1632 1616 0
1632 274 -1616 0
-1696 275 0
-1696 1632 0
1696 -275 -1632 0
-1760 -276 0
-1760 1696 0
1760 276 -1696 0
-2016 277 0
-2016 1760 0
2016 -277 -1760 0
-2048 -265 0
-2048 2040 0
2048 265 -2040 0
-2064 -266 0
-2064 2048 0
2064 266 -2048 0
-2128 267 0
-2128 2064 0
2128 -267 -2064 0
-2192 -268 0
-2192 2128 0
2192 268 -2128 0
-2448 269 0
-2448 2192 0
2448 -269 -2192 0
-2480 -257 0
-2480 2472 0
2480 257 -2472 0
-2496 -258 0
-2496 2480 0
2496 258 -2480 0
-2560 259 0
-2560 2496 0
2560 -259 -2496 0
-2624 -260 0
-2624 2560 0
2624 260 -2560 0
-2880 261 0
-2880 2624 0
2880 -261 -2624 0
-2912 -249 0
-2912 2904 0
2912 249 -2904 0
-2928 -250 0
-2928 2912 0
2928 250 -2912 0
-2992 251 0
-2992 2928 0
2992 -251 -2928 0
-3056 -252 0
-3056 2992 0
3056 252 -2992 0
-3312 253 0
-3312 3056 0
3312 -253 -3056 0
-3344 -241 0
-3344 3336 0
3344 241 -3336 0
-3360 -242 0
-3360 3344 0
3360 242 -3344 0
-3424 243 0
-3424 3360 0
3424 -243 -3360 0
-3488 -244 0
-3488 3424 0
3488 244 -3424 0
-3744 245 0
-3744 3488 0
3744 -245 -3488 0
-3776 -233 0
-3776 3768 0
3776 233 -3768 0
-3792 -234 0
-3792 3776 0
3792 234 -3776 0
-3856 235 0
-3856 3792 0
3856 -235 -3792 0
-3920 -236 0
-3920 3856 0
3920 236 -3856 0
-4176 237 0
-4176 3920 0
4176 -237 -3920 0
-4208 -225 0
-4208 4200 0
4208 225 -4200 0
-4224 -226 0
-4224 4208 0
4224 226 -4208 0
-4288 227 0
-4288 4224 0
4288 -227 -4224 0
-4352 -228 0
-4352 4288 0
4352 228 -4288 0
-4608 229 0
-4608 4352 0
4608 -229 -4352 0
-4640 -217 0
-4640 4632 0
4640 217 -4632 0
-4656 -218 0
-4656 4640 0
4656 218 -4640 0
-4720 219 0
-4720 4656 0
4720 -219 -4656 0
-4784 -220 0
-4784 4720 0
4784 220 -4720 0
-5040 221 0
-5040 4784 0
5040 -221 -4784 0
-5072 -209 0
-5072 5064 0
5072 209 -5064 0
-5088 -210 0
-5088 5072 0
5088 210 -5072 0
-5152 211 0
-5152 5088 0
5152 -211 -5088 0
-5216 -212 0
-5216 5152 0
5216 212 -5152 0
-5472 213 0
-5472 5216 0
5472 -213 -5216 0
-5504 -201 0
-5504 5496 0
5504 201 -5496 0
-5520 -202 0
-5520 5504 0
5520 202 -5504 0
-5584 203 0
-5584 5520 0
5584 -203 -5520 0
-5648 -204 0
-5648 5584 0
5648 204 -5584 0
-5904 205 0
-5904 5648 0
5904 -205 -5648 0
-5936 -193 0
-5936 5928 0
5936 193 -5928 0
-5952 -194 0
-5952 5936 0
5952 194 -5936 0
-6016 195 0
-6016 5952 0
6016 -195 -5952 0
-6080 -196 0
-6080 6016 0
6080 196 -6016 0
-6336 197 0
-6336 6080 0
6336 -197 -6080 0
-6368 -185 0
-6368 6360 0
6368 185 -6360 0
-6384 -186 0
-6384 6368 0
6384 186 -6368 0
-6448 187 0
-6448 6384 0
6448 -187 -6384 0
-6512 -188 0
-6512 6448 0
6512 188 -6448 0
-6768 189 0
-6768 6512 0
6768 -189 -6512 0
-6948 -6336 0
-6948 -6768 0
6948 6336 6768 0
-7128 -5904 0
-7128 6948 0
7128 5904 -6948 0
-7308 -5472 0
-7308 7128 0
7308 5472 -7128 0
-7488 -5040 0
-7488 7308 0
7488 5040 -7308 0
-7668 -4608 0
-7668 7488 0
7668 4608 -7488 0
-7848 -4176 0
-7848 7668 0
7848 4176 -7668 0
-8028 -3744 0
-8028 7848 0
8028 3744 -7848 0
-8208 -3312 0
-8208 8028 0
8208 3312 -8028 0
-8388 -2880 0
-8388 8208 0
8388 2880 -8208 0
-8568 -2448 0
-8568 8388 0
8568 2448 -8388 0
-8748 -2016 0
-8748 8568 0
8748 2016 -8568 0
-8928 -1584 0
-8928 8748 0
8928 1584 -8748 0
-9108 -1152 0
-9108 8928 0
9108 1152 -8928 0
-9288 -720 0
-9288 9108 0
9288 720 -9108 0
-9800 168 0
-9800 9288 0
9800 -168 -9288 0
-9801 -168 0
-9801 -9288 0
9801 168 9288 0
-9802 -9800 0
-9802 -9801 0
9802 9800 9801 0
167 -39880 0
-167 39880 0
-319 -297 0
-319 311 0
319 297 -311 0
-335 -298 0
-335 319 0
335 298 -319 0
-399 299 0
-399 335 0
399 -299 -335 0
-463 -300 0
-463 399 0
463 300 -399 0
-719 301 0
-719 463 0
719 -301 -463 0
-751 -289 0
-751 743 0
751 289 -743 0
-767 -290 0
-767 751 0
767 290 -751 0
-831 291 0
-831 767 0
831 -291 -767 0
-895 -292 0
-895 831 0
895 292 -831 0
-1151 293 0
-1151 895 0
1151 -293 -895 0
-1183 -281 0
-1183 1175 0
1183 281 -1175 0
-1199 -282 0
-1199 1183 0
1199 282 -1183 0
-1263 283 0
-1263 1199 0
1263 -283 -1199 0
-1327 -284 0
-1327 1263 0
1327 284 -1263 0
-1583 285 0
-1583 1327 0
1583 -285 -1327 0
-1615 -273 0
-1615 1607 0
1615 273 -1607 0
-1631 -274 0
-1631 1615 0
1631 274 -1615 0
-1695 275 0
-1695 1631 0
1695 -275 -1631 0
-1759 -276 0
-1759 1695 0
1759 276 -1695 0
-2015 277 0
-2015 1759 0
2015 -277 -1759 0
-2047 -265 0
-2047 2039 0
2047 265 -2039 0
-2063 -266 0
-2063 2047 0
2063 266 -2047 0
-2127 267 0
-2127 2063 0
2127 -267 -2063 0
-2191 -268 0
-2191 2127 0
2191 268 -2127 0
-2447 269 0
-2447 2191 0
2447 -269 -2191 0
-2479 -257 0
-2479 2471 0
2479 257 -2471 0
-2495 -258 0
-2495 2479 0
2495 258 -2479 0
-2559 259 0
-2559 2495 0
2559 -259 -2495 0
-2623 -260 0
-2623 2559 0
2623 260 -2559 0
-2879 261 0
-2879 2623 0
2879 -261 -2623 0
-2911 -249 0
-2911 2903 0
2911 249 -2903 0
-2927 -250 0
-2927 2911 0
2927 250 -2911 0
-2991 251 0
-2991 2927 0
2991 -251 -2927 0
-3055 -252 0
-3055 2991 0
3055 252 -2991 0
-3311 253 0
-3311 3055 0
3311 -253 -3055 0
-3343 -241 0
-3343 3335 0
3343 241 -3335 0
-3359 -242 0
-3359 3343 0
3359 242 -3343 0
-3423 243 0
-3423 3359 0
3423 -243 -3359 0
-3487 -244 0
-3487 3423 0
3487 244 -3423 0
-3743 245 0
-3743 3487 0
3743 -245 -3487 0
-3775 -233 0
-3775 3767 0
3775 233 -3767 0
-3791 -234 0
-3791 3775 0
3791 234 -3775 0
-3855 235 0
-3855 3791 0
3855 -235 -3791 0
-3919 -236 0
-3919 3855 0
3919 236 -3855 0
-4175 237 0
-4175 3919 0
4175 -237 -3919 0
-4207 -225 0
-4207 4199 0
4207 225 -4199 0
-4223 -226 0
-4223 4207 0
4223 226 -4207 0
-4287 227 0
-4287 4223 0
4287 -227 -4223 0
-4351 -228 0
-4351 4287 0
4351 228 -4287 0
-4607 229 0
-4607 4351 0
4607 -229 -4351 0
-4639 -217 0
-4639 4631 0
4639 217 -4631 0
-4655 -218 0
-4655 4639 0
4655 218 -4639 0
-4719 219 0
-4719 4655 0
4719 -219 -4655 0
-4783 -220 0
-4783 4719 0
4783 220 -4719 0
-5039 221 0
-5039 4783 0
5039 -221 -4783 0
-5071 -209 0
-5071 5063 0
5071 209 -5063 0
-5087 -210 0
-5087 5071 0
5087 210 -5071 0
-5151 211 0
-5151 5087 0
5151 -211 -5087 0
-5215 -212 0
-5215 5151 0
5215 212 -5151 0
-5471 213 0
-5471 5215 0
5471 -213 -5215 0
-5503 -201 0
-5503 5495 0
5503 201 -5495 0
-5519 -202 0
-5519 5503 0
5519 202 -5503 0
-5583 203 0
-5583 5519 0
5583 -203 -5519 0
-5647 -204 0
-5647 5583 0
5647 204 -5583 0
-5903 205 0
-5903 5647 0
5903 -205 -5647 0
-5935 -193 0
-5935 5927 0
5935 193 -5927 0
-5951 -194 0
-5951 5935 0
5951 194 -5935 0
-6015 195 0
-6015 5951 0
6015 -195 -5951 0
-6079 -196 0
-6079 6015 0
6079 196 -6015 0
-6335 197 0
-6335 6079 0
6335 -197 -6079 0
-6367 -185 0
-6367 6359 0
6367 185 -6359 0
-6383 -186 0
-6383 6367 0
6383 186 -6367 0
-6447 187 0
-6447 6383 0
6447 -187 -6383 0
-6511 -188 0
-6511 6447 0
6511 188 -6447 0
-6767 189 0
-6767 6511 0
6767 -189 -6511 0
-6947 -6335 0
-6947 -6767 0
6947 6335 6767 0
-7127 -5903 0
-7127 6947 0
7127 5903 -6947 0
-7307 -5471 0
-7307 7127 0
7307 5471 -7127 0
-7487 -5039 0
-7487 7307 0
7487 5039 -7307 0
-7667 -4607 0
-7667 7487 0
7667 4607 -7487 0
-7847 -4175 0
-7847 7667 0
7847 4175 -7667 0
-8027 -3743 0
-8027 7847 0
8027 3743 -7847 0
-8207 -3311 0
-8207 8027 0
8207 3311 -8027 0
-8387 -2879 0
-8387 8207 0
8387 2879 -8207 0
-8567 -2447 0
-8567 8387 0
8567 2447 -8387 0
-8747 -2015 0
-8747 8567 0
8747 2015 -8567 0
-8927 -1583 0
-8927 8747 0
8927 1583 -8747 0
-9107 -1151 0
-9107 8927 0
9107 1151 -8927 0
-9287 -719 0
-9287 9107 0
9287 719 -9107 0
-9797 167 0
-9797 9287 0
9797 -167 -9287 0
-9798 -167 0
-9798 -9287 0
9798 167 9287 0
-9799 -9797 0
-9799 -9798 0
9799 9797 9798 0
166 -39879 0
-166 39879 0
-318 -297 0
-318 310 0
318 297 -310 0
-334 -298 0
-334 318 0
334 298 -318 0
-398 299 0
-398 334 0
398 -299 -334 0
-462 -300 0
-462 398 0
462 300 -398 0
-718 301 0
-718 462 0
718 -301 -462 0
-750 -289 0
-750 742 0
750 289 -742 0
-766 -290 0
-766 750 0
766 290 -750 0
-830 291 0
-830 766 0
830 -291 -766 0
-894 -292 0
-894 830 0
894 292 -830 0
-1150 293 0
-1150 894 0
1150 -293 -894 0
-1182 -281 0
-1182 1174 0
1182 281 -1174 0
-1198 -282 0
-1198 1182 0
1198 282 -1182 0
-1262 283 0
-1262 1198 0
1262 -283 -1198 0
-1326 -284 0
-1326 1262 0
1326 284 -1262 0
-1582 285 0
-1582 1326 0
1582 -285 -1326 0
-1614 -273 0
-1614 1606 0
1614 273 -1606 0
-1630 -274 0
-1630 1614 0
1630 274 -1614 0
-1694 275 0
-1694 1630 0
1694 -275 -1630 0
-1758 -276 0
-1758 1694 0
1758 276 -1694 0
-2014 277 0
-2014 1758 0
2014 -277 -1758 0
-2046 -265 0
-2046 2038 0
2046 265 -2038 0
-2062 -266 0
-2062 2046 0
2062 266 -2046 0
-2126 267 0
-2126 2062 0
2126 -267 -2062 0
-2190 -268 0
-2190 2126 0
2190 268 -2126 0
-2446 269 0
-2446 2190 0
2446 -269 -2190 0
-2478 -257 0
-2478 2470 0
2478 257 -2470 0
-2494 -258 0
-2494 2478 0
2494 258 -2478 0
-2558 259 0
-2558 2494 0
2558 -259 -2494 0
-2622 -260 0
-2622 2558 0
2622 260 -2558 0
-2878 261 0
-2878 2622 0
2878 -261 -2622 0
-2910 -249 0
-2910 2902 0
2910 249 -2902 0
-2926 -250 0
-2926 2910 0
2926 250 -2910 0
-2990 251 0
-2990 2926 0
2990 -251 -2926 0
-3054 -252 0
-3054 2990 0
3054 252 -2990 0
-3310 253 0
-3310 3054 0
3310 -253 -3054 0
-3342 -241 0
-3342 3334 0
3342 241 -3334 0
-3358 -242 0
-3358 3342 0
3358 242 -3342 0
-3422 243 0
-3422 3358 0
3422 -243 -3358 0
-3486 -244 0
-3486 3422 0
3486 244 -3422 0
-3742 245 0
-3742 3486 0
3742 -245 -3486 0
-3774 -233 0
-3774 3766 0
3774 233 -3766 0
-3790 -234 0
-3790 3774 0
3790 234 -3774 0
-3854 235 0
-3854 3790 0
3854 -235 -3790 0
-3918 -236 0
-3918 3854 0
3918 236 -3854 0
-4174 237 0
-4174 3918 0
4174 -237 -3918 0
-4206 -225 0
-4206 4198 0
4206 225 -4198 0
-4222 -226 0
-4222 4206 0
4222 226 -4206 0
-4286 227 0
-4286 4222 0
4286 -227 -4222 0
-4350 -228 0
-4350 4286 0
4350 228 -4286 0
-4606 229 0
-4606 4350 0
4606 -229 -4350 0
-4638 -217 0
-4638 4630 0
4638 217 -4630 0
-4654 -218 0
-4654 4638 0
4654 218 -4638 0
-4718 219 0
-4718 4654 0
4718 -219 -4654 0
-4782 -220 0
-4782 4718 0
4782 220 -4718 0
-5038 221 0
-5038 4782 0
5038 -221 -4782 0
-5070 -209 0
-5070 5062 0
5070 209 -5062 0
-5086 -210 0
-5086 5070 0
5086 210 -5070 0
-5150 211 0
-5150 5086 0
5150 -211 -5086 0
-5214 -212 0
-5214 5150 0
5214 212 -5150 0
-5470 213 0
-5470 5214 0
5470 -213 -5214 0
-5502 -201 0
-5502 5494 0
5502 201 -5494 0
-5518 -202 0
-5518 5502 0
5518 202 -5502 0
-5582 203 0
-5582 5518 0
5582 -203 -5518 0
-5646 -204 0
-5646 5582 0
5646 204 -5582 0
-5902 205 0
-5902 5646 0
5902 -205 -5646 0
-5934 -193 0
-5934 5926 0
5934 193 -5926 0
-5950 -194 0
-5950 5934 0
5950 194 -5934 0
-6014 195 0
-6014 5950 0
6014 -195 -5950 0
-6078 -196 0
-6078 6014 0
6078 196 -6014 0
-6334 197 0
-6334 6078 0
6334 -197 -6078 0
-6366 -185 0
-6366 6358 0
6366 185 -6358 0
-6382 -186 0
-6382 6366 0
6382 186 -6366 0
-6446 187 0
-6446 6382 0
6446 -187 -6382 0
-6510 -188 0
-6510 6446 0
6510 188 -6446 0
-6766 189 0
-6766 6510 0
6766 -189 -6510 0
-6946 -6334 0
-6946 -6766 0
6946 6334 6766 0
-7126 -5902 0
-7126 6946 0
7126 5902 -6946 0
-7306 -5470 0
-7306 7126 0
7306 5470 -7126 0
-7486 -5038 0
-7486 7306 0
7486 5038 -7306 0
-7666 -4606 0
-7666 7486 0
7666 4606 -7486 0
-7846 -4174 0
-7846 7666 0
7846 4174 -7666 0
-8026 -3742 0
-8026 7846 0
8026 3742 -7846 0
-8206 -3310 0
-8206 8026 0
8206 3310 -8026 0
-8386 -2878 0
-8386 8206 0
8386 2878 -8206 0
-8566 -2446 0
-8566 8386 0
8566 2446 -8386 0
-8746 -2014 0
-8746 8566 0
8746 2014 -8566 0
-8926 -1582 0
-8926 8746 0
8926 1582 -8746 0
-9106 -1150 0
-9106 8926 0
9106 1150 -8926 0
-9286 -718 0
-9286 9106 0
9286 718 -9106 0
-9794 166 0
-9794 9286 0
9794 -166 -9286 0
-9795 -166 0
-9795 -9286 0
9795 166 9286 0
-9796 -9794 0
-9796 -9795 0
9796 9794 9795 0
165 -39878 0
-165 39878 0
-333 -298 0
-333 317 0
333 298 -317 0
-397 299 0
-397 333 0
397 -299 -333 0
-461 -300 0
-461 397 0
461 300 -397 0
-717 301 0
-717 461 0
717 -301 -461 0
-765 -290 0
-765 749 0
765 290 -749 0
-829 291 0
-829 765 0
829 -291 -765 0
-893 -292 0
-893 829 0
893 292 -829 0
-1149 293 0
-1149 893 0
1149 -293 -893 0
-1197 -282 0
-1197 1181 0
1197 282 -1181 0
-1261 283 0
-1261 1197 0
1261 -283 -1197 0
-1325 -284 0
-1325 1261 0
1325 284 -1261 0
-1581 285 0
-1581 1325 0
1581 -285 -1325 0
-1629 -274 0
-1629 1613 0
1629 274 -1613 0
-1693 275 0
-1693 1629 0
1693 -275 -1629 0
-1757 -276 0
-1757 1693 0
1757 276 -1693 0
-2013 277 0
-2013 1757 0
2013 -277 -1757 0
-2061 -266 0
-2061 2045 0
2061 266 -2045 0
-2125 267 0
-2125 2061 0
2125 -267 -2061 0
-2189 -268 0
-2189 2125 0
2189 268 -2125 0
-2445 269 0
-2445 2189 0
2445 -269 -2189 0
-2493 -258 0
-2493 2477 0
2493 258 -2477 0
-2557 259 0
-2557 2493 0
2557 -259 -2493 0
-2621 -260 0
-2621 2557 0
2621 260 -2557 0
-2877 261 0
-2877 2621 0
2877 -261 -2621 0
-2925 -250 0
-2925 2909 0
2925 250 -2909 0
-2989 251 0
-2989 2925 0
2989 -251 -2925 0
-3053 -252 0
-3053 2989 0
3053 252 -2989 0
-3309 253 0
-3309 3053 0
3309 -253 -3053 0
-3357 -242 0
-3357 3341 0
3357 242 -3341 0
-3421 243 0
-3421 3357 0
3421 -243 -3357 0
-3485 -244 0
-3485 3421 0
3485 244 -3421 0
-3741 245 0
-3741 3485 0
3741 -245 -3485 0
-3789 -234 0
-3789 3773 0
3789 234 -3773 0
-3853 235 0
-3853 3789 0
3853 -235 -3789 0
-3917 -236 0
-3917 3853 0
3917 236 -3853 0
-4173 237 0
-4173 3917 0
4173 -237 -3917 0
-4221 -226 0
-4221 4205 0
4221 226 -4205 0
-4285 227 0
-4285 4221 0
4285 -227 -4221 0
-4349 -228 0
-4349 4285 0
4349 228 -4285 0
-4605 229 0
-4605 4349 0
4605 -229 -4349 0
-4653 -218 0
-4653 4637 0
4653 218 -4637 0
-4717 219 0
-4717 4653 0
4717 -219 -4653 0
-4781 -220 0
-4781 4717 0
4781 220 -4717 0
-5037 221 0
-5037 4781 0
5037 -221 -4781 0
-5085 -210 0
-5085 5069 0
5085 210 -5069 0
-5149 211 0
-5149 5085 0
5149 -211 -5085 0
-5213 -212 0
-5213 5149 0
5213 212 -5149 0
-5469 213 0
-5469 5213 0
5469 -213 -5213 0
-5517 -202 0
-5517 5501 0
5517 202 -5501 0
-5581 203 0
-5581 5517 0
5581 -203 -5517 0
-5645 -204 0
-5645 5581 0
5645 204 -5581 0
-5901 205 0
-5901 5645 0
5901 -205 -5645 0
-5949 -194 0
-5949 5933 0
5949 194 -5933 0
-6013 195 0
-6013 5949 0
6013 -195 -5949 0
-6077 -196 0
-6077 6013 0
6077 196 -6013 0
-6333 197 0
-6333 6077 0
6333 -197 -6077 0
-6381 -186 0
-6381 6365 0
6381 186 -6365 0
-6445 187 0
-6445 6381 0
6445 -187 -6381 0
-6509 -188 0
-6509 6445 0
6509 188 -6445 0
-6765 189 0
-6765 6509 0
6765 -189 -6509 0
-6945 -6333 0
-6945 -6765 0
6945 6333 6765 0
-7125 -5901 0
-7125 6945 0
7125 5901 -6945 0
-7305 -5469 0
-7305 7125 0
7305 5469 -7125 0
-7485 -5037 0
-7485 7305 0
7485 5037 -7305 0
-7665 -4605 0
-7665 7485 0
7665 4605 -7485 0
-7845 -4173 0
-7845 7665 0
7845 4173 -7665 0
-8025 -3741 0
-8025 7845 0
8025 3741 -7845 0
-8205 -3309 0
-8205 8025 0
8205 3309 -8025 0
-8385 -2877 0
-8385 8205 0
8385 2877 -8205 0
-8565 -2445 0
-8565 8385 0
8565 2445 -8385 0
-8745 -2013 0
-8745 8565 0
8745 2013 -8565 0
-8925 -1581 0
-8925 8745 0
8925 1581 -8745 0
-9105 -1149 0
-9105 8925 0
9105 1149 -8925 0
-9285 -717 0
-9285 9105 0
9285 717 -9105 0
-9791 165 0
-9791 9285 0
9791 -165 -9285 0
-9792 -165 0
-9792 -9285 0
9792 165 9285 0
-9793 -9791 0
-9793 -9792 0
9793 9791 9792 0
164 -39877 0
-164 39877 0
-332 -298 0
-332 316 0
332 298 -316 0
-396 299 0
-396 332 0
396 -299 -332 0
-460 -300 0
-460 396 0
460 300 -396 0
-716 301 0
-716 460 0
716 -301 -460 0
-764 -290 0
-764 748 0
764 290 -748 0
-828 291 0
-828 764 0
828 -291 -764 0
-892 -292 0
-892 828 0
892 292 -828 0
-1148 293 0
-1148 892 0
1148 -293 -892 0
-1196 -282 0
-1196 1180 0
1196 282 -1180 0
-1260 283 0
-1260 1196 0
1260 -283 -1196 0
-1324 -284 0
-1324 1260 0
1324 284 -1260 0
-1580 285 0
-1580 1324 0
1580 -285 -1324 0
-1628 -274 0
-1628 1612 0
1628 274 -1612 0
-1692 275 0
-1692 1628 0
1692 -275 -1628 0
-1756 -276 0
-1756 1692 0
1756 276 -1692 0
-2012 277 0
-2012 1756 0
2012 -277 -1756 0
-2060 -266 0
-2060 2044 0
2060 266 -2044 0
-2124 267 0
-2124 2060 0
2124 -267 -2060 0
-2188 -268 0
-2188 2124 0
2188 268 -2124 0
-2444 269 0
-2444 2188 0
2444 -269 -2188 0
-2492 -258 0
-2492 2476 0
2492 258 -2476 0
-2556 259 0
-2556 2492 0
2556 -259 -2492 0
-2620 -260 0
-2620 2556 0
2620 260 -2556 0
-2876 261 0
-2876 2620 0
2876 -261 -2620 0
-2924 -250 0
-2924 2908 0
2924 250 -2908 0
-2988 251 0
-2988 2924 0
2988 -251 -2924 0
-3052 -252 0
-3052 2988 0
3052 252 -2988 0
-3308 253 0
-3308 3052 0
3308 -253 -3052 0
-3356 -242 0
-3356 3340 0
3356 242 -3340 0
-3420 243 0
-3420 3356 0
3420 -243 -3356 0
-3484 -244 0
-3484 3420 0
3484 244 -3420 0
-3740 245 0
-3740 3484 0
3740 -245 -3484 0
-3788 -234 0
-3788 3772 0
3788 234 -3772 0
-3852 235 0
-3852 3788 0
3852 -235 -3788 0
-3916 -236 0
-3916 3852 0
3916 236 -3852 0
-4172 237 0
-4172 3916 0
4172 -237 -3916 0
-4220 -226 0
-4220 4204 0
4220 226 -4204 0
-4284 227 0
-4284 4220 0
4284 -227 -4220 0
-4348 -228 0
-4348 4284 0
4348 228 -4284 0
-4604 229 0
-4604 4348 0
4604 -229 -4348 0
-4652 -218 0
-4652 4636 0
4652 218 -4636 0
-4716 219 0
-4716 4652 0
4716 -219 -4652 0
-4780 -220 0
-4780 4716 0
4780 220 -4716 0
-5036 221 0
-5036 4780 0
5036 -221 -4780 0
-5084 -210 0
-5084 5068 0
5084 210 -5068 0
-5148 211 0
-5148 5084 0
5148 -211 -5084 0
-5212 -212 0
-5212 5148 0
5212 212 -5148 0
-5468 213 0
-5468 5212 0
5468 -213 -5212 0
-5516 -202 0
-5516 5500 0
5516 202 -5500 0
-5580 203 0
-5580 5516 0
5580 -203 -5516 0
-5644 -204 0
-5644 5580 0
5644 204 -5580 0
-5900 205 0
-5900 5644 0
5900 -205 -5644 0
-5948 -194 0
-5948 5932 0
5948 194 -5932 0
-6012 195 0
-6012 5948 0
6012 -195 -5948 0
-6076 -196 0
-6076 6012 0
6076 196 -6012 0
-6332 197 0
-6332 6076 0
6332 -197 -6076 0
-6380 -186 0
-6380 6364 0
6380 186 -6364 0
-6444 187 0
-6444 6380 0
6444 -187 -6380 0
-6508 -188 0
-6508 6444 0
6508 188 -6444 0
-6764 189 0
-6764 6508 0
6764 -189 -6508 0
-6944 -6332 0
-6944 -6764 0
6944 6332 6764 0
-7124 -5900 0
-7124 6944 0
7124 5900 -6944 0
-7304 -5468 0
-7304 7124 0
7304 5468 -7124 0
-7484 -5036 0
-7484 7304 0
7484 5036 -7304 0
-7664 -4604 0
-7664 7484 0
7664 4604 -7484 0
-7844 -4172 0
-7844 7664 0
7844 4172 -7664 0
-8024 -3740 0
-8024 7844 0
8024 3740 -7844 0
-8204 -3308 0
-8204 8024 0
8204 3308 -8024 0
-8384 -2876 0
-8384 8204 0
8384 2876 -8204 0
-8564 -2444 0
-8564 8384 0
8564 2444 -8384 0
-8744 -2012 0
-8744 8564 0
8744 2012 -8564 0
-8924 -1580 0
-8924 8744 0
8924 1580 -8744 0
-9104 -1148 0
-9104 8924 0
9104 1148 -8924 0
-9284 -716 0
-9284 9104 0
9284 716 -9104 0
-9788 164 0
-9788 9284 0
9788 -164 -9284 0
-9789 -164 0
-9789 -9284 0
9789 164 9284 0
-9790 -9788 0
-9790 -9789 0
9790 9788 9789 0
163 -39876 0
-163 39876 0
-331 -298 0
-331 315 0
331 298 -315 0
-395 299 0
-395 331 0
395 -299 -331 0
-459 -300 0
-459 395 0
459 300 -395 0
-715 301 0
-715 459 0
715 -301 -459 0
-763 -290 0
-763 747 0
763 290 -747 0
-827 291 0
-827 763 0
827 -291 -763 0
-891 -292 0
-891 827 0
891 292 -827 0
-1147 293 0
-1147 891 0
1147 -293 -891 0
-1195 -282 0
-1195 1179 0
1195 282 -1179 0
-1259 283 0
-1259 1195 0
1259 -283 -1195 0
-1323 -284 0
-1323 1259 0
1323 284 -1259 0
-1579 285 0
-1579 1323 0
1579 -285 -1323 0
-1627 -274 0
-1627 1611 0
1627 274 -1611 0
-1691 275 0
-1691 1627 0
1691 -275 -1627 0
-1755 -276 0
-1755 1691 0
1755 276 -1691 0
-2011 277 0
-2011 1755 0
2011 -277 -1755 0
-2059 -266 0
-2059 2043 0
2059 266 -2043 0
-2123 267 0
-2123 2059 0
2123 -267 -2059 0
-2187 -268 0
-2187 2123 0
2187 268 -2123 0
-2443 269 0
-2443 2187 0
2443 -269 -2187 0
-2491 -258 0
-2491 2475 0
2491 258 -2475 0
-2555 259 0
-2555 2491 0
2555 -259 -2491 0
-2619 -260 0
-2619 2555 0
2619 260 -2555 0
-2875 261 0
-2875 2619 0
2875 -261 -2619 0
-2923 -250 0
-2923 2907 0
2923 250 -2907 0
-2987 251 0
-2987 2923 0
2987 -251 -2923 0
-3051 -252 0
-3051 2987 0
3051 252 -2987 0
-3307 253 0
-3307 3051 0
3307 -253 -3051 0
-3355 -242 0
-3355 3339 0
3355 242 -3339 0
-3419 243 0
-3419 3355 0
3419 -243 -3355 0
-3483 -244 0
-3483 3419 0
3483 244 -3419 0
-3739 245 0
-3739 3483 0
3739 -245 -3483 0
-3787 -234 0
-3787 3771 0
3787 234 -3771 0
-3851 235 0
-3851 3787 0
3851 -235 -3787 0
-3915 -236 0
-3915 3851 0
3915 236 -3851 0
-4171 237 0
-4171 3915 0
4171 -237 -3915 0
-4219 -226 0
-4219 4203 0
4219 226 -4203 0
-4283 227 0
-4283 4219 0
4283 -227 -4219 0
-4347 -228 0
-4347 4283 0
4347 228 -4283 0
-4603 229 0
-4603 4347 0
4603 -229 -4347 0
-4651 -218 0
-4651 4635 0
4651 218 -4635 0
-4715 219 0
-4715 4651 0
4715 -219 -4651 0
-4779 -220 0
-4779 4715 0
4779 220 -4715 0
-5035 221 0
-5035 4779 0
5035 -221 -4779 0
-5083 -210 0
-5083 5067 0
5083 210 -5067 0
-5147 211 0
-5147 5083 0
5147 -211 -5083 0
-5211 -212 0
-5211 5147 0
5211 212 -5147 0
-5467 213 0
-5467 5211 0
5467 -213 -5211 0
-5515 -202 0
-5515 5499 0
5515 202 -5499 0
-5579 203 0
-5579 5515 0
5579 -203 -5515 0
-5643 -204 0
-5643 5579 0
5643 204 -5579 0
-5899 205 0
-5899 5643 0
5899 -205 -5643 0
-5947 -194 0
-5947 5931 0
5947 194 -5931 0
-6011 195 0
-6011 5947 0
6011 -195 -5947 0
-6075 -196 0
-6075 6011 0
6075 196 -6011 0
-6331 197 0
-6331 6075 0
6331 -197 -6075 0
-6379 -186 0
-6379 6363 0
6379 186 -6363 0
-6443 187 0
-6443 6379 0
6443 -187 -6379 0
-6507 -188 0
-6507 6443 0
6507 188 -6443 0
-6763 189 0
-6763 6507 0
6763 -189 -6507 0
-6943 -6331 0
-6943 -6763 0
6943 6331 6763 0
-7123 -5899 0
-7123 6943 0
7123 5899 -6943 0
-7303 -5467 0
-7303 7123 0
7303 5467 -7123 0
-7483 -5035 0
-7483 7303 0
7483 5035 -7303 0
-7663 -4603 0
-7663 7483 0
7663 4603 -7483 0
-7843 -4171 0
-7843 7663 0
7843 4171 -7663 0
-8023 -3739 0
-8023 7843 0
8023 3739 -7843 0
-8203 -3307 0
-8203 8023 0
8203 3307 -8023 0
-8383 -2875 0
-8383 8203 0
8383 2875 -8203 0
-8563 -2443 0
-8563 8383 0
8563 2443 -8383 0
-8743 -2011 0
-8743 8563 0
8743 2011 -8563 0
-8923 -1579 0
-8923 8743 0
8923 1579 -8743 0
-9103 -1147 0
-9103 8923 0
9103 1147 -8923 0
-9283 -715 0
-9283 9103 0
9283 715 -9103 0
-9785 163 0
-9785 9283 0
9785 -163 -9283 0
-9786 -163 0
-9786 -9283 0
9786 163 9283 0
-9787 -9785 0
-9787 -9786 0
9787 9785 9786 0
162 -39875 0
-162 39875 0
-330 -298 0
-330 314 0
330 298 -314 0
-394 299 0
-394 330 0
394 -299 -330 0
-458 -300 0
-458 394 0
458 300 -394 0
-714 301 0
-714 458 0
714 -301 -458 0
-762 -290 0
-762 746 0
762 290 -746 0
-826 291 0
-826 762 0
826 -291 -762 0
-890 -292 0
-890 826 0
890 292 -826 0
-1146 293 0
-1146 890 0
1146 -293 -890 0
-1194 -282 0
-1194 1178 0
1194 282 -1178 0
-1258 283 0
-1258 1194 0
1258 -283 -1194 0
-1322 -284 0
-1322 1258 0
1322 284 -1258 0
-1578 285 0
-1578 1322 0
1578 -285 -1322 0
-1626 -274 0
-1626 1610 0
1626 274 -1610 0
-1690 275 0
-1690 1626 0
1690 -275 -1626 0
-1754 -276 0
-1754 1690 0
1754 276 -1690 0
-2010 277 0
-2010 1754 0
2010 -277 -1754 0
-2058 -266 0
-2058 2042 0
2058 266 -2042 0
-2122 267 0
-2122 2058 0
2122 -267 -2058 0
-2186 -268 0
-2186 2122 0
2186 268 -2122 0
-2442 269 0
-2442 2186 0
2442 -269 -2186 0
-2490 -258 0
-2490 2474 0
2490 258 -2474 0
-2554 259 0
-2554 2490 0
2554 -259 -2490 0
-2618 -260 0
-2618 2554 0
2618 260 -2554 0
-2874 261 0
-2874 2618 0
2874 -261 -2618 0
-2922 -250 0
-2922 2906 0
2922 250 -2906 0
-2986 251 0
-2986 2922 0
2986 -251 -2922 0
-3050 -252 0
-3050 2986 0
3050 252 -2986 0
-3306 253 0
-3306 3050 0
3306 -253 -3050 0
-3354 -242 0
-3354 3338 0
3354 242 -3338 0
-3418 243 0
-3418 3354 0
3418 -243 -3354 0
-3482 -244 0
-3482 3418 0
3482 244 -3418 0
-3738 245 0
-3738 3482 0
3738 -245 -3482 0
-3786 -234 0
-3786 3770 0
3786 234 -3770 0
-3850 235 0
-3850 3786 0
3850 -235 -3786 0
-3914 -236 0
-3914 3850 0
3914 236 -3850 0
-4170 237 0
-4170 3914 0
4170 -237 -3914 0
-4218 -226 0
-4218 4202 0
4218 226 -4202 0
-4282 227 0
-4282 4218 0
4282 -227 -4218 0
-4346 -228 0
-4346 4282 0
4346 228 -4282 0
-4602 229 0
-4602 4346 0
4602 -229 -4346 0
-4650 -218 0
-4650 4634 0
4650 218 -4634 0
-4714 219 0
-4714 4650 0
4714 -219 -4650 0
-4778 -220 0
-4778 4714 0
4778 220 -4714 0
-5034 221 0
-5034 4778 0
5034 -221 -4778 0
-5082 -210 0
-5082 5066 0
5082 210 -5066 0
-5146 211 0
-5146 5082 0
5146 -211 -5082 0
-5210 -212 0
-5210 5146 0
5210 212 -5146 0
-5466 213 0
-5466 5210 0
5466 -213 -5210 0
-5514 -202 0
-5514 5498 0
5514 202 -5498 0
-5578 203 0
-5578 5514 0
5578 -203 -5514 0
-5642 -204 0
-5642 5578 0
5642 204 -5578 0
-5898 205 0
-5898 5642 0
5898 -205 -5642 0
-5946 -194 0
-5946 5930 0
5946 194 -5930 0
-6010 195 0
-6010 5946 0
6010 -195 -5946 0
-6074 -196 0
-6074 6010 0
6074 196 -6010 0
-6330 197 0
-6330 6074 0
6330 -197 -6074 0
-6378 -186 0
-6378 6362 0
6378 186 -6362 0
-6442 187 0
-6442 6378 0
6442 -187 -6378 0
-6506 -188 0
-6506 6442 0
6506 188 -6442 0
-6762 189 0
-6762 6506 0
6762 -189 -6506 0
-6942 -6330 0
-6942 -6762 0
6942 6330 6762 0
-7122 -5898 0
-7122 6942 0
7122 5898 -6942 0
-7302 -5466 0
-7302 7122 0
7302 5466 -7122 0
-7482 -5034 0
-7482 7302 0
7482 5034 -7302 0
-7662 -4602 0
-7662 7482 0
7662 4602 -7482 0
-7842 -4170 0
-7842 7662 0
7842 4170 -7662 0
-8022 -3738 0
-8022 7842 0
8022 3738 -7842 0
-8202 -3306 0
-8202 8022 0
8202 3306 -8022 0
-8382 -2874 0
-8382 8202 0
8382 2874 -8202 0
-8562 -2442 0
-8562 8382 0
8562 2442 -8382 0
-8742 -2010 0
-8742 8562 0
8742 2010 -8562 0
-8922 -1578 0
-8922 8742 0
8922 1578 -8742 0
-9102 -1146 0
-9102 8922 0
9102 1146 -8922 0
-9282 -714 0
-9282 9102 0
9282 714 -9102 0
-9782 162 0
-9782 9282 0
9782 -162 -9282 0
-9783 -162 0
-9783 -9282 0
9783 162 9282 0
-9784 -9782 0
-9784 -9783 0
9784 9782 9783 0
161 -39874 0
-161 39874 0
-361 298 0
-361 329 0
361 -298 -329 0
-393 -299 0
-393 361 0
393 299 -361 0
-457 -300 0
-457 393 0
457 300 -393 0
-713 301 0
-713 457 0
713 -301 -457 0
-793 290 0
-793 761 0
793 -290 -761 0
-825 -291 0
-825 793 0
825 291 -793 0
-889 -292 0
-889 825 0
889 292 -825 0
-1145 293 0
-1145 889 0
1145 -293 -889 0
-1225 282 0
-1225 1193 0
1225 -282 -1193 0
-1257 -283 0
-1257 1225 0
1257 283 -1225 0
-1321 -284 0
-1321 1257 0
1321 284 -1257 0
-1577 285 0
-1577 1321 0
1577 -285 -1321 0
-1657 274 0
-1657 1625 0
1657 -274 -1625 0
-1689 -275 0
-1689 1657 0
1689 275 -1657 0
-1753 -276 0
-1753 1689 0
1753 276 -1689 0
-2009 277 0
-2009 1753 0
2009 -277 -1753 0
-2089 266 0
-2089 2057 0
2089 -266 -2057 0
-2121 -267 0
-2121 2089 0
2121 267 -2089 0
-2185 -268 0
-2185 2121 0
2185 268 -2121 0
-2441 269 0
-2441 2185 0
2441 -269 -2185 0
-2521 258 0
-2521 2489 0
2521 -258 -2489 0
-2553 -259 0
-2553 2521 0
2553 259 -2521 0
-2617 -260 0
-2617 2553 0
2617 260 -2553 0
-2873 261 0
-2873 2617 0
2873 -261 -2617 0
-2953 250 0
-2953 2921 0
2953 -250 -2921 0
-2985 -251 0
-2985 2953 0
2985 251 -2953 0
-3049 -252 0
-3049 2985 0
3049 252 -2985 0
-3305 253 0
-3305 3049 0
3305 -253 -3049 0
-3385 242 0
-3385 3353 0
3385 -242 -3353 0
-3417 -243 0
-3417 3385 0
3417 243 -3385 0
-3481 -244 0
-3481 3417 0
3481 244 -3417 0
-3737 245 0
-3737 3481 0
3737 -245 -3481 0
-3817 234 0
-3817 3785 0
3817 -234 -3785 0
-3849 -235 0
-3849 3817 0
3849 235 -3817 0
-3913 -236 0
-3913 3849 0
3913 236 -3849 0
-4169 237 0
-4169 3913 0
4169 -237 -3913 0
-4249 226 0
-4249 4217 0
4249 -226 -4217 0
-4281 -227 0
-4281 4249 0
4281 227 -4249 0
-4345 -228 0
-4345 4281 0
4345 228 -4281 0
-4601 229 0
-4601 4345 0
4601 -229 -4345 0
-4681 218 0
-4681 4649 0
4681 -218 -4649 0
-4713 -219 0
-4713 4681 0
4713 219 -4681 0
-4777 -220 0
-4777 4713 0
4777 220 -4713 0
-5033 221 0
-5033 4777 0
5033 -221 -4777 0
-5113 210 0
-5113 5081 0
5113 -210 -5081 0
-5145 -211 0
-5145 5113 0
5145 211 -5113 0
-5209 -212 0
-5209 5145 0
5209 212 -5145 0
-5465 213 0
-5465 5209 0
5465 -213 -5209 0
-5545 202 0
-5545 5513 0
5545 -202 -5513 0
-5577 -203 0
-5577 5545 0
5577 203 -5545 0
-5641 -204 0
-5641 5577 0
5641 204 -5577 0
-5897 205 0
-5897 5641 0
5897 -205 -5641 0
-5977 194 0
-5977 5945 0
5977 -194 -5945 0
-6009 -195 0
-6009 5977 0
6009 195 -5977 0
-6073 -196 0
-6073 6009 0
6073 196 -6009 0
-6329 197 0
-6329 6073 0
6329 -197 -6073 0
-6409 186 0
-6409 6377 0
6409 -186 -6377 0
-6441 -187 0
-6441 6409 0
6441 187 -6409 0
-6505 -188 0
-6505 6441 0
6505 188 -6441 0
-6761 189 0
-6761 6505 0
6761 -189 -6505 0
-6941 -6329 0
-6941 -6761 0
6941 6329 6761 0
-7121 -5897 0
-7121 6941 0
7121 5897 -6941 0
-7301 -5465 0
-7301 7121 0
7301 5465 -7121 0
-7481 -5033 0
-7481 7301 0
7481 5033 -7301 0
-7661 -4601 0
-7661 7481 0
7661 4601 -7481 0
-7841 -4169 0
-7841 7661 0
7841 4169 -7661 0
-8021 -3737 0
-8021 7841 0
8021 3737 -7841 0
-8201 -3305 0
-8201 8021 0
8201 3305 -8021 0
-8381 -2873 0
-8381 8201 0
8381 2873 -8201 0
-8561 -2441 0
-8561 8381 0
8561 2441 -8381 0
-8741 -2009 0
-8741 8561 0
8741 2009 -8561 0
-8921 -1577 0
-8921 8741 0
8921 1577 -8741 0
-9101 -1145 0
-9101 8921 0
9101 1145 -8921 0
-9281 -713 0
-9281 9101 0
9281 713 -9101 0
-9779 161 0
-9779 9281 0
9779 -161 -9281 0
-9780 -161 0
-9780 -9281 0
9780 161 9281 0
-9781 -9779 0
-9781 -9780 0
9781 9779 9780 0
160 -39873 0
-160 39873 0
-360 298 0
-360 328 0
360 -298 -328 0
-392 -299 0
-392 360 0
392 299 -360 0
-456 -300 0
-456 392 0
456 300 -392 0
-712 301 0
-712 456 0
712 -301 -456 0
-792 290 0
-792 760 0
792 -290 -760 0
-824 -291 0
-824 792 0
824 291 -792 0
-888 -292 0
-888 824 0
888 292 -824 0
-1144 293 0
-1144 888 0
1144 -293 -888 0
-1224 282 0
-1224 1192 0
1224 -282 -1192 0
-1256 -283 0
-1256 1224 0
1256 283 -1224 0
-1320 -284 0
-1320 1256 0
1320 284 -1256 0
-1576 285 0
-1576 1320 0
1576 -285 -1320 0
-1656 274 0
-1656 1624 0
1656 -274 -1624 0
-1688 -275 0
-1688 1656 0
1688 275 -1656 0
-1752 -276 0
-1752 1688 0
1752 276 -1688 0
-2008 277 0
-2008 1752 0
2008 -277 -1752 0
-2088 266 0
-2088 2056 0
2088 -266 -2056 0
-2120 -267 0
-2120 2088 0
2120 267 -2088 0
-2184 -268 0
-2184 2120 0
2184 268 -2120 0
-2440 269 0
-2440 2184 0
2440 -269 -2184 0
-2520 258 0
-2520 2488 0
2520 -258 -2488 0
-2552 -259 0
-2552 2520 0
2552 259 -2520 0
-2616 -260 0
-2616 2552 0
2616 260 -2552 0
-2872 261 0
-2872 2616 0
2872 -261 -2616 0
-2952 250 0
-2952 2920 0
2952 -250 -2920 0
-2984 -251 0
-2984 2952 0
2984 251 -2952 0
-3048 -252 0
-3048 2984 0
3048 252 -2984 0
-3304 253 0
-3304 3048 0
3304 -253 -3048 0
-3384 242 0
-3384 3352 0
3384 -242 -3352 0
-3416 -243 0
-3416 3384 0
3416 243 -3384 0
-3480 -244 0
-3480 3416 0
3480 244 -3416 0
-3736 245 0
-3736 3480 0
3736 -245 -3480 0
-3816 234 0
-3816 3784 0
3816 -234 -3784 0
-3848 -235 0
-3848 3816 0
3848 235 -3816 0
-3912 -236 0
-3912 3848 0
3912 236 -3848 0
-4168 237 0
-4168 3912 0
4168 -237 -3912 0
-4248 226 0
-4248 4216 0
4248 -226 -4216 0
-4280 -227 0
-4280 4248 0
4280 227 -4248 0
-4344 -228 0
-4344 4280 0
4344 228 -4280 0
-4600 229 0
-4600 4344 0
4600 -229 -4344 0
-4680 218 0
-4680 4648 0
4680 -218 -4648 0
-4712 -219 0
-4712 4680 0
4712 219 -4680 0
-4776 -220 0
-4776 4712 0
4776 220 -4712 0
-5032 221 0
-5032 4776 0
5032 -221 -4776 0
-5112 210 0
-5112 5080 0
5112 -210 -5080 0
-5144 -211 0
-5144 5112 0
5144 211 -5112 0
-5208 -212 0
-5208 5144 0
5208 212 -5144 0
-5464 213 0
-5464 5208 0
5464 -213 -5208 0
-5544 202 0
-5544 5512 0
5544 -202 -5512 0
-5576 -203 0
-5576 5544 0
5576 203 -5544 0
-5640 -204 0
-5640 5576 0
5640 204 -5576 0
-5896 205 0
-5896 5640 0
5896 -205 -5640 0
-5976 194 0
-5976 5944 0
5976 -194 -5944 0
-6008 -195 0
-6008 5976 0
6008 195 -5976 0
-6072 -196 0
-6072 6008 0
6072 196 -6008 0
-6328 197 0
-6328 6072 0
6328 -197 -6072 0
-6408 186 0
-6408 6376 0
6408 -186 -6376 0
-6440 -187 0
-6440 6408 0
6440 187 -6408 0
-6504 -188 0
-6504 6440 0
6504 188 -6440 0
-6760 189 0
-6760 6504 0
6760 -189 -6504 0
-6940 -6328 0
-6940 -6760 0
6940 6328 6760 0
-7120 -5896 0
-7120 6940 0
7120 5896 -6940 0
-7300 -5464 0
-7300 7120 0
7300 5464 -7120 0
-7480 -5032 0
-7480 7300 0
7480 5032 -7300 0
-7660 -4600 0
-7660 7480 0
7660 4600 -7480 0
-7840 -4168 0
-7840 7660 0
7840 4168 -7660 0
-8020 -3736 0
-8020 7840 0
8020 3736 -7840 0
-8200 -3304 0
-8200 8020 0
8200 3304 -8020 0
-8380 -2872 0
-8380 8200 0
8380 2872 -8200 0
-8560 -2440 0
-8560 8380 0
8560 2440 -8380 0
-8740 -2008 0
-8740 8560 0
8740 2008 -8560 0
-8920 -1576 0
-8920 8740 0
8920 1576 -8740 0
-9100 -1144 0
-9100 8920 0
9100 1144 -8920 0
-9280 -712 0
-9280 9100 0
9280 712 -9100 0
-9776 160 0
-9776 9280 0
9776 -160 -9280 0
-9777 -160 0
-9777 -9280 0
9777 160 9280 0
-9778 -9776 0
-9778 -9777 0
9778 9776 9777 0
159 -39872 0
-159 39872 0
-359 298 0
-359 327 0
359 -298 -327 0
-391 -299 0
-391 359 0
391 299 -359 0
-455 -300 0
-455 391 0
455 300 -391 0
-711 301 0
-711 455 0
711 -301 -455 0
-791 290 0
-791 759 0
791 -290 -759 0
-823 -291 0
-823 791 0
823 291 -791 0
-887 -292 0
-887 823 0
887 292 -823 0
-1143 293 0
-1143 887 0
1143 -293 -887 0
-1223 282 0
-1223 1191 0
1223 -282 -1191 0
-1255 -283 0
-1255 1223 0
1255 283 -1223 0
-1319 -284 0
-1319 1255 0
1319 284 -1255 0
-1575 285 0
-1575 1319 0
1575 -285 -1319 0
-1655 274 0
-1655 1623 0
1655 -274 -1623 0
-1687 -275 0
-1687 1655 0
1687 275 -1655 0
-1751 -276 0
-1751 1687 0
1751 276 -1687 0
-2007 277 0
-2007 1751 0
2007 -277 -1751 0
-2087 266 0
-2087 2055 0
2087 -266 -2055 0
-2119 -267 0
-2119 2087 0
2119 267 -2087 0
-2183 -268 0
-2183 2119 0
2183 268 -2119 0
-2439 269 0
-2439 2183 0
2439 -269 -2183 0
-2519 258 0
-2519 2487 0
2519 -258 -2487 0
-2551 -259 0
-2551 2519 0
2551 259 -2519 0
-2615 -260 0
-2615 2551 0
2615 260 -2551 0
-2871 261 0
-2871 2615 0
2871 -261 -2615 0
-2951 250 0
-2951 2919 0
2951 -250 -2919 0
-2983 -251 0
-2983 2951 0
2983 251 -2951 0
-3047 -252 0
-3047 2983 0
3047 252 -2983 0
-3303 253 0
-3303 3047 0
3303 -253 -3047 0
-3383 242 0
-3383 3351 0
3383 -242 -3351 0
-3415 -243 0
-3415 3383 0
3415 243 -3383 0
-3479 -244 0
-3479 3415 0
3479 244 -3415 0
-3735 245 0
-3735 3479 0
3735 -245 -3479 0
-3815 234 0
-3815 3783 0
3815 -234 -3783 0
-3847 -235 0
-3847 3815 0
3847 235 -3815 0
-3911 -236 0
-3911 3847 0
3911 236 -3847 0
-4167 237 0
-4167 3911 0
4167 -237 -3911 0
-4247 226 0
-4247 4215 0
4247 -226 -4215 0
-4279 -227 0
-4279 4247 0
4279 227 -4247 0
-4343 -228 0
-4343 4279 0
4343 228 -4279 0
-4599 229 0
-4599 4343 0
4599 -229 -4343 0
-4679 218 0
-4679 4647 0
4679 -218 -4647 0
-4711 -219 0
-4711 4679 0
4711 219 -4679 0
-4775 -220 0
-4775 4711 0
4775 220 -4711 0
-5031 221 0
-5031 4775 0
5031 -221 -4775 0
-5111 210 0
-5111 5079 0
5111 -210 -5079 0
-5143 -211 0
-5143 5111 0
5143 211 -5111 0
-5207 -212 0
-5207 5143 0
5207 212 -5143 0
-5463 213 0
-5463 5207 0
5463 -213 -5207 0
-5543 202 0
-5543 5511 0
5543 -202 -5511 0
-5575 -203 0
-5575 5543 0
5575 203 -5543 0
-5639 -204 0
-5639 5575 0
5639 204 -5575 0
-5895 205 0
-5895 5639 0
5895 -205 -5639 0
-5975 194 0
-5975 5943 0
5975 -194 -5943 0
-6007 -195 0
-6007 5975 0
6007 195 -5975 0
-6071 -196 0
-6071 6007 0
6071 196 -6007 0
-6327 197 0
-6327 6071 0
6327 -197 -6071 0
-6407 186 0
-6407 6375 0
6407 -186 -6375 0
-6439 -187 0
-6439 6407 0
6439 187 -6407 0
-6503 -188 0
-6503 6439 0
6503 188 -6439 0
-6759 189 0
-6759 6503 0
6759 -189 -6503 0
-6939 -6327 0
-6939 -6759 0
6939 6327 6759 0
-7119 -5895 0
-7119 6939 0
7119 5895 -6939 0
-7299 -5463 0
-7299 7119 0
7299 5463 -7119 0
-7479 -5031 0
-7479 7299 0
7479 5031 -7299 0
-7659 -4599 0
-7659 7479 0
7659 4599 -7479 0
-7839 -4167 0
-7839 7659 0
7839 4167 -7659 0
-8019 -3735 0
-8019 7839 0
8019 3735 -7839 0
-8199 -3303 0
-8199 8019 0
8199 3303 -8019 0
-8379 -2871 0
-8379 8199 0
8379 2871 -8199 0
-8559 -2439 0
-8559 8379 0
8559 2439 -8379 0
-8739 -2007 0
-8739 8559 0
8739 2007 -8559 0
-8919 -1575 0
-8919 8739 0
8919 1575 -8739 0
-9099 -1143 0
-9099 8919 0
9099 1143 -8919 0
-9279 -711 0
-9279 9099 0
9279 711 -9099 0
-9773 159 0
-9773 9279 0
9773 -159 -9279 0
-9774 -159 0
-9774 -9279 0
9774 159 9279 0
-9775 -9773 0
-9775 -9774 0
9775 9773 9774 0
158 -39871 0
-158 39871 0
-358 298 0
-358 326 0
358 -298 -326 0
-390 -299 0
-390 358 0
390 299 -358 0
-454 -300 0
-454 390 0
454 300 -390 0
-710 301 0
-710 454 0
710 -301 -454 0
-790 290 0
-790 758 0
790 -290 -758 0
-822 -291 0
-822 790 0
822 291 -790 0
-886 -292 0
-886 822 0
886 292 -822 0
-1142 293 0
-1142 886 0
1142 -293 -886 0
-1222 282 0
-1222 1190 0
1222 -282 -1190 0
-1254 -283 0
-1254 1222 0
1254 283 -1222 0
-1318 -284 0
-1318 1254 0
1318 284 -1254 0
-1574 285 0
-1574 1318 0
1574 -285 -1318 0
-1654 274 0
-1654 1622 0
1654 -274 -1622 0
-1686 -275 0
-1686 1654 0
1686 275 -1654 0
-1750 -276 0
-1750 1686 0
1750 276 -1686 0
-2006 277 0
-2006 1750 0
2006 -277 -1750 0
-2086 266 0
-2086 2054 0
2086 -266 -2054 0
-2118 -267 0
-2118 2086 0
2118 267 -2086 0
-2182 -268 0
-2182 2118 0
2182 268 -2118 0
-2438 269 0
-2438 2182 0
2438 -269 -2182 0
-2518 258 0
-2518 2486 0
2518 -258 -2486 0
-2550 -259 0
-2550 2518 0
2550 259 -2518 0
-2614 -260 0
-2614 2550 0
2614 260 -2550 0
-2870 261 0
-2870 2614 0
2870 -261 -2614 0
-2950 250 0
-2950 2918 0
2950 -250 -2918 0
-2982 -251 0
-2982 2950 0
2982 251 -2950 0
-3046 -252 0
-3046 2982 0
3046 252 -2982 0
-3302 253 0
-3302 3046 0
3302 -253 -3046 0
-3382 242 0
-3382 3350 0
3382 -242 -3350 0
-3414 -243 0
-3414 3382 0
3414 243 -3382 0
-3478 -244 0
-3478 3414 0
3478 244 -3414 0
-3734 245 0
-3734 3478 0
3734 -245 -3478 0
-3814 234 0
-3814 3782 0
3814 -234 -3782 0
-3846 -235 0
-3846 3814 0
3846 235 -3814 0
-3910 -236 0
-3910 3846 0
3910 236 -3846 0
-4166 237 0
-4166 3910 0
4166 -237 -3910 0
-4246 226 0
-4246 4214 0
4246 -226 -4214 0
-4278 -227 0
-4278 4246 0
4278 227 -4246 0
-4342 -228 0
-4342 4278 0
4342 228 -4278 0
-4598 229 0
-4598 4342 0
4598 -229 -4342 0
-4678 218 0
-4678 4646 0
4678 -218 -4646 0
-4710 -219 0
-4710 4678 0
4710 219 -4678 0
-4774 -220 0
-4774 4710 0
4774 220 -4710 0
-5030 221 0
-5030 4774 0
5030 -221 -4774 0
-5110 210 0
-5110 5078 0
5110 -210 -5078 0
-5142 -211 0
-5142 5110 0
5142 211 -5110 0
-5206 -212 0
-5206 5142 0
5206 212 -5142 0
-5462 213 0
-5462 5206 0
5462 -213 -5206 0
-5542 202 0
-5542 5510 0
5542 -202 -5510 0
-5574 -203 0
-5574 5542 0
5574 203 -5542 0
-5638 -204 0
-5638 5574 0
5638 204 -5574 0
-5894 205 0
-5894 5638 0
5894 -205 -5638 0
-5974 194 0
-5974 5942 0
5974 -194 -5942 0
-6006 -195 0
-6006 5974 0
6006 195 -5974 0
-6070 -196 0
-6070 6006 0
6070 196 -6006 0
-6326 197 0
-6326 6070 0
6326 -197 -6070 0
-6406 186 0
-6406 6374 0
6406 -186 -6374 0
-6438 -187 0
-6438 6406 0
6438 187 -6406 0
-6502 -188 0
-6502 6438 0
6502 188 -6438 0
-6758 189 0
-6758 6502 0
6758 -189 -6502 0
-6938 -6326 0
-6938 -6758 0
6938 6326 6758 0
-7118 -5894 0
-7118 6938 0
7118 5894 -6938 0
-7298 -5462 0
-7298 7118 0
7298 5462 -7118 0
-7478 -5030 0
-7478 7298 0
7478 5030 -7298 0
-7658 -4598 0
-7658 7478 0
7658 4598 -7478 0
-7838 -4166 0
-7838 7658 0
7838 4166 -7658 0
-8018 -3734 0
-8018 7838 0
8018 3734 -7838 0
-8198 -3302 0
-8198 8018 0
8198 3302 -8018 0
-8378 -2870 0
-8378 8198 0
8378 2870 -8198 0
-8558 -2438 0
-8558 8378 0
8558 2438 -8378 0
-8738 -2006 0
-8738 8558 0
8738 2006 -8558 0
-8918 -1574 0
-8918 8738 0
8918 1574 -8738 0
-9098 -1142 0
-9098 8918 0
9098 1142 -8918 0
-9278 -710 0
-9278 9098 0
9278 710 -9098 0
-9770 158 0
-9770 9278 0
9770 -158 -9278 0
-9771 -158 0
-9771 -9278 0
9771 158 9278 0
-9772 -9770 0
-9772 -9771 0
9772 9770 9771 0
157 -39870 0
-157 39870 0
-357 298 0
-357 325 0
357 -298 -325 0
-389 -299 0
-389 357 0
389 299 -357 0
-453 -300 0
-453 389 0
453 300 -389 0
-709 301 0
-709 453 0
709 -301 -453 0
-789 290 0
-789 757 0
789 -290 -757 0
-821 -291 0
-821 789 0
821 291 -789 0
-885 -292 0
-885 821 0
885 292 -821 0
-1141 293 0
-1141 885 0
1141 -293 -885 0
-1221 282 0
-1221 1189 0
1221 -282 -1189 0
-1253 -283 0
-1253 1221 0
1253 283 -1221 0
-1317 -284 0
-1317 1253 0
1317 284 -1253 0
-1573 285 0
-1573 1317 0
1573 -285 -1317 0
-1653 274 0
-1653 1621 0
1653 -274 -1621 0
-1685 -275 0
-1685 1653 0
1685 275 -1653 0
-1749 -276 0
-1749 1685 0
1749 276 -1685 0
-2005 277 0
-2005 1749 0
2005 -277 -1749 0
-2085 266 0
-2085 2053 0
2085 -266 -2053 0
-2117 -267 0
-2117 2085 0
2117 267 -2085 0
-2181 -268 0
-2181 2117 0
2181 268 -2117 0
-2437 269 0
-2437 2181 0
2437 -269 -2181 0
-2517 258 0
-2517 2485 0
2517 -258 -2485 0
-2549 -259 0
-2549 2517 0
2549 259 -2517 0
-2613 -260 0
-2613 2549 0
2613 260 -2549 0
-2869 261 0
-2869 2613 0
2869 -261 -2613 0
-2949 250 0
-2949 2917 0
2949 -250 -2917 0
-2981 -251 0
-2981 2949 0
2981 251 -2949 0
-3045 -252 0
-3045 2981 0
3045 252 -2981 0
-3301 253 0
-3301 3045 0
3301 -253 -3045 0
-3381 242 0
-3381 3349 0
3381 -242 -3349 0
-3413 -243 0
-3413 3381 0
3413 243 -3381 0
-3477 -244 0
-3477 3413 0
3477 244 -3413 0
-3733 245 0
-3733 3477 0
3733 -245 -3477 0
-3813 234 0
-3813 3781 0
3813 -234 -3781 0
-3845 -235 0
-3845 3813 0
3845 235 -3813 0
-3909 -236 0
-3909 3845 0
3909 236 -3845 0
-4165 237 0
-4165 3909 0
4165 -237 -3909 0
-4245 226 0
-4245 4213 0
4245 -226 -4213 0
-4277 -227 0
-4277 4245 0
4277 227 -4245 0
-4341 -228 0
-4341 4277 0
4341 228 -4277 0
-4597 229 0
-4597 4341 0
4597 -229 -4341 0
-4677 218 0
-4677 4645 0
4677 -218 -4645 0
-4709 -219 0
-4709 4677 0
4709 219 -4677 0
-4773 -220 0
-4773 4709 0
4773 220 -4709 0
-5029 221 0
-5029 4773 0
5029 -221 -4773 0
-5109 210 0
-5109 5077 0
5109 -210 -5077 0
-5141 -211 0
-5141 5109 0
5141 211 -5109 0
-5205 -212 0
-5205 5141 0
5205 212 -5141 0
-5461 213 0
-5461 5205 0
5461 -213 -5205 0
-5541 202 0
-5541 5509 0
5541 -202 -5509 0
-5573 -203 0
-5573 5541 0
5573 203 -5541 0
-5637 -204 0
-5637 5573 0
5637 204 -5573 0
-5893 205 0
-5893 5637 0
5893 -205 -5637 0
-5973 194 0
-5973 5941 0
5973 -194 -5941 0
-6005 -195 0
-6005 5973 0
6005 195 -5973 0
-6069 -196 0
-6069 6005 0
6069 196 -6005 0
-6325 197 0
-6325 6069 0
6325 -197 -6069 0
-6405 186 0
-6405 6373 0
6405 -186 -6373 0
-6437 -187 0
-6437 6405 0
6437 187 -6405 0
-6501 -188 0
-6501 6437 0
6501 188 -6437 0
-6757 189 0
-6757 6501 0
6757 -189 -6501 0
-6937 -6325 0
-6937 -6757 0
6937 6325 6757 0
-7117 -5893 0
-7117 6937 0
7117 5893 -6937 0
-7297 -5461 0
-7297 7117 0
7297 5461 -7117 0
-7477 -5029 0
-7477 7297 0
7477 5029 -7297 0
-7657 -4597 0
-7657 7477 0
7657 4597 -7477 0
-7837 -4165 0
-7837 7657 0
7837 4165 -7657 0
-8017 -3733 0
-8017 7837 0
8017 3733 -7837 0
-8197 -3301 0
-8197 8017 0
8197 3301 -8017 0
-8377 -2869 0
-8377 8197 0
8377 2869 -8197 0
-8557 -2437 0
-8557 8377 0
8557 2437 -8377 0
-8737 -2005 0
-8737 8557 0
8737 2005 -8557 0
-8917 -1573 0
-8917 8737 0
8917 1573 -8737 0
-9097 -1141 0
-9097 8917 0
9097 1141 -8917 0
-9277 -709 0
-9277 9097 0
9277 709 -9097 0
-9767 157 0
-9767 9277 0
9767 -157 -9277 0
-9768 -157 0
-9768 -9277 0
9768 157 9277 0
-9769 -9767 0
-9769 -9768 0
9769 9767 9768 0
156 -39869 0
-156 39869 0
-356 298 0
-356 324 0
356 -298 -324 0
-388 -299 0
-388 356 0
388 299 -356 0
-452 -300 0
-452 388 0
452 300 -388 0
-708 301 0
-708 452 0
708 -301 -452 0
-788 290 0
-788 756 0
788 -290 -756 0
-820 -291 0
-820 788 0
820 291 -788 0
-884 -292 0
-884 820 0
884 292 -820 0
-1140 293 0
-1140 884 0
1140 -293 -884 0
-1220 282 0
-1220 1188 0
1220 -282 -1188 0
-1252 -283 0
-1252 1220 0
1252 283 -1220 0
-1316 -284 0
-1316 1252 0
1316 284 -1252 0
-1572 285 0
-1572 1316 0
1572 -285 -1316 0
-1652 274 0
-1652 1620 0
1652 -274 -1620 0
-1684 -275 0
-1684 1652 0
1684 275 -1652 0
-1748 -276 0
-1748 1684 0
1748 276 -1684 0
-2004 277 0
-2004 1748 0
2004 -277 -1748 0
-2084 266 0
-2084 2052 0
2084 -266 -2052 0
-2116 -267 0
-2116 2084 0
2116 267 -2084 0
-2180 -268 0
-2180 2116 0
2180 268 -2116 0
-2436 269 0
-2436 2180 0
2436 -269 -2180 0
-2516 258 0
-2516 2484 0
2516 -258 -2484 0
-2548 -259 0
-2548 2516 0
2548 259 -2516 0
-2612 -260 0
-2612 2548 0
2612 260 -2548 0
-2868 261 0
-2868 2612 0
2868 -261 -2612 0
-2948 250 0
-2948 2916 0
2948 -250 -2916 0
-2980 -251 0
-2980 2948 0
2980 251 -2948 0
-3044 -252 0
-3044 2980 0
3044 252 -2980 0
-3300 253 0
-3300 3044 0
3300 -253 -3044 0
-3380 242 0
-3380 3348 0
3380 -242 -3348 0
-3412 -243 0
-3412 3380 0
3412 243 -3380 0
-3476 -244 0
-3476 3412 0
3476 244 -3412 0
-3732 245 0
-3732 3476 0
3732 -245 -3476 0
-3812 234 0
-3812 3780 0
3812 -234 -3780 0
-3844 -235 0
-3844 3812 0
3844 235 -3812 0
-3908 -236 0
-3908 3844 0
3908 236 -3844 0
-4164 237 0
-4164 3908 0
4164 -237 -3908 0
-4244 226 0
-4244 4212 0
4244 -226 -4212 0
-4276 -227 0
-4276 4244 0
4276 227 -4244 0
-4340 -228 0
-4340 4276 0
4340 228 -4276 0
-4596 229 0
-4596 4340 0
4596 -229 -4340 0
-4676 218 0
-4676 4644 0
4676 -218 -4644 0
-4708 -219 0
-4708 4676 0
4708 219 -4676 0
-4772 -220 0
-4772 4708 0
4772 220 -4708 0
-5028 221 0
-5028 4772 0
5028 -221 -4772 0
-5108 210 0
-5108 5076 0
5108 -210 -5076 0
-5140 -211 0
-5140 5108 0
5140 211 -5108 0
-5204 -212 0
-5204 5140 0
5204 212 -5140 0
-5460 213 0
-5460 5204 0
5460 -213 -5204 0
-5540 202 0
-5540 5508 0
5540 -202 -5508 0
-5572 -203 0
-5572 5540 0
5572 203 -5540 0
-5636 -204 0
-5636 5572 0
5636 204 -5572 0
-5892 205 0
-5892 5636 0
5892 -205 -5636 0
-5972 194 0
-5972 5940 0
5972 -194 -5940 0
-6004 -195 0
-6004 5972 0
6004 195 -5972 0
-6068 -196 0
-6068 6004 0
6068 196 -6004 0
-6324 197 0
-6324 6068 0
6324 -197 -6068 0
-6404 186 0
-6404 6372 0
6404 -186 -6372 0
-6436 -187 0
-6436 6404 0
6436 187 -6404 0
-6500 -188 0
-6500 6436 0
6500 188 -6436 0
-6756 189 0
-6756 6500 0
6756 -189 -6500 0
-6936 -6324 0
-6936 -6756 0
6936 6324 6756 0
-7116 -5892 0
-7116 6936 0
7116 5892 -6936 0
-7296 -5460 0
-7296 7116 0
7296 5460 -7116 0
-7476 -5028 0
-7476 7296 0
7476 5028 -7296 0
-7656 -4596 0
-7656 7476 0
7656 4596 -7476 0
-7836 -4164 0
-7836 7656 0
7836 4164 -7656 0
-8016 -3732 0
-8016 7836 0
8016 3732 -7836 0
-8196 -3300 0
-8196 8016 0
8196 3300 -8016 0
-8376 -2868 0
-8376 8196 0
8376 2868 -8196 0
-8556 -2436 0
-8556 8376 0
8556 2436 -8376 0
-8736 -2004 0
-8736 8556 0
8736 2004 -8556 0
-8916 -1572 0
-8916 8736 0
8916 1572 -8736 0
-9096 -1140 0
-9096 8916 0
9096 1140 -8916 0
-9276 -708 0
-9276 9096 0
9276 708 -9096 0
-9764 156 0
-9764 9276 0
9764 -156 -9276 0
-9765 -156 0
-9765 -9276 0
9765 156 9276 0
-9766 -9764 0
-9766 -9765 0
9766 9764 9765 0
155 -39868 0
-155 39868 0
-355 298 0
-355 323 0
355 -298 -323 0
-387 -299 0
-387 355 0
387 299 -355 0
-451 -300 0
-451 387 0
451 300 -387 0
-707 301 0
-707 451 0
707 -301 -451 0
-787 290 0
-787 755 0
787 -290 -755 0
-819 -291 0
-819 787 0
819 291 -787 0
-883 -292 0
-883 819 0
883 292 -819 0
-1139 293 0
-1139 883 0
1139 -293 -883 0
-1219 282 0
-1219 1187 0
1219 -282 -1187 0
-1251 -283 0
-1251 1219 0
1251 283 -1219 0
-1315 -284 0
-1315 1251 0
1315 284 -1251 0
-1571 285 0
-1571 1315 0
1571 -285 -1315 0
-1651 274 0
-1651 1619 0
1651 -274 -1619 0
-1683 -275 0
-1683 1651 0
1683 275 -1651 0
-1747 -276 0
-1747 1683 0
1747 276 -1683 0
-2003 277 0
-2003 1747 0
2003 -277 -1747 0
-2083 266 0
-2083 2051 0
2083 -266 -2051 0
-2115 -267 0
-2115 2083 0
2115 267 -2083 0
-2179 -268 0
-2179 2115 0
2179 268 -2115 0
-2435 269 0
-2435 2179 0
2435 -269 -2179 0
-2515 258 0
-2515 2483 0
2515 -258 -2483 0
-2547 -259 0
-2547 2515 0
2547 259 -2515 0
-2611 -260 0
-2611 2547 0
2611 260 -2547 0
-2867 261 0
-2867 2611 0
2867 -261 -2611 0
-2947 250 0
-2947 2915 0
2947 -250 -2915 0
-2979 -251 0
-2979 2947 0
2979 251 -2947 0
-3043 -252 0
-3043 2979 0
3043 252 -2979 0
-3299 253 0
-3299 3043 0
3299 -253 -3043 0
-3379 242 0
-3379 3347 0
3379 -242 -3347 0
-3411 -243 0
-3411 3379 0
3411 243 -3379 0
-3475 -244 0
-3475 3411 0
3475 244 -3411 0
-3731 245 0
-3731 3475 0
3731 -245 -3475 0
-3811 234 0
-3811 3779 0
3811 -234 -3779 0
-3843 -235 0
-3843 3811 0
3843 235 -3811 0
-3907 -236 0
-3907 3843 0
3907 236 -3843 0
-4163 237 0
-4163 3907 0
4163 -237 -3907 0
-4243 226 0
-4243 4211 0
4243 -226 -4211 0
-4275 -227 0
-4275 4243 0
4275 227 -4243 0
-4339 -228 0
-4339 4275 0
4339 228 -4275 0
-4595 229 0
-4595 4339 0
4595 -229 -4339 0
-4675 218 0
-4675 4643 0
4675 -218 -4643 0
-4707 -219 0
-4707 4675 0
4707 219 -4675 0
-4771 -220 0
-4771 4707 0
4771 220 -4707 0
-5027 221 0
-5027 4771 0
5027 -221 -4771 0
-5107 210 0
-5107 5075 0
5107 -210 -5075 0
-5139 -211 0
-5139 5107 0
5139 211 -5107 0
-5203 -212 0
-5203 5139 0
5203 212 -5139 0
-5459 213 0
-5459 5203 0
5459 -213 -5203 0
-5539 202 0
-5539 5507 0
5539 -202 -5507 0
-5571 -203 0
-5571 5539 0
5571 203 -5539 0
-5635 -204 0
-5635 5571 0
5635 204 -5571 0
-5891 205 0
-5891 5635 0
5891 -205 -5635 0
-5971 194 0
-5971 5939 0
5971 -194 -5939 0
-6003 -195 0
-6003 5971 0
6003 195 -5971 0
-6067 -196 0
-6067 6003 0
6067 196 -6003 0
-6323 197 0
-6323 6067 0
6323 -197 -6067 0
-6403 186 0
-6403 6371 0
6403 -186 -6371 0
-6435 -187 0
-6435 6403 0
6435 187 -6403 0
-6499 -188 0
-6499 6435 0
6499 188 -6435 0
-6755 189 0
-6755 6499 0
6755 -189 -6499 0
-6935 -6323 0
-6935 -6755 0
6935 6323 6755 0
-7115 -5891 0
-7115 6935 0
7115 5891 -6935 0
-7295 -5459 0
-7295 7115 0
7295 5459 -7115 0
-7475 -5027 0
-7475 7295 0
7475 5027 -7295 0
-7655 -4595 0
-7655 7475 0
7655 4595 -7475 0
-7835 -4163 0
-7835 7655 0
7835 4163 -7655 0
-8015 -3731 0
-8015 7835 0
8015 3731 -7835 0
-8195 -3299 0
-8195 8015 0
8195 3299 -8015 0
-8375 -2867 0
-8375 8195 0
8375 2867 -8195 0
-8555 -2435 0
-8555 8375 0
8555 2435 -8375 0
-8735 -2003 0
-8735 8555 0
8735 2003 -8555 0
-8915 -1571 0
-8915 8735 0
8915 1571 -8735 0
-9095 -1139 0
-9095 8915 0
9095 1139 -8915 0
-9275 -707 0
-9275 9095 0
9275 707 -9095 0
-9761 155 0
-9761 9275 0
9761 -155 -9275 0
-9762 -155 0
-9762 -9275 0
9762 155 9275 0
-9763 -9761 0
-9763 -9762 0
9763 9761 9762 0
154 -39867 0
-154 39867 0
-354 298 0
-354 322 0
354 -298 -322 0
-386 -299 0
-386 354 0
386 299 -354 0
-450 -300 0
-450 386 0
450 300 -386 0
-706 301 0
-706 450 0
706 -301 -450 0
-786 290 0
-786 754 0
786 -290 -754 0
-818 -291 0
-818 786 0
818 291 -786 0
-882 -292 0
-882 818 0
882 292 -818 0
-1138 293 0
-1138 882 0
1138 -293 -882 0
-1218 282 0
-1218 1186 0
1218 -282 -1186 0
-1250 -283 0
-1250 1218 0
1250 283 -1218 0
-1314 -284 0
-1314 1250 0
1314 284 -1250 0
-1570 285 0
-1570 1314 0
1570 -285 -1314 0
-1650 274 0
-1650 1618 0
1650 -274 -1618 0
-1682 -275 0
-1682 1650 0
1682 275 -1650 0
-1746 -276 0
-1746 1682 0
1746 276 -1682 0
-2002 277 0
-2002 1746 0
2002 -277 -1746 0
-2082 266 0
-2082 2050 0
2082 -266 -2050 0
-2114 -267 0
-2114 2082 0
2114 267 -2082 0
-2178 -268 0
-2178 2114 0
2178 268 -2114 0
-2434 269 0
-2434 2178 0
2434 -269 -2178 0
-2514 258 0
-2514 2482 0
2514 -258 -2482 0
-2546 -259 0
-2546 2514 0
2546 259 -2514 0
-2610 -260 0
-2610 2546 0
2610 260 -2546 0
-2866 261 0
-2866 2610 0
2866 -261 -2610 0
-2946 250 0
-2946 2914 0
2946 -250 -2914 0
-2978 -251 0
-2978 2946 0
2978 251 -2946 0
-3042 -252 0
-3042 2978 0
3042 252 -2978 0
-3298 253 0
-3298 3042 0
3298 -253 -3042 0
-3378 242 0
-3378 3346 0
3378 -242 -3346 0
-3410 -243 0
-3410 3378 0
3410 243 -3378 0
-3474 -244 0
-3474 3410 0
3474 244 -3410 0
-3730 245 0
-3730 3474 0
3730 -245 -3474 0
-3810 234 0
-3810 3778 0
3810 -234 -3778 0
-3842 -235 0
-3842 3810 0
3842 235 -3810 0
-3906 -236 0
-3906 3842 0
3906 236 -3842 0
-4162 237 0
-4162 3906 0
4162 -237 -3906 0
-4242 226 0
-4242 4210 0
4242 -226 -4210 0
-4274 -227 0
-4274 4242 0
4274 227 -4242 0
-4338 -228 0
-4338 4274 0
4338 228 -4274 0
-4594 229 0
-4594 4338 0
4594 -229 -4338 0
-4674 218 0
-4674 4642 0
4674 -218 -4642 0
-4706 -219 0
-4706 4674 0
4706 219 -4674 0
-4770 -220 0
-4770 4706 0
4770 220 -4706 0
-5026 221 0
-5026 4770 0
5026 -221 -4770 0
-5106 210 0
-5106 5074 0
5106 -210 -5074 0
-5138 -211 0
-5138 5106 0
5138 211 -5106 0
-5202 -212 0
-5202 5138 0
5202 212 -5138 0
-5458 213 0
-5458 5202 0
5458 -213 -5202 0
-5538 202 0
-5538 5506 0
5538 -202 -5506 0
-5570 -203 0
-5570 5538 0
5570 203 -5538 0
-5634 -204 0
-5634 5570 0
5634 204 -5570 0
-5890 205 0
-5890 5634 0
5890 -205 -5634 0
-5970 194 0
-5970 5938 0
5970 -194 -5938 0
-6002 -195 0
-6002 5970 0
6002 195 -5970 0
-6066 -196 0
-6066 6002 0
6066 196 -6002 0
-6322 197 0
-6322 6066 0
6322 -197 -6066 0
-6402 186 0
-6402 6370 0
6402 -186 -6370 0
-6434 -187 0
-6434 6402 0
6434 187 -6402 0
-6498 -188 0
-6498 6434 0
6498 188 -6434 0
-6754 189 0
-6754 6498 0
6754 -189 -6498 0
-6934 -6322 0
-6934 -6754 0
6934 6322 6754 0
-7114 -5890 0
-7114 6934 0
7114 5890 -6934 0
-7294 -5458 0
-7294 7114 0
7294 5458 -7114 0
-7474 -5026 0
-7474 7294 0
7474 5026 -7294 0
-7654 -4594 0
-7654 7474 0
7654 4594 -7474 0
-7834 -4162 0
-7834 7654 0
7834 4162 -7654 0
-8014 -3730 0
-8014 7834 0
8014 3730 -7834 0
-8194 -3298 0
-8194 8014 0
8194 3298 -8014 0
-8374 -2866 0
-8374 8194 0
8374 2866 -8194 0
-8554 -2434 0
-8554 8374 0
8554 2434 -8374 0
-8734 -2002 0
-8734 8554 0
8734 2002 -8554 0
-8914 -1570 0
-8914 8734 0
8914 1570 -8734 0
-9094 -1138 0
-9094 8914 0
9094 1138 -8914 0
-9274 -706 0
-9274 9094 0
9274 706 -9094 0
-9758 154 0
-9758 9274 0
9758 -154 -9274 0
-9759 -154 0
-9759 -9274 0
9759 154 9274 0
-9760 -9758 0
-9760 -9759 0
9760 9758 9759 0
153 -39866 0
-153 39866 0
-353 298 0
-353 321 0
353 -298 -321 0
-385 -299 0
-385 353 0
385 299 -353 0
-449 -300 0
-449 385 0
449 300 -385 0
-705 301 0
-705 449 0
705 -301 -449 0
-785 290 0
-785 753 0
785 -290 -753 0
-817 -291 0
-817 785 0
817 291 -785 0
-881 -292 0
-881 817 0
881 292 -817 0
-1137 293 0
-1137 881 0
1137 -293 -881 0
-1217 282 0
-1217 1185 0
1217 -282 -1185 0
-1249 -283 0
-1249 1217 0
1249 283 -1217 0
-1313 -284 0
-1313 1249 0
1313 284 -1249 0
-1569 285 0
-1569 1313 0
1569 -285 -1313 0
-1649 274 0
-1649 1617 0
1649 -274 -1617 0
-1681 -275 0
-1681 1649 0
1681 275 -1649 0
-1745 -276 0
-1745 1681 0
1745 276 -1681 0
-2001 277 0
-2001 1745 0
2001 -277 -1745 0
-2081 266 0
-2081 2049 0
2081 -266 -2049 0
-2113 -267 0
-2113 2081 0
2113 267 -2081 0
-2177 -268 0
-2177 2113 0
2177 268 -2113 0
-2433 269 0
-2433 2177 0
2433 -269 -2177 0
-2513 258 0
-2513 2481 0
2513 -258 -2481 0
-2545 -259 0
-2545 2513 0
2545 259 -2513 0
-2609 -260 0
-2609 2545 0
2609 260 -2545 0
-2865 261 0
-2865 2609 0
2865 -261 -2609 0
-2945 250 0
-2945 2913 0
2945 -250 -2913 0
-2977 -251 0
-2977 2945 0
2977 251 -2945 0
-3041 -252 0
-3041 2977 0
3041 252 -2977 0
-3297 253 0
-3297 3041 0
3297 -253 -3041 0
-3377 242 0
-3377 3345 0
3377 -242 -3345 0
-3409 -243 0
-3409 3377 0
3409 243 -3377 0
-3473 -244 0
-3473 3409 0
3473 244 -3409 0
-3729 245 0
-3729 3473 0
3729 -245 -3473 0
-3809 234 0
-3809 3777 0
3809 -234 -3777 0
-3841 -235 0
-3841 3809 0
3841 235 -3809 0
-3905 -236 0
-3905 3841 0
3905 236 -3841 0
-4161 237 0
-4161 3905 0
4161 -237 -3905 0
-4241 226 0
-4241 4209 0
4241 -226 -4209 0
-4273 -227 0
-4273 4241 0
4273 227 -4241 0
-4337 -228 0
-4337 4273 0
4337 228 -4273 0
-4593 229 0
-4593 4337 0
4593 -229 -4337 0
-4673 218 0
-4673 4641 0
4673 -218 -4641 0
-4705 -219 0
-4705 4673 0
4705 219 -4673 0
-4769 -220 0
-4769 4705 0
4769 220 -4705 0
-5025 221 0
-5025 4769 0
5025 -221 -4769 0
-5105 210 0
-5105 5073 0
5105 -210 -5073 0
-5137 -211 0
-5137 5105 0
5137 211 -5105 0
-5201 -212 0
-5201 5137 0
5201 212 -5137 0
-5457 213 0
-5457 5201 0
5457 -213 -5201 0
-5537 202 0
-5537 5505 0
5537 -202 -5505 0
-5569 -203 0
-5569 5537 0
5569 203 -5537 0
-5633 -204 0
-5633 5569 0
5633 204 -5569 0
-5889 205 0
-5889 5633 0
5889 -205 -5633 0
-5969 194 0
-5969 5937 0
5969 -194 -5937 0
-6001 -195 0
-6001 5969 0
6001 195 -5969 0
-6065 -196 0
-6065 6001 0
6065 196 -6001 0
-6321 197 0
-6321 6065 0
6321 -197 -6065 0
-6401 186 0
-6401 6369 0
6401 -186 -6369 0
-6433 -187 0
-6433 6401 0
6433 187 -6401 0
-6497 -188 0
-6497 6433 0
6497 188 -6433 0
-6753 189 0
-6753 6497 0
6753 -189 -6497 0
-6933 -6321 0
-6933 -6753 0
6933 6321 6753 0
-7113 -5889 0
-7113 6933 0
7113 5889 -6933 0
-7293 -5457 0
-7293 7113 0
7293 5457 -7113 0
-7473 -5025 0
-7473 7293 0
7473 5025 -7293 0
-7653 -4593 0
-7653 7473 0
7653 4593 -7473 0
-7833 -4161 0
-7833 7653 0
7833 4161 -7653 0
-8013 -3729 0
-8013 7833 0
8013 3729 -7833 0
-8193 -3297 0
-8193 8013 0
8193 3297 -8013 0
-8373 -2865 0
-8373 8193 0
8373 2865 -8193 0
-8553 -2433 0
-8553 8373 0
8553 2433 -8373 0
-8733 -2001 0
-8733 8553 0
8733 2001 -8553 0
-8913 -1569 0
-8913 8733 0
8913 1569 -8733 0
-9093 -1137 0
-9093 8913 0
9093 1137 -8913 0
-9273 -705 0
-9273 9093 0
9273 705 -9093 0
-9755 153 0
-9755 9273 0
9755 -153 -9273 0
-9756 -153 0
-9756 -9273 0
9756 153 9273 0
-9757 -9755 0
-9757 -9756 0
9757 9755 9756 0
152 -39865 0
-152 39865 0
-352 298 0
-352 320 0
352 -298 -320 0
-384 -299 0
-384 352 0
384 299 -352 0
-448 -300 0
-448 384 0
448 300 -384 0
-704 301 0
-704 448 0
704 -301 -448 0
-784 290 0
-784 752 0
784 -290 -752 0
-816 -291 0
-816 784 0
816 291 -784 0
-880 -292 0
-880 816 0
880 292 -816 0
-1136 293 0
-1136 880 0
1136 -293 -880 0
-1216 282 0
-1216 1184 0
1216 -282 -1184 0
-1248 -283 0
-1248 1216 0
1248 283 -1216 0
-1312 -284 0
-1312 1248 0
1312 284 -1248 0
-1568 285 0
-1568 1312 0
1568 -285 -1312 0
-1648 274 0
-1648 1616 0
1648 -274 -1616 0
-1680 -275 0
-1680 1648 0
1680 275 -1648 0
-1744 -276 0
-1744 1680 0
1744 276 -1680 0
-2000 277 0
-2000 1744 0
2000 -277 -1744 0
-2080 266 0
-2080 2048 0
2080 -266 -2048 0
-2112 -267 0
-2112 2080 0
2112 267 -2080 0
-2176 -268 0
-2176 2112 0
2176 268 -2112 0
-2432 269 0
-2432 2176 0
2432 -269 -2176 0
-2512 258 0
-2512 2480 0
2512 -258 -2480 0
-2544 -259 0
-2544 2512 0
2544 259 -2512 0
-2608 -260 0
-2608 2544 0
2608 260 -2544 0
-2864 261 0
-2864 2608 0
2864 -261 -2608 0
-2944 250 0
-2944 2912 0
2944 -250 -2912 0
-2976 -251 0
-2976 2944 0
2976 251 -2944 0
-3040 -252 0
-3040 2976 0
3040 252 -2976 0
-3296 253 0
-3296 3040 0
3296 -253 -3040 0
-3376 242 0
-3376 3344 0
3376 -242 -3344 0
-3408 -243 0
-3408 3376 0
3408 243 -3376 0
-3472 -244 0
-3472 3408 0
3472 244 -3408 0
-3728 245 0
-3728 3472 0
3728 -245 -3472 0
-3808 234 0
-3808 3776 0
3808 -234 -3776 0
-3840 -235 0
-3840 3808 0
3840 235 -3808 0
-3904 -236 0
-3904 3840 0
3904 236 -3840 0
-4160 237 0
-4160 3904 0
4160 -237 -3904 0
-4240 226 0
-4240 4208 0
4240 -226 -4208 0
-4272 -227 0
-4272 4240 0
4272 227 -4240 0
-4336 -228 0
-4336 4272 0
4336 228 -4272 0
-4592 229 0
-4592 4336 0
4592 -229 -4336 0
-4672 218 0
-4672 4640 0
4672 -218 -4640 0
-4704 -219 0
-4704 4672 0
4704 219 -4672 0
-4768 -220 0
-4768 4704 0
4768 220 -4704 0
-5024 221 0
-5024 4768 0
5024 -221 -4768 0
-5104 210 0
-5104 5072 0
5104 -210 -5072 0
-5136 -211 0
-5136 5104 0
5136 211 -5104 0
-5200 -212 0
-5200 5136 0
5200 212 -5136 0
-5456 213 0
-5456 5200 0
5456 -213 -5200 0
-5536 202 0
-5536 5504 0
5536 -202 -5504 0
-5568 -203 0
-5568 5536 0
5568 203 -5536 0
-5632 -204 0
-5632 5568 0
5632 204 -5568 0
-5888 205 0
-5888 5632 0
5888 -205 -5632 0
-5968 194 0
-5968 5936 0
5968 -194 -5936 0
-6000 -195 0
-6000 5968 0
6000 195 -5968 0
-6064 -196 0
-6064 6000 0
6064 196 -6000 0
-6320 197 0
-6320 6064 0
6320 -197 -6064 0
-6400 186 0
-6400 6368 0
6400 -186 -6368 0
-6432 -187 0
-6432 6400 0
6432 187 -6400 0
-6496 -188 0
-6496 6432 0
6496 188 -6432 0
-6752 189 0
-6752 6496 0
6752 -189 -6496 0
-6932 -6320 0
-6932 -6752 0
6932 6320 6752 0
-7112 -5888 0
-7112 6932 0
7112 5888 -6932 0
-7292 -5456 0
-7292 7112 0
7292 5456 -7112 0
-7472 -5024 0
-7472 7292 0
7472 5024 -7292 0
-7652 -4592 0
-7652 7472 0
7652 4592 -7472 0
-7832 -4160 0
-7832 7652 0
7832 4160 -7652 0
-8012 -3728 0
-8012 7832 0
8012 3728 -7832 0
-8192 -3296 0
-8192 8012 0
8192 3296 -8012 0
-8372 -2864 0
-8372 8192 0
8372 2864 -8192 0
-8552 -2432 0
-8552 8372 0
8552 2432 -8372 0
-8732 -2000 0
-8732 8552 0
8732 2000 -8552 0
-8912 -1568 0
-8912 8732 0
8912 1568 -8732 0
-9092 -1136 0
-9092 8912 0
9092 1136 -8912 0
-9272 -704 0
-9272 9092 0
9272 704 -9092 0
-9752 152 0
-9752 9272 0
9752 -152 -9272 0
-9753 -152 0
-9753 -9272 0
9753 152 9272 0
-9754 -9752 0
-9754 -9753 0
9754 9752 9753 0
151 -39864 0
-151 39864 0
-351 298 0
-351 319 0
351 -298 -319 0
-383 -299 0
-383 351 0
383 299 -351 0
-447 -300 0
-447 383 0
447 300 -383 0
-703 301 0
-703 447 0
703 -301 -447 0
-783 290 0
-783 751 0
783 -290 -751 0
-815 -291 0
-815 783 0
815 291 -783 0
-879 -292 0
-879 815 0
879 292 -815 0
-1135 293 0
-1135 879 0
1135 -293 -879 0
-1215 282 0
-1215 1183 0
1215 -282 -1183 0
-1247 -283 0
-1247 1215 0
1247 283 -1215 0
-1311 -284 0
-1311 1247 0
1311 284 -1247 0
-1567 285 0
-1567 1311 0
1567 -285 -1311 0
-1647 274 0
-1647 1615 0
1647 -274 -1615 0
-1679 -275 0
-1679 1647 0
1679 275 -1647 0
-1743 -276 0
-1743 1679 0
1743 276 -1679 0
-1999 277 0
-1999 1743 0
1999 -277 -1743 0
-2079 266 0
-2079 2047 0
2079 -266 -2047 0
-2111 -267 0
-2111 2079 0
2111 267 -2079 0
-2175 -268 0
-2175 2111 0
2175 268 -2111 0
-2431 269 0
-2431 2175 0
2431 -269 -2175 0
-2511 258 0
-2511 2479 0
2511 -258 -2479 0
-2543 -259 0
-2543 2511 0
2543 259 -2511 0
-2607 -260 0
-2607 2543 0
2607 260 -2543 0
-2863 261 0
-2863 2607 0
2863 -261 -2607 0
-2943 250 0
-2943 2911 0
2943 -250 -2911 0
-2975 -251 0
-2975 2943 0
2975 251 -2943 0
-3039 -252 0
-3039 2975 0
3039 252 -2975 0
-3295 253 0
-3295 3039 0
3295 -253 -3039 0
-3375 242 0
-3375 3343 0
3375 -242 -3343 0
-3407 -243 0
-3407 3375 0
3407 243 -3375 0
-3471 -244 0
-3471 3407 0
3471 244 -3407 0
-3727 245 0
-3727 3471 0
3727 -245 -3471 0
-3807 234 0
-3807 3775 0
3807 -234 -3775 0
-3839 -235 0
-3839 3807 0
3839 235 -3807 0
-3903 -236 0
-3903 3839 0
3903 236 -3839 0
-4159 237 0
-4159 3903 0
4159 -237 -3903 0
-4239 226 0
-4239 4207 0
4239 -226 -4207 0
-4271 -227 0
-4271 4239 0
4271 227 -4239 0
-4335 -228 0
-4335 4271 0
4335 228 -4271 0
-4591 229 0
-4591 4335 0
4591 -229 -4335 0
-4671 218 0
-4671 4639 0
4671 -218 -4639 0
-4703 -219 0
-4703 4671 0
4703 219 -4671 0
-4767 -220 0
-4767 4703 0
4767 220 -4703 0
-5023 221 0
-5023 4767 0
5023 -221 -4767 0
-5103 210 0
-5103 5071 0
5103 -210 -5071 0
-5135 -211 0
-5135 5103 0
5135 211 -5103 0
-5199 -212 0
-5199 5135 0
5199 212 -5135 0
-5455 213 0
-5455 5199 0
5455 -213 -5199 0
-5535 202 0
-5535 5503 0
5535 -202 -5503 0
-5567 -203 0
-5567 5535 0
5567 203 -5535 0
-5631 -204 0
-5631 5567 0
5631 204 -5567 0
-5887 205 0
-5887 5631 0
5887 -205 -5631 0
-5967 194 0
-5967 5935 0
5967 -194 -5935 0
-5999 -195 0
-5999 5967 0
5999 195 -5967 0
-6063 -196 0
-6063 5999 0
6063 196 -5999 0
-6319 197 0
-6319 6063 0
6319 -197 -6063 0
-6399 186 0
-6399 6367 0
6399 -186 -6367 0
-6431 -187 0
-6431 6399 0
6431 187 -6399 0
-6495 -188 0
-6495 6431 0
6495 188 -6431 0
-6751 189 0
-6751 6495 0
6751 -189 -6495 0
-6931 -6319 0
-6931 -6751 0
6931 6319 6751 0
-7111 -5887 0
-7111 6931 0
7111 5887 -6931 0
-7291 -5455 0
-7291 7111 0
7291 5455 -7111 0
-7471 -5023 0
-7471 7291 0
7471 5023 -7291 0
-7651 -4591 0
-7651 7471 0
7651 4591 -7471 0
-7831 -4159 0
-7831 7651 0
7831 4159 -7651 0
-8011 -3727 0
-8011 7831 0
8011 3727 -7831 0
-8191 -3295 0
-8191 8011 0
8191 3295 -8011 0
-8371 -2863 0
-8371 8191 0
8371 2863 -8191 0
-8551 -2431 0
-8551 8371 0
8551 2431 -8371 0
-8731 -1999 0
-8731 8551 0
8731 1999 -8551 0
-8911 -1567 0
-8911 8731 0
8911 1567 -8731 0
-9091 -1135 0
-9091 8911 0
9091 1135 -8911 0
-9271 -703 0
-9271 9091 0
9271 703 -9091 0
-9749 151 0
-9749 9271 0
9749 -151 -9271 0
-9750 -151 0
-9750 -9271 0
9750 151 9271 0
-9751 -9749 0
-9751 -9750 0
9751 9749 9750 0
150 -39863 0
-150 39863 0
-350 298 0
-350 318 0
350 -298 -318 0
-382 -299 0
-382 350 0
382 299 -350 0
-446 -300 0
-446 382 0
446 300 -382 0
-702 301 0
-702 446 0
702 -301 -446 0
-782 290 0
-782 750 0
782 -290 -750 0
-814 -291 0
-814 782 0
814 291 -782 0
-878 -292 0
-878 814 0
878 292 -814 0
-1134 293 0
-1134 878 0
1134 -293 -878 0
-1214 282 0
-1214 1182 0
1214 -282 -1182 0
-1246 -283 0
-1246 1214 0
1246 283 -1214 0
-1310 -284 0
-1310 1246 0
1310 284 -1246 0
-1566 285 0
-1566 1310 0
1566 -285 -1310 0
-1646 274 0
-1646 1614 0
1646 -274 -1614 0
-1678 -275 0
-1678 1646 0
1678 275 -1646 0
-1742 -276 0
-1742 1678 0
1742 276 -1678 0
-1998 277 0
-1998 1742 0
1998 -277 -1742 0
-2078 266 0
-2078 2046 0
2078 -266 -2046 0
-2110 -267 0
-2110 2078 0
2110 267 -2078 0
-2174 -268 0
-2174 2110 0
2174 268 -2110 0
-2430 269 0
-2430 2174 0
2430 -269 -2174 0
-2510 258 0
-2510 2478 0
2510 -258 -2478 0
-2542 -259 0
-2542 2510 0
2542 259 -2510 0
-2606 -260 0
-2606 2542 0
2606 260 -2542 0
-2862 261 0
-2862 2606 0
2862 -261 -2606 0
-2942 250 0
-2942 2910 0
2942 -250 -2910 0
-2974 -251 0
-2974 2942 0
2974 251 -2942 0
-3038 -252 0
-3038 2974 0
3038 252 -2974 0
-3294 253 0
-3294 3038 0
3294 -253 -3038 0
-3374 242 0
-3374 3342 0
3374 -242 -3342 0
-3406 -243 0
-3406 3374 0
3406 243 -3374 0
-3470 -244 0
-3470 3406 0
3470 244 -3406 0
-3726 245 0
-3726 3470 0
3726 -245 -3470 0
-3806 234 0
-3806 3774 0
3806 -234 -3774 0
-3838 -235 0
-3838 3806 0
3838 235 -3806 0
-3902 -236 0
-3902 3838 0
3902 236 -3838 0
-4158 237 0
-4158 3902 0
4158 -237 -3902 0
-4238 226 0
-4238 4206 0
4238 -226 -4206 0
-4270 -227 0
-4270 4238 0
4270 227 -4238 0
-4334 -228 0
-4334 4270 0
4334 228 -4270 0
-4590 229 0
-4590 4334 0
4590 -229 -4334 0
-4670 218 0
-4670 4638 0
4670 -218 -4638 0
-4702 -219 0
-4702 4670 0
4702 219 -4670 0
-4766 -220 0
-4766 4702 0
4766 220 -4702 0
-5022 221 0
-5022 4766 0
5022 -221 -4766 0
-5102 210 0
-5102 5070 0
5102 -210 -5070 0
-5134 -211 0
-5134 5102 0
5134 211 -5102 0
-5198 -212 0
-5198 5134 0
5198 212 -5134 0
-5454 213 0
-5454 5198 0
5454 -213 -5198 0
-5534 202 0
-5534 5502 0
5534 -202 -5502 0
-5566 -203 0
-5566 5534 0
5566 203 -5534 0
-5630 -204 0
-5630 5566 0
5630 204 -5566 0
-5886 205 0
-5886 5630 0
5886 -205 -5630 0
-5966 194 0
-5966 5934 0
5966 -194 -5934 0
-5998 -195 0
-5998 5966 0
5998 195 -5966 0
-6062 -196 0
-6062 5998 0
6062 196 -5998 0
-6318 197 0
-6318 6062 0
6318 -197 -6062 0
-6398 186 0
-6398 6366 0
6398 -186 -6366 0
-6430 -187 0
-6430 6398 0
6430 187 -6398 0
-6494 -188 0
-6494 6430 0
6494 188 -6430 0
-6750 189 0
-6750 6494 0
6750 -189 -6494 0
-6930 -6318 0
-6930 -6750 0
6930 6318 6750 0
-7110 -5886 0
-7110 6930 0
7110 5886 -6930 0
-7290 -5454 0
-7290 7110 0
7290 5454 -7110 0
-7470 -5022 0
-7470 7290 0
7470 5022 -7290 0
-7650 -4590 0
-7650 7470 0
7650 4590 -7470 0
-7830 -4158 0
-7830 7650 0
7830 4158 -7650 0
-8010 -3726 0
-8010 7830 0
8010 3726 -7830 0
-8190 -3294 0
-8190 8010 0
8190 3294 -8010 0
-8370 -2862 0
-8370 8190 0
8370 2862 -8190 0
-8550 -2430 0
-8550 8370 0
8550 2430 -8370 0
-8730 -1998 0
-8730 8550 0
8730 1998 -8550 0
-8910 -1566 0
-8910 8730 0
8910 1566 -8730 0
-9090 -1134 0
-9090 8910 0
9090 1134 -8910 0
-9270 -702 0
-9270 9090 0
9270 702 -9090 0
-9746 150 0
-9746 9270 0
9746 -150 -9270 0
-9747 -150 0
-9747 -9270 0
9747 150 9270 0
-9748 -9746 0
-9748 -9747 0
9748 9746 9747 0
149 -39862 0
-149 39862 0
-381 -299 0
-381 349 0
381 299 -349 0
-445 -300 0
-445 381 0
445 300 -381 0
-701 301 0
-701 445 0
701 -301 -445 0
-813 -291 0
-813 781 0
813 291 -781 0
-877 -292 0
-877 813 0
877 292 -813 0
-1133 293 0
-1133 877 0
1133 -293 -877 0
-1245 -283 0
-1245 1213 0
1245 283 -1213 0
-1309 -284 0
-1309 1245 0
1309 284 -1245 0
-1565 285 0
-1565 1309 0
1565 -285 -1309 0
-1677 -275 0
-1677 1645 0
1677 275 -1645 0
-1741 -276 0
-1741 1677 0
1741 276 -1677 0
-1997 277 0
-1997 1741 0
1997 -277 -1741 0
-2109 -267 0
-2109 2077 0
2109 267 -2077 0
-2173 -268 0
-2173 2109 0
2173 268 -2109 0
-2429 269 0
-2429 2173 0
2429 -269 -2173 0
-2541 -259 0
-2541 2509 0
2541 259 -2509 0
-2605 -260 0
-2605 2541 0
2605 260 -2541 0
-2861 261 0
-2861 2605 0
2861 -261 -2605 0
-2973 -251 0
-2973 2941 0
2973 251 -2941 0
-3037 -252 0
-3037 2973 0
3037 252 -2973 0
-3293 253 0
-3293 3037 0
3293 -253 -3037 0
-3405 -243 0
-3405 3373 0
3405 243 -3373 0
-3469 -244 0
-3469 3405 0
3469 244 -3405 0
-3725 245 0
-3725 3469 0
3725 -245 -3469 0
-3837 -235 0
-3837 3805 0
3837 235 -3805 0
-3901 -236 0
-3901 3837 0
3901 236 -3837 0
-4157 237 0
-4157 3901 0
4157 -237 -3901 0
-4269 -227 0
-4269 4237 0
4269 227 -4237 0
-4333 -228 0
-4333 4269 0
4333 228 -4269 0
-4589 229 0
-4589 4333 0
4589 -229 -4333 0
-4701 -219 0
-4701 4669 0
4701 219 -4669 0
-4765 -220 0
-4765 4701 0
4765 220 -4701 0
-5021 221 0
-5021 4765 0
5021 -221 -4765 0
-5133 -211 0
-5133 5101 0
5133 211 -5101 0
-5197 -212 0
-5197 5133 0
5197 212 -5133 0
-5453 213 0
-5453 5197 0
5453 -213 -5197 0
-5565 -203 0
-5565 5533 0
5565 203 -5533 0
-5629 -204 0
-5629 5565 0
5629 204 -5565 0
-5885 205 0
-5885 5629 0
5885 -205 -5629 0
-5997 -195 0
-5997 5965 0
5997 195 -5965 0
-6061 -196 0
-6061 5997 0
6061 196 -5997 0
-6317 197 0
-6317 6061 0
6317 -197 -6061 0
-6429 -187 0
-6429 6397 0
6429 187 -6397 0
-6493 -188 0
-6493 6429 0
6493 188 -6429 0
-6749 189 0
-6749 6493 0
6749 -189 -6493 0
-6929 -6317 0
-6929 -6749 0
6929 6317 6749 0
-7109 -5885 0
-7109 6929 0
7109 5885 -6929 0
-7289 -5453 0
-7289 7109 0
7289 5453 -7109 0
-7469 -5021 0
-7469 7289 0
7469 5021 -7289 0
-7649 -4589 0
-7649 7469 0
7649 4589 -7469 0
-7829 -4157 0
-7829 7649 0
7829 4157 -7649 0
-8009 -3725 0
-8009 7829 0
8009 3725 -7829 0
-8189 -3293 0
-8189 8009 0
8189 3293 -8009 0
-8369 -2861 0
-8369 8189 0
8369 2861 -8189 0
-8549 -2429 0
-8549 8369 0
8549 2429 -8369 0
-8729 -1997 0
-8729 8549 0
8729 1997 -8549 0
-8909 -1565 0
-8909 8729 0
8909 1565 -8729 0
-9089 -1133 0
-9089 8909 0
9089 1133 -8909 0
-9269 -701 0
-9269 9089 0
9269 701 -9089 0
-9743 149 0
-9743 9269 0
9743 -149 -9269 0
-9744 -149 0
-9744 -9269 0
9744 149 9269 0
-9745 -9743 0
-9745 -9744 0
9745 9743 9744 0
148 -39861 0
-148 39861 0
-380 -299 0
-380 348 0
380 299 -348 0
-444 -300 0
-444 380 0
444 300 -380 0
-700 301 0
-700 444 0
700 -301 -444 0
-812 -291 0
-812 780 0
812 291 -780 0
-876 -292 0
-876 812 0
876 292 -812 0
-1132 293 0
-1132 876 0
1132 -293 -876 0
-1244 -283 0
-1244 1212 0
1244 283 -1212 0
-1308 -284 0
-1308 1244 0
1308 284 -1244 0
-1564 285 0
-1564 1308 0
1564 -285 -1308 0
-1676 -275 0
-1676 1644 0
1676 275 -1644 0
-1740 -276 0
-1740 1676 0
1740 276 -1676 0
-1996 277 0
-1996 1740 0
1996 -277 -1740 0
-2108 -267 0
-2108 2076 0
2108 267 -2076 0
-2172 -268 0
-2172 2108 0
2172 268 -2108 0
-2428 269 0
-2428 2172 0
2428 -269 -2172 0
-2540 -259 0
-2540 2508 0
2540 259 -2508 0
-2604 -260 0
-2604 2540 0
2604 260 -2540 0
-2860 261 0
-2860 2604 0
2860 -261 -2604 0
-2972 -251 0
-2972 2940 0
2972 251 -2940 0
-3036 -252 0
-3036 2972 0
3036 252 -2972 0
-3292 253 0
-3292 3036 0
3292 -253 -3036 0
-3404 -243 0
-3404 3372 0
3404 243 -3372 0
-3468 -244 0
-3468 3404 0
3468 244 -3404 0
-3724 245 0
-3724 3468 0
3724 -245 -3468 0
-3836 -235 0
-3836 3804 0
3836 235 -3804 0
-3900 -236 0
-3900 3836 0
3900 236 -3836 0
-4156 237 0
-4156 3900 0
4156 -237 -3900 0
-4268 -227 0
-4268 4236 0
4268 227 -4236 0
-4332 -228 0
-4332 4268 0
4332 228 -4268 0
-4588 229 0
-4588 4332 0
4588 -229 -4332 0
-4700 -219 0
-4700 4668 0
4700 219 -4668 0
-4764 -220 0
-4764 4700 0
4764 220 -4700 0
-5020 221 0
-5020 4764 0
5020 -221 -4764 0
-5132 -211 0
-5132 5100 0
5132 211 -5100 0
-5196 -212 0
-5196 5132 0
5196 212 -5132 0
-5452 213 0
-5452 5196 0
5452 -213 -5196 0
-5564 -203 0
-5564 5532 0
5564 203 -5532 0
-5628 -204 0
-5628 5564 0
5628 204 -5564 0
-5884 205 0
-5884 5628 0
5884 -205 -5628 0
-5996 -195 0
-5996 5964 0
5996 195 -5964 0
-6060 -196 0
-6060 5996 0
6060 196 -5996 0
-6316 197 0
-6316 6060 0
6316 -197 -6060 0
-6428 -187 0
-6428 6396 0
6428 187 -6396 0
-6492 -188 0
-6492 6428 0
6492 188 -6428 0
-6748 189 0
-6748 6492 0
6748 -189 -6492 0
-6928 -6316 0
-6928 -6748 0
6928 6316 6748 0
-7108 -5884 0
-7108 6928 0
7108 5884 -6928 0
-7288 -5452 0
-7288 7108 0
7288 5452 -7108 0
-7468 -5020 0
-7468 7288 0
7468 5020 -7288 0
-7648 -4588 0
-7648 7468 0
7648 4588 -7468 0
-7828 -4156 0
-7828 7648 0
7828 4156 -7648 0
-8008 -3724 0
-8008 7828 0
8008 3724 -7828 0
-8188 -3292 0
-8188 8008 0
8188 3292 -8008 0
-8368 -2860 0
-8368 8188 0
8368 2860 -8188 0
-8548 -2428 0
-8548 8368 0
8548 2428 -8368 0
-8728 -1996 0
-8728 8548 0
8728 1996 -8548 0
-8908 -1564 0
-8908 8728 0
8908 1564 -8728 0
-9088 -1132 0
-9088 8908 0
9088 1132 -8908 0
-9268 -700 0
-9268 9088 0
9268 700 -9088 0
-9740 148 0
-9740 9268 0
9740 -148 -9268 0
-9741 -148 0
-9741 -9268 0
9741 148 9268 0
-9742 -9740 0
-9742 -9741 0
9742 9740 9741 0
147 -39860 0
-147 39860 0
-379 -299 0
-379 347 0
379 299 -347 0
-443 -300 0
-443 379 0
443 300 -379 0
-699 301 0
-699 443 0
699 -301 -443 0
-811 -291 0
-811 779 0
811 291 -779 0
-875 -292 0
-875 811 0
875 292 -811 0
-1131 293 0
-1131 875 0
1131 -293 -875 0
-1243 -283 0
-1243 1211 0
1243 283 -1211 0
-1307 -284 0
-1307 1243 0
1307 284 -1243 0
-1563 285 0
-1563 1307 0
1563 -285 -1307 0
-1675 -275 0
-1675 1643 0
1675 275 -1643 0
-1739 -276 0
-1739 1675 0
1739 276 -1675 0
-1995 277 0
-1995 1739 0
1995 -277 -1739 0
-2107 -267 0
-2107 2075 0
2107 267 -2075 0
-2171 -268 0
-2171 2107 0
2171 268 -2107 0
-2427 269 0
-2427 2171 0
2427 -269 -2171 0
-2539 -259 0
-2539 2507 0
2539 259 -2507 0
-2603 -260 0
-2603 2539 0
2603 260 -2539 0
-2859 261 0
-2859 2603 0
2859 -261 -2603 0
-2971 -251 0
-2971 2939 0
2971 251 -2939 0
-3035 -252 0
-3035 2971 0
3035 252 -2971 0
-3291 253 0
-3291 3035 0
3291 -253 -3035 0
-3403 -243 0
-3403 3371 0
3403 243 -3371 0
-3467 -244 0
-3467 3403 0
3467 244 -3403 0
-3723 245 0
-3723 3467 0
3723 -245 -3467 0
-3835 -235 0
-3835 3803 0
3835 235 -3803 0
-3899 -236 0
-3899 3835 0
3899 236 -3835 0
-4155 237 0
-4155 3899 0
4155 -237 -3899 0
-4267 -227 0
-4267 4235 0
4267 227 -4235 0
-4331 -228 0
-4331 4267 0
4331 228 -4267 0
-4587 229 0
-4587 4331 0
4587 -229 -4331 0
-4699 -219 0
-4699 4667 0
4699 219 -4667 0
-4763 -220 0
-4763 4699 0
4763 220 -4699 0
-5019 221 0
-5019 4763 0
5019 -221 -4763 0
-5131 -211 0
-5131 5099 0
5131 211 -5099 0
-5195 -212 0
-5195 5131 0
5195 212 -5131 0
-5451 213 0
-5451 5195 0
5451 -213 -5195 0
-5563 -203 0
-5563 5531 0
5563 203 -5531 0
-5627 -204 0
-5627 5563 0
5627 204 -5563 0
-5883 205 0
-5883 5627 0
5883 -205 -5627 0
-5995 -195 0
-5995 5963 0
5995 195 -5963 0
-6059 -196 0
-6059 5995 0
6059 196 -5995 0
-6315 197 0
-6315 6059 0
6315 -197 -6059 0
-6427 -187 0
-6427 6395 0
6427 187 -6395 0
-6491 -188 0
-6491 6427 0
6491 188 -6427 0
-6747 189 0
-6747 6491 0
6747 -189 -6491 0
-6927 -6315 0
-6927 -6747 0
6927 6315 6747 0
-7107 -5883 0
-7107 6927 0
7107 5883 -6927 0
-7287 -5451 0
-7287 7107 0
7287 5451 -7107 0
-7467 -5019 0
-7467 7287 0
7467 5019 -7287 0
-7647 -4587 0
-7647 7467 0
7647 4587 -7467 0
-7827 -4155 0
-7827 7647 0
7827 4155 -7647 0
-8007 -3723 0
-8007 7827 0
8007 3723 -7827 0
-8187 -3291 0
-8187 8007 0
8187 3291 -8007 0
-8367 -2859 0
-8367 8187 0
8367 2859 -8187 0
-8547 -2427 0
-8547 8367 0
8547 2427 -8367 0
-8727 -1995 0
-8727 8547 0
8727 1995 -8547 0
-8907 -1563 0
-8907 8727 0
8907 1563 -8727 0
-9087 -1131 0
-9087 8907 0
9087 1131 -8907 0
-9267 -699 0
-9267 9087 0
9267 699 -9087 0
-9737 147 0
-9737 9267 0
9737 -147 -9267 0
-9738 -147 0
-9738 -9267 0
9738 147 9267 0
-9739 -9737 0
-9739 -9738 0
9739 9737 9738 0
146 -39859 0
-146 39859 0
-378 -299 0
-378 346 0
378 299 -346 0
-442 -300 0
-442 378 0
442 300 -378 0
-698 301 0
-698 442 0
698 -301 -442 0
-810 -291 0
-810 778 0
810 291 -778 0
-874 -292 0
-874 810 0
874 292 -810 0
-1130 293 0
-1130 874 0
1130 -293 -874 0
-1242 -283 0
-1242 1210 0
1242 283 -1210 0
-1306 -284 0
-1306 1242 0
1306 284 -1242 0
-1562 285 0
-1562 1306 0
1562 -285 -1306 0
-1674 -275 0
-1674 1642 0
1674 275 -1642 0
-1738 -276 0
-1738 1674 0
1738 276 -1674 0
-1994 277 0
-1994 1738 0
1994 -277 -1738 0
-2106 -267 0
-2106 2074 0
2106 267 -2074 0
-2170 -268 0
-2170 2106 0
2170 268 -2106 0
-2426 269 0
-2426 2170 0
2426 -269 -2170 0
-2538 -259 0
-2538 2506 0
2538 259 -2506 0
-2602 -260 0
-2602 2538 0
2602 260 -2538 0
-2858 261 0
-2858 2602 0
2858 -261 -2602 0
-2970 -251 0
-2970 2938 0
2970 251 -2938 0
-3034 -252 0
-3034 2970 0
3034 252 -2970 0
-3290 253 0
-3290 3034 0
3290 -253 -3034 0
-3402 -243 0
-3402 3370 0
3402 243 -3370 0
-3466 -244 0
-3466 3402 0
3466 244 -3402 0
-3722 245 0
-3722 3466 0
3722 -245 -3466 0
-3834 -235 0
-3834 3802 0
3834 235 -3802 0
-3898 -236 0
-3898 3834 0
3898 236 -3834 0
-4154 237 0
-4154 3898 0
4154 -237 -3898 0
-4266 -227 0
-4266 4234 0
4266 227 -4234 0
-4330 -228 0
-4330 4266 0
4330 228 -4266 0
-4586 229 0
-4586 4330 0
4586 -229 -4330 0
-4698 -219 0
-4698 4666 0
4698 219 -4666 0
-4762 -220 0
-4762 4698 0
4762 220 -4698 0
-5018 221 0
-5018 4762 0
5018 -221 -4762 0
-5130 -211 0
-5130 5098 0
5130 211 -5098 0
-5194 -212 0
-5194 5130 0
5194 212 -5130 0
-5450 213 0
-5450 5194 0
5450 -213 -5194 0
-5562 -203 0
-5562 5530 0
5562 203 -5530 0
-5626 -204 0
-5626 5562 0
5626 204 -5562 0
-5882 205 0
-5882 5626 0
5882 -205 -5626 0
-5994 -195 0
-5994 5962 0
5994 195 -5962 0
-6058 -196 0
-6058 5994 0
6058 196 -5994 0
-6314 197 0
-6314 6058 0
6314 -197 -6058 0
-6426 -187 0
-6426 6394 0
6426 187 -6394 0
-6490 -188 0
-6490 6426 0
6490 188 -6426 0
-6746 189 0
-6746 6490 0
6746 -189 -6490 0
-6926 -6314 0
-6926 -6746 0
6926 6314 6746 0
-7106 -5882 0
-7106 6926 0
7106 5882 -6926 0
-7286 -5450 0
-7286 7106 0
7286 5450 -7106 0
-7466 -5018 0
-7466 7286 0
7466 5018 -7286 0
-7646 -4586 0
-7646 7466 0
7646 4586 -7466 0
-7826 -4154 0
-7826 7646 0
7826 4154 -7646 0
-8006 -3722 0
-8006 7826 0
8006 3722 -7826 0
-8186 -3290 0
-8186 8006 0
8186 3290 -8006 0
-8366 -2858 0
-8366 8186 0
8366 2858 -8186 0
-8546 -2426 0
-8546 8366 0
8546 2426 -8366 0
-8726 -1994 0
-8726 8546 0
8726 1994 -8546 0
-8906 -1562 0
-8906 8726 0
8906 1562 -8726 0
-9086 -1130 0
-9086 8906 0
9086 1130 -8906 0
-9266 -698 0
-9266 9086 0
9266 698 -9086 0
-9734 146 0
-9734 9266 0
9734 -146 -9266 0
-9735 -146 0
-9735 -9266 0
9735 146 9266 0
-9736 -9734 0
-9736 -9735 0
9736 9734 9735 0
145 -39858 0
-145 39858 0
-377 -299 0
-377 345 0
377 299 -345 0
-441 -300 0
-441 377 0
441 300 -377 0
-697 301 0
-697 441 0
697 -301 -441 0
-809 -291 0
-809 777 0
809 291 -777 0
-873 -292 0
-873 809 0
873 292 -809 0
-1129 293 0
-1129 873 0
1129 -293 -873 0
-1241 -283 0
-1241 1209 0
1241 283 -1209 0
-1305 -284 0
-1305 1241 0
1305 284 -1241 0
-1561 285 0
-1561 1305 0
1561 -285 -1305 0
-1673 -275 0
-1673 1641 0
1673 275 -1641 0
-1737 -276 0
-1737 1673 0
1737 276 -1673 0
-1993 277 0
-1993 1737 0
1993 -277 -1737 0
-2105 -267 0
-2105 2073 0
2105 267 -2073 0
-2169 -268 0
-2169 2105 0
2169 268 -2105 0
-2425 269 0
-2425 2169 0
2425 -269 -2169 0
-2537 -259 0
-2537 2505 0
2537 259 -2505 0
-2601 -260 0
-2601 2537 0
2601 260 -2537 0
-2857 261 0
-2857 2601 0
2857 -261 -2601 0
-2969 -251 0
-2969 2937 0
2969 251 -2937 0
-3033 -252 0
-3033 2969 0
3033 252 -2969 0
-3289 253 0
-3289 3033 0
3289 -253 -3033 0
-3401 -243 0
-3401 3369 0
3401 243 -3369 0
-3465 -244 0
-3465 3401 0
3465 244 -3401 0
-3721 245 0
-3721 3465 0
3721 -245 -3465 0
-3833 -235 0
-3833 3801 0
3833 235 -3801 0
-3897 -236 0
-3897 3833 0
3897 236 -3833 0
-4153 237 0
-4153 3897 0
4153 -237 -3897 0
-4265 -227 0
-4265 4233 0
4265 227 -4233 0
-4329 -228 0
-4329 4265 0
4329 228 -4265 0
-4585 229 0
-4585 4329 0
4585 -229 -4329 0
-4697 -219 0
-4697 4665 0
4697 219 -4665 0
-4761 -220 0
-4761 4697 0
4761 220 -4697 0
-5017 221 0
-5017 4761 0
5017 -221 -4761 0
-5129 -211 0
-5129 5097 0
5129 211 -5097 0
-5193 -212 0
-5193 5129 0
5193 212 -5129 0
-5449 213 0
-5449 5193 0
5449 -213 -5193 0
-5561 -203 0
-5561 5529 0
5561 203 -5529 0
-5625 -204 0
-5625 5561 0
5625 204 -5561 0
-5881 205 0
-5881 5625 0
5881 -205 -5625 0
-5993 -195 0
-5993 5961 0
5993 195 -5961 0
-6057 -196 0
-6057 5993 0
6057 196 -5993 0
-6313 197 0
-6313 6057 0
6313 -197 -6057 0
-6425 -187 0
-6425 6393 0
6425 187 -6393 0
-6489 -188 0
-6489 6425 0
6489 188 -6425 0
-6745 189 0
-6745 6489 0
6745 -189 -6489 0
-6925 -6313 0
-6925 -6745 0
6925 6313 6745 0
-7105 -5881 0
-7105 6925 0
7105 5881 -6925 0
-7285 -5449 0
-7285 7105 0
7285 5449 -7105 0
-7465 -5017 0
-7465 7285 0
7465 5017 -7285 0
-7645 -4585 0
-7645 7465 0
7645 4585 -7465 0
-7825 -4153 0
-7825 7645 0
7825 4153 -7645 0
-8005 -3721 0
-8005 7825 0
8005 3721 -7825 0
-8185 -3289 0
-8185 8005 0
8185 3289 -8005 0
-8365 -2857 0
-8365 8185 0
8365 2857 -8185 0
-8545 -2425 0
-8545 8365 0
8545 2425 -8365 0
-8725 -1993 0
-8725 8545 0
8725 1993 -8545 0
-8905 -1561 0
-8905 8725 0
8905 1561 -8725 0
-9085 -1129 0
-9085 8905 0
9085 1129 -8905 0
-9265 -697 0
-9265 9085 0
9265 697 -9085 0
-9731 145 0
-9731 9265 0
9731 -145 -9265 0
-9732 -145 0
-9732 -9265 0
9732 145 9265 0
-9733 -9731 0
-9733 -9732 0
9733 9731 9732 0
144 -39857 0
-144 39857 0
-376 -299 0
-376 344 0
376 299 -344 0
-440 -300 0
-440 376 0
440 300 -376 0
-696 301 0
-696 440 0
696 -301 -440 0
-808 -291 0
-808 776 0
808 291 -776 0
-872 -292 0
-872 808 0
872 292 -808 0
-1128 293 0
-1128 872 0
1128 -293 -872 0
-1240 -283 0
-1240 1208 0
1240 283 -1208 0
-1304 -284 0
-1304 1240 0
1304 284 -1240 0
-1560 285 0
-1560 1304 0
1560 -285 -1304 0
-1672 -275 0
-1672 1640 0
1672 275 -1640 0
-1736 -276 0
-1736 1672 0
1736 276 -1672 0
-1992 277 0
-1992 1736 0
1992 -277 -1736 0
-2104 -267 0
-2104 2072 0
2104 267 -2072 0
-2168 -268 0
-2168 2104 0
2168 268 -2104 0
-2424 269 0
-2424 2168 0
2424 -269 -2168 0
-2536 -259 0
-2536 2504 0
2536 259 -2504 0
-2600 -260 0
-2600 2536 0
2600 260 -2536 0
-2856 261 0
-2856 2600 0
2856 -261 -2600 0
-2968 -251 0
-2968 2936 0
2968 251 -2936 0
-3032 -252 0
-3032 2968 0
3032 252 -2968 0
-3288 253 0
-3288 3032 0
3288 -253 -3032 0
-3400 -243 0
-3400 3368 0
3400 243 -3368 0
-3464 -244 0
-3464 3400 0
3464 244 -3400 0
-3720 245 0
-3720 3464 0
3720 -245 -3464 0
-3832 -235 0
-3832 3800 0
3832 235 -3800 0
-3896 -236 0
-3896 3832 0
3896 236 -3832 0
-4152 237 0
-4152 3896 0
4152 -237 -3896 0
-4264 -227 0
-4264 4232 0
4264 227 -4232 0
-4328 -228 0
-4328 4264 0
4328 228 -4264 0
-4584 229 0
-4584 4328 0
4584 -229 -4328 0
-4696 -219 0
-4696 4664 0
4696 219 -4664 0
-4760 -220 0
-4760 4696 0
4760 220 -4696 0
-5016 221 0
-5016 4760 0
5016 -221 -4760 0
-5128 -211 0
-5128 5096 0
5128 211 -5096 0
-5192 -212 0
-5192 5128 0
5192 212 -5128 0
-5448 213 0
-5448 5192 0
5448 -213 -5192 0
-5560 -203 0
-5560 5528 0
5560 203 -5528 0
-5624 -204 0
-5624 5560 0
5624 204 -5560 0
-5880 205 0
-5880 5624 0
5880 -205 -5624 0
-5992 -195 0
-5992 5960 0
5992 195 -5960 0
-6056 -196 0
-6056 5992 0
6056 196 -5992 0
-6312 197 0
-6312 6056 0
6312 -197 -6056 0
-6424 -187 0
-6424 6392 0
6424 187 -6392 0
-6488 -188 0
-6488 6424 0
6488 188 -6424 0
-6744 189 0
-6744 6488 0
6744 -189 -6488 0
-6924 -6312 0
-6924 -6744 0
6924 6312 6744 0
-7104 -5880 0
-7104 6924 0
7104 5880 -6924 0
-7284 -5448 0
-7284 7104 0
7284 5448 -7104 0
-7464 -5016 0
-7464 7284 0
7464 5016 -7284 0
-7644 -4584 0
-7644 7464 0
7644 4584 -7464 0
-7824 -4152 0
-7824 7644 0
7824 4152 -7644 0
-8004 -3720 0
-8004 7824 0
8004 3720 -7824 0
-8184 -3288 0
-8184 8004 0
8184 3288 -8004 0
-8364 -2856 0
-8364 8184 0
8364 2856 -8184 0
-8544 -2424 0
-8544 8364 0
8544 2424 -8364 0
-8724 -1992 0
-8724 8544 0
8724 1992 -8544 0
-8904 -1560 0
-8904 8724 0
8904 1560 -8724 0
-9084 -1128 0
-9084 8904 0
9084 1128 -8904 0
-9264 -696 0
-9264 9084 0
9264 696 -9084 0
-9728 144 0
-9728 9264 0
9728 -144 -9264 0
-9729 -144 0
-9729 -9264 0
9729 144 9264 0
-9730 -9728 0
-9730 -9729 0
9730 9728 9729 0
143 -39856 0
-143 39856 0
-375 -299 0
-375 343 0
375 299 -343 0
-439 -300 0
-439 375 0
439 300 -375 0
-695 301 0
-695 439 0
695 -301 -439 0
-807 -291 0
-807 775 0
807 291 -775 0
-871 -292 0
-871 807 0
871 292 -807 0
-1127 293 0
-1127 871 0
1127 -293 -871 0
-1239 -283 0
-1239 1207 0
1239 283 -1207 0
-1303 -284 0
-1303 1239 0
1303 284 -1239 0
-1559 285 0
-1559 1303 0
1559 -285 -1303 0
-1671 -275 0
-1671 1639 0
1671 275 -1639 0
-1735 -276 0
-1735 1671 0
1735 276 -1671 0
-1991 277 0
-1991 1735 0
1991 -277 -1735 0
-2103 -267 0
-2103 2071 0
2103 267 -2071 0
-2167 -268 0
-2167 2103 0
2167 268 -2103 0
-2423 269 0
-2423 2167 0
2423 -269 -2167 0
-2535 -259 0
-2535 2503 0
2535 259 -2503 0
-2599 -260 0
-2599 2535 0
2599 260 -2535 0
-2855 261 0
-2855 2599 0
2855 -261 -2599 0
-2967 -251 0
-2967 2935 0
2967 251 -2935 0
-3031 -252 0
-3031 2967 0
3031 252 -2967 0
-3287 253 0
-3287 3031 0
3287 -253 -3031 0
-3399 -243 0
-3399 3367 0
3399 243 -3367 0
-3463 -244 0
-3463 3399 0
3463 244 -3399 0
-3719 245 0
-3719 3463 0
3719 -245 -3463 0
-3831 -235 0
-3831 3799 0
3831 235 -3799 0
-3895 -236 0
-3895 3831 0
3895 236 -3831 0
-4151 237 0
-4151 3895 0
4151 -237 -3895 0
-4263 -227 0
-4263 4231 0
4263 227 -4231 0
-4327 -228 0
-4327 4263 0
4327 228 -4263 0
-4583 229 0
-4583 4327 0
4583 -229 -4327 0
-4695 -219 0
-4695 4663 0
4695 219 -4663 0
-4759 -220 0
-4759 4695 0
4759 220 -4695 0
-5015 221 0
-5015 4759 0
5015 -221 -4759 0
-5127 -211 0
-5127 5095 0
5127 211 -5095 0
-5191 -212 0
-5191 5127 0
5191 212 -5127 0
-5447 213 0
-5447 5191 0
5447 -213 -5191 0
-5559 -203 0
-5559 5527 0
5559 203 -5527 0
-5623 -204 0
-5623 5559 0
5623 204 -5559 0
-5879 205 0
-5879 5623 0
5879 -205 -5623 0
-5991 -195 0
-5991 5959 0
5991 195 -5959 0
-6055 -196 0
-6055 5991 0
6055 196 -5991 0
-6311 197 0
-6311 6055 0
6311 -197 -6055 0
-6423 -187 0
-6423 6391 0
6423 187 -6391 0
-6487 -188 0
-6487 6423 0
6487 188 -6423 0
-6743 189 0
-6743 6487 0
6743 -189 -6487 0
-6923 -6311 0
-6923 -6743 0
6923 6311 6743 0
-7103 -5879 0
-7103 6923 0
7103 5879 -6923 0
-7283 -5447 0
-7283 7103 0
7283 5447 -7103 0
-7463 -5015 0
-7463 7283 0
7463 5015 -7283 0
-7643 -4583 0
-7643 7463 0
7643 4583 -7463 0
-7823 -4151 0
-7823 7643 0
7823 4151 -7643 0
-8003 -3719 0
-8003 7823 0
8003 3719 -7823 0
-8183 -3287 0
-8183 8003 0
8183 3287 -8003 0
-8363 -2855 0
-8363 8183 0
8363 2855 -8183 0
-8543 -2423 0
-8543 8363 0
8543 2423 -8363 0
-8723 -1991 0
-8723 8543 0
8723 1991 -8543 0
-8903 -1559 0
-8903 8723 0
8903 1559 -8723 0
-9083 -1127 0
-9083 8903 0
9083 1127 -8903 0
-9263 -695 0
-9263 9083 0
9263 695 -9083 0
-9725 143 0
-9725 9263 0
9725 -143 -9263 0
-9726 -143 0
-9726 -9263 0
9726 143 9263 0
-9727 -9725 0
-9727 -9726 0
9727 9725 9726 0
142 -39855 0
-142 39855 0
-374 -299 0
-374 342 0
374 299 -342 0
-438 -300 0
-438 374 0
438 300 -374 0
-694 301 0
-694 438 0
694 -301 -438 0
-806 -291 0
-806 774 0
806 291 -774 0
-870 -292 0
-870 806 0
870 292 -806 0
-1126 293 0
-1126 870 0
1126 -293 -870 0
-1238 -283 0
-1238 1206 0
1238 283 -1206 0
-1302 -284 0
-1302 1238 0
1302 284 -1238 0
-1558 285 0
-1558 1302 0
1558 -285 -1302 0
-1670 -275 0
-1670 1638 0
1670 275 -1638 0
-1734 -276 0
-1734 1670 0
1734 276 -1670 0
-1990 277 0
-1990 1734 0
1990 -277 -1734 0
-2102 -267 0
-2102 2070 0
2102 267 -2070 0
-2166 -268 0
-2166 2102 0
2166 268 -2102 0
-2422 269 0
-2422 2166 0
2422 -269 -2166 0
-2534 -259 0
-2534 2502 0
2534 259 -2502 0
-2598 -260 0
-2598 2534 0
2598 260 -2534 0
-2854 261 0
-2854 2598 0
2854 -261 -2598 0
-2966 -251 0
-2966 2934 0
2966 251 -2934 0
-3030 -252 0
-3030 2966 0
3030 252 -2966 0
-3286 253 0
-3286 3030 0
3286 -253 -3030 0
-3398 -243 0
-3398 3366 0
3398 243 -3366 0
-3462 -244 0
-3462 3398 0
3462 244 -3398 0
-3718 245 0
-3718 3462 0
3718 -245 -3462 0
-3830 -235 0
-3830 3798 0
3830 235 -3798 0
-3894 -236 0
-3894 3830 0
3894 236 -3830 0
-4150 237 0
-4150 3894 0
4150 -237 -3894 0
-4262 -227 0
-4262 4230 0
4262 227 -4230 0
-4326 -228 0
-4326 4262 0
4326 228 -4262 0
-4582 229 0
-4582 4326 0
4582 -229 -4326 0
-4694 -219 0
-4694 4662 0
4694 219 -4662 0
-4758 -220 0
-4758 4694 0
4758 220 -4694 0
-5014 221 0
-5014 4758 0
5014 -221 -4758 0
-5126 -211 0
-5126 5094 0
5126 211 -5094 0
-5190 -212 0
-5190 5126 0
5190 212 -5126 0
-5446 213 0
-5446 5190 0
5446 -213 -5190 0
-5558 -203 0
-5558 5526 0
5558 203 -5526 0
-5622 -204 0
-5622 5558 0
5622 204 -5558 0
-5878 205 0
-5878 5622 0
5878 -205 -5622 0
-5990 -195 0
-5990 5958 0
5990 195 -5958 0
-6054 -196 0
-6054 5990 0
6054 196 -5990 0
-6310 197 0
-6310 6054 0
6310 -197 -6054 0
-6422 -187 0
-6422 6390 0
6422 187 -6390 0
-6486 -188 0
-6486 6422 0
6486 188 -6422 0
-6742 189 0
-6742 6486 0
6742 -189 -6486 0
-6922 -6310 0
-6922 -6742 0
6922 6310 6742 0
-7102 -5878 0
-7102 6922 0
7102 5878 -6922 0
-7282 -5446 0
-7282 7102 0
7282 5446 -7102 0
-7462 -5014 0
-7462 7282 0
7462 5014 -7282 0
-7642 -4582 0
-7642 7462 0
7642 4582 -7462 0
-7822 -4150 0
-7822 7642 0
7822 4150 -7642 0
-8002 -3718 0
-8002 7822 0
8002 3718 -7822 0
-8182 -3286 0
-8182 8002 0
8182 3286 -8002 0
-8362 -2854 0
-8362 8182 0
8362 2854 -8182 0
-8542 -2422 0
-8542 8362 0
8542 2422 -8362 0
-8722 -1990 0
-8722 8542 0
8722 1990 -8542 0
-8902 -1558 0
-8902 8722 0
8902 1558 -8722 0
-9082 -1126 0
-9082 8902 0
9082 1126 -8902 0
-9262 -694 0
-9262 9082 0
9262 694 -9082 0
-9722 142 0
-9722 9262 0
9722 -142 -9262 0
-9723 -142 0
-9723 -9262 0
9723 142 9262 0
-9724 -9722 0
-9724 -9723 0
9724 9722 9723 0
141 -39854 0
-141 39854 0
-373 -299 0
-373 341 0
373 299 -341 0
-437 -300 0
-437 373 0
437 300 -373 0
-693 301 0
-693 437 0
693 -301 -437 0
-805 -291 0
-805 773 0
805 291 -773 0
-869 -292 0
-869 805 0
869 292 -805 0
-1125 293 0
-1125 869 0
1125 -293 -869 0
-1237 -283 0
-1237 1205 0
1237 283 -1205 0
-1301 -284 0
-1301 1237 0
1301 284 -1237 0
-1557 285 0
-1557 1301 0
1557 -285 -1301 0
-1669 -275 0
-1669 1637 0
1669 275 -1637 0
-1733 -276 0
-1733 1669 0
1733 276 -1669 0
-1989 277 0
-1989 1733 0
1989 -277 -1733 0
-2101 -267 0
-2101 2069 0
2101 267 -2069 0
-2165 -268 0
-2165 2101 0
2165 268 -2101 0
-2421 269 0
-2421 2165 0
2421 -269 -2165 0
-2533 -259 0
-2533 2501 0
2533 259 -2501 0
-2597 -260 0
-2597 2533 0
2597 260 -2533 0
-2853 261 0
-2853 2597 0
2853 -261 -2597 0
-2965 -251 0
-2965 2933 0
2965 251 -2933 0
-3029 -252 0
-3029 2965 0
3029 252 -2965 0
-3285 253 0
-3285 3029 0
3285 -253 -3029 0
-3397 -243 0
-3397 3365 0
3397 243 -3365 0
-3461 -244 0
-3461 3397 0
3461 244 -3397 0
-3717 245 0
-3717 3461 0
3717 -245 -3461 0
-3829 -235 0
-3829 3797 0
3829 235 -3797 0
-3893 -236 0
-3893 3829 0
3893 236 -3829 0
-4149 237 0
-4149 3893 0
4149 -237 -3893 0
-4261 -227 0
-4261 4229 0
4261 227 -4229 0
-4325 -228 0
-4325 4261 0
4325 228 -4261 0
-4581 229 0
-4581 4325 0
4581 -229 -4325 0
-4693 -219 0
-4693 4661 0
4693 219 -4661 0
-4757 -220 0
-4757 4693 0
4757 220 -4693 0
-5013 221 0
-5013 4757 0
5013 -221 -4757 0
-5125 -211 0
-5125 5093 0
5125 211 -5093 0
-5189 -212 0
-5189 5125 0
5189 212 -5125 0
-5445 213 0
-5445 5189 0
5445 -213 -5189 0
-5557 -203 0
-5557 5525 0
5557 203 -5525 0
-5621 -204 0
-5621 5557 0
5621 204 -5557 0
-5877 205 0
-5877 5621 0
5877 -205 -5621 0
-5989 -195 0
-5989 5957 0
5989 195 -5957 0
-6053 -196 0
-6053 5989 0
6053 196 -5989 0
-6309 197 0
-6309 6053 0
6309 -197 -6053 0
-6421 -187 0
-6421 6389 0
6421 187 -6389 0
-6485 -188 0
-6485 6421 0
6485 188 -6421 0
-6741 189 0
-6741 6485 0
6741 -189 -6485 0
-6921 -6309 0
-6921 -6741 0
6921 6309 6741 0
-7101 -5877 0
-7101 6921 0
7101 5877 -6921 0
-7281 -5445 0
-7281 7101 0
7281 5445 -7101 0
-7461 -5013 0
-7461 7281 0
7461 5013 -7281 0
-7641 -4581 0
-7641 7461 0
7641 4581 -7461 0
-7821 -4149 0
-7821 7641 0
7821 4149 -7641 0
-8001 -3717 0
-8001 7821 0
8001 3717 -7821 0
-8181 -3285 0
-8181 8001 0
8181 3285 -8001 0
-8361 -2853 0
-8361 8181 0
8361 2853 -8181 0
-8541 -2421 0
-8541 8361 0
8541 2421 -8361 0
-8721 -1989 0
-8721 8541 0
8721 1989 -8541 0
-8901 -1557 0
-8901 8721 0
8901 1557 -8721 0
-9081 -1125 0
-9081 8901 0
9081 1125 -8901 0
-9261 -693 0
-9261 9081 0
9261 693 -9081 0
-9719 141 0
-9719 9261 0
9719 -141 -9261 0
-9720 -141 0
-9720 -9261 0
9720 141 9261 0
-9721 -9719 0
-9721 -9720 0
9721 9719 9720 0
140 -39853 0
-140 39853 0
-372 -299 0
-372 340 0
372 299 -340 0
-436 -300 0
-436 372 0
436 300 -372 0
-692 301 0
-692 436 0
692 -301 -436 0
-804 -291 0
-804 772 0
804 291 -772 0
-868 -292 0
-868 804 0
868 292 -804 0
-1124 293 0
-1124 868 0
1124 -293 -868 0
-1236 -283 0
-1236 1204 0
1236 283 -1204 0
-1300 -284 0
-1300 1236 0
1300 284 -1236 0
-1556 285 0
-1556 1300 0
1556 -285 -1300 0
-1668 -275 0
-1668 1636 0
1668 275 -1636 0
-1732 -276 0
-1732 1668 0
1732 276 -1668 0
-1988 277 0
-1988 1732 0
1988 -277 -1732 0
-2100 -267 0
-2100 2068 0
2100 267 -2068 0
-2164 -268 0
-2164 2100 0
2164 268 -2100 0
-2420 269 0
-2420 2164 0
2420 -269 -2164 0
-2532 -259 0
-2532 2500 0
2532 259 -2500 0
-2596 -260 0
-2596 2532 0
2596 260 -2532 0
-2852 261 0
-2852 2596 0
2852 -261 -2596 0
-2964 -251 0
-2964 2932 0
2964 251 -2932 0
-3028 -252 0
-3028 2964 0
3028 252 -2964 0
-3284 253 0
-3284 3028 0
3284 -253 -3028 0
-3396 -243 0
-3396 3364 0
3396 243 -3364 0
-3460 -244 0
-3460 3396 0
3460 244 -3396 0
-3716 245 0
-3716 3460 0
3716 -245 -3460 0
-3828 -235 0
-3828 3796 0
3828 235 -3796 0
-3892 -236 0
-3892 3828 0
3892 236 -3828 0
-4148 237 0
-4148 3892 0
4148 -237 -3892 0
-4260 -227 0
-4260 4228 0
4260 227 -4228 0
-4324 -228 0
-4324 4260 0
4324 228 -4260 0
-4580 229 0
-4580 4324 0
4580 -229 -4324 0
-4692 -219 0
-4692 4660 0
4692 219 -4660 0
-4756 -220 0
-4756 4692 0
4756 220 -4692 0
-5012 221 0
-5012 4756 0
5012 -221 -4756 0
-5124 -211 0
-5124 5092 0
5124 211 -5092 0
-5188 -212 0
-5188 5124 0
5188 212 -5124 0
-5444 213 0
-5444 5188 0
5444 -213 -5188 0
-5556 -203 0
-5556 5524 0
5556 203 -5524 0
-5620 -204 0
-5620 5556 0
5620 204 -5556 0
-5876 205 0
-5876 5620 0
5876 -205 -5620 0
-5988 -195 0
-5988 5956 0
5988 195 -5956 0
-6052 -196 0
-6052 5988 0
6052 196 -5988 0
-6308 197 0
-6308 6052 0
6308 -197 -6052 0
-6420 -187 0
-6420 6388 0
6420 187 -6388 0
-6484 -188 0
-6484 6420 0
6484 188 -6420 0
-6740 189 0
-6740 6484 0
6740 -189 -6484 0
-6920 -6308 0
-6920 -6740 0
6920 6308 6740 0
-7100 -5876 0
-7100 6920 0
7100 5876 -6920 0
-7280 -5444 0
-7280 7100 0
7280 5444 -7100 0
-7460 -5012 0
-7460 7280 0
7460 5012 -7280 0
-7640 -4580 0
-7640 7460 0
7640 4580 -7460 0
-7820 -4148 0
-7820 7640 0
7820 4148 -7640 0
-8000 -3716 0
-8000 7820 0
8000 3716 -7820 0
-8180 -3284 0
-8180 8000 0
8180 3284 -8000 0
-8360 -2852 0
-8360 8180 0
8360 2852 -8180 0
-8540 -2420 0
-8540 8360 0
8540 2420 -8360 0
-8720 -1988 0
-8720 8540 0
8720 1988 -8540 0
-8900 -1556 0
-8900 8720 0
8900 1556 -8720 0
-9080 -1124 0
-9080 8900 0
9080 1124 -8900 0
-9260 -692 0
-9260 9080 0
9260 692 -9080 0
-9716 140 0
-9716 9260 0
9716 -140 -9260 0
-9717 -140 0
-9717 -9260 0
9717 140 9260 0
-9718 -9716 0
-9718 -9717 0
9718 9716 9717 0
139 -39852 0
-139 39852 0
-371 -299 0
-371 339 0
371 299 -339 0
-435 -300 0
-435 371 0
435 300 -371 0
-691 301 0
-691 435 0
691 -301 -435 0
-803 -291 0
-803 771 0
803 291 -771 0
-867 -292 0
-867 803 0
867 292 -803 0
-1123 293 0
-1123 867 0
1123 -293 -867 0
-1235 -283 0
-1235 1203 0
1235 283 -1203 0
-1299 -284 0
-1299 1235 0
1299 284 -1235 0
-1555 285 0
-1555 1299 0
1555 -285 -1299 0
-1667 -275 0
-1667 1635 0
1667 275 -1635 0
-1731 -276 0
-1731 1667 0
1731 276 -1667 0
-1987 277 0
-1987 1731 0
1987 -277 -1731 0
-2099 -267 0
-2099 2067 0
2099 267 -2067 0
-2163 -268 0
-2163 2099 0
2163 268 -2099 0
-2419 269 0
-2419 2163 0
2419 -269 -2163 0
-2531 -259 0
-2531 2499 0
2531 259 -2499 0
-2595 -260 0
-2595 2531 0
2595 260 -2531 0
-2851 261 0
-2851 2595 0
2851 -261 -2595 0
-2963 -251 0
-2963 2931 0
2963 251 -2931 0
-3027 -252 0
-3027 2963 0
3027 252 -2963 0
-3283 253 0
-3283 3027 0
3283 -253 -3027 0
-3395 -243 0
-3395 3363 0
3395 243 -3363 0
-3459 -244 0
-3459 3395 0
3459 244 -3395 0
-3715 245 0
-3715 3459 0
3715 -245 -3459 0
-3827 -235 0
-3827 3795 0
3827 235 -3795 0
-3891 -236 0
-3891 3827 0
3891 236 -3827 0
-4147 237 0
-4147 3891 0
4147 -237 -3891 0
-4259 -227 0
-4259 4227 0
4259 227 -4227 0
-4323 -228 0
-4323 4259 0
4323 228 -4259 0
-4579 229 0
-4579 4323 0
4579 -229 -4323 0
-4691 -219 0
-4691 4659 0
4691 219 -4659 0
-4755 -220 0
-4755 4691 0
4755 220 -4691 0
-5011 221 0
-5011 4755 0
5011 -221 -4755 0
-5123 -211 0
-5123 5091 0
5123 211 -5091 0
-5187 -212 0
-5187 5123 0
5187 212 -5123 0
-5443 213 0
-5443 5187 0
5443 -213 -5187 0
-5555 -203 0
-5555 5523 0
5555 203 -5523 0
-5619 -204 0
-5619 5555 0
5619 204 -5555 0
-5875 205 0
-5875 5619 0
5875 -205 -5619 0
-5987 -195 0
-5987 5955 0
5987 195 -5955 0
-6051 -196 0
-6051 5987 0
6051 196 -5987 0
-6307 197 0
-6307 6051 0
6307 -197 -6051 0
-6419 -187 0
-6419 6387 0
6419 187 -6387 0
-6483 -188 0
-6483 6419 0
6483 188 -6419 0
-6739 189 0
-6739 6483 0
6739 -189 -6483 0
-6919 -6307 0
-6919 -6739 0
6919 6307 6739 0
-7099 -5875 0
-7099 6919 0
7099 5875 -6919 0
-7279 -5443 0
-7279 7099 0
7279 5443 -7099 0
-7459 -5011 0
-7459 7279 0
7459 5011 -7279 0
-7639 -4579 0
-7639 7459 0
7639 4579 -7459 0
-7819 -4147 0
-7819 7639 0
7819 4147 -7639 0
-7999 -3715 0
-7999 7819 0
7999 3715 -7819 0
-8179 -3283 0
-8179 7999 0
8179 3283 -7999 0
-8359 -2851 0
-8359 8179 0
8359 2851 -8179 0
-8539 -2419 0
-8539 8359 0
8539 2419 -8359 0
-8719 -1987 0
-8719 8539 0
8719 1987 -8539 0
-8899 -1555 0
-8899 8719 0
8899 1555 -8719 0
-9079 -1123 0
-9079 8899 0
9079 1123 -8899 0
-9259 -691 0
-9259 9079 0
9259 691 -9079 0
-9713 139 0
-9713 9259 0
9713 -139 -9259 0
-9714 -139 0
-9714 -9259 0
9714 139 9259 0
-9715 -9713 0
-9715 -9714 0
9715 9713 9714 0
138 -39851 0
-138 39851 0
-370 -299 0
-370 338 0
370 299 -338 0
-434 -300 0
-434 370 0
434 300 -370 0
-690 301 0
-690 434 0
690 -301 -434 0
-802 -291 0
-802 770 0
802 291 -770 0
-866 -292 0
-866 802 0
866 292 -802 0
-1122 293 0
-1122 866 0
1122 -293 -866 0
-1234 -283 0
-1234 1202 0
1234 283 -1202 0
-1298 -284 0
-1298 1234 0
1298 284 -1234 0
-1554 285 0
-1554 1298 0
1554 -285 -1298 0
-1666 -275 0
-1666 1634 0
1666 275 -1634 0
-1730 -276 0
-1730 1666 0
1730 276 -1666 0
-1986 277 0
-1986 1730 0
1986 -277 -1730 0
-2098 -267 0
-2098 2066 0
2098 267 -2066 0
-2162 -268 0
-2162 2098 0
2162 268 -2098 0
-2418 269 0
-2418 2162 0
2418 -269 -2162 0
-2530 -259 0
-2530 2498 0
2530 259 -2498 0
-2594 -260 0
-2594 2530 0
2594 260 -2530 0
-2850 261 0
-2850 2594 0
2850 -261 -2594 0
-2962 -251 0
-2962 2930 0
2962 251 -2930 0
-3026 -252 0
-3026 2962 0
3026 252 -2962 0
-3282 253 0
-3282 3026 0
3282 -253 -3026 0
-3394 -243 0
-3394 3362 0
3394 243 -3362 0
-3458 -244 0
-3458 3394 0
3458 244 -3394 0
-3714 245 0
-3714 3458 0
3714 -245 -3458 0
-3826 -235 0
-3826 3794 0
3826 235 -3794 0
-3890 -236 0
-3890 3826 0
3890 236 -3826 0
-4146 237 0
-4146 3890 0
4146 -237 -3890 0
-4258 -227 0
-4258 4226 0
4258 227 -4226 0
-4322 -228 0
-4322 4258 0
4322 228 -4258 0
-4578 229 0
-4578 4322 0
4578 -229 -4322 0
-4690 -219 0
-4690 4658 0
4690 219 -4658 0
-4754 -220 0
-4754 4690 0
4754 220 -4690 0
-5010 221 0
-5010 4754 0
5010 -221 -4754 0
-5122 -211 0
-5122 5090 0
5122 211 -5090 0
-5186 -212 0
-5186 5122 0
5186 212 -5122 0
-5442 213 0
-5442 5186 0
5442 -213 -5186 0
-5554 -203 0
-5554 5522 0
5554 203 -5522 0
-5618 -204 0
-5618 5554 0
5618 204 -5554 0
-5874 205 0
-5874 5618 0
5874 -205 -5618 0
-5986 -195 0
-5986 5954 0
5986 195 -5954 0
-6050 -196 0
-6050 5986 0
6050 196 -5986 0
-6306 197 0
-6306 6050 0
6306 -197 -6050 0
-6418 -187 0
-6418 6386 0
6418 187 -6386 0
-6482 -188 0
-6482 6418 0
6482 188 -6418 0
-6738 189 0
-6738 6482 0
6738 -189 -6482 0
-6918 -6306 0
-6918 -6738 0
6918 6306 6738 0
-7098 -5874 0
-7098 6918 0
7098 5874 -6918 0
-7278 -5442 0
-7278 7098 0
7278 5442 -7098 0
-7458 -5010 0
-7458 7278 0
7458 5010 -7278 0
-7638 -4578 0
-7638 7458 0
7638 4578 -7458 0
-7818 -4146 0
-7818 7638 0
7818 4146 -7638 0
-7998 -3714 0
-7998 7818 0
7998 3714 -7818 0
-8178 -3282 0
-8178 7998 0
8178 3282 -7998 0
-8358 -2850 0
-8358 8178 0
8358 2850 -8178 0
-8538 -2418 0
-8538 8358 0
8538 2418 -8358 0
-8718 -1986 0
-8718 8538 0
8718 1986 -8538 0
-8898 -1554 0
-8898 8718 0
8898 1554 -8718 0
-9078 -1122 0
-9078 8898 0
9078 1122 -8898 0
-9258 -690 0
-9258 9078 0
9258 690 -9078 0
-9710 138 0
-9710 9258 0
9710 -138 -9258 0
-9711 -138 0
-9711 -9258 0
9711 138 9258 0
-9712 -9710 0
-9712 -9711 0
9712 9710 9711 0
137 -39850 0
-137 39850 0
-369 -299 0
-369 337 0
369 299 -337 0
-433 -300 0
-433 369 0
433 300 -369 0
-689 301 0
-689 433 0
689 -301 -433 0
-801 -291 0
-801 769 0
801 291 -769 0
-865 -292 0
-865 801 0
865 292 -801 0
-1121 293 0
-1121 865 0
1121 -293 -865 0
-1233 -283 0
-1233 1201 0
1233 283 -1201 0
-1297 -284 0
-1297 1233 0
1297 284 -1233 0
-1553 285 0
-1553 1297 0
1553 -285 -1297 0
-1665 -275 0
-1665 1633 0
1665 275 -1633 0
-1729 -276 0
-1729 1665 0
1729 276 -1665 0
-1985 277 0
-1985 1729 0
1985 -277 -1729 0
-2097 -267 0
-2097 2065 0
2097 267 -2065 0
-2161 -268 0
-2161 2097 0
2161 268 -2097 0
-2417 269 0
-2417 2161 0
2417 -269 -2161 0
-2529 -259 0
-2529 2497 0
2529 259 -2497 0
-2593 -260 0
-2593 2529 0
2593 260 -2529 0
-2849 261 0
-2849 2593 0
2849 -261 -2593 0
-2961 -251 0
-2961 2929 0
2961 251 -2929 0
-3025 -252 0
-3025 2961 0
3025 252 -2961 0
-3281 253 0
-3281 3025 0
3281 -253 -3025 0
-3393 -243 0
-3393 3361 0
3393 243 -3361 0
-3457 -244 0
-3457 3393 0
3457 244 -3393 0
-3713 245 0
-3713 3457 0
3713 -245 -3457 0
-3825 -235 0
-3825 3793 0
3825 235 -3793 0
-3889 -236 0
-3889 3825 0
3889 236 -3825 0
-4145 237 0
-4145 3889 0
4145 -237 -3889 0
-4257 -227 0
-4257 4225 0
4257 227 -4225 0
-4321 -228 0
-4321 4257 0
4321 228 -4257 0
-4577 229 0
-4577 4321 0
4577 -229 -4321 0
-4689 -219 0
-4689 4657 0
4689 219 -4657 0
-4753 -220 0
-4753 4689 0
4753 220 -4689 0
-5009 221 0
-5009 4753 0
5009 -221 -4753 0
-5121 -211 0
-5121 5089 0
5121 211 -5089 0
-5185 -212 0
-5185 5121 0
5185 212 -5121 0
-5441 213 0
-5441 5185 0
5441 -213 -5185 0
-5553 -203 0
-5553 5521 0
5553 203 -5521 0
-5617 -204 0
-5617 5553 0
5617 204 -5553 0
-5873 205 0
-5873 5617 0
5873 -205 -5617 0
-5985 -195 0
-5985 5953 0
5985 195 -5953 0
-6049 -196 0
-6049 5985 0
6049 196 -5985 0
-6305 197 0
-6305 6049 0
6305 -197 -6049 0
-6417 -187 0
-6417 6385 0
6417 187 -6385 0
-6481 -188 0
-6481 6417 0
6481 188 -6417 0
-6737 189 0
-6737 6481 0
6737 -189 -6481 0
-6917 -6305 0
-6917 -6737 0
6917 6305 6737 0
-7097 -5873 0
-7097 6917 0
7097 5873 -6917 0
-7277 -5441 0
-7277 7097 0
7277 5441 -7097 0
-7457 -5009 0
-7457 7277 0
7457 5009 -7277 0
-7637 -4577 0
-7637 7457 0
7637 4577 -7457 0
-7817 -4145 0
-7817 7637 0
7817 4145 -7637 0
-7997 -3713 0
-7997 7817 0
7997 3713 -7817 0
-8177 -3281 0
-8177 7997 0
8177 3281 -7997 0
-8357 -2849 0
-8357 8177 0
8357 2849 -8177 0
-8537 -2417 0
-8537 8357 0
8537 2417 -8357 0
-8717 -1985 0
-8717 8537 0
8717 1985 -8537 0
-8897 -1553 0
-8897 8717 0
8897 1553 -8717 0
-9077 -1121 0
-9077 8897 0
9077 1121 -8897 0
-9257 -689 0
-9257 9077 0
9257 689 -9077 0
-9707 137 0
-9707 9257 0
9707 -137 -9257 0
-9708 -137 0
-9708 -9257 0
9708 137 9257 0
-9709 -9707 0
-9709 -9708 0
9709 9707 9708 0
136 -39849 0
-136 39849 0
-368 -299 0
-368 336 0
368 299 -336 0
-432 -300 0
-432 368 0
432 300 -368 0
-688 301 0
-688 432 0
688 -301 -432 0
-800 -291 0
-800 768 0
800 291 -768 0
-864 -292 0
-864 800 0
864 292 -800 0
-1120 293 0
-1120 864 0
1120 -293 -864 0
-1232 -283 0
-1232 1200 0
1232 283 -1200 0
-1296 -284 0
-1296 1232 0
1296 284 -1232 0
-1552 285 0
-1552 1296 0
1552 -285 -1296 0
-1664 -275 0
-1664 1632 0
1664 275 -1632 0
-1728 -276 0
-1728 1664 0
1728 276 -1664 0
-1984 277 0
-1984 1728 0
1984 -277 -1728 0
-2096 -267 0
-2096 2064 0
2096 267 -2064 0
-2160 -268 0
-2160 2096 0
2160 268 -2096 0
-2416 269 0
-2416 2160 0
2416 -269 -2160 0
-2528 -259 0
-2528 2496 0
2528 259 -2496 0
-2592 -260 0
-2592 2528 0
2592 260 -2528 0
-2848 261 0
-2848 2592 0
2848 -261 -2592 0
-2960 -251 0
-2960 2928 0
2960 251 -2928 0
-3024 -252 0
-3024 2960 0
3024 252 -2960 0
-3280 253 0
-3280 3024 0
3280 -253 -3024 0
-3392 -243 0
-3392 3360 0
3392 243 -3360 0
-3456 -244 0
-3456 3392 0
3456 244 -3392 0
-3712 245 0
-3712 3456 0
3712 -245 -3456 0
-3824 -235 0
-3824 3792 0
3824 235 -3792 0
-3888 -236 0
-3888 3824 0
3888 236 -3824 0
-4144 237 0
-4144 3888 0
4144 -237 -3888 0
-4256 -227 0
-4256 4224 0
4256 227 -4224 0
-4320 -228 0
-4320 4256 0
4320 228 -4256 0
-4576 229 0
-4576 4320 0
4576 -229 -4320 0
-4688 -219 0
-4688 4656 0
4688 219 -4656 0
-4752 -220 0
-4752 4688 0
4752 220 -4688 0
-5008 221 0
-5008 4752 0
5008 -221 -4752 0
-5120 -211 0
-5120 5088 0
5120 211 -5088 0
-5184 -212 0
-5184 5120 0
5184 212 -5120 0
-5440 213 0
-5440 5184 0
5440 -213 -5184 0
-5552 -203 0
-5552 5520 0
5552 203 -5520 0
-5616 -204 0
-5616 5552 0
5616 204 -5552 0
-5872 205 0
-5872 5616 0
5872 -205 -5616 0
-5984 -195 0
-5984 5952 0
5984 195 -5952 0
-6048 -196 0
-6048 5984 0
6048 196 -5984 0
-6304 197 0
-6304 6048 0
6304 -197 -6048 0
-6416 -187 0
-6416 6384 0
6416 187 -6384 0
-6480 -188 0
-6480 6416 0
6480 188 -6416 0
-6736 189 0
-6736 6480 0
6736 -189 -6480 0
-6916 -6304 0
-6916 -6736 0
6916 6304 6736 0
-7096 -5872 0
-7096 6916 0
7096 5872 -6916 0
-7276 -5440 0
-7276 7096 0
7276 5440 -7096 0
-7456 -5008 0
-7456 7276 0
7456 5008 -7276 0
-7636 -4576 0
-7636 7456 0
7636 4576 -7456 0
-7816 -4144 0
-7816 7636 0
7816 4144 -7636 0
-7996 -3712 0
-7996 7816 0
7996 3712 -7816 0
-8176 -3280 0
-8176 7996 0
8176 3280 -7996 0
-8356 -2848 0
-8356 8176 0
8356 2848 -8176 0
-8536 -2416 0
-8536 8356 0
8536 2416 -8356 0
-8716 -1984 0
-8716 8536 0
8716 1984 -8536 0
-8896 -1552 0
-8896 8716 0
8896 1552 -8716 0
-9076 -1120 0
-9076 8896 0
9076 1120 -8896 0
-9256 -688 0
-9256 9076 0
9256 688 -9076 0
-9704 136 0
-9704 9256 0
9704 -136 -9256 0
-9705 -136 0
-9705 -9256 0
9705 136 9256 0
-9706 -9704 0
-9706 -9705 0
9706 9704 9705 0
135 -39848 0
-135 39848 0
-367 -299 0
-367 335 0
367 299 -335 0
-431 -300 0
-431 367 0
431 300 -367 0
-687 301 0
-687 431 0
687 -301 -431 0
-799 -291 0
-799 767 0
799 291 -767 0
-863 -292 0
-863 799 0
863 292 -799 0
-1119 293 0
-1119 863 0
1119 -293 -863 0
-1231 -283 0
-1231 1199 0
1231 283 -1199 0
-1295 -284 0
-1295 1231 0
1295 284 -1231 0
-1551 285 0
-1551 1295 0
1551 -285 -1295 0
-1663 -275 0
-1663 1631 0
1663 275 -1631 0
-1727 -276 0
-1727 1663 0
1727 276 -1663 0
-1983 277 0
-1983 1727 0
1983 -277 -1727 0
-2095 -267 0
-2095 2063 0
2095 267 -2063 0
-2159 -268 0
-2159 2095 0
2159 268 -2095 0
-2415 269 0
-2415 2159 0
2415 -269 -2159 0
-2527 -259 0
-2527 2495 0
2527 259 -2495 0
-2591 -260 0
-2591 2527 0
2591 260 -2527 0
-2847 261 0
-2847 2591 0
2847 -261 -2591 0
-2959 -251 0
-2959 2927 0
2959 251 -2927 0
-3023 -252 0
-3023 2959 0
3023 252 -2959 0
-3279 253 0
-3279 3023 0
3279 -253 -3023 0
-3391 -243 0
-3391 3359 0
3391 243 -3359 0
-3455 -244 0
-3455 3391 0
3455 244 -3391 0
-3711 245 0
-3711 3455 0
3711 -245 -3455 0
-3823 -235 0
-3823 3791 0
3823 235 -3791 0
-3887 -236 0
-3887 3823 0
3887 236 -3823 0
-4143 237 0
-4143 3887 0
4143 -237 -3887 0
-4255 -227 0
-4255 4223 0
4255 227 -4223 0
-4319 -228 0
-4319 4255 0
4319 228 -4255 0
-4575 229 0
-4575 4319 0
4575 -229 -4319 0
-4687 -219 0
-4687 4655 0
4687 219 -4655 0
-4751 -220 0
-4751 4687 0
4751 220 -4687 0
-5007 221 0
-5007 4751 0
5007 -221 -4751 0
-5119 -211 0
-5119 5087 0
5119 211 -5087 0
-5183 -212 0
-5183 5119 0
5183 212 -5119 0
-5439 213 0
-5439 5183 0
5439 -213 -5183 0
-5551 -203 0
-5551 5519 0
5551 203 -5519 0
-5615 -204 0
-5615 5551 0
5615 204 -5551 0
-5871 205 0
-5871 5615 0
5871 -205 -5615 0
-5983 -195 0
-5983 5951 0
5983 195 -5951 0
-6047 -196 0
-6047 5983 0
6047 196 -5983 0
-6303 197 0
-6303 6047 0
6303 -197 -6047 0
-6415 -187 0
-6415 6383 0
6415 187 -6383 0
-6479 -188 0
-6479 6415 0
6479 188 -6415 0
-6735 189 0
-6735 6479 0
6735 -189 -6479 0
-6915 -6303 0
-6915 -6735 0
6915 6303 6735 0
-7095 -5871 0
-7095 6915 0
7095 5871 -6915 0
-7275 -5439 0
-7275 7095 0
7275 5439 -7095 0
-7455 -5007 0
-7455 7275 0
7455 5007 -7275 0
-7635 -4575 0
-7635 7455 0
7635 4575 -7455 0
-7815 -4143 0
-7815 7635 0
7815 4143 -7635 0
-7995 -3711 0
-7995 7815 0
7995 3711 -7815 0
-8175 -3279 0
-8175 7995 0
8175 3279 -7995 0
-8355 -2847 0
-8355 8175 0
8355 2847 -8175 0
-8535 -2415 0
-8535 8355 0
8535 2415 -8355 0
-8715 -1983 0
-8715 8535 0
8715 1983 -8535 0
-8895 -1551 0
-8895 8715 0
8895 1551 -8715 0
-9075 -1119 0
-9075 8895 0
9075 1119 -8895 0
-9255 -687 0
-9255 9075 0
9255 687 -9075 0
-9701 135 0
-9701 9255 0
9701 -135 -9255 0
-9702 -135 0
-9702 -9255 0
9702 135 9255 0
-9703 -9701 0
-9703 -9702 0
9703 9701 9702 0
134 -39847 0
-134 39847 0
-366 -299 0
-366 334 0
366 299 -334 0
-430 -300 0
-430 366 0
430 300 -366 0
-686 301 0
-686 430 0
686 -301 -430 0
-798 -291 0
-798 766 0
798 291 -766 0
-862 -292 0
-862 798 0
862 292 -798 0
-1118 293 0
-1118 862 0
1118 -293 -862 0
-1230 -283 0
-1230 1198 0
1230 283 -1198 0
-1294 -284 0
-1294 1230 0
1294 284 -1230 0
-1550 285 0
-1550 1294 0
1550 -285 -1294 0
-1662 -275 0
-1662 1630 0
1662 275 -1630 0
-1726 -276 0
-1726 1662 0
1726 276 -1662 0
-1982 277 0
-1982 1726 0
1982 -277 -1726 0
-2094 -267 0
-2094 2062 0
2094 267 -2062 0
-2158 -268 0
-2158 2094 0
2158 268 -2094 0
-2414 269 0
-2414 2158 0
2414 -269 -2158 0
-2526 -259 0
-2526 2494 0
2526 259 -2494 0
-2590 -260 0
-2590 2526 0
2590 260 -2526 0
-2846 261 0
-2846 2590 0
2846 -261 -2590 0
-2958 -251 0
-2958 2926 0
2958 251 -2926 0
-3022 -252 0
-3022 2958 0
3022 252 -2958 0
-3278 253 0
-3278 3022 0
3278 -253 -3022 0
-3390 -243 0
-3390 3358 0
3390 243 -3358 0
-3454 -244 0
-3454 3390 0
3454 244 -3390 0
-3710 245 0
-3710 3454 0
3710 -245 -3454 0
-3822 -235 0
-3822 3790 0
3822 235 -3790 0
-3886 -236 0
-3886 3822 0
3886 236 -3822 0
-4142 237 0
-4142 3886 0
4142 -237 -3886 0
-4254 -227 0
-4254 4222 0
4254 227 -4222 0
-4318 -228 0
-4318 4254 0
4318 228 -4254 0
-4574 229 0
-4574 4318 0
4574 -229 -4318 0
-4686 -219 0
-4686 4654 0
4686 219 -4654 0
-4750 -220 0
-4750 4686 0
4750 220 -4686 0
-5006 221 0
-5006 4750 0
5006 -221 -4750 0
-5118 -211 0
-5118 5086 0
5118 211 -5086 0
-5182 -212 0
-5182 5118 0
5182 212 -5118 0
-5438 213 0
-5438 5182 0
5438 -213 -5182 0
-5550 -203 0
-5550 5518 0
5550 203 -5518 0
-5614 -204 0
-5614 5550 0
5614 204 -5550 0
-5870 205 0
-5870 5614 0
5870 -205 -5614 0
-5982 -195 0
-5982 5950 0
5982 195 -5950 0
-6046 -196 0
-6046 5982 0
6046 196 -5982 0
-6302 197 0
-6302 6046 0
6302 -197 -6046 0
-6414 -187 0
-6414 6382 0
6414 187 -6382 0
-6478 -188 0
-6478 6414 0
6478 188 -6414 0
-6734 189 0
-6734 6478 0
6734 -189 -6478 0
-6914 -6302 0
-6914 -6734 0
6914 6302 6734 0
-7094 -5870 0
-7094 6914 0
7094 5870 -6914 0
-7274 -5438 0
-7274 7094 0
7274 5438 -7094 0
-7454 -5006 0
-7454 7274 0
7454 5006 -7274 0
-7634 -4574 0
-7634 7454 0
7634 4574 -7454 0
-7814 -4142 0
-7814 7634 0
7814 4142 -7634 0
-7994 -3710 0
-7994 7814 0
7994 3710 -7814 0
-8174 -3278 0
-8174 7994 0
8174 3278 -7994 0
-8354 -2846 0
-8354 8174 0
8354 2846 -8174 0
-8534 -2414 0
-8534 8354 0
8534 2414 -8354 0
-8714 -1982 0
-8714 8534 0
8714 1982 -8534 0
-8894 -1550 0
-8894 8714 0
8894 1550 -8714 0
-9074 -1118 0
-9074 8894 0
9074 1118 -8894 0
-9254 -686 0
-9254 9074 0
9254 686 -9074 0
-9698 134 0
-9698 9254 0
9698 -134 -9254 0
-9699 -134 0
-9699 -9254 0
9699 134 9254 0
-9700 -9698 0
-9700 -9699 0
9700 9698 9699 0
133 -39846 0
-133 39846 0
-365 -299 0
-365 333 0
365 299 -333 0
-429 -300 0
-429 365 0
429 300 -365 0
-685 301 0
-685 429 0
685 -301 -429 0
-797 -291 0
-797 765 0
797 291 -765 0
-861 -292 0
-861 797 0
861 292 -797 0
-1117 293 0
-1117 861 0
1117 -293 -861 0
-1229 -283 0
-1229 1197 0
1229 283 -1197 0
-1293 -284 0
-1293 1229 0
1293 284 -1229 0
-1549 285 0
-1549 1293 0
1549 -285 -1293 0
-1661 -275 0
-1661 1629 0
1661 275 -1629 0
-1725 -276 0
-1725 1661 0
1725 276 -1661 0
-1981 277 0
-1981 1725 0
1981 -277 -1725 0
-2093 -267 0
-2093 2061 0
2093 267 -2061 0
-2157 -268 0
-2157 2093 0
2157 268 -2093 0
-2413 269 0
-2413 2157 0
2413 -269 -2157 0
-2525 -259 0
-2525 2493 0
2525 259 -2493 0
-2589 -260 0
-2589 2525 0
2589 260 -2525 0
-2845 261 0
-2845 2589 0
2845 -261 -2589 0
-2957 -251 0
-2957 2925 0
2957 251 -2925 0
-3021 -252 0
-3021 2957 0
3021 252 -2957 0
-3277 253 0
-3277 3021 0
3277 -253 -3021 0
-3389 -243 0
-3389 3357 0
3389 243 -3357 0
-3453 -244 0
-3453 3389 0
3453 244 -3389 0
-3709 245 0
-3709 3453 0
3709 -245 -3453 0
-3821 -235 0
-3821 3789 0
3821 235 -3789 0
-3885 -236 0
-3885 3821 0
3885 236 -3821 0
-4141 237 0
-4141 3885 0
4141 -237 -3885 0
-4253 -227 0
-4253 4221 0
4253 227 -4221 0
-4317 -228 0
-4317 4253 0
4317 228 -4253 0
-4573 229 0
-4573 4317 0
4573 -229 -4317 0
-4685 -219 0
-4685 4653 0
4685 219 -4653 0
-4749 -220 0
-4749 4685 0
4749 220 -4685 0
-5005 221 0
-5005 4749 0
5005 -221 -4749 0
-5117 -211 0
-5117 5085 0
5117 211 -5085 0
-5181 -212 0
-5181 5117 0
5181 212 -5117 0
-5437 213 0
-5437 5181 0
5437 -213 -5181 0
-5549 -203 0
-5549 5517 0
5549 203 -5517 0
-5613 -204 0
-5613 5549 0
5613 204 -5549 0
-5869 205 0
-5869 5613 0
5869 -205 -5613 0
-5981 -195 0
-5981 5949 0
5981 195 -5949 0
-6045 -196 0
-6045 5981 0
6045 196 -5981 0
-6301 197 0
-6301 6045 0
6301 -197 -6045 0
-6413 -187 0
-6413 6381 0
6413 187 -6381 0
-6477 -188 0
-6477 6413 0
6477 188 -6413 0
-6733 189 0
-6733 6477 0
6733 -189 -6477 0
-6913 -6301 0
-6913 -6733 0
6913 6301 6733 0
-7093 -5869 0
-7093 6913 0
7093 5869 -6913 0
-7273 -5437 0
-7273 7093 0
7273 5437 -7093 0
-7453 -5005 0
-7453 7273 0
7453 5005 -7273 0
-7633 -4573 0
-7633 7453 0
7633 4573 -7453 0
-7813 -4141 0
-7813 7633 0
7813 4141 -7633 0
-7993 -3709 0
-7993 7813 0
7993 3709 -7813 0
-8173 -3277 0
-8173 7993 0
8173 3277 -7993 0
-8353 -2845 0
-8353 8173 0
8353 2845 -8173 0
-8533 -2413 0
-8533 8353 0
8533 2413 -8353 0
-8713 -1981 0
-8713 8533 0
8713 1981 -8533 0
-8893 -1549 0
-8893 8713 0
8893 1549 -8713 0
-9073 -1117 0
-9073 8893 0
9073 1117 -8893 0
-9253 -685 0
-9253 9073 0
9253 685 -9073 0
-9695 133 0
-9695 9253 0
9695 -133 -9253 0
-9696 -133 0
-9696 -9253 0
9696 133 9253 0
-9697 -9695 0
-9697 -9696 0
9697 9695 9696 0
132 -39845 0
-132 39845 0
-364 -299 0
-364 332 0
364 299 -332 0
-428 -300 0
-428 364 0
428 300 -364 0
-684 301 0
-684 428 0
684 -301 -428 0
-796 -291 0
-796 764 0
796 291 -764 0
-860 -292 0
-860 796 0
860 292 -796 0
-1116 293 0
-1116 860 0
1116 -293 -860 0
-1228 -283 0
-1228 1196 0
1228 283 -1196 0
-1292 -284 0
-1292 1228 0
1292 284 -1228 0
-1548 285 0
-1548 1292 0
1548 -285 -1292 0
-1660 -275 0
-1660 1628 0
1660 275 -1628 0
-1724 -276 0
-1724 1660 0
1724 276 -1660 0
-1980 277 0
-1980 1724 0
1980 -277 -1724 0
-2092 -267 0
-2092 2060 0
2092 267 -2060 0
-2156 -268 0
-2156 2092 0
2156 268 -2092 0
-2412 269 0
-2412 2156 0
2412 -269 -2156 0
-2524 -259 0
-2524 2492 0
2524 259 -2492 0
-2588 -260 0
-2588 2524 0
2588 260 -2524 0
-2844 261 0
-2844 2588 0
2844 -261 -2588 0
-2956 -251 0
-2956 2924 0
2956 251 -2924 0
-3020 -252 0
-3020 2956 0
3020 252 -2956 0
-3276 253 0
-3276 3020 0
3276 -253 -3020 0
-3388 -243 0
-3388 3356 0
3388 243 -3356 0
-3452 -244 0
-3452 3388 0
3452 244 -3388 0
-3708 245 0
-3708 3452 0
3708 -245 -3452 0
-3820 -235 0
-3820 3788 0
3820 235 -3788 0
-3884 -236 0
-3884 3820 0
3884 236 -3820 0
-4140 237 0
-4140 3884 0
4140 -237 -3884 0
-4252 -227 0
-4252 4220 0
4252 227 -4220 0
-4316 -228 0
-4316 4252 0
4316 228 -4252 0
-4572 229 0
-4572 4316 0
4572 -229 -4316 0
-4684 -219 0
-4684 4652 0
4684 219 -4652 0
-4748 -220 0
-4748 4684 0
4748 220 -4684 0
-5004 221 0
-5004 4748 0
5004 -221 -4748 0
-5116 -211 0
-5116 5084 0
5116 211 -5084 0
-5180 -212 0
-5180 5116 0
5180 212 -5116 0
-5436 213 0
-5436 5180 0
5436 -213 -5180 0
-5548 -203 0
-5548 5516 0
5548 203 -5516 0
-5612 -204 0
-5612 5548 0
5612 204 -5548 0
-5868 205 0
-5868 5612 0
5868 -205 -5612 0
-5980 -195 0
-5980 5948 0
5980 195 -5948 0
-6044 -196 0
-6044 5980 0
6044 196 -5980 0
-6300 197 0
-6300 6044 0
6300 -197 -6044 0
-6412 -187 0
-6412 6380 0
6412 187 -6380 0
-6476 -188 0
-6476 6412 0
6476 188 -6412 0
-6732 189 0
-6732 6476 0
6732 -189 -6476 0
-6912 -6300 0
-6912 -6732 0
6912 6300 6732 0
-7092 -5868 0
-7092 6912 0
7092 5868 -6912 0
-7272 -5436 0
-7272 7092 0
7272 5436 -7092 0
-7452 -5004 0
-7452 7272 0
7452 5004 -7272 0
-7632 -4572 0
-7632 7452 0
7632 4572 -7452 0
-7812 -4140 0
-7812 7632 0
7812 4140 -7632 0
-7992 -3708 0
-7992 7812 0
7992 3708 -7812 0
-8172 -3276 0
-8172 7992 0
8172 3276 -7992 0
-8352 -2844 0
-8352 8172 0
8352 2844 -8172 0
-8532 -2412 0
-8532 8352 0
8532 2412 -8352 0
-8712 -1980 0
-8712 8532 0
8712 1980 -8532 0
-8892 -1548 0
-8892 8712 0
8892 1548 -8712 0
-9072 -1116 0
-9072 8892 0
9072 1116 -8892 0
-9252 -684 0
-9252 9072 0
9252 684 -9072 0
-9692 132 0
-9692 9252 0
9692 -132 -9252 0
-9693 -132 0
-9693 -9252 0
9693 132 9252 0
-9694 -9692 0
-9694 -9693 0
9694 9692 9693 0
131 -39844 0
-131 39844 0
-363 -299 0
-363 331 0
363 299 -331 0
-427 -300 0
-427 363 0
427 300 -363 0
-683 301 0
-683 427 0
683 -301 -427 0
-795 -291 0
-795 763 0
795 291 -763 0
-859 -292 0
-859 795 0
859 292 -795 0
-1115 293 0
-1115 859 0
1115 -293 -859 0
-1227 -283 0
-1227 1195 0
1227 283 -1195 0
-1291 -284 0
-1291 1227 0
1291 284 -1227 0
-1547 285 0
-1547 1291 0
1547 -285 -1291 0
-1659 -275 0
-1659 1627 0
1659 275 -1627 0
-1723 -276 0
-1723 1659 0
1723 276 -1659 0
-1979 277 0
-1979 1723 0
1979 -277 -1723 0
-2091 -267 0
-2091 2059 0
2091 267 -2059 0
-2155 -268 0
-2155 2091 0
2155 268 -2091 0
-2411 269 0
-2411 2155 0
2411 -269 -2155 0
-2523 -259 0
-2523 2491 0
2523 259 -2491 0
-2587 -260 0
-2587 2523 0
2587 260 -2523 0
-2843 261 0
-2843 2587 0
2843 -261 -2587 0
-2955 -251 0
-2955 2923 0
2955 251 -2923 0
-3019 -252 0
-3019 2955 0
3019 252 -2955 0
-3275 253 0
-3275 3019 0
3275 -253 -3019 0
-3387 -243 0
-3387 3355 0
3387 243 -3355 0
-3451 -244 0
-3451 3387 0
3451 244 -3387 0
-3707 245 0
-3707 3451 0
3707 -245 -3451 0
-3819 -235 0
-3819 3787 0
3819 235 -3787 0
-3883 -236 0
-3883 3819 0
3883 236 -3819 0
-4139 237 0
-4139 3883 0
4139 -237 -3883 0
-4251 -227 0
-4251 4219 0
4251 227 -4219 0
-4315 -228 0
-4315 4251 0
4315 228 -4251 0
-4571 229 0
-4571 4315 0
4571 -229 -4315 0
-4683 -219 0
-4683 4651 0
4683 219 -4651 0
-4747 -220 0
-4747 4683 0
4747 220 -4683 0
-5003 221 0
-5003 4747 0
5003 -221 -4747 0
-5115 -211 0
-5115 5083 0
5115 211 -5083 0
-5179 -212 0
-5179 5115 0
5179 212 -5115 0
-5435 213 0
-5435 5179 0
5435 -213 -5179 0
-5547 -203 0
-5547 5515 0
5547 203 -5515 0
-5611 -204 0
-5611 5547 0
5611 204 -5547 0
-5867 205 0
-5867 5611 0
5867 -205 -5611 0
-5979 -195 0
-5979 5947 0
5979 195 -5947 0
-6043 -196 0
-6043 5979 0
6043 196 -5979 0
-6299 197 0
-6299 6043 0
6299 -197 -6043 0
-6411 -187 0
-6411 6379 0
6411 187 -6379 0
-6475 -188 0
-6475 6411 0
6475 188 -6411 0
-6731 189 0
-6731 6475 0
6731 -189 -6475 0
-6911 -6299 0
-6911 -6731 0
6911 6299 6731 0
-7091 -5867 0
-7091 6911 0
7091 5867 -6911 0
-7271 -5435 0
-7271 7091 0
7271 5435 -7091 0
-7451 -5003 0
-7451 7271 0
7451 5003 -7271 0
-7631 -4571 0
-7631 7451 0
7631 4571 -7451 0
-7811 -4139 0
-7811 7631 0
7811 4139 -7631 0
-7991 -3707 0
-7991 7811 0
7991 3707 -7811 0
-8171 -3275 0
-8171 7991 0
8171 3275 -7991 0
-8351 -2843 0
-8351 8171 0
8351 2843 -8171 0
-8531 -2411 0
-8531 8351 0
8531 2411 -8351 0
-8711 -1979 0
-8711 8531 0
8711 1979 -8531 0
-8891 -1547 0
-8891 8711 0
8891 1547 -8711 0
-9071 -1115 0
-9071 8891 0
9071 1115 -8891 0
-9251 -683 0
-9251 9071 0
9251 683 -9071 0
-9689 131 0
-9689 9251 0
9689 -131 -9251 0
-9690 -131 0
-9690 -9251 0
9690 131 9251 0
-9691 -9689 0
-9691 -9690 0
9691 9689 9690 0
130 -39843 0
-130 39843 0
-362 -299 0
-362 330 0
362 299 -330 0
-426 -300 0
-426 362 0
426 300 -362 0
-682 301 0
-682 426 0
682 -301 -426 0
-794 -291 0
-794 762 0
794 291 -762 0
-858 -292 0
-858 794 0
858 292 -794 0
-1114 293 0
-1114 858 0
1114 -293 -858 0
-1226 -283 0
-1226 1194 0
1226 283 -1194 0
-1290 -284 0
-1290 1226 0
1290 284 -1226 0
-1546 285 0
-1546 1290 0
1546 -285 -1290 0
-1658 -275 0
-1658 1626 0
1658 275 -1626 0
-1722 -276 0
-1722 1658 0
1722 276 -1658 0
-1978 277 0
-1978 1722 0
1978 -277 -1722 0
-2090 -267 0
-2090 2058 0
2090 267 -2058 0
-2154 -268 0
-2154 2090 0
2154 268 -2090 0
-2410 269 0
-2410 2154 0
2410 -269 -2154 0
-2522 -259 0
-2522 2490 0
2522 259 -2490 0
-2586 -260 0
-2586 2522 0
2586 260 -2522 0
-2842 261 0
-2842 2586 0
2842 -261 -2586 0
-2954 -251 0
-2954 2922 0
2954 251 -2922 0
-3018 -252 0
-3018 2954 0
3018 252 -2954 0
-3274 253 0
-3274 3018 0
3274 -253 -3018 0
-3386 -243 0
-3386 3354 0
3386 243 -3354 0
-3450 -244 0
-3450 3386 0
3450 244 -3386 0
-3706 245 0
-3706 3450 0
3706 -245 -3450 0
-3818 -235 0
-3818 3786 0
3818 235 -3786 0
-3882 -236 0
-3882 3818 0
3882 236 -3818 0
-4138 237 0
-4138 3882 0
4138 -237 -3882 0
-4250 -227 0
-4250 4218 0
4250 227 -4218 0
-4314 -228 0
-4314 4250 0
4314 228 -4250 0
-4570 229 0
-4570 4314 0
4570 -229 -4314 0
-4682 -219 0
-4682 4650 0
4682 219 -4650 0
-4746 -220 0
-4746 4682 0
4746 220 -4682 0
-5002 221 0
-5002 4746 0
5002 -221 -4746 0
-5114 -211 0
-5114 5082 0
5114 211 -5082 0
-5178 -212 0
-5178 5114 0
5178 212 -5114 0
-5434 213 0
-5434 5178 0
5434 -213 -5178 0
-5546 -203 0
-5546 5514 0
5546 203 -5514 0
-5610 -204 0
-5610 5546 0
5610 204 -5546 0
-5866 205 0
-5866 5610 0
5866 -205 -5610 0
-5978 -195 0
-5978 5946 0
5978 195 -5946 0
-6042 -196 0
-6042 5978 0
6042 196 -5978 0
-6298 197 0
-6298 6042 0
6298 -197 -6042 0
-6410 -187 0
-6410 6378 0
6410 187 -6378 0
-6474 -188 0
-6474 6410 0
6474 188 -6410 0
-6730 189 0
-6730 6474 0
6730 -189 -6474 0
-6910 -6298 0
-6910 -6730 0
6910 6298 6730 0
-7090 -5866 0
-7090 6910 0
7090 5866 -6910 0
-7270 -5434 0
-7270 7090 0
7270 5434 -7090 0
-7450 -5002 0
-7450 7270 0
7450 5002 -7270 0
-7630 -4570 0
-7630 7450 0
7630 4570 -7450 0
-7810 -4138 0
-7810 7630 0
7810 4138 -7630 0
-7990 -3706 0
-7990 7810 0
7990 3706 -7810 0
-8170 -3274 0
-8170 7990 0
8170 3274 -7990 0
-8350 -2842 0
-8350 8170 0
8350 2842 -8170 0
-8530 -2410 0
-8530 8350 0
8530 2410 -8350 0
-8710 -1978 0
-8710 8530 0
8710 1978 -8530 0
-8890 -1546 0
-8890 8710 0
8890 1546 -8710 0
-9070 -1114 0
-9070 8890 0
9070 1114 -8890 0
-9250 -682 0
-9250 9070 0
9250 682 -9070 0
-9686 130 0
-9686 9250 0
9686 -130 -9250 0
-9687 -130 0
-9687 -9250 0
9687 130 9250 0
-9688 -9686 0
-9688 -9687 0
9688 9686 9687 0
129 -39842 0
-129 39842 0
-425 299 0
-425 361 0
425 -299 -361 0
-553 300 0
-553 425 0
553 -300 -425 0
-681 -301 0
-681 553 0
681 301 -553 0
-857 291 0
-857 793 0
857 -291 -793 0
-985 292 0
-985 857 0
985 -292 -857 0
-1113 -293 0
-1113 985 0
1113 293 -985 0
-1289 283 0
-1289 1225 0
1289 -283 -1225 0
-1417 284 0
-1417 1289 0
1417 -284 -1289 0
-1545 -285 0
-1545 1417 0
1545 285 -1417 0
-1721 275 0
-1721 1657 0
1721 -275 -1657 0
-1849 276 0
-1849 1721 0
1849 -276 -1721 0
-1977 -277 0
-1977 1849 0
1977 277 -1849 0
-2153 267 0
-2153 2089 0
2153 -267 -2089 0
-2281 268 0
-2281 2153 0
2281 -268 -2153 0
-2409 -269 0
-2409 2281 0
2409 269 -2281 0
-2585 259 0
-2585 2521 0
2585 -259 -2521 0
-2713 260 0
-2713 2585 0
2713 -260 -2585 0
-2841 -261 0
-2841 2713 0
2841 261 -2713 0
-3017 251 0
-3017 2953 0
3017 -251 -2953 0
-3145 252 0
-3145 3017 0
3145 -252 -3017 0
-3273 -253 0
-3273 3145 0
3273 253 -3145 0
-3449 243 0
-3449 3385 0
3449 -243 -3385 0
-3577 244 0
-3577 3449 0
3577 -244 -3449 0
-3705 -245 0
-3705 3577 0
3705 245 -3577 0
-3881 235 0
-3881 3817 0
3881 -235 -3817 0
-4009 236 0
-4009 3881 0
4009 -236 -3881 0
-4137 -237 0
-4137 4009 0
4137 237 -4009 0
-4313 227 0
-4313 4249 0
4313 -227 -4249 0
-4441 228 0
-4441 4313 0
4441 -228 -4313 0
-4569 -229 0
-4569 4441 0
4569 229 -4441 0
-4745 219 0
-4745 4681 0
4745 -219 -4681 0
-4873 220 0
-4873 4745 0
4873 -220 -4745 0
-5001 -221 0
-5001 4873 0
5001 221 -4873 0
-5177 211 0
-5177 5113 0
5177 -211 -5113 0
-5305 212 0
-5305 5177 0
5305 -212 -5177 0
-5433 -213 0
-5433 5305 0
5433 213 -5305 0
-5609 203 0
-5609 5545 0
5609 -203 -5545 0
-5737 204 0
-5737 5609 0
5737 -204 -5609 0
-5865 -205 0
-5865 5737 0
5865 205 -5737 0
-6041 195 0
-6041 5977 0
6041 -195 -5977 0
-6169 196 0
-6169 6041 0
6169 -196 -6041 0
-6297 -197 0
-6297 6169 0
6297 197 -6169 0
-6473 187 0
-6473 6409 0
6473 -187 -6409 0
-6601 188 0
-6601 6473 0
6601 -188 -6473 0
-6729 -189 0
-6729 6601 0
6729 189 -6601 0
-6909 -6297 0
-6909 -6729 0
6909 6297 6729 0
-7089 -5865 0
-7089 6909 0
7089 5865 -6909 0
-7269 -5433 0
-7269 7089 0
7269 5433 -7089 0
-7449 -5001 0
-7449 7269 0
7449 5001 -7269 0
-7629 -4569 0
-7629 7449 0
7629 4569 -7449 0
-7809 -4137 0
-7809 7629 0
7809 4137 -7629 0
-7989 -3705 0
-7989 7809 0
7989 3705 -7809 0
-8169 -3273 0
-8169 7989 0
8169 3273 -7989 0
-8349 -2841 0
-8349 8169 0
8349 2841 -8169 0
-8529 -2409 0
-8529 8349 0
8529 2409 -8349 0
-8709 -1977 0
-8709 8529 0
8709 1977 -8529 0
-8889 -1545 0
-8889 8709 0
8889 1545 -8709 0
-9069 -1113 0
-9069 8889 0
9069 1113 -8889 0
-9249 -681 0
-9249 9069 0
9249 681 -9069 0
-9683 129 0
-9683 9249 0
9683 -129 -9249 0
-9684 -129 0
-9684 -9249 0
9684 129 9249 0
-9685 -9683 0
-9685 -9684 0
9685 9683 9684 0
128 -39841 0
-128 39841 0
-424 299 0
-424 360 0
424 -299 -360 0
-552 300 0
-552 424 0
552 -300 -424 0
-680 -301 0
-680 552 0
680 301 -552 0
-856 291 0
-856 792 0
856 -291 -792 0
-984 292 0
-984 856 0
984 -292 -856 0
-1112 -293 0
-1112 984 0
1112 293 -984 0
-1288 283 0
-1288 1224 0
1288 -283 -1224 0
-1416 284 0
-1416 1288 0
1416 -284 -1288 0
-1544 -285 0
-1544 1416 0
1544 285 -1416 0
-1720 275 0
-1720 1656 0
1720 -275 -1656 0
-1848 276 0
-1848 1720 0
1848 -276 -1720 0
-1976 -277 0
-1976 1848 0
1976 277 -1848 0
-2152 267 0
-2152 2088 0
2152 -267 -2088 0
-2280 268 0
-2280 2152 0
2280 -268 -2152 0
-2408 -269 0
-2408 2280 0
2408 269 -2280 0
-2584 259 0
-2584 2520 0
2584 -259 -2520 0
-2712 260 0
-2712 2584 0
2712 -260 -2584 0
-2840 -261 0
-2840 2712 0
2840 261 -2712 0
-3016 251 0
-3016 2952 0
3016 -251 -2952 0
-3144 252 0
-3144 3016 0
3144 -252 -3016 0
-3272 -253 0
-3272 3144 0
3272 253 -3144 0
-3448 243 0
-3448 3384 0
3448 -243 -3384 0
-3576 244 0
-3576 3448 0
3576 -244 -3448 0
-3704 -245 0
-3704 3576 0
3704 245 -3576 0
-3880 235 0
-3880 3816 0
3880 -235 -3816 0
-4008 236 0
-4008 3880 0
4008 -236 -3880 0
-4136 -237 0
-4136 4008 0
4136 237 -4008 0
-4312 227 0
-4312 4248 0
4312 -227 -4248 0
-4440 228 0
-4440 4312 0
4440 -228 -4312 0
-4568 -229 0
-4568 4440 0
4568 229 -4440 0
-4744 219 0
-4744 4680 0
4744 -219 -4680 0
-4872 220 0
-4872 4744 0
4872 -220 -4744 0
-5000 -221 0
-5000 4872 0
5000 221 -4872 0
-5176 211 0
-5176 5112 0
5176 -211 -5112 0
-5304 212 0
-5304 5176 0
5304 -212 -5176 0
-5432 -213 0
-5432 5304 0
5432 213 -5304 0
-5608 203 0
-5608 5544 0
5608 -203 -5544 0
-5736 204 0
-5736 5608 0
5736 -204 -5608 0
-5864 -205 0
-5864 5736 0
5864 205 -5736 0
-6040 195 0
-6040 5976 0
6040 -195 -5976 0
-6168 196 0
-6168 6040 0
6168 -196 -6040 0
-6296 -197 0
-6296 6168 0
6296 197 -6168 0
-6472 187 0
-6472 6408 0
6472 -187 -6408 0
-6600 188 0
-6600 6472 0
6600 -188 -6472 0
-6728 -189 0
-6728 6600 0
6728 189 -6600 0
-6908 -6296 0
-6908 -6728 0
6908 6296 6728 0
-7088 -5864 0
-7088 6908 0
7088 5864 -6908 0
-7268 -5432 0
-7268 7088 0
7268 5432 -7088 0
-7448 -5000 0
-7448 7268 0
7448 5000 -7268 0
-7628 -4568 0
-7628 7448 0
7628 4568 -7448 0
-7808 -4136 0
-7808 7628 0
7808 4136 -7628 0
-7988 -3704 0
-7988 7808 0
7988 3704 -7808 0
-8168 -3272 0
-8168 7988 0
8168 3272 -7988 0
-8348 -2840 0
-8348 8168 0
8348 2840 -8168 0
-8528 -2408 0
-8528 8348 0
8528 2408 -8348 0
-8708 -1976 0
-8708 8528 0
8708 1976 -8528 0
-8888 -1544 0
-8888 8708 0
8888 1544 -8708 0
-9068 -1112 0
-9068 8888 0
9068 1112 -8888 0
-9248 -680 0
-9248 9068 0
9248 680 -9068 0
-9680 128 0
-9680 9248 0
9680 -128 -9248 0
-9681 -128 0
-9681 -9248 0
9681 128 9248 0
-9682 -9680 0
-9682 -9681 0
9682 9680 9681 0
127 -39840 0
-127 39840 0
-423 299 0
-423 359 0
423 -299 -359 0
-551 300 0
-551 423 0
551 -300 -423 0
-679 -301 0
-679 551 0
679 301 -551 0
-855 291 0
-855 791 0
855 -291 -791 0
-983 292 0
-983 855 0
983 -292 -855 0
-1111 -293 0
-1111 983 0
1111 293 -983 0
-1287 283 0
-1287 1223 0
1287 -283 -1223 0
-1415 284 0
-1415 1287 0
1415 -284 -1287 0
-1543 -285 0
-1543 1415 0
1543 285 -1415 0
-1719 275 0
-1719 1655 0
1719 -275 -1655 0
-1847 276 0
-1847 1719 0
1847 -276 -1719 0
-1975 -277 0
-1975 1847 0
1975 277 -1847 0
-2151 267 0
-2151 2087 0
2151 -267 -2087 0
-2279 268 0
-2279 2151 0
2279 -268 -2151 0
-2407 -269 0
-2407 2279 0
2407 269 -2279 0
-2583 259 0
-2583 2519 0
2583 -259 -2519 0
-2711 260 0
-2711 2583 0
2711 -260 -2583 0
-2839 -261 0
-2839 2711 0
2839 261 -2711 0
-3015 251 0
-3015 2951 0
3015 -251 -2951 0
-3143 252 0
-3143 3015 0
3143 -252 -3015 0
-3271 -253 0
-3271 3143 0
3271 253 -3143 0
-3447 243 0
-3447 3383 0
3447 -243 -3383 0
-3575 244 0
-3575 3447 0
3575 -244 -3447 0
-3703 -245 0
-3703 3575 0
3703 245 -3575 0
-3879 235 0
-3879 3815 0
3879 -235 -3815 0
-4007 236 0
-4007 3879 0
4007 -236 -3879 0
-4135 -237 0
-4135 4007 0
4135 237 -4007 0
-4311 227 0
-4311 4247 0
4311 -227 -4247 0
-4439 228 0
-4439 4311 0
4439 -228 -4311 0
-4567 -229 0
-4567 4439 0
4567 229 -4439 0
-4743 219 0
-4743 4679 0
4743 -219 -4679 0
-4871 220 0
-4871 4743 0
4871 -220 -4743 0
-4999 -221 0
-4999 4871 0
4999 221 -4871 0
-5175 211 0
-5175 5111 0
5175 -211 -5111 0
-5303 212 0
-5303 5175 0
5303 -212 -5175 0
-5431 -213 0
-5431 5303 0
5431 213 -5303 0
-5607 203 0
-5607 5543 0
5607 -203 -5543 0
-5735 204 0
-5735 5607 0
5735 -204 -5607 0
-5863 -205 0
-5863 5735 0
5863 205 -5735 0
-6039 195 0
-6039 5975 0
6039 -195 -5975 0
-6167 196 0
-6167 6039 0
6167 -196 -6039 0
-6295 -197 0
-6295 6167 0
6295 197 -6167 0
-6471 187 0
-6471 6407 0
6471 -187 -6407 0
-6599 188 0
-6599 6471 0
6599 -188 -6471 0
-6727 -189 0
-6727 6599 0
6727 189 -6599 0
-6907 -6295 0
-6907 -6727 0
6907 6295 6727 0
-7087 -5863 0
-7087 6907 0
7087 5863 -6907 0
-7267 -5431 0
-7267 7087 0
7267 5431 -7087 0
-7447 -4999 0
-7447 7267 0
7447 4999 -7267 0
-7627 -4567 0
-7627 7447 0
7627 4567 -7447 0
-7807 -4135 0
-7807 7627 0
7807 4135 -7627 0
-7987 -3703 0
-7987 7807 0
7987 3703 -7807 0
-8167 -3271 0
-8167 7987 0
8167 3271 -7987 0
-8347 -2839 0
-8347 8167 0
8347 2839 -8167 0
-8527 -2407 0
-8527 8347 0
8527 2407 -8347 0
-8707 -1975 0
-8707 8527 0
8707 1975 -8527 0
-8887 -1543 0
-8887 8707 0
8887 1543 -8707 0
-9067 -1111 0
-9067 8887 0
9067 1111 -8887 0
-9247 -679 0
-9247 9067 0
9247 679 -9067 0
-9677 127 0
-9677 9247 0
9677 -127 -9247 0
-9678 -127 0
-9678 -9247 0
9678 127 9247 0
-9679 -9677 0
-9679 -9678 0
9679 9677 9678 0
126 -39839 0
-126 39839 0
-422 299 0
-422 358 0
422 -299 -358 0
-550 300 0
-550 422 0
550 -300 -422 0
-678 -301 0
-678 550 0
678 301 -550 0
-854 291 0
-854 790 0
854 -291 -790 0
-982 292 0
-982 854 0
982 -292 -854 0
-1110 -293 0
-1110 982 0
1110 293 -982 0
-1286 283 0
-1286 1222 0
1286 -283 -1222 0
-1414 284 0
-1414 1286 0
1414 -284 -1286 0
-1542 -285 0
-1542 1414 0
1542 285 -1414 0
-1718 275 0
-1718 1654 0
1718 -275 -1654 0
-1846 276 0
-1846 1718 0
1846 -276 -1718 0
-1974 -277 0
-1974 1846 0
1974 277 -1846 0
-2150 267 0
-2150 2086 0
2150 -267 -2086 0
-2278 268 0
-2278 2150 0
2278 -268 -2150 0
-2406 -269 0
-2406 2278 0
2406 269 -2278 0
-2582 259 0
-2582 2518 0
2582 -259 -2518 0
-2710 260 0
-2710 2582 0
2710 -260 -2582 0
-2838 -261 0
-2838 2710 0
2838 261 -2710 0
-3014 251 0
-3014 2950 0
3014 -251 -2950 0
-3142 252 0
-3142 3014 0
3142 -252 -3014 0
-3270 -253 0
-3270 3142 0
3270 253 -3142 0
-3446 243 0
-3446 3382 0
3446 -243 -3382 0
-3574 244 0
-3574 3446 0
3574 -244 -3446 0
-3702 -245 0
-3702 3574 0
3702 245 -3574 0
-3878 235 0
-3878 3814 0
3878 -235 -3814 0
-4006 236 0
-4006 3878 0
4006 -236 -3878 0
-4134 -237 0
-4134 4006 0
4134 237 -4006 0
-4310 227 0
-4310 4246 0
4310 -227 -4246 0
-4438 228 0
-4438 4310 0
4438 -228 -4310 0
-4566 -229 0
-4566 4438 0
4566 229 -4438 0
-4742 219 0
-4742 4678 0
4742 -219 -4678 0
-4870 220 0
-4870 4742 0
4870 -220 -4742 0
-4998 -221 0
-4998 4870 0
4998 221 -4870 0
-5174 211 0
-5174 5110 0
5174 -211 -5110 0
-5302 212 0
-5302 5174 0
5302 -212 -5174 0
-5430 -213 0
-5430 5302 0
5430 213 -5302 0
-5606 203 0
-5606 5542 0
5606 -203 -5542 0
-5734 204 0
-5734 5606 0
5734 -204 -5606 0
-5862 -205 0
-5862 5734 0
5862 205 -5734 0
-6038 195 0
-6038 5974 0
6038 -195 -5974 0
-6166 196 0
-6166 6038 0
6166 -196 -6038 0
-6294 -197 0
-6294 6166 0
6294 197 -6166 0
-6470 187 0
-6470 6406 0
6470 -187 -6406 0
-6598 188 0
-6598 6470 0
6598 -188 -6470 0
-6726 -189 0
-6726 6598 0
6726 189 -6598 0
-6906 -6294 0
-6906 -6726 0
6906 6294 6726 0
-7086 -5862 0
-7086 6906 0
7086 5862 -6906 0
-7266 -5430 0
-7266 7086 0
7266 5430 -7086 0
-7446 -4998 0
-7446 7266 0
7446 4998 -7266 0
-7626 -4566 0
-7626 7446 0
7626 4566 -7446 0
-7806 -4134 0
-7806 7626 0
7806 4134 -7626 0
-7986 -3702 0
-7986 7806 0
7986 3702 -7806 0
-8166 -3270 0
-8166 7986 0
8166 3270 -7986 0
-8346 -2838 0
-8346 8166 0
8346 2838 -8166 0
-8526 -2406 0
-8526 8346 0
8526 2406 -8346 0
-8706 -1974 0
-8706 8526 0
8706 1974 -8526 0
-8886 -1542 0
-8886 8706 0
8886 1542 -8706 0
-9066 -1110 0
-9066 8886 0
9066 1110 -8886 0
-9246 -678 0
-9246 9066 0
9246 678 -9066 0
-9674 126 0
-9674 9246 0
9674 -126 -9246 0
-9675 -126 0
-9675 -9246 0
9675 126 9246 0
-9676 -9674 0
-9676 -9675 0
9676 9674 9675 0
125 -39838 0
-125 39838 0
-421 299 0
-421 357 0
421 -299 -357 0
-549 300 0
-549 421 0
549 -300 -421 0
-677 -301 0
-677 549 0
677 301 -549 0
-853 291 0
-853 789 0
853 -291 -789 0
-981 292 0
-981 853 0
981 -292 -853 0
-1109 -293 0
-1109 981 0
1109 293 -981 0
-1285 283 0
-1285 1221 0
1285 -283 -1221 0
-1413 284 0
-1413 1285 0
1413 -284 -1285 0
-1541 -285 0
-1541 1413 0
1541 285 -1413 0
-1717 275 0
-1717 1653 0
1717 -275 -1653 0
-1845 276 0
-1845 1717 0
1845 -276 -1717 0
-1973 -277 0
-1973 1845 0
1973 277 -1845 0
-2149 267 0
-2149 2085 0
2149 -267 -2085 0
-2277 268 0
-2277 2149 0
2277 -268 -2149 0
-2405 -269 0
-2405 2277 0
2405 269 -2277 0
-2581 259 0
-2581 2517 0
2581 -259 -2517 0
-2709 260 0
-2709 2581 0
2709 -260 -2581 0
-2837 -261 0
-2837 2709 0
2837 261 -2709 0
-3013 251 0
-3013 2949 0
3013 -251 -2949 0
-3141 252 0
-3141 3013 0
3141 -252 -3013 0
-3269 -253 0
-3269 3141 0
3269 253 -3141 0
-3445 243 0
-3445 3381 0
3445 -243 -3381 0
-3573 244 0
-3573 3445 0
3573 -244 -3445 0
-3701 -245 0
-3701 3573 0
3701 245 -3573 0
-3877 235 0
-3877 3813 0
3877 -235 -3813 0
-4005 236 0
-4005 3877 0
4005 -236 -3877 0
-4133 -237 0
-4133 4005 0
4133 237 -4005 0
-4309 227 0
-4309 4245 0
4309 -227 -4245 0
-4437 228 0
-4437 4309 0
4437 -228 -4309 0
-4565 -229 0
-4565 4437 0
4565 229 -4437 0
-4741 219 0
-4741 4677 0
4741 -219 -4677 0
-4869 220 0
-4869 4741 0
4869 -220 -4741 0
-4997 -221 0
-4997 4869 0
4997 221 -4869 0
-5173 211 0
-5173 5109 0
5173 -211 -5109 0
-5301 212 0
-5301 5173 0
5301 -212 -5173 0
-5429 -213 0
-5429 5301 0
5429 213 -5301 0
-5605 203 0
-5605 5541 0
5605 -203 -5541 0
-5733 204 0
-5733 5605 0
5733 -204 -5605 0
-5861 -205 0
-5861 5733 0
5861 205 -5733 0
-6037 195 0
-6037 5973 0
6037 -195 -5973 0
-6165 196 0
-6165 6037 0
6165 -196 -6037 0
-6293 -197 0
-6293 6165 0
6293 197 -6165 0
-6469 187 0
-6469 6405 0
6469 -187 -6405 0
-6597 188 0
-6597 6469 0
6597 -188 -6469 0
-6725 -189 0
-6725 6597 0
6725 189 -6597 0
-6905 -6293 0
-6905 -6725 0
6905 6293 6725 0
-7085 -5861 0
-7085 6905 0
7085 5861 -6905 0
-7265 -5429 0
-7265 7085 0
7265 5429 -7085 0
-7445 -4997 0
-7445 7265 0
7445 4997 -7265 0
-7625 -4565 0
-7625 7445 0
7625 4565 -7445 0
-7805 -4133 0
-7805 7625 0
7805 4133 -7625 0
-7985 -3701 0
-7985 7805 0
7985 3701 -7805 0
-8165 -3269 0
-8165 7985 0
8165 3269 -7985 0
-8345 -2837 0
-8345 8165 0
8345 2837 -8165 0
-8525 -2405 0
-8525 8345 0
8525 2405 -8345 0
-8705 -1973 0
-8705 8525 0
8705 1973 -8525 0
-8885 -1541 0
-8885 8705 0
8885 1541 -8705 0
-9065 -1109 0
-9065 8885 0
9065 1109 -8885 0
-9245 -677 0
-9245 9065 0
9245 677 -9065 0
-9671 125 0
-9671 9245 0
9671 -125 -9245 0
-9672 -125 0
-9672 -9245 0
9672 125 9245 0
-9673 -9671 0
-9673 -9672 0
9673 9671 9672 0
124 -39837 0
-124 39837 0
-420 299 0
-420 356 0
420 -299 -356 0
-548 300 0
-548 420 0
548 -300 -420 0
-676 -301 0
-676 548 0
676 301 -548 0
-852 291 0
-852 788 0
852 -291 -788 0
-980 292 0
-980 852 0
980 -292 -852 0
-1108 -293 0
-1108 980 0
1108 293 -980 0
-1284 283 0
-1284 1220 0
1284 -283 -1220 0
-1412 284 0
-1412 1284 0
1412 -284 -1284 0
-1540 -285 0
-1540 1412 0
1540 285 -1412 0
-1716 275 0
-1716 1652 0
1716 -275 -1652 0
-1844 276 0
-1844 1716 0
1844 -276 -1716 0
-1972 -277 0
-1972 1844 0
1972 277 -1844 0
-2148 267 0
-2148 2084 0
2148 -267 -2084 0
-2276 268 0
-2276 2148 0
2276 -268 -2148 0
-2404 -269 0
-2404 2276 0
2404 269 -2276 0
-2580 259 0
-2580 2516 0
2580 -259 -2516 0
-2708 260 0
-2708 2580 0
2708 -260 -2580 0
-2836 -261 0
-2836 2708 0
2836 261 -2708 0
-3012 251 0
-3012 2948 0
3012 -251 -2948 0
-3140 252 0
-3140 3012 0
3140 -252 -3012 0
-3268 -253 0
-3268 3140 0
3268 253 -3140 0
-3444 243 0
-3444 3380 0
3444 -243 -3380 0
-3572 244 0
-3572 3444 0
3572 -244 -3444 0
-3700 -245 0
-3700 3572 0
3700 245 -3572 0
-3876 235 0
-3876 3812 0
3876 -235 -3812 0
-4004 236 0
-4004 3876 0
4004 -236 -3876 0
-4132 -237 0
-4132 4004 0
4132 237 -4004 0
-4308 227 0
-4308 4244 0
4308 -227 -4244 0
-4436 228 0
-4436 4308 0
4436 -228 -4308 0
-4564 -229 0
-4564 4436 0
4564 229 -4436 0
-4740 219 0
-4740 4676 0
4740 -219 -4676 0
-4868 220 0
-4868 4740 0
4868 -220 -4740 0
-4996 -221 0
-4996 4868 0
4996 221 -4868 0
-5172 211 0
-5172 5108 0
5172 -211 -5108 0
-5300 212 0
-5300 5172 0
5300 -212 -5172 0
-5428 -213 0
-5428 5300 0
5428 213 -5300 0
-5604 203 0
-5604 5540 0
5604 -203 -5540 0
-5732 204 0
-5732 5604 0
5732 -204 -5604 0
-5860 -205 0
-5860 5732 0
5860 205 -5732 0
-6036 195 0
-6036 5972 0
6036 -195 -5972 0
-6164 196 0
-6164 6036 0
6164 -196 -6036 0
-6292 -197 0
-6292 6164 0
6292 197 -6164 0
-6468 187 0
-6468 6404 0
6468 -187 -6404 0
-6596 188 0
-6596 6468 0
6596 -188 -6468 0
-6724 -189 0
-6724 6596 0
6724 189 -6596 0
-6904 -6292 0
-6904 -6724 0
6904 6292 6724 0
-7084 -5860 0
-7084 6904 0
7084 5860 -6904 0
-7264 -5428 0
-7264 7084 0
7264 5428 -7084 0
-7444 -4996 0
-7444 7264 0
7444 4996 -7264 0
-7624 -4564 0
-7624 7444 0
7624 4564 -7444 0
-7804 -4132 0
-7804 7624 0
7804 4132 -7624 0
-7984 -3700 0
-7984 7804 0
7984 3700 -7804 0
-8164 -3268 0
-8164 7984 0
8164 3268 -7984 0
-8344 -2836 0
-8344 8164 0
8344 2836 -8164 0
-8524 -2404 0
-8524 8344 0
8524 2404 -8344 0
-8704 -1972 0
-8704 8524 0
8704 1972 -8524 0
-8884 -1540 0
-8884 8704 0
8884 1540 -8704 0
-9064 -1108 0
-9064 8884 0
9064 1108 -8884 0
-9244 -676 0
-9244 9064 0
9244 676 -9064 0
-9668 124 0
-9668 9244 0
9668 -124 -9244 0
-9669 -124 0
-9669 -9244 0
9669 124 9244 0
-9670 -9668 0
-9670 -9669 0
9670 9668 9669 0
123 -39836 0
-123 39836 0
-419 299 0
-419 355 0
419 -299 -355 0
-547 300 0
-547 419 0
547 -300 -419 0
-675 -301 0
-675 547 0
675 301 -547 0
-851 291 0
-851 787 0
851 -291 -787 0
-979 292 0
-979 851 0
979 -292 -851 0
-1107 -293 0
-1107 979 0
1107 293 -979 0
-1283 283 0
-1283 1219 0
1283 -283 -1219 0
-1411 284 0
-1411 1283 0
1411 -284 -1283 0
-1539 -285 0
-1539 1411 0
1539 285 -1411 0
-1715 275 0
-1715 1651 0
1715 -275 -1651 0
-1843 276 0
-1843 1715 0
1843 -276 -1715 0
-1971 -277 0
-1971 1843 0
1971 277 -1843 0
-2147 267 0
-2147 2083 0
2147 -267 -2083 0
-2275 268 0
-2275 2147 0
2275 -268 -2147 0
-2403 -269 0
-2403 2275 0
2403 269 -2275 0
-2579 259 0
-2579 2515 0
2579 -259 -2515 0
-2707 260 0
-2707 2579 0
2707 -260 -2579 0
-2835 -261 0
-2835 2707 0
2835 261 -2707 0
-3011 251 0
-3011 2947 0
3011 -251 -2947 0
-3139 252 0
-3139 3011 0
3139 -252 -3011 0
-3267 -253 0
-3267 3139 0
3267 253 -3139 0
-3443 243 0
-3443 3379 0
3443 -243 -3379 0
-3571 244 0
-3571 3443 0
3571 -244 -3443 0
-3699 -245 0
-3699 3571 0
3699 245 -3571 0
-3875 235 0
-3875 3811 0
3875 -235 -3811 0
-4003 236 0
-4003 3875 0
4003 -236 -3875 0
-4131 -237 0
-4131 4003 0
4131 237 -4003 0
-4307 227 0
-4307 4243 0
4307 -227 -4243 0
-4435 228 0
-4435 4307 0
4435 -228 -4307 0
-4563 -229 0
-4563 4435 0
4563 229 -4435 0
-4739 219 0
-4739 4675 0
4739 -219 -4675 0
-4867 220 0
-4867 4739 0
4867 -220 -4739 0
-4995 -221 0
-4995 4867 0
4995 221 -4867 0
-5171 211 0
-5171 5107 0
5171 -211 -5107 0
-5299 212 0
-5299 5171 0
5299 -212 -5171 0
-5427 -213 0
-5427 5299 0
5427 213 -5299 0
-5603 203 0
-5603 5539 0
5603 -203 -5539 0
-5731 204 0
-5731 5603 0
5731 -204 -5603 0
-5859 -205 0
-5859 5731 0
5859 205 -5731 0
-6035 195 0
-6035 5971 0
6035 -195 -5971 0
-6163 196 0
-6163 6035 0
6163 -196 -6035 0
-6291 -197 0
-6291 6163 0
6291 197 -6163 0
-6467 187 0
-6467 6403 0
6467 -187 -6403 0
-6595 188 0
-6595 6467 0
6595 -188 -6467 0
-6723 -189 0
-6723 6595 0
6723 189 -6595 0
-6903 -6291 0
-6903 -6723 0
6903 6291 6723 0
-7083 -5859 0
-7083 6903 0
7083 5859 -6903 0
-7263 -5427 0
-7263 7083 0
7263 5427 -7083 0
-7443 -4995 0
-7443 7263 0
7443 4995 -7263 0
-7623 -4563 0
-7623 7443 0
7623 4563 -7443 0
-7803 -4131 0
-7803 7623 0
7803 4131 -7623 0
-7983 -3699 0
-7983 7803 0
7983 3699 -7803 0
-8163 -3267 0
-8163 7983 0
8163 3267 -7983 0
-8343 -2835 0
-8343 8163 0
8343 2835 -8163 0
-8523 -2403 0
-8523 8343 0
8523 2403 -8343 0
-8703 -1971 0
-8703 8523 0
8703 1971 -8523 0
-8883 -1539 0
-8883 8703 0
8883 1539 -8703 0
-9063 -1107 0
-9063 8883 0
9063 1107 -8883 0
-9243 -675 0
-9243 9063 0
9243 675 -9063 0
-9665 123 0
-9665 9243 0
9665 -123 -9243 0
-9666 -123 0
-9666 -9243 0
9666 123 9243 0
-9667 -9665 0
-9667 -9666 0
9667 9665 9666 0
122 -39835 0
-122 39835 0
-418 299 0
-418 354 0
418 -299 -354 0
-546 300 0
-546 418 0
546 -300 -418 0
-674 -301 0
-674 546 0
674 301 -546 0
-850 291 0
-850 786 0
850 -291 -786 0
-978 292 0
-978 850 0
978 -292 -850 0
-1106 -293 0
-1106 978 0
1106 293 -978 0
-1282 283 0
-1282 1218 0
1282 -283 -1218 0
-1410 284 0
-1410 1282 0
1410 -284 -1282 0
-1538 -285 0
-1538 1410 0
1538 285 -1410 0
-1714 275 0
-1714 1650 0
1714 -275 -1650 0
-1842 276 0
-1842 1714 0
1842 -276 -1714 0
-1970 -277 0
-1970 1842 0
1970 277 -1842 0
-2146 267 0
-2146 2082 0
2146 -267 -2082 0
-2274 268 0
-2274 2146 0
2274 -268 -2146 0
-2402 -269 0
-2402 2274 0
2402 269 -2274 0
-2578 259 0
-2578 2514 0
2578 -259 -2514 0
-2706 260 0
-2706 2578 0
2706 -260 -2578 0
-2834 -261 0
-2834 2706 0
2834 261 -2706 0
-3010 251 0
-3010 2946 0
3010 -251 -2946 0
-3138 252 0
-3138 3010 0
3138 -252 -3010 0
-3266 -253 0
-3266 3138 0
3266 253 -3138 0
-3442 243 0
-3442 3378 0
3442 -243 -3378 0
-3570 244 0
-3570 3442 0
3570 -244 -3442 0
-3698 -245 0
-3698 3570 0
3698 245 -3570 0
-3874 235 0
-3874 3810 0
3874 -235 -3810 0
-4002 236 0
-4002 3874 0
4002 -236 -3874 0
-4130 -237 0
-4130 4002 0
4130 237 -4002 0
-4306 227 0
-4306 4242 0
4306 -227 -4242 0
-4434 228 0
-4434 4306 0
4434 -228 -4306 0
-4562 -229 0
-4562 4434 0
4562 229 -4434 0
-4738 219 0
-4738 4674 0
4738 -219 -4674 0
-4866 220 0
-4866 4738 0
4866 -220 -4738 0
-4994 -221 0
-4994 4866 0
4994 221 -4866 0
-5170 211 0
-5170 5106 0
5170 -211 -5106 0
-5298 212 0
-5298 5170 0
5298 -212 -5170 0
-5426 -213 0
-5426 5298 0
5426 213 -5298 0
-5602 203 0
-5602 5538 0
5602 -203 -5538 0
-5730 204 0
-5730 5602 0
5730 -204 -5602 0
-5858 -205 0
-5858 5730 0
5858 205 -5730 0
-6034 195 0
-6034 5970 0
6034 -195 -5970 0
-6162 196 0
-6162 6034 0
6162 -196 -6034 0
-6290 -197 0
-6290 6162 0
6290 197 -6162 0
-6466 187 0
-6466 6402 0
6466 -187 -6402 0
-6594 188 0
-6594 6466 0
6594 -188 -6466 0
-6722 -189 0
-6722 6594 0
6722 189 -6594 0
-6902 -6290 0
-6902 -6722 0
6902 6290 6722 0
-7082 -5858 0
-7082 6902 0
7082 5858 -6902 0
-7262 -5426 0
-7262 7082 0
7262 5426 -7082 0
-7442 -4994 0
-7442 7262 0
7442 4994 -7262 0
-7622 -4562 0
-7622 7442 0
7622 4562 -7442 0
-7802 -4130 0
-7802 7622 0
7802 4130 -7622 0
-7982 -3698 0
-7982 7802 0
7982 3698 -7802 0
-8162 -3266 0
-8162 7982 0
8162 3266 -7982 0
-8342 -2834 0
-8342 8162 0
8342 2834 -8162 0
-8522 -2402 0
-8522 8342 0
8522 2402 -8342 0
-8702 -1970 0
-8702 8522 0
8702 1970 -8522 0
-8882 -1538 0
-8882 8702 0
8882 1538 -8702 0
-9062 -1106 0
-9062 8882 0
9062 1106 -8882 0
-9242 -674 0
-9242 9062 0
9242 674 -9062 0
-9662 122 0
-9662 9242 0
9662 -122 -9242 0
-9663 -122 0
-9663 -9242 0
9663 122 9242 0
-9664 -9662 0
-9664 -9663 0
9664 9662 9663 0
121 -39834 0
-121 39834 0
-417 299 0
-417 353 0
417 -299 -353 0
-545 300 0
-545 417 0
545 -300 -417 0
-673 -301 0
-673 545 0
673 301 -545 0
-849 291 0
-849 785 0
849 -291 -785 0
-977 292 0
-977 849 0
977 -292 -849 0
-1105 -293 0
-1105 977 0
1105 293 -977 0
-1281 283 0
-1281 1217 0
1281 -283 -1217 0
-1409 284 0
-1409 1281 0
1409 -284 -1281 0
-1537 -285 0
-1537 1409 0
1537 285 -1409 0
-1713 275 0
-1713 1649 0
1713 -275 -1649 0
-1841 276 0
-1841 1713 0
1841 -276 -1713 0
-1969 -277 0
-1969 1841 0
1969 277 -1841 0
-2145 267 0
-2145 2081 0
2145 -267 -2081 0
-2273 268 0
-2273 2145 0
2273 -268 -2145 0
-2401 -269 0
-2401 2273 0
2401 269 -2273 0
-2577 259 0
-2577 2513 0
2577 -259 -2513 0
-2705 260 0
-2705 2577 0
2705 -260 -2577 0
-2833 -261 0
-2833 2705 0
2833 261 -2705 0
-3009 251 0
-3009 2945 0
3009 -251 -2945 0
-3137 252 0
-3137 3009 0
3137 -252 -3009 0
-3265 -253 0
-3265 3137 0
3265 253 -3137 0
-3441 243 0
-3441 3377 0
3441 -243 -3377 0
-3569 244 0
-3569 3441 0
3569 -244 -3441 0
-3697 -245 0
-3697 3569 0
3697 245 -3569 0
-3873 235 0
-3873 3809 0
3873 -235 -3809 0
-4001 236 0
-4001 3873 0
4001 -236 -3873 0
-4129 -237 0
-4129 4001 0
4129 237 -4001 0
-4305 227 0
-4305 4241 0
4305 -227 -4241 0
-4433 228 0
-4433 4305 0
4433 -228 -4305 0
-4561 -229 0
-4561 4433 0
4561 229 -4433 0
-4737 219 0
-4737 4673 0
4737 -219 -4673 0
-4865 220 0
-4865 4737 0
4865 -220 -4737 0
-4993 -221 0
-4993 4865 0
4993 221 -4865 0
-5169 211 0
-5169 5105 0
5169 -211 -5105 0
-5297 212 0
-5297 5169 0
5297 -212 -5169 0
-5425 -213 0
-5425 5297 0
5425 213 -5297 0
-5601 203 0
-5601 5537 0
5601 -203 -5537 0
-5729 204 0
-5729 5601 0
5729 -204 -5601 0
-5857 -205 0
-5857 5729 0
5857 205 -5729 0
-6033 195 0
-6033 5969 0
6033 -195 -5969 0
-6161 196 0
-6161 6033 0
6161 -196 -6033 0
-6289 -197 0
-6289 6161 0
6289 197 -6161 0
-6465 187 0
-6465 6401 0
6465 -187 -6401 0
-6593 188 0
-6593 6465 0
6593 -188 -6465 0
-6721 -189 0
-6721 6593 0
6721 189 -6593 0
-6901 -6289 0
-6901 -6721 0
6901 6289 6721 0
-7081 -5857 0
-7081 6901 0
7081 5857 -6901 0
-7261 -5425 0
-7261 7081 0
7261 5425 -7081 0
-7441 -4993 0
-7441 7261 0
7441 4993 -7261 0
-7621 -4561 0
-7621 7441 0
7621 4561 -7441 0
-7801 -4129 0
-7801 7621 0
7801 4129 -7621 0
-7981 -3697 0
-7981 7801 0
7981 3697 -7801 0
-8161 -3265 0
-8161 7981 0
8161 3265 -7981 0
-8341 -2833 0
-8341 8161 0
8341 2833 -8161 0
-8521 -2401 0
-8521 8341 0
8521 2401 -8341 0
-8701 -1969 0
-8701 8521 0
8701 1969 -8521 0
-8881 -1537 0
-8881 8701 0
8881 1537 -8701 0
-9061 -1105 0
-9061 8881 0
9061 1105 -8881 0
-9241 -673 0
-9241 9061 0
9241 673 -9061 0
-9659 121 0
-9659 9241 0
9659 -121 -9241 0
-9660 -121 0
-9660 -9241 0
9660 121 9241 0
-9661 -9659 0
-9661 -9660 0
9661 9659 9660 0
120 -39833 0
-120 39833 0
-416 299 0
-416 352 0
416 -299 -352 0
-544 300 0
-544 416 0
544 -300 -416 0
-672 -301 0
-672 544 0
672 301 -544 0
-848 291 0
-848 784 0
848 -291 -784 0
-976 292 0
-976 848 0
976 -292 -848 0
-1104 -293 0
-1104 976 0
1104 293 -976 0
-1280 283 0
-1280 1216 0
1280 -283 -1216 0
-1408 284 0
-1408 1280 0
1408 -284 -1280 0
-1536 -285 0
-1536 1408 0
1536 285 -1408 0
-1712 275 0
-1712 1648 0
1712 -275 -1648 0
-1840 276 0
-1840 1712 0
1840 -276 -1712 0
-1968 -277 0
-1968 1840 0
1968 277 -1840 0
-2144 267 0
-2144 2080 0
2144 -267 -2080 0
-2272 268 0
-2272 2144 0
2272 -268 -2144 0
-2400 -269 0
-2400 2272 0
2400 269 -2272 0
-2576 259 0
-2576 2512 0
2576 -259 -2512 0
-2704 260 0
-2704 2576 0
2704 -260 -2576 0
-2832 -261 0
-2832 2704 0
2832 261 -2704 0
-3008 251 0
-3008 2944 0
3008 -251 -2944 0
-3136 252 0
-3136 3008 0
3136 -252 -3008 0
-3264 -253 0
-3264 3136 0
3264 253 -3136 0
-3440 243 0
-3440 3376 0
3440 -243 -3376 0
-3568 244 0
-3568 3440 0
3568 -244 -3440 0
-3696 -245 0
-3696 3568 0
3696 245 -3568 0
-3872 235 0
-3872 3808 0
3872 -235 -3808 0
-4000 236 0
-4000 3872 0
4000 -236 -3872 0
-4128 -237 0
-4128 4000 0
4128 237 -4000 0
-4304 227 0
-4304 4240 0
4304 -227 -4240 0
-4432 228 0
-4432 4304 0
4432 -228 -4304 0
-4560 -229 0
-4560 4432 0
4560 229 -4432 0
-4736 219 0
-4736 4672 0
4736 -219 -4672 0
-4864 220 0
-4864 4736 0
4864 -220 -4736 0
-4992 -221 0
-4992 4864 0
4992 221 -4864 0
-5168 211 0
-5168 5104 0
5168 -211 -5104 0
-5296 212 0
-5296 5168 0
5296 -212 -5168 0
-5424 -213 0
-5424 5296 0
5424 213 -5296 0
-5600 203 0
-5600 5536 0
5600 -203 -5536 0
-5728 204 0
-5728 5600 0
5728 -204 -5600 0
-5856 -205 0
-5856 5728 0
5856 205 -5728 0
-6032 195 0
-6032 5968 0
6032 -195 -5968 0
-6160 196 0
-6160 6032 0
6160 -196 -6032 0
-6288 -197 0
-6288 6160 0
6288 197 -6160 0
-6464 187 0
-6464 6400 0
6464 -187 -6400 0
-6592 188 0
-6592 6464 0
6592 -188 -6464 0
-6720 -189 0
-6720 6592 0
6720 189 -6592 0
-6900 -6288 0
-6900 -6720 0
6900 6288 6720 0
-7080 -5856 0
-7080 6900 0
7080 5856 -6900 0
-7260 -5424 0
-7260 7080 0
7260 5424 -7080 0
-7440 -4992 0
-7440 7260 0
7440 4992 -7260 0
-7620 -4560 0
-7620 7440 0
7620 4560 -7440 0
-7800 -4128 0
-7800 7620 0
7800 4128 -7620 0
-7980 -3696 0
-7980 7800 0
7980 3696 -7800 0
-8160 -3264 0
-8160 7980 0
8160 3264 -7980 0
-8340 -2832 0
-8340 8160 0
8340 2832 -8160 0
-8520 -2400 0
-8520 8340 0
8520 2400 -8340 0
-8700 -1968 0
-8700 8520 0
8700 1968 -8520 0
-8880 -1536 0
-8880 8700 0
8880 1536 -8700 0
-9060 -1104 0
-9060 8880 0
9060 1104 -8880 0
-9240 -672 0
-9240 9060 0
9240 672 -9060 0
-9656 120 0
-9656 9240 0
9656 -120 -9240 0
-9657 -120 0
-9657 -9240 0
9657 120 9240 0
-9658 -9656 0
-9658 -9657 0
9658 9656 9657 0
119 -39832 0
-119 39832 0
-415 299 0
-415 351 0
415 -299 -351 0
-543 300 0
-543 415 0
543 -300 -415 0
-671 -301 0
-671 543 0
671 301 -543 0
-847 291 0
-847 783 0
847 -291 -783 0
-975 292 0
-975 847 0
975 -292 -847 0
-1103 -293 0
-1103 975 0
1103 293 -975 0
-1279 283 0
-1279 1215 0
1279 -283 -1215 0
-1407 284 0
-1407 1279 0
1407 -284 -1279 0
-1535 -285 0
-1535 1407 0
1535 285 -1407 0
-1711 275 0
-1711 1647 0
1711 -275 -1647 0
-1839 276 0
-1839 1711 0
1839 -276 -1711 0
-1967 -277 0
-1967 1839 0
1967 277 -1839 0
-2143 267 0
-2143 2079 0
2143 -267 -2079 0
-2271 268 0
-2271 2143 0
2271 -268 -2143 0
-2399 -269 0
-2399 2271 0
2399 269 -2271 0
-2575 259 0
-2575 2511 0
2575 -259 -2511 0
-2703 260 0
-2703 2575 0
2703 -260 -2575 0
-2831 -261 0
-2831 2703 0
2831 261 -2703 0
-3007 251 0
-3007 2943 0
3007 -251 -2943 0
-3135 252 0
-3135 3007 0
3135 -252 -3007 0
-3263 -253 0
-3263 3135 0
3263 253 -3135 0
-3439 243 0
-3439 3375 0
3439 -243 -3375 0
-3567 244 0
-3567 3439 0
3567 -244 -3439 0
-3695 -245 0
-3695 3567 0
3695 245 -3567 0
-3871 235 0
-3871 3807 0
3871 -235 -3807 0
-3999 236 0
-3999 3871 0
3999 -236 -3871 0
-4127 -237 0
-4127 3999 0
4127 237 -3999 0
-4303 227 0
-4303 4239 0
4303 -227 -4239 0
-4431 228 0
-4431 4303 0
4431 -228 -4303 0
-4559 -229 0
-4559 4431 0
4559 229 -4431 0
-4735 219 0
-4735 4671 0
4735 -219 -4671 0
-4863 220 0
-4863 4735 0
4863 -220 -4735 0
-4991 -221 0
-4991 4863 0
4991 221 -4863 0
-5167 211 0
-5167 5103 0
5167 -211 -5103 0
-5295 212 0
-5295 5167 0
5295 -212 -5167 0
-5423 -213 0
-5423 5295 0
5423 213 -5295 0
-5599 203 0
-5599 5535 0
5599 -203 -5535 0
-5727 204 0
-5727 5599 0
5727 -204 -5599 0
-5855 -205 0
-5855 5727 0
5855 205 -5727 0
-6031 195 0
-6031 5967 0
6031 -195 -5967 0
-6159 196 0
-6159 6031 0
6159 -196 -6031 0
-6287 -197 0
-6287 6159 0
6287 197 -6159 0
-6463 187 0
-6463 6399 0
6463 -187 -6399 0
-6591 188 0
-6591 6463 0
6591 -188 -6463 0
-6719 -189 0
-6719 6591 0
6719 189 -6591 0
-6899 -6287 0
-6899 -6719 0
6899 6287 6719 0
-7079 -5855 0
-7079 6899 0
7079 5855 -6899 0
-7259 -5423 0
-7259 7079 0
7259 5423 -7079 0
-7439 -4991 0
-7439 7259 0
7439 4991 -7259 0
-7619 -4559 0
-7619 7439 0
7619 4559 -7439 0
-7799 -4127 0
-7799 7619 0
7799 4127 -7619 0
-7979 -3695 0
-7979 7799 0
7979 3695 -7799 0
-8159 -3263 0
-8159 7979 0
8159 3263 -7979 0
-8339 -2831 0
-8339 8159 0
8339 2831 -8159 0
-8519 -2399 0
-8519 8339 0
8519 2399 -8339 0
-8699 -1967 0
-8699 8519 0
8699 1967 -8519 0
-8879 -1535 0
-8879 8699 0
8879 1535 -8699 0
-9059 -1103 0
-9059 8879 0
9059 1103 -8879 0
-9239 -671 0
-9239 9059 0
9239 671 -9059 0
-9653 119 0
-9653 9239 0
9653 -119 -9239 0
-9654 -119 0
-9654 -9239 0
9654 119 9239 0
-9655 -9653 0
-9655 -9654 0
9655 9653 9654 0
118 -39831 0
-118 39831 0
-414 299 0
-414 350 0
414 -299 -350 0
-542 300 0
-542 414 0
542 -300 -414 0
-670 -301 0
-670 542 0
670 301 -542 0
-846 291 0
-846 782 0
846 -291 -782 0
-974 292 0
-974 846 0
974 -292 -846 0
-1102 -293 0
-1102 974 0
1102 293 -974 0
-1278 283 0
-1278 1214 0
1278 -283 -1214 0
-1406 284 0
-1406 1278 0
1406 -284 -1278 0
-1534 -285 0
-1534 1406 0
1534 285 -1406 0
-1710 275 0
-1710 1646 0
1710 -275 -1646 0
-1838 276 0
-1838 1710 0
1838 -276 -1710 0
-1966 -277 0
-1966 1838 0
1966 277 -1838 0
-2142 267 0
-2142 2078 0
2142 -267 -2078 0
-2270 268 0
-2270 2142 0
2270 -268 -2142 0
-2398 -269 0
-2398 2270 0
2398 269 -2270 0
-2574 259 0
-2574 2510 0
2574 -259 -2510 0
-2702 260 0
-2702 2574 0
2702 -260 -2574 0
-2830 -261 0
-2830 2702 0
2830 261 -2702 0
-3006 251 0
-3006 2942 0
3006 -251 -2942 0
-3134 252 0
-3134 3006 0
3134 -252 -3006 0
-3262 -253 0
-3262 3134 0
3262 253 -3134 0
-3438 243 0
-3438 3374 0
3438 -243 -3374 0
-3566 244 0
-3566 3438 0
3566 -244 -3438 0
-3694 -245 0
-3694 3566 0
3694 245 -3566 0
-3870 235 0
-3870 3806 0
3870 -235 -3806 0
-3998 236 0
-3998 3870 0
3998 -236 -3870 0
-4126 -237 0
-4126 3998 0
4126 237 -3998 0
-4302 227 0
-4302 4238 0
4302 -227 -4238 0
-4430 228 0
-4430 4302 0
4430 -228 -4302 0
-4558 -229 0
-4558 4430 0
4558 229 -4430 0
-4734 219 0
-4734 4670 0
4734 -219 -4670 0
-4862 220 0
-4862 4734 0
4862 -220 -4734 0
-4990 -221 0
-4990 4862 0
4990 221 -4862 0
-5166 211 0
-5166 5102 0
5166 -211 -5102 0
-5294 212 0
-5294 5166 0
5294 -212 -5166 0
-5422 -213 0
-5422 5294 0
5422 213 -5294 0
-5598 203 0
-5598 5534 0
5598 -203 -5534 0
-5726 204 0
-5726 5598 0
5726 -204 -5598 0
-5854 -205 0
-5854 5726 0
5854 205 -5726 0
-6030 195 0
-6030 5966 0
6030 -195 -5966 0
-6158 196 0
-6158 6030 0
6158 -196 -6030 0
-6286 -197 0
-6286 6158 0
6286 197 -6158 0
-6462 187 0
-6462 6398 0
6462 -187 -6398 0
-6590 188 0
-6590 6462 0
6590 -188 -6462 0
-6718 -189 0
-6718 6590 0
6718 189 -6590 0
-6898 -6286 0
-6898 -6718 0
6898 6286 6718 0
-7078 -5854 0
-7078 6898 0
7078 5854 -6898 0
-7258 -5422 0
-7258 7078 0
7258 5422 -7078 0
-7438 -4990 0
-7438 7258 0
7438 4990 -7258 0
-7618 -4558 0
-7618 7438 0
7618 4558 -7438 0
-7798 -4126 0
-7798 7618 0
7798 4126 -7618 0
-7978 -3694 0
-7978 7798 0
7978 3694 -7798 0
-8158 -3262 0
-8158 7978 0
8158 3262 -7978 0
-8338 -2830 0
-8338 8158 0
8338 2830 -8158 0
-8518 -2398 0
-8518 8338 0
8518 2398 -8338 0
-8698 -1966 0
-8698 8518 0
8698 1966 -8518 0
-8878 -1534 0
-8878 8698 0
8878 1534 -8698 0
-9058 -1102 0
-9058 8878 0
9058 1102 -8878 0
-9238 -670 0
-9238 9058 0
9238 670 -9058 0
-9650 118 0
-9650 9238 0
9650 -118 -9238 0
-9651 -118 0
-9651 -9238 0
9651 118 9238 0
-9652 -9650 0
-9652 -9651 0
9652 9650 9651 0
117 -39830 0
-117 39830 0
-541 300 0
-541 413 0
541 -300 -413 0
-669 -301 0
-669 541 0
669 301 -541 0
-973 292 0
-973 845 0
973 -292 -845 0
-1101 -293 0
-1101 973 0
1101 293 -973 0
-1405 284 0
-1405 1277 0
1405 -284 -1277 0
-1533 -285 0
-1533 1405 0
1533 285 -1405 0
-1837 276 0
-1837 1709 0
1837 -276 -1709 0
-1965 -277 0
-1965 1837 0
1965 277 -1837 0
-2269 268 0
-2269 2141 0
2269 -268 -2141 0
-2397 -269 0
-2397 2269 0
2397 269 -2269 0
-2701 260 0
-2701 2573 0
2701 -260 -2573 0
-2829 -261 0
-2829 2701 0
2829 261 -2701 0
-3133 252 0
-3133 3005 0
3133 -252 -3005 0
-3261 -253 0
-3261 3133 0
3261 253 -3133 0
-3565 244 0
-3565 3437 0
3565 -244 -3437 0
-3693 -245 0
-3693 3565 0
3693 245 -3565 0
-3997 236 0
-3997 3869 0
3997 -236 -3869 0
-4125 -237 0
-4125 3997 0
4125 237 -3997 0
-4429 228 0
-4429 4301 0
4429 -228 -4301 0
-4557 -229 0
-4557 4429 0
4557 229 -4429 0
-4861 220 0
-4861 4733 0
4861 -220 -4733 0
-4989 -221 0
-4989 4861 0
4989 221 -4861 0
-5293 212 0
-5293 5165 0
5293 -212 -5165 0
-5421 -213 0
-5421 5293 0
5421 213 -5293 0
-5725 204 0
-5725 5597 0
5725 -204 -5597 0
-5853 -205 0
-5853 5725 0
5853 205 -5725 0
-6157 196 0
-6157 6029 0
6157 -196 -6029 0
-6285 -197 0
-6285 6157 0
6285 197 -6157 0
-6589 188 0
-6589 6461 0
6589 -188 -6461 0
-6717 -189 0
-6717 6589 0
6717 189 -6589 0
-6897 -6285 0
-6897 -6717 0
6897 6285 6717 0
-7077 -5853 0
-7077 6897 0
7077 5853 -6897 0
-7257 -5421 0
-7257 7077 0
7257 5421 -7077 0
-7437 -4989 0
-7437 7257 0
7437 4989 -7257 0
-7617 -4557 0
-7617 7437 0
7617 4557 -7437 0
-7797 -4125 0
-7797 7617 0
7797 4125 -7617 0
-7977 -3693 0
-7977 7797 0
7977 3693 -7797 0
-8157 -3261 0
-8157 7977 0
8157 3261 -7977 0
-8337 -2829 0
-8337 8157 0
8337 2829 -8157 0
-8517 -2397 0
-8517 8337 0
8517 2397 -8337 0
-8697 -1965 0
-8697 8517 0
8697 1965 -8517 0
-8877 -1533 0
-8877 8697 0
8877 1533 -8697 0
-9057 -1101 0
-9057 8877 0
9057 1101 -8877 0
-9237 -669 0
-9237 9057 0
9237 669 -9057 0
-9647 117 0
-9647 9237 0
9647 -117 -9237 0
-9648 -117 0
-9648 -9237 0
9648 117 9237 0
-9649 -9647 0
-9649 -9648 0
9649 9647 9648 0
116 -39829 0
-116 39829 0
-540 300 0
-540 412 0
540 -300 -412 0
-668 -301 0
-668 540 0
668 301 -540 0
-972 292 0
-972 844 0
972 -292 -844 0
-1100 -293 0
-1100 972 0
1100 293 -972 0
-1404 284 0
-1404 1276 0
1404 -284 -1276 0
-1532 -285 0
-1532 1404 0
1532 285 -1404 0
-1836 276 0
-1836 1708 0
1836 -276 -1708 0
-1964 -277 0
-1964 1836 0
1964 277 -1836 0
-2268 268 0
-2268 2140 0
2268 -268 -2140 0
-2396 -269 0
-2396 2268 0
2396 269 -2268 0
-2700 260 0
-2700 2572 0
2700 -260 -2572 0
-2828 -261 0
-2828 2700 0
2828 261 -2700 0
-3132 252 0
-3132 3004 0
3132 -252 -3004 0
-3260 -253 0
-3260 3132 0
3260 253 -3132 0
-3564 244 0
-3564 3436 0
3564 -244 -3436 0
-3692 -245 0
-3692 3564 0
3692 245 -3564 0
-3996 236 0
-3996 3868 0
3996 -236 -3868 0
-4124 -237 0
-4124 3996 0
4124 237 -3996 0
-4428 228 0
-4428 4300 0
4428 -228 -4300 0
-4556 -229 0
-4556 4428 0
4556 229 -4428 0
-4860 220 0
-4860 4732 0
4860 -220 -4732 0
-4988 -221 0
-4988 4860 0
4988 221 -4860 0
-5292 212 0
-5292 5164 0
5292 -212 -5164 0
-5420 -213 0
-5420 5292 0
5420 213 -5292 0
-5724 204 0
-5724 5596 0
5724 -204 -5596 0
-5852 -205 0
-5852 5724 0
5852 205 -5724 0
-6156 196 0
-6156 6028 0
6156 -196 -6028 0
-6284 -197 0
-6284 6156 0
6284 197 -6156 0
-6588 188 0
-6588 6460 0
6588 -188 -6460 0
-6716 -189 0
-6716 6588 0
6716 189 -6588 0
-6896 -6284 0
-6896 -6716 0
6896 6284 6716 0
-7076 -5852 0
-7076 6896 0
7076 5852 -6896 0
-7256 -5420 0
-7256 7076 0
7256 5420 -7076 0
-7436 -4988 0
-7436 7256 0
7436 4988 -7256 0
-7616 -4556 0
-7616 7436 0
7616 4556 -7436 0
-7796 -4124 0
-7796 7616 0
7796 4124 -7616 0
-7976 -3692 0
-7976 7796 0
7976 3692 -7796 0
-8156 -3260 0
-8156 7976 0
8156 3260 -7976 0
-8336 -2828 0
-8336 8156 0
8336 2828 -8156 0
-8516 -2396 0
-8516 8336 0
8516 2396 -8336 0
-8696 -1964 0
-8696 8516 0
8696 1964 -8516 0
-8876 -1532 0
-8876 8696 0
8876 1532 -8696 0
-9056 -1100 0
-9056 8876 0
9056 1100 -8876 0
-9236 -668 0
-9236 9056 0
9236 668 -9056 0
-9644 116 0
-9644 9236 0
9644 -116 -9236 0
-9645 -116 0
-9645 -9236 0
9645 116 9236 0
-9646 -9644 0
-9646 -9645 0
9646 9644 9645 0
115 -39828 0
-115 39828 0
-539 300 0
-539 411 0
539 -300 -411 0
-667 -301 0
-667 539 0
667 301 -539 0
-971 292 0
-971 843 0
971 -292 -843 0
-1099 -293 0
-1099 971 0
1099 293 -971 0
-1403 284 0
-1403 1275 0
1403 -284 -1275 0
-1531 -285 0
-1531 1403 0
1531 285 -1403 0
-1835 276 0
-1835 1707 0
1835 -276 -1707 0
-1963 -277 0
-1963 1835 0
1963 277 -1835 0
-2267 268 0
-2267 2139 0
2267 -268 -2139 0
-2395 -269 0
-2395 2267 0
2395 269 -2267 0
-2699 260 0
-2699 2571 0
2699 -260 -2571 0
-2827 -261 0
-2827 2699 0
2827 261 -2699 0
-3131 252 0
-3131 3003 0
3131 -252 -3003 0
-3259 -253 0
-3259 3131 0
3259 253 -3131 0
-3563 244 0
-3563 3435 0
3563 -244 -3435 0
-3691 -245 0
-3691 3563 0
3691 245 -3563 0
-3995 236 0
-3995 3867 0
3995 -236 -3867 0
-4123 -237 0
-4123 3995 0
4123 237 -3995 0
-4427 228 0
-4427 4299 0
4427 -228 -4299 0
-4555 -229 0
-4555 4427 0
4555 229 -4427 0
-4859 220 0
-4859 4731 0
4859 -220 -4731 0
-4987 -221 0
-4987 4859 0
4987 221 -4859 0
-5291 212 0
-5291 5163 0
5291 -212 -5163 0
-5419 -213 0
-5419 5291 0
5419 213 -5291 0
-5723 204 0
-5723 5595 0
5723 -204 -5595 0
-5851 -205 0
-5851 5723 0
5851 205 -5723 0
-6155 196 0
-6155 6027 0
6155 -196 -6027 0
-6283 -197 0
-6283 6155 0
6283 197 -6155 0
-6587 188 0
-6587 6459 0
6587 -188 -6459 0
-6715 -189 0
-6715 6587 0
6715 189 -6587 0
-6895 -6283 0
-6895 -6715 0
6895 6283 6715 0
-7075 -5851 0
-7075 6895 0
7075 5851 -6895 0
-7255 -5419 0
-7255 7075 0
7255 5419 -7075 0
-7435 -4987 0
-7435 7255 0
7435 4987 -7255 0
-7615 -4555 0
-7615 7435 0
7615 4555 -7435 0
-7795 -4123 0
-7795 7615 0
7795 4123 -7615 0
-7975 -3691 0
-7975 7795 0
7975 3691 -7795 0
-8155 -3259 0
-8155 7975 0
8155 3259 -7975 0
-8335 -2827 0
-8335 8155 0
8335 2827 -8155 0
-8515 -2395 0
-8515 8335 0
8515 2395 -8335 0
-8695 -1963 0
-8695 8515 0
8695 1963 -8515 0
-8875 -1531 0
-8875 8695 0
8875 1531 -8695 0
-9055 -1099 0
-9055 8875 0
9055 1099 -8875 0
-9235 -667 0
-9235 9055 0
9235 667 -9055 0
-9641 115 0
-9641 9235 0
9641 -115 -9235 0
-9642 -115 0
-9642 -9235 0
9642 115 9235 0
-9643 -9641 0
-9643 -9642 0
9643 9641 9642 0
114 -39827 0
-114 39827 0
-538 300 0
-538 410 0
538 -300 -410 0
-666 -301 0
-666 538 0
666 301 -538 0
-970 292 0
-970 842 0
970 -292 -842 0
-1098 -293 0
-1098 970 0
1098 293 -970 0
-1402 284 0
-1402 1274 0
1402 -284 -1274 0
-1530 -285 0
-1530 1402 0
1530 285 -1402 0
-1834 276 0
-1834 1706 0
1834 -276 -1706 0
-1962 -277 0
-1962 1834 0
1962 277 -1834 0
-2266 268 0
-2266 2138 0
2266 -268 -2138 0
-2394 -269 0
-2394 2266 0
2394 269 -2266 0
-2698 260 0
-2698 2570 0
2698 -260 -2570 0
-2826 -261 0
-2826 2698 0
2826 261 -2698 0
-3130 252 0
-3130 3002 0
3130 -252 -3002 0
-3258 -253 0
-3258 3130 0
3258 253 -3130 0
-3562 244 0
-3562 3434 0
3562 -244 -3434 0
-3690 -245 0
-3690 3562 0
3690 245 -3562 0
-3994 236 0
-3994 3866 0
3994 -236 -3866 0
-4122 -237 0
-4122 3994 0
4122 237 -3994 0
-4426 228 0
-4426 4298 0
4426 -228 -4298 0
-4554 -229 0
-4554 4426 0
4554 229 -4426 0
-4858 220 0
-4858 4730 0
4858 -220 -4730 0
-4986 -221 0
-4986 4858 0
4986 221 -4858 0
-5290 212 0
-5290 5162 0
5290 -212 -5162 0
-5418 -213 0
-5418 5290 0
5418 213 -5290 0
-5722 204 0
-5722 5594 0
5722 -204 -5594 0
-5850 -205 0
-5850 5722 0
5850 205 -5722 0
-6154 196 0
-6154 6026 0
6154 -196 -6026 0
-6282 -197 0
-6282 6154 0
6282 197 -6154 0
-6586 188 0
-6586 6458 0
6586 -188 -6458 0
-6714 -189 0
-6714 6586 0
6714 189 -6586 0
-6894 -6282 0
-6894 -6714 0
6894 6282 6714 0
-7074 -5850 0
-7074 6894 0
7074 5850 -6894 0
-7254 -5418 0
-7254 7074 0
7254 5418 -7074 0
-7434 -4986 0
-7434 7254 0
7434 4986 -7254 0
-7614 -4554 0
-7614 7434 0
7614 4554 -7434 0
-7794 -4122 0
-7794 7614 0
7794 4122 -7614 0
-7974 -3690 0
-7974 7794 0
7974 3690 -7794 0
-8154 -3258 0
-8154 7974 0
8154 3258 -7974 0
-8334 -2826 0
-8334 8154 0
8334 2826 -8154 0
-8514 -2394 0
-8514 8334 0
8514 2394 -8334 0
-8694 -1962 0
-8694 8514 0
8694 1962 -8514 0
-8874 -1530 0
-8874 8694 0
8874 1530 -8694 0
-9054 -1098 0
-9054 8874 0
9054 1098 -8874 0
-9234 -666 0
-9234 9054 0
9234 666 -9054 0
-9638 114 0
-9638 9234 0
9638 -114 -9234 0
-9639 -114 0
-9639 -9234 0
9639 114 9234 0
-9640 -9638 0
-9640 -9639 0
9640 9638 9639 0
113 -39826 0
-113 39826 0
-537 300 0
-537 409 0
537 -300 -409 0
-665 -301 0
-665 537 0
665 301 -537 0
-969 292 0
-969 841 0
969 -292 -841 0
-1097 -293 0
-1097 969 0
1097 293 -969 0
-1401 284 0
-1401 1273 0
1401 -284 -1273 0
-1529 -285 0
-1529 1401 0
1529 285 -1401 0
-1833 276 0
-1833 1705 0
1833 -276 -1705 0
-1961 -277 0
-1961 1833 0
1961 277 -1833 0
-2265 268 0
-2265 2137 0
2265 -268 -2137 0
-2393 -269 0
-2393 2265 0
2393 269 -2265 0
-2697 260 0
-2697 2569 0
2697 -260 -2569 0
-2825 -261 0
-2825 2697 0
2825 261 -2697 0
-3129 252 0
-3129 3001 0
3129 -252 -3001 0
-3257 -253 0
-3257 3129 0
3257 253 -3129 0
-3561 244 0
-3561 3433 0
3561 -244 -3433 0
-3689 -245 0
-3689 3561 0
3689 245 -3561 0
-3993 236 0
-3993 3865 0
3993 -236 -3865 0
-4121 -237 0
-4121 3993 0
4121 237 -3993 0
-4425 228 0
-4425 4297 0
4425 -228 -4297 0
-4553 -229 0
-4553 4425 0
4553 229 -4425 0
-4857 220 0
-4857 4729 0
4857 -220 -4729 0
-4985 -221 0
-4985 4857 0
4985 221 -4857 0
-5289 212 0
-5289 5161 0
5289 -212 -5161 0
-5417 -213 0
-5417 5289 0
5417 213 -5289 0
-5721 204 0
-5721 5593 0
5721 -204 -5593 0
-5849 -205 0
-5849 5721 0
5849 205 -5721 0
-6153 196 0
-6153 6025 0
6153 -196 -6025 0
-6281 -197 0
-6281 6153 0
6281 197 -6153 0
-6585 188 0
-6585 6457 0
6585 -188 -6457 0
-6713 -189 0
-6713 6585 0
6713 189 -6585 0
-6893 -6281 0
-6893 -6713 0
6893 6281 6713 0
-7073 -5849 0
-7073 6893 0
7073 5849 -6893 0
-7253 -5417 0
-7253 7073 0
7253 5417 -7073 0
-7433 -4985 0
-7433 7253 0
7433 4985 -7253 0
-7613 -4553 0
-7613 7433 0
7613 4553 -7433 0
-7793 -4121 0
-7793 7613 0
7793 4121 -7613 0
-7973 -3689 0
-7973 7793 0
7973 3689 -7793 0
-8153 -3257 0
-8153 7973 0
8153 3257 -7973 0
-8333 -2825 0
-8333 8153 0
8333 2825 -8153 0
-8513 -2393 0
-8513 8333 0
8513 2393 -8333 0
-8693 -1961 0
-8693 8513 0
8693 1961 -8513 0
-8873 -1529 0
-8873 8693 0
8873 1529 -8693 0
-9053 -1097 0
-9053 8873 0
9053 1097 -8873 0
-9233 -665 0
-9233 9053 0
9233 665 -9053 0
-9635 113 0
-9635 9233 0
9635 -113 -9233 0
-9636 -113 0
-9636 -9233 0
9636 113 9233 0
-9637 -9635 0
-9637 -9636 0
9637 9635 9636 0
112 -39825 0
-112 39825 0
-536 300 0
-536 408 0
536 -300 -408 0
-664 -301 0
-664 536 0
664 301 -536 0
-968 292 0
-968 840 0
968 -292 -840 0
-1096 -293 0
-1096 968 0
1096 293 -968 0
-1400 284 0
-1400 1272 0
1400 -284 -1272 0
-1528 -285 0
-1528 1400 0
1528 285 -1400 0
-1832 276 0
-1832 1704 0
1832 -276 -1704 0
-1960 -277 0
-1960 1832 0
1960 277 -1832 0
-2264 268 0
-2264 2136 0
2264 -268 -2136 0
-2392 -269 0
-2392 2264 0
2392 269 -2264 0
-2696 260 0
-2696 2568 0
2696 -260 -2568 0
-2824 -261 0
-2824 2696 0
2824 261 -2696 0
-3128 252 0
-3128 3000 0
3128 -252 -3000 0
-3256 -253 0
-3256 3128 0
3256 253 -3128 0
-3560 244 0
-3560 3432 0
3560 -244 -3432 0
-3688 -245 0
-3688 3560 0
3688 245 -3560 0
-3992 236 0
-3992 3864 0
3992 -236 -3864 0
-4120 -237 0
-4120 3992 0
4120 237 -3992 0
-4424 228 0
-4424 4296 0
4424 -228 -4296 0
-4552 -229 0
-4552 4424 0
4552 229 -4424 0
-4856 220 0
-4856 4728 0
4856 -220 -4728 0
-4984 -221 0
-4984 4856 0
4984 221 -4856 0
-5288 212 0
-5288 5160 0
5288 -212 -5160 0
-5416 -213 0
-5416 5288 0
5416 213 -5288 0
-5720 204 0
-5720 5592 0
5720 -204 -5592 0
-5848 -205 0
-5848 5720 0
5848 205 -5720 0
-6152 196 0
-6152 6024 0
6152 -196 -6024 0
-6280 -197 0
-6280 6152 0
6280 197 -6152 0
-6584 188 0
-6584 6456 0
6584 -188 -6456 0
-6712 -189 0
-6712 6584 0
6712 189 -6584 0
-6892 -6280 0
-6892 -6712 0
6892 6280 6712 0
-7072 -5848 0
-7072 6892 0
7072 5848 -6892 0
-7252 -5416 0
-7252 7072 0
7252 5416 -7072 0
-7432 -4984 0
-7432 7252 0
7432 4984 -7252 0
-7612 -4552 0
-7612 7432 0
7612 4552 -7432 0
-7792 -4120 0
-7792 7612 0
7792 4120 -7612 0
-7972 -3688 0
-7972 7792 0
7972 3688 -7792 0
-8152 -3256 0
-8152 7972 0
8152 3256 -7972 0
-8332 -2824 0
-8332 8152 0
8332 2824 -8152 0
-8512 -2392 0
-8512 8332 0
8512 2392 -8332 0
-8692 -1960 0
-8692 8512 0
8692 1960 -8512 0
-8872 -1528 0
-8872 8692 0
8872 1528 -8692 0
-9052 -1096 0
-9052 8872 0
9052 1096 -8872 0
-9232 -664 0
-9232 9052 0
9232 664 -9052 0
-9632 112 0
-9632 9232 0
9632 -112 -9232 0
-9633 -112 0
-9633 -9232 0
9633 112 9232 0
-9634 -9632 0
-9634 -9633 0
9634 9632 9633 0
111 -39824 0
-111 39824 0
-535 300 0
-535 407 0
535 -300 -407 0
-663 -301 0
-663 535 0
663 301 -535 0
-967 292 0
-967 839 0
967 -292 -839 0
-1095 -293 0
-1095 967 0
1095 293 -967 0
-1399 284 0
-1399 1271 0
1399 -284 -1271 0
-1527 -285 0
-1527 1399 0
1527 285 -1399 0
-1831 276 0
-1831 1703 0
1831 -276 -1703 0
-1959 -277 0
-1959 1831 0
1959 277 -1831 0
-2263 268 0
-2263 2135 0
2263 -268 -2135 0
-2391 -269 0
-2391 2263 0
2391 269 -2263 0
-2695 260 0
-2695 2567 0
2695 -260 -2567 0
-2823 -261 0
-2823 2695 0
2823 261 -2695 0
-3127 252 0
-3127 2999 0
3127 -252 -2999 0
-3255 -253 0
-3255 3127 0
3255 253 -3127 0
-3559 244 0
-3559 3431 0
3559 -244 -3431 0
-3687 -245 0
-3687 3559 0
3687 245 -3559 0
-3991 236 0
-3991 3863 0
3991 -236 -3863 0
-4119 -237 0
-4119 3991 0
4119 237 -3991 0
-4423 228 0
-4423 4295 0
4423 -228 -4295 0
-4551 -229 0
-4551 4423 0
4551 229 -4423 0
-4855 220 0
-4855 4727 0
4855 -220 -4727 0
-4983 -221 0
-4983 4855 0
4983 221 -4855 0
-5287 212 0
-5287 5159 0
5287 -212 -5159 0
-5415 -213 0
-5415 5287 0
5415 213 -5287 0
-5719 204 0
-5719 5591 0
5719 -204 -5591 0
-5847 -205 0
-5847 5719 0
5847 205 -5719 0
-6151 196 0
-6151 6023 0
6151 -196 -6023 0
-6279 -197 0
-6279 6151 0
6279 197 -6151 0
-6583 188 0
-6583 6455 0
6583 -188 -6455 0
-6711 -189 0
-6711 6583 0
6711 189 -6583 0
-6891 -6279 0
-6891 -6711 0
6891 6279 6711 0
-7071 -5847 0
-7071 6891 0
7071 5847 -6891 0
-7251 -5415 0
-7251 7071 0
7251 5415 -7071 0
-7431 -4983 0
-7431 7251 0
7431 4983 -7251 0
-7611 -4551 0
-7611 7431 0
7611 4551 -7431 0
-7791 -4119 0
-7791 7611 0
7791 4119 -7611 0
-7971 -3687 0
-7971 7791 0
7971 3687 -7791 0
-8151 -3255 0
-8151 7971 0
8151 3255 -7971 0
-8331 -2823 0
-8331 8151 0
8331 2823 -8151 0
-8511 -2391 0
-8511 8331 0
8511 2391 -8331 0
-8691 -1959 0
-8691 8511 0
8691 1959 -8511 0
-8871 -1527 0
-8871 8691 0
8871 1527 -8691 0
-9051 -1095 0
-9051 8871 0
9051 1095 -8871 0
-9231 -663 0
-9231 9051 0
9231 663 -9051 0
-9629 111 0
-9629 9231 0
9629 -111 -9231 0
-9630 -111 0
-9630 -9231 0
9630 111 9231 0
-9631 -9629 0
-9631 -9630 0
9631 9629 9630 0
110 -39823 0
-110 39823 0
-534 300 0
-534 406 0
534 -300 -406 0
-662 -301 0
-662 534 0
662 301 -534 0
-966 292 0
-966 838 0
966 -292 -838 0
-1094 -293 0
-1094 966 0
1094 293 -966 0
-1398 284 0
-1398 1270 0
1398 -284 -1270 0
-1526 -285 0
-1526 1398 0
1526 285 -1398 0
-1830 276 0
-1830 1702 0
1830 -276 -1702 0
-1958 -277 0
-1958 1830 0
1958 277 -1830 0
-2262 268 0
-2262 2134 0
2262 -268 -2134 0
-2390 -269 0
-2390 2262 0
2390 269 -2262 0
-2694 260 0
-2694 2566 0
2694 -260 -2566 0
-2822 -261 0
-2822 2694 0
2822 261 -2694 0
-3126 252 0
-3126 2998 0
3126 -252 -2998 0
-3254 -253 0
-3254 3126 0
3254 253 -3126 0
-3558 244 0
-3558 3430 0
3558 -244 -3430 0
-3686 -245 0
-3686 3558 0
3686 245 -3558 0
-3990 236 0
-3990 3862 0
3990 -236 -3862 0
-4118 -237 0
-4118 3990 0
4118 237 -3990 0
-4422 228 0
-4422 4294 0
4422 -228 -4294 0
-4550 -229 0
-4550 4422 0
4550 229 -4422 0
-4854 220 0
-4854 4726 0
4854 -220 -4726 0
-4982 -221 0
-4982 4854 0
4982 221 -4854 0
-5286 212 0
-5286 5158 0
5286 -212 -5158 0
-5414 -213 0
-5414 5286 0
5414 213 -5286 0
-5718 204 0
-5718 5590 0
5718 -204 -5590 0
-5846 -205 0
-5846 5718 0
5846 205 -5718 0
-6150 196 0
-6150 6022 0
6150 -196 -6022 0
-6278 -197 0
-6278 6150 0
6278 197 -6150 0
-6582 188 0
-6582 6454 0
6582 -188 -6454 0
-6710 -189 0
-6710 6582 0
6710 189 -6582 0
-6890 -6278 0
-6890 -6710 0
6890 6278 6710 0
-7070 -5846 0
-7070 6890 0
7070 5846 -6890 0
-7250 -5414 0
-7250 7070 0
7250 5414 -7070 0
-7430 -4982 0
-7430 7250 0
7430 4982 -7250 0
-7610 -4550 0
-7610 7430 0
7610 4550 -7430 0
-7790 -4118 0
-7790 7610 0
7790 4118 -7610 0
-7970 -3686 0
-7970 7790 0
7970 3686 -7790 0
-8150 -3254 0
-8150 7970 0
8150 3254 -7970 0
-8330 -2822 0
-8330 8150 0
8330 2822 -8150 0
-8510 -2390 0
-8510 8330 0
8510 2390 -8330 0
-8690 -1958 0
-8690 8510 0
8690 1958 -8510 0
-8870 -1526 0
-8870 8690 0
8870 1526 -8690 0
-9050 -1094 0
-9050 8870 0
9050 1094 -8870 0
-9230 -662 0
-9230 9050 0
9230 662 -9050 0
-9626 110 0
-9626 9230 0
9626 -110 -9230 0
-9627 -110 0
-9627 -9230 0
9627 110 9230 0
-9628 -9626 0
-9628 -9627 0
9628 9626 9627 0
109 -39822 0
-109 39822 0
-533 300 0
-533 405 0
533 -300 -405 0
-661 -301 0
-661 533 0
661 301 -533 0
-965 292 0
-965 837 0
965 -292 -837 0
-1093 -293 0
-1093 965 0
1093 293 -965 0
-1397 284 0
-1397 1269 0
1397 -284 -1269 0
-1525 -285 0
-1525 1397 0
1525 285 -1397 0
-1829 276 0
-1829 1701 0
1829 -276 -1701 0
-1957 -277 0
-1957 1829 0
1957 277 -1829 0
-2261 268 0
-2261 2133 0
2261 -268 -2133 0
-2389 -269 0
-2389 2261 0
2389 269 -2261 0
-2693 260 0
-2693 2565 0
2693 -260 -2565 0
-2821 -261 0
-2821 2693 0
2821 261 -2693 0
-3125 252 0
-3125 2997 0
3125 -252 -2997 0
-3253 -253 0
-3253 3125 0
3253 253 -3125 0
-3557 244 0
-3557 3429 0
3557 -244 -3429 0
-3685 -245 0
-3685 3557 0
3685 245 -3557 0
-3989 236 0
-3989 3861 0
3989 -236 -3861 0
-4117 -237 0
-4117 3989 0
4117 237 -3989 0
-4421 228 0
-4421 4293 0
4421 -228 -4293 0
-4549 -229 0
-4549 4421 0
4549 229 -4421 0
-4853 220 0
-4853 4725 0
4853 -220 -4725 0
-4981 -221 0
-4981 4853 0
4981 221 -4853 0
-5285 212 0
-5285 5157 0
5285 -212 -5157 0
-5413 -213 0
-5413 5285 0
5413 213 -5285 0
-5717 204 0
-5717 5589 0
5717 -204 -5589 0
-5845 -205 0
-5845 5717 0
5845 205 -5717 0
-6149 196 0
-6149 6021 0
6149 -196 -6021 0
-6277 -197 0
-6277 6149 0
6277 197 -6149 0
-6581 188 0
-6581 6453 0
6581 -188 -6453 0
-6709 -189 0
-6709 6581 0
6709 189 -6581 0
-6889 -6277 0
-6889 -6709 0
6889 6277 6709 0
-7069 -5845 0
-7069 6889 0
7069 5845 -6889 0
-7249 -5413 0
-7249 7069 0
7249 5413 -7069 0
-7429 -4981 0
-7429 7249 0
7429 4981 -7249 0
-7609 -4549 0
-7609 7429 0
7609 4549 -7429 0
-7789 -4117 0
-7789 7609 0
7789 4117 -7609 0
-7969 -3685 0
-7969 7789 0
7969 3685 -7789 0
-8149 -3253 0
-8149 7969 0
8149 3253 -7969 0
-8329 -2821 0
-8329 8149 0
8329 2821 -8149 0
-8509 -2389 0
-8509 8329 0
8509 2389 -8329 0
-8689 -1957 0
-8689 8509 0
8689 1957 -8509 0
-8869 -1525 0
-8869 8689 0
8869 1525 -8689 0
-9049 -1093 0
-9049 8869 0
9049 1093 -8869 0
-9229 -661 0
-9229 9049 0
9229 661 -9049 0
-9623 109 0
-9623 9229 0
9623 -109 -9229 0
-9624 -109 0
-9624 -9229 0
9624 109 9229 0
-9625 -9623 0
-9625 -9624 0
9625 9623 9624 0
108 -39821 0
-108 39821 0
-532 300 0
-532 404 0
532 -300 -404 0
-660 -301 0
-660 532 0
660 301 -532 0
-964 292 0
-964 836 0
964 -292 -836 0
-1092 -293 0
-1092 964 0
1092 293 -964 0
-1396 284 0
-1396 1268 0
1396 -284 -1268 0
-1524 -285 0
-1524 1396 0
1524 285 -1396 0
-1828 276 0
-1828 1700 0
1828 -276 -1700 0
-1956 -277 0
-1956 1828 0
1956 277 -1828 0
-2260 268 0
-2260 2132 0
2260 -268 -2132 0
-2388 -269 0
-2388 2260 0
2388 269 -2260 0
-2692 260 0
-2692 2564 0
2692 -260 -2564 0
-2820 -261 0
-2820 2692 0
2820 261 -2692 0
-3124 252 0
-3124 2996 0
3124 -252 -2996 0
-3252 -253 0
-3252 3124 0
3252 253 -3124 0
-3556 244 0
-3556 3428 0
3556 -244 -3428 0
-3684 -245 0
-3684 3556 0
3684 245 -3556 0
-3988 236 0
-3988 3860 0
3988 -236 -3860 0
-4116 -237 0
-4116 3988 0
4116 237 -3988 0
-4420 228 0
-4420 4292 0
4420 -228 -4292 0
-4548 -229 0
-4548 4420 0
4548 229 -4420 0
-4852 220 0
-4852 4724 0
4852 -220 -4724 0
-4980 -221 0
-4980 4852 0
4980 221 -4852 0
-5284 212 0
-5284 5156 0
5284 -212 -5156 0
-5412 -213 0
-5412 5284 0
5412 213 -5284 0
-5716 204 0
-5716 5588 0
5716 -204 -5588 0
-5844 -205 0
-5844 5716 0
5844 205 -5716 0
-6148 196 0
-6148 6020 0
6148 -196 -6020 0
-6276 -197 0
-6276 6148 0
6276 197 -6148 0
-6580 188 0
-6580 6452 0
6580 -188 -6452 0
-6708 -189 0
-6708 6580 0
6708 189 -6580 0
-6888 -6276 0
-6888 -6708 0
6888 6276 6708 0
-7068 -5844 0
-7068 6888 0
7068 5844 -6888 0
-7248 -5412 0
-7248 7068 0
7248 5412 -7068 0
-7428 -4980 0
-7428 7248 0
7428 4980 -7248 0
-7608 -4548 0
-7608 7428 0
7608 4548 -7428 0
-7788 -4116 0
-7788 7608 0
7788 4116 -7608 0
-7968 -3684 0
-7968 7788 0
7968 3684 -7788 0
-8148 -3252 0
-8148 7968 0
8148 3252 -7968 0
-8328 -2820 0
-8328 8148 0
8328 2820 -8148 0
-8508 -2388 0
-8508 8328 0
8508 2388 -8328 0
-8688 -1956 0
-8688 8508 0
8688 1956 -8508 0
-8868 -1524 0
-8868 8688 0
8868 1524 -8688 0
-9048 -1092 0
-9048 8868 0
9048 1092 -8868 0
-9228 -660 0
-9228 9048 0
9228 660 -9048 0
-9620 108 0
-9620 9228 0
9620 -108 -9228 0
-9621 -108 0
-9621 -9228 0
9621 108 9228 0
-9622 -9620 0
-9622 -9621 0
9622 9620 9621 0
107 -39820 0
-107 39820 0
-531 300 0
-531 403 0
531 -300 -403 0
-659 -301 0
-659 531 0
659 301 -531 0
-963 292 0
-963 835 0
963 -292 -835 0
-1091 -293 0
-1091 963 0
1091 293 -963 0
-1395 284 0
-1395 1267 0
1395 -284 -1267 0
-1523 -285 0
-1523 1395 0
1523 285 -1395 0
-1827 276 0
-1827 1699 0
1827 -276 -1699 0
-1955 -277 0
-1955 1827 0
1955 277 -1827 0
-2259 268 0
-2259 2131 0
2259 -268 -2131 0
-2387 -269 0
-2387 2259 0
2387 269 -2259 0
-2691 260 0
-2691 2563 0
2691 -260 -2563 0
-2819 -261 0
-2819 2691 0
2819 261 -2691 0
-3123 252 0
-3123 2995 0
3123 -252 -2995 0
-3251 -253 0
-3251 3123 0
3251 253 -3123 0
-3555 244 0
-3555 3427 0
3555 -244 -3427 0
-3683 -245 0
-3683 3555 0
3683 245 -3555 0
-3987 236 0
-3987 3859 0
3987 -236 -3859 0
-4115 -237 0
-4115 3987 0
4115 237 -3987 0
-4419 228 0
-4419 4291 0
4419 -228 -4291 0
-4547 -229 0
-4547 4419 0
4547 229 -4419 0
-4851 220 0
-4851 4723 0
4851 -220 -4723 0
-4979 -221 0
-4979 4851 0
4979 221 -4851 0
-5283 212 0
-5283 5155 0
5283 -212 -5155 0
-5411 -213 0
-5411 5283 0
5411 213 -5283 0
-5715 204 0
-5715 5587 0
5715 -204 -5587 0
-5843 -205 0
-5843 5715 0
5843 205 -5715 0
-6147 196 0
-6147 6019 0
6147 -196 -6019 0
-6275 -197 0
-6275 6147 0
6275 197 -6147 0
-6579 188 0
-6579 6451 0
6579 -188 -6451 0
-6707 -189 0
-6707 6579 0
6707 189 -6579 0
-6887 -6275 0
-6887 -6707 0
6887 6275 6707 0
-7067 -5843 0
-7067 6887 0
7067 5843 -6887 0
-7247 -5411 0
-7247 7067 0
7247 5411 -7067 0
-7427 -4979 0
-7427 7247 0
7427 4979 -7247 0
-7607 -4547 0
-7607 7427 0
7607 4547 -7427 0
-7787 -4115 0
-7787 7607 0
7787 4115 -7607 0
-7967 -3683 0
-7967 7787 0
7967 3683 -7787 0
-8147 -3251 0
-8147 7967 0
8147 3251 -7967 0
-8327 -2819 0
-8327 8147 0
8327 2819 -8147 0
-8507 -2387 0
-8507 8327 0
8507 2387 -8327 0
-8687 -1955 0
-8687 8507 0
8687 1955 -8507 0
-8867 -1523 0
-8867 8687 0
8867 1523 -8687 0
-9047 -1091 0
-9047 8867 0
9047 1091 -8867 0
-9227 -659 0
-9227 9047 0
9227 659 -9047 0
-9617 107 0
-9617 9227 0
9617 -107 -9227 0
-9618 -107 0
-9618 -9227 0
9618 107 9227 0
-9619 -9617 0
-9619 -9618 0
9619 9617 9618 0
106 -39819 0
-106 39819 0
-530 300 0
-530 402 0
530 -300 -402 0
-658 -301 0
-658 530 0
658 301 -530 0
-962 292 0
-962 834 0
962 -292 -834 0
-1090 -293 0
-1090 962 0
1090 293 -962 0
-1394 284 0
-1394 1266 0
1394 -284 -1266 0
-1522 -285 0
-1522 1394 0
1522 285 -1394 0
-1826 276 0
-1826 1698 0
1826 -276 -1698 0
-1954 -277 0
-1954 1826 0
1954 277 -1826 0
-2258 268 0
-2258 2130 0
2258 -268 -2130 0
-2386 -269 0
-2386 2258 0
2386 269 -2258 0
-2690 260 0
-2690 2562 0
2690 -260 -2562 0
-2818 -261 0
-2818 2690 0
2818 261 -2690 0
-3122 252 0
-3122 2994 0
3122 -252 -2994 0
-3250 -253 0
-3250 3122 0
3250 253 -3122 0
-3554 244 0
-3554 3426 0
3554 -244 -3426 0
-3682 -245 0
-3682 3554 0
3682 245 -3554 0
-3986 236 0
-3986 3858 0
3986 -236 -3858 0
-4114 -237 0
-4114 3986 0
4114 237 -3986 0
-4418 228 0
-4418 4290 0
4418 -228 -4290 0
-4546 -229 0
-4546 4418 0
4546 229 -4418 0
-4850 220 0
-4850 4722 0
4850 -220 -4722 0
-4978 -221 0
-4978 4850 0
4978 221 -4850 0
-5282 212 0
-5282 5154 0
5282 -212 -5154 0
-5410 -213 0
-5410 5282 0
5410 213 -5282 0
-5714 204 0
-5714 5586 0
5714 -204 -5586 0
-5842 -205 0
-5842 5714 0
5842 205 -5714 0
-6146 196 0
-6146 6018 0
6146 -196 -6018 0
-6274 -197 0
-6274 6146 0
6274 197 -6146 0
-6578 188 0
-6578 6450 0
6578 -188 -6450 0
-6706 -189 0
-6706 6578 0
6706 189 -6578 0
-6886 -6274 0
-6886 -6706 0
6886 6274 6706 0
-7066 -5842 0
-7066 6886 0
7066 5842 -6886 0
-7246 -5410 0
-7246 7066 0
7246 5410 -7066 0
-7426 -4978 0
-7426 7246 0
7426 4978 -7246 0
-7606 -4546 0
-7606 7426 0
7606 4546 -7426 0
-7786 -4114 0
-7786 7606 0
7786 4114 -7606 0
-7966 -3682 0
-7966 7786 0
7966 3682 -7786 0
-8146 -3250 0
-8146 7966 0
8146 3250 -7966 0
-8326 -2818 0
-8326 8146 0
8326 2818 -8146 0
-8506 -2386 0
-8506 8326 0
8506 2386 -8326 0
-8686 -1954 0
-8686 8506 0
8686 1954 -8506 0
-8866 -1522 0
-8866 8686 0
8866 1522 -8686 0
-9046 -1090 0
-9046 8866 0
9046 1090 -8866 0
-9226 -658 0
-9226 9046 0
9226 658 -9046 0
-9614 106 0
-9614 9226 0
9614 -106 -9226 0
-9615 -106 0
-9615 -9226 0
9615 106 9226 0
-9616 -9614 0
-9616 -9615 0
9616 9614 9615 0
105 -39818 0
-105 39818 0
-529 300 0
-529 401 0
529 -300 -401 0
-657 -301 0
-657 529 0
657 301 -529 0
-961 292 0
-961 833 0
961 -292 -833 0
-1089 -293 0
-1089 961 0
1089 293 -961 0
-1393 284 0
-1393 1265 0
1393 -284 -1265 0
-1521 -285 0
-1521 1393 0
1521 285 -1393 0
-1825 276 0
-1825 1697 0
1825 -276 -1697 0
-1953 -277 0
-1953 1825 0
1953 277 -1825 0
-2257 268 0
-2257 2129 0
2257 -268 -2129 0
-2385 -269 0
-2385 2257 0
2385 269 -2257 0
-2689 260 0
-2689 2561 0
2689 -260 -2561 0
-2817 -261 0
-2817 2689 0
2817 261 -2689 0
-3121 252 0
-3121 2993 0
3121 -252 -2993 0
-3249 -253 0
-3249 3121 0
3249 253 -3121 0
-3553 244 0
-3553 3425 0
3553 -244 -3425 0
-3681 -245 0
-3681 3553 0
3681 245 -3553 0
-3985 236 0
-3985 3857 0
3985 -236 -3857 0
-4113 -237 0
-4113 3985 0
4113 237 -3985 0
-4417 228 0
-4417 4289 0
4417 -228 -4289 0
-4545 -229 0
-4545 4417 0
4545 229 -4417 0
-4849 220 0
-4849 4721 0
4849 -220 -4721 0
-4977 -221 0
-4977 4849 0
4977 221 -4849 0
-5281 212 0
-5281 5153 0
5281 -212 -5153 0
-5409 -213 0
-5409 5281 0
5409 213 -5281 0
-5713 204 0
-5713 5585 0
5713 -204 -5585 0
-5841 -205 0
-5841 5713 0
5841 205 -5713 0
-6145 196 0
-6145 6017 0
6145 -196 -6017 0
-6273 -197 0
-6273 6145 0
6273 197 -6145 0
-6577 188 0
-6577 6449 0
6577 -188 -6449 0
-6705 -189 0
-6705 6577 0
6705 189 -6577 0
-6885 -6273 0
-6885 -6705 0
6885 6273 6705 0
-7065 -5841 0
-7065 6885 0
7065 5841 -6885 0
-7245 -5409 0
-7245 7065 0
7245 5409 -7065 0
-7425 -4977 0
-7425 7245 0
7425 4977 -7245 0
-7605 -4545 0
-7605 7425 0
7605 4545 -7425 0
-7785 -4113 0
-7785 7605 0
7785 4113 -7605 0
-7965 -3681 0
-7965 7785 0
7965 3681 -7785 0
-8145 -3249 0
-8145 7965 0
8145 3249 -7965 0
-8325 -2817 0
-8325 8145 0
8325 2817 -8145 0
-8505 -2385 0
-8505 8325 0
8505 2385 -8325 0
-8685 -1953 0
-8685 8505 0
8685 1953 -8505 0
-8865 -1521 0
-8865 8685 0
8865 1521 -8685 0
-9045 -1089 0
-9045 8865 0
9045 1089 -8865 0
-9225 -657 0
-9225 9045 0
9225 657 -9045 0
-9611 105 0
-9611 9225 0
9611 -105 -9225 0
-9612 -105 0
-9612 -9225 0
9612 105 9225 0
-9613 -9611 0
-9613 -9612 0
9613 9611 9612 0
104 -39817 0
-104 39817 0
-528 300 0
-528 400 0
528 -300 -400 0
-656 -301 0
-656 528 0
656 301 -528 0
-960 292 0
-960 832 0
960 -292 -832 0
-1088 -293 0
-1088 960 0
1088 293 -960 0
-1392 284 0
-1392 1264 0
1392 -284 -1264 0
-1520 -285 0
-1520 1392 0
1520 285 -1392 0
-1824 276 0
-1824 1696 0
1824 -276 -1696 0
-1952 -277 0
-1952 1824 0
1952 277 -1824 0
-2256 268 0
-2256 2128 0
2256 -268 -2128 0
-2384 -269 0
-2384 2256 0
2384 269 -2256 0
-2688 260 0
-2688 2560 0
2688 -260 -2560 0
-2816 -261 0
-2816 2688 0
2816 261 -2688 0
-3120 252 0
-3120 2992 0
3120 -252 -2992 0
-3248 -253 0
-3248 3120 0
3248 253 -3120 0
-3552 244 0
-3552 3424 0
3552 -244 -3424 0
-3680 -245 0
-3680 3552 0
3680 245 -3552 0
-3984 236 0
-3984 3856 0
3984 -236 -3856 0
-4112 -237 0
-4112 3984 0
4112 237 -3984 0
-4416 228 0
-4416 4288 0
4416 -228 -4288 0
-4544 -229 0
-4544 4416 0
4544 229 -4416 0
-4848 220 0
-4848 4720 0
4848 -220 -4720 0
-4976 -221 0
-4976 4848 0
4976 221 -4848 0
-5280 212 0
-5280 5152 0
5280 -212 -5152 0
-5408 -213 0
-5408 5280 0
5408 213 -5280 0
-5712 204 0
-5712 5584 0
5712 -204 -5584 0
-5840 -205 0
-5840 5712 0
5840 205 -5712 0
-6144 196 0
-6144 6016 0
6144 -196 -6016 0
-6272 -197 0
-6272 6144 0
6272 197 -6144 0
-6576 188 0
-6576 6448 0
6576 -188 -6448 0
-6704 -189 0
-6704 6576 0
6704 189 -6576 0
-6884 -6272 0
-6884 -6704 0
6884 6272 6704 0
-7064 -5840 0
-7064 6884 0
7064 5840 -6884 0
-7244 -5408 0
-7244 7064 0
7244 5408 -7064 0
-7424 -4976 0
-7424 7244 0
7424 4976 -7244 0
-7604 -4544 0
-7604 7424 0
7604 4544 -7424 0
-7784 -4112 0
-7784 7604 0
7784 4112 -7604 0
-7964 -3680 0
-7964 7784 0
7964 3680 -7784 0
-8144 -3248 0
-8144 7964 0
8144 3248 -7964 0
-8324 -2816 0
-8324 8144 0
8324 2816 -8144 0
-8504 -2384 0
-8504 8324 0
8504 2384 -8324 0
-8684 -1952 0
-8684 8504 0
8684 1952 -8504 0
-8864 -1520 0
-8864 8684 0
8864 1520 -8684 0
-9044 -1088 0
-9044 8864 0
9044 1088 -8864 0
-9224 -656 0
-9224 9044 0
9224 656 -9044 0
-9608 104 0
-9608 9224 0
9608 -104 -9224 0
-9609 -104 0
-9609 -9224 0
9609 104 9224 0
-9610 -9608 0
-9610 -9609 0
9610 9608 9609 0
103 -39816 0
-103 39816 0
-527 300 0
-527 399 0
527 -300 -399 0
-655 -301 0
-655 527 0
655 301 -527 0
-959 292 0
-959 831 0
959 -292 -831 0
-1087 -293 0
-1087 959 0
1087 293 -959 0
-1391 284 0
-1391 1263 0
1391 -284 -1263 0
-1519 -285 0
-1519 1391 0
1519 285 -1391 0
-1823 276 0
-1823 1695 0
1823 -276 -1695 0
-1951 -277 0
-1951 1823 0
1951 277 -1823 0
-2255 268 0
-2255 2127 0
2255 -268 -2127 0
-2383 -269 0
-2383 2255 0
2383 269 -2255 0
-2687 260 0
-2687 2559 0
2687 -260 -2559 0
-2815 -261 0
-2815 2687 0
2815 261 -2687 0
-3119 252 0
-3119 2991 0
3119 -252 -2991 0
-3247 -253 0
-3247 3119 0
3247 253 -3119 0
-3551 244 0
-3551 3423 0
3551 -244 -3423 0
-3679 -245 0
-3679 3551 0
3679 245 -3551 0
-3983 236 0
-3983 3855 0
3983 -236 -3855 0
-4111 -237 0
-4111 3983 0
4111 237 -3983 0
-4415 228 0
-4415 4287 0
4415 -228 -4287 0
-4543 -229 0
-4543 4415 0
4543 229 -4415 0
-4847 220 0
-4847 4719 0
4847 -220 -4719 0
-4975 -221 0
-4975 4847 0
4975 221 -4847 0
-5279 212 0
-5279 5151 0
5279 -212 -5151 0
-5407 -213 0
-5407 5279 0
5407 213 -5279 0
-5711 204 0
-5711 5583 0
5711 -204 -5583 0
-5839 -205 0
-5839 5711 0
5839 205 -5711 0
-6143 196 0
-6143 6015 0
6143 -196 -6015 0
-6271 -197 0
-6271 6143 0
6271 197 -6143 0
-6575 188 0
-6575 6447 0
6575 -188 -6447 0
-6703 -189 0
-6703 6575 0
6703 189 -6575 0
-6883 -6271 0
-6883 -6703 0
6883 6271 6703 0
-7063 -5839 0
-7063 6883 0
7063 5839 -6883 0
-7243 -5407 0
-7243 7063 0
7243 5407 -7063 0
-7423 -4975 0
-7423 7243 0
7423 4975 -7243 0
-7603 -4543 0
-7603 7423 0
7603 4543 -7423 0
-7783 -4111 0
-7783 7603 0
7783 4111 -7603 0
-7963 -3679 0
-7963 7783 0
7963 3679 -7783 0
-8143 -3247 0
-8143 7963 0
8143 3247 -7963 0
-8323 -2815 0
-8323 8143 0
8323 2815 -8143 0
-8503 -2383 0
-8503 8323 0
8503 2383 -8323 0
-8683 -1951 0
-8683 8503 0
8683 1951 -8503 0
-8863 -1519 0
-8863 8683 0
8863 1519 -8683 0
-9043 -1087 0
-9043 8863 0
9043 1087 -8863 0
-9223 -655 0
-9223 9043 0
9223 655 -9043 0
-9605 103 0
-9605 9223 0
9605 -103 -9223 0
-9606 -103 0
-9606 -9223 0
9606 103 9223 0
-9607 -9605 0
-9607 -9606 0
9607 9605 9606 0
102 -39815 0
-102 39815 0
-526 300 0
-526 398 0
526 -300 -398 0
-654 -301 0
-654 526 0
654 301 -526 0
-958 292 0
-958 830 0
958 -292 -830 0
-1086 -293 0
-1086 958 0
1086 293 -958 0
-1390 284 0
-1390 1262 0
1390 -284 -1262 0
-1518 -285 0
-1518 1390 0
1518 285 -1390 0
-1822 276 0
-1822 1694 0
1822 -276 -1694 0
-1950 -277 0
-1950 1822 0
1950 277 -1822 0
-2254 268 0
-2254 2126 0
2254 -268 -2126 0
-2382 -269 0
-2382 2254 0
2382 269 -2254 0
-2686 260 0
-2686 2558 0
2686 -260 -2558 0
-2814 -261 0
-2814 2686 0
2814 261 -2686 0
-3118 252 0
-3118 2990 0
3118 -252 -2990 0
-3246 -253 0
-3246 3118 0
3246 253 -3118 0
-3550 244 0
-3550 3422 0
3550 -244 -3422 0
-3678 -245 0
-3678 3550 0
3678 245 -3550 0
-3982 236 0
-3982 3854 0
3982 -236 -3854 0
-4110 -237 0
-4110 3982 0
4110 237 -3982 0
-4414 228 0
-4414 4286 0
4414 -228 -4286 0
-4542 -229 0
-4542 4414 0
4542 229 -4414 0
-4846 220 0
-4846 4718 0
4846 -220 -4718 0
-4974 -221 0
-4974 4846 0
4974 221 -4846 0
-5278 212 0
-5278 5150 0
5278 -212 -5150 0
-5406 -213 0
-5406 5278 0
5406 213 -5278 0
-5710 204 0
-5710 5582 0
5710 -204 -5582 0
-5838 -205 0
-5838 5710 0
5838 205 -5710 0
-6142 196 0
-6142 6014 0
6142 -196 -6014 0
-6270 -197 0
-6270 6142 0
6270 197 -6142 0
-6574 188 0
-6574 6446 0
6574 -188 -6446 0
-6702 -189 0
-6702 6574 0
6702 189 -6574 0
-6882 -6270 0
-6882 -6702 0
6882 6270 6702 0
-7062 -5838 0
-7062 6882 0
7062 5838 -6882 0
-7242 -5406 0
-7242 7062 0
7242 5406 -7062 0
-7422 -4974 0
-7422 7242 0
7422 4974 -7242 0
-7602 -4542 0
-7602 7422 0
7602 4542 -7422 0
-7782 -4110 0
-7782 7602 0
7782 4110 -7602 0
-7962 -3678 0
-7962 7782 0
7962 3678 -7782 0
-8142 -3246 0
-8142 7962 0
8142 3246 -7962 0
-8322 -2814 0
-8322 8142 0
8322 2814 -8142 0
-8502 -2382 0
-8502 8322 0
8502 2382 -8322 0
-8682 -1950 0
-8682 8502 0
8682 1950 -8502 0
-8862 -1518 0
-8862 8682 0
8862 1518 -8682 0
-9042 -1086 0
-9042 8862 0
9042 1086 -8862 0
-9222 -654 0
-9222 9042 0
9222 654 -9042 0
-9602 102 0
-9602 9222 0
9602 -102 -9222 0
-9603 -102 0
-9603 -9222 0
9603 102 9222 0
-9604 -9602 0
-9604 -9603 0
9604 9602 9603 0
101 -39814 0
-101 39814 0
-525 300 0
-525 397 0
525 -300 -397 0
-653 -301 0
-653 525 0
653 301 -525 0
-957 292 0
-957 829 0
957 -292 -829 0
-1085 -293 0
-1085 957 0
1085 293 -957 0
-1389 284 0
-1389 1261 0
1389 -284 -1261 0
-1517 -285 0
-1517 1389 0
1517 285 -1389 0
-1821 276 0
-1821 1693 0
1821 -276 -1693 0
-1949 -277 0
-1949 1821 0
1949 277 -1821 0
-2253 268 0
-2253 2125 0
2253 -268 -2125 0
-2381 -269 0
-2381 2253 0
2381 269 -2253 0
-2685 260 0
-2685 2557 0
2685 -260 -2557 0
-2813 -261 0
-2813 2685 0
2813 261 -2685 0
-3117 252 0
-3117 2989 0
3117 -252 -2989 0
-3245 -253 0
-3245 3117 0
3245 253 -3117 0
-3549 244 0
-3549 3421 0
3549 -244 -3421 0
-3677 -245 0
-3677 3549 0
3677 245 -3549 0
-3981 236 0
-3981 3853 0
3981 -236 -3853 0
-4109 -237 0
-4109 3981 0
4109 237 -3981 0
-4413 228 0
-4413 4285 0
4413 -228 -4285 0
-4541 -229 0
-4541 4413 0
4541 229 -4413 0
-4845 220 0
-4845 4717 0
4845 -220 -4717 0
-4973 -221 0
-4973 4845 0
4973 221 -4845 0
-5277 212 0
-5277 5149 0
5277 -212 -5149 0
-5405 -213 0
-5405 5277 0
5405 213 -5277 0
-5709 204 0
-5709 5581 0
5709 -204 -5581 0
-5837 -205 0
-5837 5709 0
5837 205 -5709 0
-6141 196 0
-6141 6013 0
6141 -196 -6013 0
-6269 -197 0
-6269 6141 0
6269 197 -6141 0
-6573 188 0
-6573 6445 0
6573 -188 -6445 0
-6701 -189 0
-6701 6573 0
6701 189 -6573 0
-6881 -6269 0
-6881 -6701 0
6881 6269 6701 0
-7061 -5837 0
-7061 6881 0
7061 5837 -6881 0
-7241 -5405 0
-7241 7061 0
7241 5405 -7061 0
-7421 -4973 0
-7421 7241 0
7421 4973 -7241 0
-7601 -4541 0
-7601 7421 0
7601 4541 -7421 0
-7781 -4109 0
-7781 7601 0
7781 4109 -7601 0
-7961 -3677 0
-7961 7781 0
7961 3677 -7781 0
-8141 -3245 0
-8141 7961 0
8141 3245 -7961 0
-8321 -2813 0
-8321 8141 0
8321 2813 -8141 0
-8501 -2381 0
-8501 8321 0
8501 2381 -8321 0
-8681 -1949 0
-8681 8501 0
8681 1949 -8501 0
-8861 -1517 0
-8861 8681 0
8861 1517 -8681 0
-9041 -1085 0
-9041 8861 0
9041 1085 -8861 0
-9221 -653 0
-9221 9041 0
9221 653 -9041 0
-9599 101 0
-9599 9221 0
9599 -101 -9221 0
-9600 -101 0
-9600 -9221 0
9600 101 9221 0
-9601 -9599 0
-9601 -9600 0
9601 9599 9600 0
100 -39813 0
-100 39813 0
-524 300 0
-524 396 0
524 -300 -396 0
-652 -301 0
-652 524 0
652 301 -524 0
-956 292 0
-956 828 0
956 -292 -828 0
-1084 -293 0
-1084 956 0
1084 293 -956 0
-1388 284 0
-1388 1260 0
1388 -284 -1260 0
-1516 -285 0
-1516 1388 0
1516 285 -1388 0
-1820 276 0
-1820 1692 0
1820 -276 -1692 0
-1948 -277 0
-1948 1820 0
1948 277 -1820 0
-2252 268 0
-2252 2124 0
2252 -268 -2124 0
-2380 -269 0
-2380 2252 0
2380 269 -2252 0
-2684 260 0
-2684 2556 0
2684 -260 -2556 0
-2812 -261 0
-2812 2684 0
2812 261 -2684 0
-3116 252 0
-3116 2988 0
3116 -252 -2988 0
-3244 -253 0
-3244 3116 0
3244 253 -3116 0
-3548 244 0
-3548 3420 0
3548 -244 -3420 0
-3676 -245 0
-3676 3548 0
3676 245 -3548 0
-3980 236 0
-3980 3852 0
3980 -236 -3852 0
-4108 -237 0
-4108 3980 0
4108 237 -3980 0
-4412 228 0
-4412 4284 0
4412 -228 -4284 0
-4540 -229 0
-4540 4412 0
4540 229 -4412 0
-4844 220 0
-4844 4716 0
4844 -220 -4716 0
-4972 -221 0
-4972 4844 0
4972 221 -4844 0
-5276 212 0
-5276 5148 0
5276 -212 -5148 0
-5404 -213 0
-5404 5276 0
5404 213 -5276 0
-5708 204 0
-5708 5580 0
5708 -204 -5580 0
-5836 -205 0
-5836 5708 0
5836 205 -5708 0
-6140 196 0
-6140 6012 0
6140 -196 -6012 0
-6268 -197 0
-6268 6140 0
6268 197 -6140 0
-6572 188 0
-6572 6444 0
6572 -188 -6444 0
-6700 -189 0
-6700 6572 0
6700 189 -6572 0
-6880 -6268 0
-6880 -6700 0
6880 6268 6700 0
-7060 -5836 0
-7060 6880 0
7060 5836 -6880 0
-7240 -5404 0
-7240 7060 0
7240 5404 -7060 0
-7420 -4972 0
-7420 7240 0
7420 4972 -7240 0
-7600 -4540 0
-7600 7420 0
7600 4540 -7420 0
-7780 -4108 0
-7780 7600 0
7780 4108 -7600 0
-7960 -3676 0
-7960 7780 0
7960 3676 -7780 0
-8140 -3244 0
-8140 7960 0
8140 3244 -7960 0
-8320 -2812 0
-8320 8140 0
8320 2812 -8140 0
-8500 -2380 0
-8500 8320 0
8500 2380 -8320 0
-8680 -1948 0
-8680 8500 0
8680 1948 -8500 0
-8860 -1516 0
-8860 8680 0
8860 1516 -8680 0
-9040 -1084 0
-9040 8860 0
9040 1084 -8860 0
-9220 -652 0
-9220 9040 0
9220 652 -9040 0
-9596 100 0
-9596 9220 0
9596 -100 -9220 0
-9597 -100 0
-9597 -9220 0
9597 100 9220 0
-9598 -9596 0
-9598 -9597 0
9598 9596 9597 0
99 -39812 0
-99 39812 0
-523 300 0
-523 395 0
523 -300 -395 0
-651 -301 0
-651 523 0
651 301 -523 0
-955 292 0
-955 827 0
955 -292 -827 0
-1083 -293 0
-1083 955 0
1083 293 -955 0
-1387 284 0
-1387 1259 0
1387 -284 -1259 0
-1515 -285 0
-1515 1387 0
1515 285 -1387 0
-1819 276 0
-1819 1691 0
1819 -276 -1691 0
-1947 -277 0
-1947 1819 0
1947 277 -1819 0
-2251 268 0
-2251 2123 0
2251 -268 -2123 0
-2379 -269 0
-2379 2251 0
2379 269 -2251 0
-2683 260 0
-2683 2555 0
2683 -260 -2555 0
-2811 -261 0
-2811 2683 0
2811 261 -2683 0
-3115 252 0
-3115 2987 0
3115 -252 -2987 0
-3243 -253 0
-3243 3115 0
3243 253 -3115 0
-3547 244 0
-3547 3419 0
3547 -244 -3419 0
-3675 -245 0
-3675 3547 0
3675 245 -3547 0
-3979 236 0
-3979 3851 0
3979 -236 -3851 0
-4107 -237 0
-4107 3979 0
4107 237 -3979 0
-4411 228 0
-4411 4283 0
4411 -228 -4283 0
-4539 -229 0
-4539 4411 0
4539 229 -4411 0
-4843 220 0
-4843 4715 0
4843 -220 -4715 0
-4971 -221 0
-4971 4843 0
4971 221 -4843 0
-5275 212 0
-5275 5147 0
5275 -212 -5147 0
-5403 -213 0
-5403 5275 0
5403 213 -5275 0
-5707 204 0
-5707 5579 0
5707 -204 -5579 0
-5835 -205 0
-5835 5707 0
5835 205 -5707 0
-6139 196 0
-6139 6011 0
6139 -196 -6011 0
-6267 -197 0
-6267 6139 0
6267 197 -6139 0
-6571 188 0
-6571 6443 0
6571 -188 -6443 0
-6699 -189 0
-6699 6571 0
6699 189 -6571 0
-6879 -6267 0
-6879 -6699 0
6879 6267 6699 0
-7059 -5835 0
-7059 6879 0
7059 5835 -6879 0
-7239 -5403 0
-7239 7059 0
7239 5403 -7059 0
-7419 -4971 0
-7419 7239 0
7419 4971 -7239 0
-7599 -4539 0
-7599 7419 0
7599 4539 -7419 0
-7779 -4107 0
-7779 7599 0
7779 4107 -7599 0
-7959 -3675 0
-7959 7779 0
7959 3675 -7779 0
-8139 -3243 0
-8139 7959 0
8139 3243 -7959 0
-8319 -2811 0
-8319 8139 0
8319 2811 -8139 0
-8499 -2379 0
-8499 8319 0
8499 2379 -8319 0
-8679 -1947 0
-8679 8499 0
8679 1947 -8499 0
-8859 -1515 0
-8859 8679 0
8859 1515 -8679 0
-9039 -1083 0
-9039 8859 0
9039 1083 -8859 0
-9219 -651 0
-9219 9039 0
9219 651 -9039 0
-9593 99 0
-9593 9219 0
9593 -99 -9219 0
-9594 -99 0
-9594 -9219 0
9594 99 9219 0
-9595 -9593 0
-9595 -9594 0
9595 9593 9594 0
98 -39811 0
-98 39811 0
-522 300 0
-522 394 0
522 -300 -394 0
-650 -301 0
-650 522 0
650 301 -522 0
-954 292 0
-954 826 0
954 -292 -826 0
-1082 -293 0
-1082 954 0
1082 293 -954 0
-1386 284 0
-1386 1258 0
1386 -284 -1258 0
-1514 -285 0
-1514 1386 0
1514 285 -1386 0
-1818 276 0
-1818 1690 0
1818 -276 -1690 0
-1946 -277 0
-1946 1818 0
1946 277 -1818 0
-2250 268 0
-2250 2122 0
2250 -268 -2122 0
-2378 -269 0
-2378 2250 0
2378 269 -2250 0
-2682 260 0
-2682 2554 0
2682 -260 -2554 0
-2810 -261 0
-2810 2682 0
2810 261 -2682 0
-3114 252 0
-3114 2986 0
3114 -252 -2986 0
-3242 -253 0
-3242 3114 0
3242 253 -3114 0
-3546 244 0
-3546 3418 0
3546 -244 -3418 0
-3674 -245 0
-3674 3546 0
3674 245 -3546 0
-3978 236 0
-3978 3850 0
3978 -236 -3850 0
-4106 -237 0
-4106 3978 0
4106 237 -3978 0
-4410 228 0
-4410 4282 0
4410 -228 -4282 0
-4538 -229 0
-4538 4410 0
4538 229 -4410 0
-4842 220 0
-4842 4714 0
4842 -220 -4714 0
-4970 -221 0
-4970 4842 0
4970 221 -4842 0
-5274 212 0
-5274 5146 0
5274 -212 -5146 0
-5402 -213 0
-5402 5274 0
5402 213 -5274 0
-5706 204 0
-5706 5578 0
5706 -204 -5578 0
-5834 -205 0
-5834 5706 0
5834 205 -5706 0
-6138 196 0
-6138 6010 0
6138 -196 -6010 0
-6266 -197 0
-6266 6138 0
6266 197 -6138 0
-6570 188 0
-6570 6442 0
6570 -188 -6442 0
-6698 -189 0
-6698 6570 0
6698 189 -6570 0
-6878 -6266 0
-6878 -6698 0
6878 6266 6698 0
-7058 -5834 0
-7058 6878 0
7058 5834 -6878 0
-7238 -5402 0
-7238 7058 0
7238 5402 -7058 0
-7418 -4970 0
-7418 7238 0
7418 4970 -7238 0
-7598 -4538 0
-7598 7418 0
7598 4538 -7418 0
-7778 -4106 0
-7778 7598 0
7778 4106 -7598 0
-7958 -3674 0
-7958 7778 0
7958 3674 -7778 0
-8138 -3242 0
-8138 7958 0
8138 3242 -7958 0
-8318 -2810 0
-8318 8138 0
8318 2810 -8138 0
-8498 -2378 0
-8498 8318 0
8498 2378 -8318 0
-8678 -1946 0
-8678 8498 0
8678 1946 -8498 0
-8858 -1514 0
-8858 8678 0
8858 1514 -8678 0
-9038 -1082 0
-9038 8858 0
9038 1082 -8858 0
-9218 -650 0
-9218 9038 0
9218 650 -9038 0
-9590 98 0
-9590 9218 0
9590 -98 -9218 0
-9591 -98 0
-9591 -9218 0
9591 98 9218 0
-9592 -9590 0
-9592 -9591 0
9592 9590 9591 0
97 -39810 0
-97 39810 0
-521 300 0
-521 393 0
521 -300 -393 0
-649 -301 0
-649 521 0
649 301 -521 0
-953 292 0
-953 825 0
953 -292 -825 0
-1081 -293 0
-1081 953 0
1081 293 -953 0
-1385 284 0
-1385 1257 0
1385 -284 -1257 0
-1513 -285 0
-1513 1385 0
1513 285 -1385 0
-1817 276 0
-1817 1689 0
1817 -276 -1689 0
-1945 -277 0
-1945 1817 0
1945 277 -1817 0
-2249 268 0
-2249 2121 0
2249 -268 -2121 0
-2377 -269 0
-2377 2249 0
2377 269 -2249 0
-2681 260 0
-2681 2553 0
2681 -260 -2553 0
-2809 -261 0
-2809 2681 0
2809 261 -2681 0
-3113 252 0
-3113 2985 0
3113 -252 -2985 0
-3241 -253 0
-3241 3113 0
3241 253 -3113 0
-3545 244 0
-3545 3417 0
3545 -244 -3417 0
-3673 -245 0
-3673 3545 0
3673 245 -3545 0
-3977 236 0
-3977 3849 0
3977 -236 -3849 0
-4105 -237 0
-4105 3977 0
4105 237 -3977 0
-4409 228 0
-4409 4281 0
4409 -228 -4281 0
-4537 -229 0
-4537 4409 0
4537 229 -4409 0
-4841 220 0
-4841 4713 0
4841 -220 -4713 0
-4969 -221 0
-4969 4841 0
4969 221 -4841 0
-5273 212 0
-5273 5145 0
5273 -212 -5145 0
-5401 -213 0
-5401 5273 0
5401 213 -5273 0
-5705 204 0
-5705 5577 0
5705 -204 -5577 0
-5833 -205 0
-5833 5705 0
5833 205 -5705 0
-6137 196 0
-6137 6009 0
6137 -196 -6009 0
-6265 -197 0
-6265 6137 0
6265 197 -6137 0
-6569 188 0
-6569 6441 0
6569 -188 -6441 0
-6697 -189 0
-6697 6569 0
6697 189 -6569 0
-6877 -6265 0
-6877 -6697 0
6877 6265 6697 0
-7057 -5833 0
-7057 6877 0
7057 5833 -6877 0
-7237 -5401 0
-7237 7057 0
7237 5401 -7057 0
-7417 -4969 0
-7417 7237 0
7417 4969 -7237 0
-7597 -4537 0
-7597 7417 0
7597 4537 -7417 0
-7777 -4105 0
-7777 7597 0
7777 4105 -7597 0
-7957 -3673 0
-7957 7777 0
7957 3673 -7777 0
-8137 -3241 0
-8137 7957 0
8137 3241 -7957 0
-8317 -2809 0
-8317 8137 0
8317 2809 -8137 0
-8497 -2377 0
-8497 8317 0
8497 2377 -8317 0
-8677 -1945 0
-8677 8497 0
8677 1945 -8497 0
-8857 -1513 0
-8857 8677 0
8857 1513 -8677 0
-9037 -1081 0
-9037 8857 0
9037 1081 -8857 0
-9217 -649 0
-9217 9037 0
9217 649 -9037 0
-9587 97 0
-9587 9217 0
9587 -97 -9217 0
-9588 -97 0
-9588 -9217 0
9588 97 9217 0
-9589 -9587 0
-9589 -9588 0
9589 9587 9588 0
96 -39809 0
-96 39809 0
-520 300 0
-520 392 0
520 -300 -392 0
-648 -301 0
-648 520 0
648 301 -520 0
-952 292 0
-952 824 0
952 -292 -824 0
-1080 -293 0
-1080 952 0
1080 293 -952 0
-1384 284 0
-1384 1256 0
1384 -284 -1256 0
-1512 -285 0
-1512 1384 0
1512 285 -1384 0
-1816 276 0
-1816 1688 0
1816 -276 -1688 0
-1944 -277 0
-1944 1816 0
1944 277 -1816 0
-2248 268 0
-2248 2120 0
2248 -268 -2120 0
-2376 -269 0
-2376 2248 0
2376 269 -2248 0
-2680 260 0
-2680 2552 0
2680 -260 -2552 0
-2808 -261 0
-2808 2680 0
2808 261 -2680 0
-3112 252 0
-3112 2984 0
3112 -252 -2984 0
-3240 -253 0
-3240 3112 0
3240 253 -3112 0
-3544 244 0
-3544 3416 0
3544 -244 -3416 0
-3672 -245 0
-3672 3544 0
3672 245 -3544 0
-3976 236 0
-3976 3848 0
3976 -236 -3848 0
-4104 -237 0
-4104 3976 0
4104 237 -3976 0
-4408 228 0
-4408 4280 0
4408 -228 -4280 0
-4536 -229 0
-4536 4408 0
4536 229 -4408 0
-4840 220 0
-4840 4712 0
4840 -220 -4712 0
-4968 -221 0
-4968 4840 0
4968 221 -4840 0
-5272 212 0
-5272 5144 0
5272 -212 -5144 0
-5400 -213 0
-5400 5272 0
5400 213 -5272 0
-5704 204 0
-5704 5576 0
5704 -204 -5576 0
-5832 -205 0
-5832 5704 0
5832 205 -5704 0
-6136 196 0
-6136 6008 0
6136 -196 -6008 0
-6264 -197 0
-6264 6136 0
6264 197 -6136 0
-6568 188 0
-6568 6440 0
6568 -188 -6440 0
-6696 -189 0
-6696 6568 0
6696 189 -6568 0
-6876 -6264 0
-6876 -6696 0
6876 6264 6696 0
-7056 -5832 0
-7056 6876 0
7056 5832 -6876 0
-7236 -5400 0
-7236 7056 0
7236 5400 -7056 0
-7416 -4968 0
-7416 7236 0
7416 4968 -7236 0
-7596 -4536 0
-7596 7416 0
7596 4536 -7416 0
-7776 -4104 0
-7776 7596 0
7776 4104 -7596 0
-7956 -3672 0
-7956 7776 0
7956 3672 -7776 0
-8136 -3240 0
-8136 7956 0
8136 3240 -7956 0
-8316 -2808 0
-8316 8136 0
8316 2808 -8136 0
-8496 -2376 0
-8496 8316 0
8496 2376 -8316 0
-8676 -1944 0
-8676 8496 0
8676 1944 -8496 0
-8856 -1512 0
-8856 8676 0
8856 1512 -8676 0
-9036 -1080 0
-9036 8856 0
9036 1080 -8856 0
-9216 -648 0
-9216 9036 0
9216 648 -9036 0
-9584 96 0
-9584 9216 0
9584 -96 -9216 0
-9585 -96 0
-9585 -9216 0
9585 96 9216 0
-9586 -9584 0
-9586 -9585 0
9586 9584 9585 0
95 -39808 0
-95 39808 0
-519 300 0
-519 391 0
519 -300 -391 0
-647 -301 0
-647 519 0
647 301 -519 0
-951 292 0
-951 823 0
951 -292 -823 0
-1079 -293 0
-1079 951 0
1079 293 -951 0
-1383 284 0
-1383 1255 0
1383 -284 -1255 0
-1511 -285 0
-1511 1383 0
1511 285 -1383 0
-1815 276 0
-1815 1687 0
1815 -276 -1687 0
-1943 -277 0
-1943 1815 0
1943 277 -1815 0
-2247 268 0
-2247 2119 0
2247 -268 -2119 0
-2375 -269 0
-2375 2247 0
2375 269 -2247 0
-2679 260 0
-2679 2551 0
2679 -260 -2551 0
-2807 -261 0
-2807 2679 0
2807 261 -2679 0
-3111 252 0
-3111 2983 0
3111 -252 -2983 0
-3239 -253 0
-3239 3111 0
3239 253 -3111 0
-3543 244 0
-3543 3415 0
3543 -244 -3415 0
-3671 -245 0
-3671 3543 0
3671 245 -3543 0
-3975 236 0
-3975 3847 0
3975 -236 -3847 0
-4103 -237 0
-4103 3975 0
4103 237 -3975 0
-4407 228 0
-4407 4279 0
4407 -228 -4279 0
-4535 -229 0
-4535 4407 0
4535 229 -4407 0
-4839 220 0
-4839 4711 0
4839 -220 -4711 0
-4967 -221 0
-4967 4839 0
4967 221 -4839 0
-5271 212 0
-5271 5143 0
5271 -212 -5143 0
-5399 -213 0
-5399 5271 0
5399 213 -5271 0
-5703 204 0
-5703 5575 0
5703 -204 -5575 0
-5831 -205 0
-5831 5703 0
5831 205 -5703 0
-6135 196 0
-6135 6007 0
6135 -196 -6007 0
-6263 -197 0
-6263 6135 0
6263 197 -6135 0
-6567 188 0
-6567 6439 0
6567 -188 -6439 0
-6695 -189 0
-6695 6567 0
6695 189 -6567 0
-6875 -6263 0
-6875 -6695 0
6875 6263 6695 0
-7055 -5831 0
-7055 6875 0
7055 5831 -6875 0
-7235 -5399 0
-7235 7055 0
7235 5399 -7055 0
-7415 -4967 0
-7415 7235 0
7415 4967 -7235 0
-7595 -4535 0
-7595 7415 0
7595 4535 -7415 0
-7775 -4103 0
-7775 7595 0
7775 4103 -7595 0
-7955 -3671 0
-7955 7775 0
7955 3671 -7775 0
-8135 -3239 0
-8135 7955 0
8135 3239 -7955 0
-8315 -2807 0
-8315 8135 0
8315 2807 -8135 0
-8495 -2375 0
-8495 8315 0
8495 2375 -8315 0
-8675 -1943 0
-8675 8495 0
8675 1943 -8495 0
-8855 -1511 0
-8855 8675 0
8855 1511 -8675 0
-9035 -1079 0
-9035 8855 0
9035 1079 -8855 0
-9215 -647 0
-9215 9035 0
9215 647 -9035 0
-9581 95 0
-9581 9215 0
9581 -95 -9215 0
-9582 -95 0
-9582 -9215 0
9582 95 9215 0
-9583 -9581 0
-9583 -9582 0
9583 9581 9582 0
94 -39807 0
-94 39807 0
-518 300 0
-518 390 0
518 -300 -390 0
-646 -301 0
-646 518 0
646 301 -518 0
-950 292 0
-950 822 0
950 -292 -822 0
-1078 -293 0
-1078 950 0
1078 293 -950 0
-1382 284 0
-1382 1254 0
1382 -284 -1254 0
-1510 -285 0
-1510 1382 0
1510 285 -1382 0
-1814 276 0
-1814 1686 0
1814 -276 -1686 0
-1942 -277 0
-1942 1814 0
1942 277 -1814 0
-2246 268 0
-2246 2118 0
2246 -268 -2118 0
-2374 -269 0
-2374 2246 0
2374 269 -2246 0
-2678 260 0
-2678 2550 0
2678 -260 -2550 0
-2806 -261 0
-2806 2678 0
2806 261 -2678 0
-3110 252 0
-3110 2982 0
3110 -252 -2982 0
-3238 -253 0
-3238 3110 0
3238 253 -3110 0
-3542 244 0
-3542 3414 0
3542 -244 -3414 0
-3670 -245 0
-3670 3542 0
3670 245 -3542 0
-3974 236 0
-3974 3846 0
3974 -236 -3846 0
-4102 -237 0
-4102 3974 0
4102 237 -3974 0
-4406 228 0
-4406 4278 0
4406 -228 -4278 0
-4534 -229 0
-4534 4406 0
4534 229 -4406 0
-4838 220 0
-4838 4710 0
4838 -220 -4710 0
-4966 -221 0
-4966 4838 0
4966 221 -4838 0
-5270 212 0
-5270 5142 0
5270 -212 -5142 0
-5398 -213 0
-5398 5270 0
5398 213 -5270 0
-5702 204 0
-5702 5574 0
5702 -204 -5574 0
-5830 -205 0
-5830 5702 0
5830 205 -5702 0
-6134 196 0
-6134 6006 0
6134 -196 -6006 0
-6262 -197 0
-6262 6134 0
6262 197 -6134 0
-6566 188 0
-6566 6438 0
6566 -188 -6438 0
-6694 -189 0
-6694 6566 0
6694 189 -6566 0
-6874 -6262 0
-6874 -6694 0
6874 6262 6694 0
-7054 -5830 0
-7054 6874 0
7054 5830 -6874 0
-7234 -5398 0
-7234 7054 0
7234 5398 -7054 0
-7414 -4966 0
-7414 7234 0
7414 4966 -7234 0
-7594 -4534 0
-7594 7414 0
7594 4534 -7414 0
-7774 -4102 0
-7774 7594 0
7774 4102 -7594 0
-7954 -3670 0
-7954 7774 0
7954 3670 -7774 0
-8134 -3238 0
-8134 7954 0
8134 3238 -7954 0
-8314 -2806 0
-8314 8134 0
8314 2806 -8134 0
-8494 -2374 0
-8494 8314 0
8494 2374 -8314 0
-8674 -1942 0
-8674 8494 0
8674 1942 -8494 0
-8854 -1510 0
-8854 8674 0
8854 1510 -8674 0
-9034 -1078 0
-9034 8854 0
9034 1078 -8854 0
-9214 -646 0
-9214 9034 0
9214 646 -9034 0
-9578 94 0
-9578 9214 0
9578 -94 -9214 0
-9579 -94 0
-9579 -9214 0
9579 94 9214 0
-9580 -9578 0
-9580 -9579 0
9580 9578 9579 0
93 -39806 0
-93 39806 0
-517 300 0
-517 389 0
517 -300 -389 0
-645 -301 0
-645 517 0
645 301 -517 0
-949 292 0
-949 821 0
949 -292 -821 0
-1077 -293 0
-1077 949 0
1077 293 -949 0
-1381 284 0
-1381 1253 0
1381 -284 -1253 0
-1509 -285 0
-1509 1381 0
1509 285 -1381 0
-1813 276 0
-1813 1685 0
1813 -276 -1685 0
-1941 -277 0
-1941 1813 0
1941 277 -1813 0
-2245 268 0
-2245 2117 0
2245 -268 -2117 0
-2373 -269 0
-2373 2245 0
2373 269 -2245 0
-2677 260 0
-2677 2549 0
2677 -260 -2549 0
-2805 -261 0
-2805 2677 0
2805 261 -2677 0
-3109 252 0
-3109 2981 0
3109 -252 -2981 0
-3237 -253 0
-3237 3109 0
3237 253 -3109 0
-3541 244 0
-3541 3413 0
3541 -244 -3413 0
-3669 -245 0
-3669 3541 0
3669 245 -3541 0
-3973 236 0
-3973 3845 0
3973 -236 -3845 0
-4101 -237 0
-4101 3973 0
4101 237 -3973 0
-4405 228 0
-4405 4277 0
4405 -228 -4277 0
-4533 -229 0
-4533 4405 0
4533 229 -4405 0
-4837 220 0
-4837 4709 0
4837 -220 -4709 0
-4965 -221 0
-4965 4837 0
4965 221 -4837 0
-5269 212 0
-5269 5141 0
5269 -212 -5141 0
-5397 -213 0
-5397 5269 0
5397 213 -5269 0
-5701 204 0
-5701 5573 0
5701 -204 -5573 0
-5829 -205 0
-5829 5701 0
5829 205 -5701 0
-6133 196 0
-6133 6005 0
6133 -196 -6005 0
-6261 -197 0
-6261 6133 0
6261 197 -6133 0
-6565 188 0
-6565 6437 0
6565 -188 -6437 0
-6693 -189 0
-6693 6565 0
6693 189 -6565 0
-6873 -6261 0
-6873 -6693 0
6873 6261 6693 0
-7053 -5829 0
-7053 6873 0
7053 5829 -6873 0
-7233 -5397 0
-7233 7053 0
7233 5397 -7053 0
-7413 -4965 0
-7413 7233 0
7413 4965 -7233 0
-7593 -4533 0
-7593 7413 0
7593 4533 -7413 0
-7773 -4101 0
-7773 7593 0
7773 4101 -7593 0
-7953 -3669 0
-7953 7773 0
7953 3669 -7773 0
-8133 -3237 0
-8133 7953 0
8133 3237 -7953 0
-8313 -2805 0
-8313 8133 0
8313 2805 -8133 0
-8493 -2373 0
-8493 8313 0
8493 2373 -8313 0
-8673 -1941 0
-8673 8493 0
8673 1941 -8493 0
-8853 -1509 0
-8853 8673 0
8853 1509 -8673 0
-9033 -1077 0
-9033 8853 0
9033 1077 -8853 0
-9213 -645 0
-9213 9033 0
9213 645 -9033 0
-9575 93 0
-9575 9213 0
9575 -93 -9213 0
-9576 -93 0
-9576 -9213 0
9576 93 9213 0
-9577 -9575 0
-9577 -9576 0
9577 9575 9576 0
92 -39805 0
-92 39805 0
-516 300 0
-516 388 0
516 -300 -388 0
-644 -301 0
-644 516 0
644 301 -516 0
-948 292 0
-948 820 0
948 -292 -820 0
-1076 -293 0
-1076 948 0
1076 293 -948 0
-1380 284 0
-1380 1252 0
1380 -284 -1252 0
-1508 -285 0
-1508 1380 0
1508 285 -1380 0
-1812 276 0
-1812 1684 0
1812 -276 -1684 0
-1940 -277 0
-1940 1812 0
1940 277 -1812 0
-2244 268 0
-2244 2116 0
2244 -268 -2116 0
-2372 -269 0
-2372 2244 0
2372 269 -2244 0
-2676 260 0
-2676 2548 0
2676 -260 -2548 0
-2804 -261 0
-2804 2676 0
2804 261 -2676 0
-3108 252 0
-3108 2980 0
3108 -252 -2980 0
-3236 -253 0
-3236 3108 0
3236 253 -3108 0
-3540 244 0
-3540 3412 0
3540 -244 -3412 0
-3668 -245 0
-3668 3540 0
3668 245 -3540 0
-3972 236 0
-3972 3844 0
3972 -236 -3844 0
-4100 -237 0
-4100 3972 0
4100 237 -3972 0
-4404 228 0
-4404 4276 0
4404 -228 -4276 0
-4532 -229 0
-4532 4404 0
4532 229 -4404 0
-4836 220 0
-4836 4708 0
4836 -220 -4708 0
-4964 -221 0
-4964 4836 0
4964 221 -4836 0
-5268 212 0
-5268 5140 0
5268 -212 -5140 0
-5396 -213 0
-5396 5268 0
5396 213 -5268 0
-5700 204 0
-5700 5572 0
5700 -204 -5572 0
-5828 -205 0
-5828 5700 0
5828 205 -5700 0
-6132 196 0
-6132 6004 0
6132 -196 -6004 0
-6260 -197 0
-6260 6132 0
6260 197 -6132 0
-6564 188 0
-6564 6436 0
6564 -188 -6436 0
-6692 -189 0
-6692 6564 0
6692 189 -6564 0
-6872 -6260 0
-6872 -6692 0
6872 6260 6692 0
-7052 -5828 0
-7052 6872 0
7052 5828 -6872 0
-7232 -5396 0
-7232 7052 0
7232 5396 -7052 0
-7412 -4964 0
-7412 7232 0
7412 4964 -7232 0
-7592 -4532 0
-7592 7412 0
7592 4532 -7412 0
-7772 -4100 0
-7772 7592 0
7772 4100 -7592 0
-7952 -3668 0
-7952 7772 0
7952 3668 -7772 0
-8132 -3236 0
-8132 7952 0
8132 3236 -7952 0
-8312 -2804 0
-8312 8132 0
8312 2804 -8132 0
-8492 -2372 0
-8492 8312 0
8492 2372 -8312 0
-8672 -1940 0
-8672 8492 0
8672 1940 -8492 0
-8852 -1508 0
-8852 8672 0
8852 1508 -8672 0
-9032 -1076 0
-9032 8852 0
9032 1076 -8852 0
-9212 -644 0
-9212 9032 0
9212 644 -9032 0
-9572 92 0
-9572 9212 0
9572 -92 -9212 0
-9573 -92 0
-9573 -9212 0
9573 92 9212 0
-9574 -9572 0
-9574 -9573 0
9574 9572 9573 0
91 -39804 0
-91 39804 0
-515 300 0
-515 387 0
515 -300 -387 0
-643 -301 0
-643 515 0
643 301 -515 0
-947 292 0
-947 819 0
947 -292 -819 0
-1075 -293 0
-1075 947 0
1075 293 -947 0
-1379 284 0
-1379 1251 0
1379 -284 -1251 0
-1507 -285 0
-1507 1379 0
1507 285 -1379 0
-1811 276 0
-1811 1683 0
1811 -276 -1683 0
-1939 -277 0
-1939 1811 0
1939 277 -1811 0
-2243 268 0
-2243 2115 0
2243 -268 -2115 0
-2371 -269 0
-2371 2243 0
2371 269 -2243 0
-2675 260 0
-2675 2547 0
2675 -260 -2547 0
-2803 -261 0
-2803 2675 0
2803 261 -2675 0
-3107 252 0
-3107 2979 0
3107 -252 -2979 0
-3235 -253 0
-3235 3107 0
3235 253 -3107 0
-3539 244 0
-3539 3411 0
3539 -244 -3411 0
-3667 -245 0
-3667 3539 0
3667 245 -3539 0
-3971 236 0
-3971 3843 0
3971 -236 -3843 0
-4099 -237 0
-4099 3971 0
4099 237 -3971 0
-4403 228 0
-4403 4275 0
4403 -228 -4275 0
-4531 -229 0
-4531 4403 0
4531 229 -4403 0
-4835 220 0
-4835 4707 0
4835 -220 -4707 0
-4963 -221 0
-4963 4835 0
4963 221 -4835 0
-5267 212 0
-5267 5139 0
5267 -212 -5139 0
-5395 -213 0
-5395 5267 0
5395 213 -5267 0
-5699 204 0
-5699 5571 0
5699 -204 -5571 0
-5827 -205 0
-5827 5699 0
5827 205 -5699 0
-6131 196 0
-6131 6003 0
6131 -196 -6003 0
-6259 -197 0
-6259 6131 0
6259 197 -6131 0
-6563 188 0
-6563 6435 0
6563 -188 -6435 0
-6691 -189 0
-6691 6563 0
6691 189 -6563 0
-6871 -6259 0
-6871 -6691 0
6871 6259 6691 0
-7051 -5827 0
-7051 6871 0
7051 5827 -6871 0
-7231 -5395 0
-7231 7051 0
7231 5395 -7051 0
-7411 -4963 0
-7411 7231 0
7411 4963 -7231 0
-7591 -4531 0
-7591 7411 0
7591 4531 -7411 0
-7771 -4099 0
-7771 7591 0
7771 4099 -7591 0
-7951 -3667 0
-7951 7771 0
7951 3667 -7771 0
-8131 -3235 0
-8131 7951 0
8131 3235 -7951 0
-8311 -2803 0
-8311 8131 0
8311 2803 -8131 0
-8491 -2371 0
-8491 8311 0
8491 2371 -8311 0
-8671 -1939 0
-8671 8491 0
8671 1939 -8491 0
-8851 -1507 0
-8851 8671 0
8851 1507 -8671 0
-9031 -1075 0
-9031 8851 0
9031 1075 -8851 0
-9211 -643 0
-9211 9031 0
9211 643 -9031 0
-9569 91 0
-9569 9211 0
9569 -91 -9211 0
-9570 -91 0
-9570 -9211 0
9570 91 9211 0
-9571 -9569 0
-9571 -9570 0
9571 9569 9570 0
90 -39803 0
-90 39803 0
-514 300 0
-514 386 0
514 -300 -386 0
-642 -301 0
-642 514 0
642 301 -514 0
-946 292 0
-946 818 0
946 -292 -818 0
-1074 -293 0
-1074 946 0
1074 293 -946 0
-1378 284 0
-1378 1250 0
1378 -284 -1250 0
-1506 -285 0
-1506 1378 0
1506 285 -1378 0
-1810 276 0
-1810 1682 0
1810 -276 -1682 0
-1938 -277 0
-1938 1810 0
1938 277 -1810 0
-2242 268 0
-2242 2114 0
2242 -268 -2114 0
-2370 -269 0
-2370 2242 0
2370 269 -2242 0
-2674 260 0
-2674 2546 0
2674 -260 -2546 0
-2802 -261 0
-2802 2674 0
2802 261 -2674 0
-3106 252 0
-3106 2978 0
3106 -252 -2978 0
-3234 -253 0
-3234 3106 0
3234 253 -3106 0
-3538 244 0
-3538 3410 0
3538 -244 -3410 0
-3666 -245 0
-3666 3538 0
3666 245 -3538 0
-3970 236 0
-3970 3842 0
3970 -236 -3842 0
-4098 -237 0
-4098 3970 0
4098 237 -3970 0
-4402 228 0
-4402 4274 0
4402 -228 -4274 0
-4530 -229 0
-4530 4402 0
4530 229 -4402 0
-4834 220 0
-4834 4706 0
4834 -220 -4706 0
-4962 -221 0
-4962 4834 0
4962 221 -4834 0
-5266 212 0
-5266 5138 0
5266 -212 -5138 0
-5394 -213 0
-5394 5266 0
5394 213 -5266 0
-5698 204 0
-5698 5570 0
5698 -204 -5570 0
-5826 -205 0
-5826 5698 0
5826 205 -5698 0
-6130 196 0
-6130 6002 0
6130 -196 -6002 0
-6258 -197 0
-6258 6130 0
6258 197 -6130 0
-6562 188 0
-6562 6434 0
6562 -188 -6434 0
-6690 -189 0
-6690 6562 0
6690 189 -6562 0
-6870 -6258 0
-6870 -6690 0
6870 6258 6690 0
-7050 -5826 0
-7050 6870 0
7050 5826 -6870 0
-7230 -5394 0
-7230 7050 0
7230 5394 -7050 0
-7410 -4962 0
-7410 7230 0
7410 4962 -7230 0
-7590 -4530 0
-7590 7410 0
7590 4530 -7410 0
-7770 -4098 0
-7770 7590 0
7770 4098 -7590 0
-7950 -3666 0
-7950 7770 0
7950 3666 -7770 0
-8130 -3234 0
-8130 7950 0
8130 3234 -7950 0
-8310 -2802 0
-8310 8130 0
8310 2802 -8130 0
-8490 -2370 0
-8490 8310 0
8490 2370 -8310 0
-8670 -1938 0
-8670 8490 0
8670 1938 -8490 0
-8850 -1506 0
-8850 8670 0
8850 1506 -8670 0
-9030 -1074 0
-9030 8850 0
9030 1074 -8850 0
-9210 -642 0
-9210 9030 0
9210 642 -9030 0
-9566 90 0
-9566 9210 0
9566 -90 -9210 0
-9567 -90 0
-9567 -9210 0
9567 90 9210 0
-9568 -9566 0
-9568 -9567 0
9568 9566 9567 0
89 -39802 0
-89 39802 0
-513 300 0
-513 385 0
513 -300 -385 0
-641 -301 0
-641 513 0
641 301 -513 0
-945 292 0
-945 817 0
945 -292 -817 0
-1073 -293 0
-1073 945 0
1073 293 -945 0
-1377 284 0
-1377 1249 0
1377 -284 -1249 0
-1505 -285 0
-1505 1377 0
1505 285 -1377 0
-1809 276 0
-1809 1681 0
1809 -276 -1681 0
-1937 -277 0
-1937 1809 0
1937 277 -1809 0
-2241 268 0
-2241 2113 0
2241 -268 -2113 0
-2369 -269 0
-2369 2241 0
2369 269 -2241 0
-2673 260 0
-2673 2545 0
2673 -260 -2545 0
-2801 -261 0
-2801 2673 0
2801 261 -2673 0
-3105 252 0
-3105 2977 0
3105 -252 -2977 0
-3233 -253 0
-3233 3105 0
3233 253 -3105 0
-3537 244 0
-3537 3409 0
3537 -244 -3409 0
-3665 -245 0
-3665 3537 0
3665 245 -3537 0
-3969 236 0
-3969 3841 0
3969 -236 -3841 0
-4097 -237 0
-4097 3969 0
4097 237 -3969 0
-4401 228 0
-4401 4273 0
4401 -228 -4273 0
-4529 -229 0
-4529 4401 0
4529 229 -4401 0
-4833 220 0
-4833 4705 0
4833 -220 -4705 0
-4961 -221 0
-4961 4833 0
4961 221 -4833 0
-5265 212 0
-5265 5137 0
5265 -212 -5137 0
-5393 -213 0
-5393 5265 0
5393 213 -5265 0
-5697 204 0
-5697 5569 0
5697 -204 -5569 0
-5825 -205 0
-5825 5697 0
5825 205 -5697 0
-6129 196 0
-6129 6001 0
6129 -196 -6001 0
-6257 -197 0
-6257 6129 0
6257 197 -6129 0
-6561 188 0
-6561 6433 0
6561 -188 -6433 0
-6689 -189 0
-6689 6561 0
6689 189 -6561 0
-6869 -6257 0
-6869 -6689 0
6869 6257 6689 0
-7049 -5825 0
-7049 6869 0
7049 5825 -6869 0
-7229 -5393 0
-7229 7049 0
7229 5393 -7049 0
-7409 -4961 0
-7409 7229 0
7409 4961 -7229 0
-7589 -4529 0
-7589 7409 0
7589 4529 -7409 0
-7769 -4097 0
-7769 7589 0
7769 4097 -7589 0
-7949 -3665 0
-7949 7769 0
7949 3665 -7769 0
-8129 -3233 0
-8129 7949 0
8129 3233 -7949 0
-8309 -2801 0
-8309 8129 0
8309 2801 -8129 0
-8489 -2369 0
-8489 8309 0
8489 2369 -8309 0
-8669 -1937 0
-8669 8489 0
8669 1937 -8489 0
-8849 -1505 0
-8849 8669 0
8849 1505 -8669 0
-9029 -1073 0
-9029 8849 0
9029 1073 -8849 0
-9209 -641 0
-9209 9029 0
9209 641 -9029 0
-9563 89 0
-9563 9209 0
9563 -89 -9209 0
-9564 -89 0
-9564 -9209 0
9564 89 9209 0
-9565 -9563 0
-9565 -9564 0
9565 9563 9564 0
88 -39801 0
-88 39801 0
-512 300 0
-512 384 0
512 -300 -384 0
-640 -301 0
-640 512 0
640 301 -512 0
-944 292 0
-944 816 0
944 -292 -816 0
-1072 -293 0
-1072 944 0
1072 293 -944 0
-1376 284 0
-1376 1248 0
1376 -284 -1248 0
-1504 -285 0
-1504 1376 0
1504 285 -1376 0
-1808 276 0
-1808 1680 0
1808 -276 -1680 0
-1936 -277 0
-1936 1808 0
1936 277 -1808 0
-2240 268 0
-2240 2112 0
2240 -268 -2112 0
-2368 -269 0
-2368 2240 0
2368 269 -2240 0
-2672 260 0
-2672 2544 0
2672 -260 -2544 0
-2800 -261 0
-2800 2672 0
2800 261 -2672 0
-3104 252 0
-3104 2976 0
3104 -252 -2976 0
-3232 -253 0
-3232 3104 0
3232 253 -3104 0
-3536 244 0
-3536 3408 0
3536 -244 -3408 0
-3664 -245 0
-3664 3536 0
3664 245 -3536 0
-3968 236 0
-3968 3840 0
3968 -236 -3840 0
-4096 -237 0
-4096 3968 0
4096 237 -3968 0
-4400 228 0
-4400 4272 0
4400 -228 -4272 0
-4528 -229 0
-4528 4400 0
4528 229 -4400 0
-4832 220 0
-4832 4704 0
4832 -220 -4704 0
-4960 -221 0
-4960 4832 0
4960 221 -4832 0
-5264 212 0
-5264 5136 0
5264 -212 -5136 0
-5392 -213 0
-5392 5264 0
5392 213 -5264 0
-5696 204 0
-5696 5568 0
5696 -204 -5568 0
-5824 -205 0
-5824 5696 0
5824 205 -5696 0
-6128 196 0
-6128 6000 0
6128 -196 -6000 0
-6256 -197 0
-6256 6128 0
6256 197 -6128 0
-6560 188 0
-6560 6432 0
6560 -188 -6432 0
-6688 -189 0
-6688 6560 0
6688 189 -6560 0
-6868 -6256 0
-6868 -6688 0
6868 6256 6688 0
-7048 -5824 0
-7048 6868 0
7048 5824 -6868 0
-7228 -5392 0
-7228 7048 0
7228 5392 -7048 0
-7408 -4960 0
-7408 7228 0
7408 4960 -7228 0
-7588 -4528 0
-7588 7408 0
7588 4528 -7408 0
-7768 -4096 0
-7768 7588 0
7768 4096 -7588 0
-7948 -3664 0
-7948 7768 0
7948 3664 -7768 0
-8128 -3232 0
-8128 7948 0
8128 3232 -7948 0
-8308 -2800 0
-8308 8128 0
8308 2800 -8128 0
-8488 -2368 0
-8488 8308 0
8488 2368 -8308 0
-8668 -1936 0
-8668 8488 0
8668 1936 -8488 0
-8848 -1504 0
-8848 8668 0
8848 1504 -8668 0
-9028 -1072 0
-9028 8848 0
9028 1072 -8848 0
-9208 -640 0
-9208 9028 0
9208 640 -9028 0
-9560 88 0
-9560 9208 0
9560 -88 -9208 0
-9561 -88 0
-9561 -9208 0
9561 88 9208 0
-9562 -9560 0
-9562 -9561 0
9562 9560 9561 0
87 -39800 0
-87 39800 0
-511 300 0
-511 383 0
511 -300 -383 0
-639 -301 0
-639 511 0
639 301 -511 0
-943 292 0
-943 815 0
943 -292 -815 0
-1071 -293 0
-1071 943 0
1071 293 -943 0
-1375 284 0
-1375 1247 0
1375 -284 -1247 0
-1503 -285 0
-1503 1375 0
1503 285 -1375 0
-1807 276 0
-1807 1679 0
1807 -276 -1679 0
-1935 -277 0
-1935 1807 0
1935 277 -1807 0
-2239 268 0
-2239 2111 0
2239 -268 -2111 0
-2367 -269 0
-2367 2239 0
2367 269 -2239 0
-2671 260 0
-2671 2543 0
2671 -260 -2543 0
-2799 -261 0
-2799 2671 0
2799 261 -2671 0
-3103 252 0
-3103 2975 0
3103 -252 -2975 0
-3231 -253 0
-3231 3103 0
3231 253 -3103 0
-3535 244 0
-3535 3407 0
3535 -244 -3407 0
-3663 -245 0
-3663 3535 0
3663 245 -3535 0
-3967 236 0
-3967 3839 0
3967 -236 -3839 0
-4095 -237 0
-4095 3967 0
4095 237 -3967 0
-4399 228 0
-4399 4271 0
4399 -228 -4271 0
-4527 -229 0
-4527 4399 0
4527 229 -4399 0
-4831 220 0
-4831 4703 0
4831 -220 -4703 0
-4959 -221 0
-4959 4831 0
4959 221 -4831 0
-5263 212 0
-5263 5135 0
5263 -212 -5135 0
-5391 -213 0
-5391 5263 0
5391 213 -5263 0
-5695 204 0
-5695 5567 0
5695 -204 -5567 0
-5823 -205 0
-5823 5695 0
5823 205 -5695 0
-6127 196 0
-6127 5999 0
6127 -196 -5999 0
-6255 -197 0
-6255 6127 0
6255 197 -6127 0
-6559 188 0
-6559 6431 0
6559 -188 -6431 0
-6687 -189 0
-6687 6559 0
6687 189 -6559 0
-6867 -6255 0
-6867 -6687 0
6867 6255 6687 0
-7047 -5823 0
-7047 6867 0
7047 5823 -6867 0
-7227 -5391 0
-7227 7047 0
7227 5391 -7047 0
-7407 -4959 0
-7407 7227 0
7407 4959 -7227 0
-7587 -4527 0
-7587 7407 0
7587 4527 -7407 0
-7767 -4095 0
-7767 7587 0
7767 4095 -7587 0
-7947 -3663 0
-7947 7767 0
7947 3663 -7767 0
-8127 -3231 0
-8127 7947 0
8127 3231 -7947 0
-8307 -2799 0
-8307 8127 0
8307 2799 -8127 0
-8487 -2367 0
-8487 8307 0
8487 2367 -8307 0
-8667 -1935 0
-8667 8487 0
8667 1935 -8487 0
-8847 -1503 0
-8847 8667 0
8847 1503 -8667 0
-9027 -1071 0
-9027 8847 0
9027 1071 -8847 0
-9207 -639 0
-9207 9027 0
9207 639 -9027 0
-9557 87 0
-9557 9207 0
9557 -87 -9207 0
-9558 -87 0
-9558 -9207 0
9558 87 9207 0
-9559 -9557 0
-9559 -9558 0
9559 9557 9558 0
86 -39799 0
-86 39799 0
-510 300 0
-510 382 0
510 -300 -382 0
-638 -301 0
-638 510 0
638 301 -510 0
-942 292 0
-942 814 0
942 -292 -814 0
-1070 -293 0
-1070 942 0
1070 293 -942 0
-1374 284 0
-1374 1246 0
1374 -284 -1246 0
-1502 -285 0
-1502 1374 0
1502 285 -1374 0
-1806 276 0
-1806 1678 0
1806 -276 -1678 0
-1934 -277 0
-1934 1806 0
1934 277 -1806 0
-2238 268 0
-2238 2110 0
2238 -268 -2110 0
-2366 -269 0
-2366 2238 0
2366 269 -2238 0
-2670 260 0
-2670 2542 0
2670 -260 -2542 0
-2798 -261 0
-2798 2670 0
2798 261 -2670 0
-3102 252 0
-3102 2974 0
3102 -252 -2974 0
-3230 -253 0
-3230 3102 0
3230 253 -3102 0
-3534 244 0
-3534 3406 0
3534 -244 -3406 0
-3662 -245 0
-3662 3534 0
3662 245 -3534 0
-3966 236 0
-3966 3838 0
3966 -236 -3838 0
-4094 -237 0
-4094 3966 0
4094 237 -3966 0
-4398 228 0
-4398 4270 0
4398 -228 -4270 0
-4526 -229 0
-4526 4398 0
4526 229 -4398 0
-4830 220 0
-4830 4702 0
4830 -220 -4702 0
-4958 -221 0
-4958 4830 0
4958 221 -4830 0
-5262 212 0
-5262 5134 0
5262 -212 -5134 0
-5390 -213 0
-5390 5262 0
5390 213 -5262 0
-5694 204 0
-5694 5566 0
5694 -204 -5566 0
-5822 -205 0
-5822 5694 0
5822 205 -5694 0
-6126 196 0
-6126 5998 0
6126 -196 -5998 0
-6254 -197 0
-6254 6126 0
6254 197 -6126 0
-6558 188 0
-6558 6430 0
6558 -188 -6430 0
-6686 -189 0
-6686 6558 0
6686 189 -6558 0
-6866 -6254 0
-6866 -6686 0
6866 6254 6686 0
-7046 -5822 0
-7046 6866 0
7046 5822 -6866 0
-7226 -5390 0
-7226 7046 0
7226 5390 -7046 0
-7406 -4958 0
-7406 7226 0
7406 4958 -7226 0
-7586 -4526 0
-7586 7406 0
7586 4526 -7406 0
-7766 -4094 0
-7766 7586 0
7766 4094 -7586 0
-7946 -3662 0
-7946 7766 0
7946 3662 -7766 0
-8126 -3230 0
-8126 7946 0
8126 3230 -7946 0
-8306 -2798 0
-8306 8126 0
8306 2798 -8126 0
-8486 -2366 0
-8486 8306 0
8486 2366 -8306 0
-8666 -1934 0
-8666 8486 0
8666 1934 -8486 0
-8846 -1502 0
-8846 8666 0
8846 1502 -8666 0
-9026 -1070 0
-9026 8846 0
9026 1070 -8846 0
-9206 -638 0
-9206 9026 0
9206 638 -9026 0
-9554 86 0
-9554 9206 0
9554 -86 -9206 0
-9555 -86 0
-9555 -9206 0
9555 86 9206 0
-9556 -9554 0
-9556 -9555 0
9556 9554 9555 0
85 -39798 0
-85 39798 0
-509 300 0
-509 381 0
509 -300 -381 0
-637 -301 0
-637 509 0
637 301 -509 0
-941 292 0
-941 813 0
941 -292 -813 0
-1069 -293 0
-1069 941 0
1069 293 -941 0
-1373 284 0
-1373 1245 0
1373 -284 -1245 0
-1501 -285 0
-1501 1373 0
1501 285 -1373 0
-1805 276 0
-1805 1677 0
1805 -276 -1677 0
-1933 -277 0
-1933 1805 0
1933 277 -1805 0
-2237 268 0
-2237 2109 0
2237 -268 -2109 0
-2365 -269 0
-2365 2237 0
2365 269 -2237 0
-2669 260 0
-2669 2541 0
2669 -260 -2541 0
-2797 -261 0
-2797 2669 0
2797 261 -2669 0
-3101 252 0
-3101 2973 0
3101 -252 -2973 0
-3229 -253 0
-3229 3101 0
3229 253 -3101 0
-3533 244 0
-3533 3405 0
3533 -244 -3405 0
-3661 -245 0
-3661 3533 0
3661 245 -3533 0
-3965 236 0
-3965 3837 0
3965 -236 -3837 0
-4093 -237 0
-4093 3965 0
4093 237 -3965 0
-4397 228 0
-4397 4269 0
4397 -228 -4269 0
-4525 -229 0
-4525 4397 0
4525 229 -4397 0
-4829 220 0
-4829 4701 0
4829 -220 -4701 0
-4957 -221 0
-4957 4829 0
4957 221 -4829 0
-5261 212 0
-5261 5133 0
5261 -212 -5133 0
-5389 -213 0
-5389 5261 0
5389 213 -5261 0
-5693 204 0
-5693 5565 0
5693 -204 -5565 0
-5821 -205 0
-5821 5693 0
5821 205 -5693 0
-6125 196 0
-6125 5997 0
6125 -196 -5997 0
-6253 -197 0
-6253 6125 0
6253 197 -6125 0
-6557 188 0
-6557 6429 0
6557 -188 -6429 0
-6685 -189 0
-6685 6557 0
6685 189 -6557 0
-6865 -6253 0
-6865 -6685 0
6865 6253 6685 0
-7045 -5821 0
-7045 6865 0
7045 5821 -6865 0
-7225 -5389 0
-7225 7045 0
7225 5389 -7045 0
-7405 -4957 0
-7405 7225 0
7405 4957 -7225 0
-7585 -4525 0
-7585 7405 0
7585 4525 -7405 0
-7765 -4093 0
-7765 7585 0
7765 4093 -7585 0
-7945 -3661 0
-7945 7765 0
7945 3661 -7765 0
-8125 -3229 0
-8125 7945 0
8125 3229 -7945 0
-8305 -2797 0
-8305 8125 0
8305 2797 -8125 0
-8485 -2365 0
-8485 8305 0
8485 2365 -8305 0
-8665 -1933 0
-8665 8485 0
8665 1933 -8485 0
-8845 -1501 0
-8845 8665 0
8845 1501 -8665 0
-9025 -1069 0
-9025 8845 0
9025 1069 -8845 0
-9205 -637 0
-9205 9025 0
9205 637 -9025 0
-9551 85 0
-9551 9205 0
9551 -85 -9205 0
-9552 -85 0
-9552 -9205 0
9552 85 9205 0
-9553 -9551 0
-9553 -9552 0
9553 9551 9552 0
84 -39797 0
-84 39797 0
-508 300 0
-508 380 0
508 -300 -380 0
-636 -301 0
-636 508 0
636 301 -508 0
-940 292 0
-940 812 0
940 -292 -812 0
-1068 -293 0
-1068 940 0
1068 293 -940 0
-1372 284 0
-1372 1244 0
1372 -284 -1244 0
-1500 -285 0
-1500 1372 0
1500 285 -1372 0
-1804 276 0
-1804 1676 0
1804 -276 -1676 0
-1932 -277 0
-1932 1804 0
1932 277 -1804 0
-2236 268 0
-2236 2108 0
2236 -268 -2108 0
-2364 -269 0
-2364 2236 0
2364 269 -2236 0
-2668 260 0
-2668 2540 0
2668 -260 -2540 0
-2796 -261 0
-2796 2668 0
2796 261 -2668 0
-3100 252 0
-3100 2972 0
3100 -252 -2972 0
-3228 -253 0
-3228 3100 0
3228 253 -3100 0
-3532 244 0
-3532 3404 0
3532 -244 -3404 0
-3660 -245 0
-3660 3532 0
3660 245 -3532 0
-3964 236 0
-3964 3836 0
3964 -236 -3836 0
-4092 -237 0
-4092 3964 0
4092 237 -3964 0
-4396 228 0
-4396 4268 0
4396 -228 -4268 0
-4524 -229 0
-4524 4396 0
4524 229 -4396 0
-4828 220 0
-4828 4700 0
4828 -220 -4700 0
-4956 -221 0
-4956 4828 0
4956 221 -4828 0
-5260 212 0
-5260 5132 0
5260 -212 -5132 0
-5388 -213 0
-5388 5260 0
5388 213 -5260 0
-5692 204 0
-5692 5564 0
5692 -204 -5564 0
-5820 -205 0
-5820 5692 0
5820 205 -5692 0
-6124 196 0
-6124 5996 0
6124 -196 -5996 0
-6252 -197 0
-6252 6124 0
6252 197 -6124 0
-6556 188 0
-6556 6428 0
6556 -188 -6428 0
-6684 -189 0
-6684 6556 0
6684 189 -6556 0
-6864 -6252 0
-6864 -6684 0
6864 6252 6684 0
-7044 -5820 0
-7044 6864 0
7044 5820 -6864 0
-7224 -5388 0
-7224 7044 0
7224 5388 -7044 0
-7404 -4956 0
-7404 7224 0
7404 4956 -7224 0
-7584 -4524 0
-7584 7404 0
7584 4524 -7404 0
-7764 -4092 0
-7764 7584 0
7764 4092 -7584 0
-7944 -3660 0
-7944 7764 0
7944 3660 -7764 0
-8124 -3228 0
-8124 7944 0
8124 3228 -7944 0
-8304 -2796 0
-8304 8124 0
8304 2796 -8124 0
-8484 -2364 0
-8484 8304 0
8484 2364 -8304 0
-8664 -1932 0
-8664 8484 0
8664 1932 -8484 0
-8844 -1500 0
-8844 8664 0
8844 1500 -8664 0
-9024 -1068 0
-9024 8844 0
9024 1068 -8844 0
-9204 -636 0
-9204 9024 0
9204 636 -9024 0
-9548 84 0
-9548 9204 0
9548 -84 -9204 0
-9549 -84 0
-9549 -9204 0
9549 84 9204 0
-9550 -9548 0
-9550 -9549 0
9550 9548 9549 0
83 -39796 0
-83 39796 0
-507 300 0
-507 379 0
507 -300 -379 0
-635 -301 0
-635 507 0
635 301 -507 0
-939 292 0
-939 811 0
939 -292 -811 0
-1067 -293 0
-1067 939 0
1067 293 -939 0
-1371 284 0
-1371 1243 0
1371 -284 -1243 0
-1499 -285 0
-1499 1371 0
1499 285 -1371 0
-1803 276 0
-1803 1675 0
1803 -276 -1675 0
-1931 -277 0
-1931 1803 0
1931 277 -1803 0
-2235 268 0
-2235 2107 0
2235 -268 -2107 0
-2363 -269 0
-2363 2235 0
2363 269 -2235 0
-2667 260 0
-2667 2539 0
2667 -260 -2539 0
-2795 -261 0
-2795 2667 0
2795 261 -2667 0
-3099 252 0
-3099 2971 0
3099 -252 -2971 0
-3227 -253 0
-3227 3099 0
3227 253 -3099 0
-3531 244 0
-3531 3403 0
3531 -244 -3403 0
-3659 -245 0
-3659 3531 0
3659 245 -3531 0
-3963 236 0
-3963 3835 0
3963 -236 -3835 0
-4091 -237 0
-4091 3963 0
4091 237 -3963 0
-4395 228 0
-4395 4267 0
4395 -228 -4267 0
-4523 -229 0
-4523 4395 0
4523 229 -4395 0
-4827 220 0
-4827 4699 0
4827 -220 -4699 0
-4955 -221 0
-4955 4827 0
4955 221 -4827 0
-5259 212 0
-5259 5131 0
5259 -212 -5131 0
-5387 -213 0
-5387 5259 0
5387 213 -5259 0
-5691 204 0
-5691 5563 0
5691 -204 -5563 0
-5819 -205 0
-5819 5691 0
5819 205 -5691 0
-6123 196 0
-6123 5995 0
6123 -196 -5995 0
-6251 -197 0
-6251 6123 0
6251 197 -6123 0
-6555 188 0
-6555 6427 0
6555 -188 -6427 0
-6683 -189 0
-6683 6555 0
6683 189 -6555 0
-6863 -6251 0
-6863 -6683 0
6863 6251 6683 0
-7043 -5819 0
-7043 6863 0
7043 5819 -6863 0
-7223 -5387 0
-7223 7043 0
7223 5387 -7043 0
-7403 -4955 0
-7403 7223 0
7403 4955 -7223 0
-7583 -4523 0
-7583 7403 0
7583 4523 -7403 0
-7763 -4091 0
-7763 7583 0
7763 4091 -7583 0
-7943 -3659 0
-7943 7763 0
7943 3659 -7763 0
-8123 -3227 0
-8123 7943 0
8123 3227 -7943 0
-8303 -2795 0
-8303 8123 0
8303 2795 -8123 0
-8483 -2363 0
-8483 8303 0
8483 2363 -8303 0
-8663 -1931 0
-8663 8483 0
8663 1931 -8483 0
-8843 -1499 0
-8843 8663 0
8843 1499 -8663 0
-9023 -1067 0
-9023 8843 0
9023 1067 -8843 0
-9203 -635 0
-9203 9023 0
9203 635 -9023 0
-9545 83 0
-9545 9203 0
9545 -83 -9203 0
-9546 -83 0
-9546 -9203 0
9546 83 9203 0
-9547 -9545 0
-9547 -9546 0
9547 9545 9546 0
82 -39795 0
-82 39795 0
-506 300 0
-506 378 0
506 -300 -378 0
-634 -301 0
-634 506 0
634 301 -506 0
-938 292 0
-938 810 0
938 -292 -810 0
-1066 -293 0
-1066 938 0
1066 293 -938 0
-1370 284 0
-1370 1242 0
1370 -284 -1242 0
-1498 -285 0
-1498 1370 0
1498 285 -1370 0
-1802 276 0
-1802 1674 0
1802 -276 -1674 0
-1930 -277 0
-1930 1802 0
1930 277 -1802 0
-2234 268 0
-2234 2106 0
2234 -268 -2106 0
-2362 -269 0
-2362 2234 0
2362 269 -2234 0
-2666 260 0
-2666 2538 0
2666 -260 -2538 0
-2794 -261 0
-2794 2666 0
2794 261 -2666 0
-3098 252 0
-3098 2970 0
3098 -252 -2970 0
-3226 -253 0
-3226 3098 0
3226 253 -3098 0
-3530 244 0
-3530 3402 0
3530 -244 -3402 0
-3658 -245 0
-3658 3530 0
3658 245 -3530 0
-3962 236 0
-3962 3834 0
3962 -236 -3834 0
-4090 -237 0
-4090 3962 0
4090 237 -3962 0
-4394 228 0
-4394 4266 0
4394 -228 -4266 0
-4522 -229 0
-4522 4394 0
4522 229 -4394 0
-4826 220 0
-4826 4698 0
4826 -220 -4698 0
-4954 -221 0
-4954 4826 0
4954 221 -4826 0
-5258 212 0
-5258 5130 0
5258 -212 -5130 0
-5386 -213 0
-5386 5258 0
5386 213 -5258 0
-5690 204 0
-5690 5562 0
5690 -204 -5562 0
-5818 -205 0
-5818 5690 0
5818 205 -5690 0
-6122 196 0
-6122 5994 0
6122 -196 -5994 0
-6250 -197 0
-6250 6122 0
6250 197 -6122 0
-6554 188 0
-6554 6426 0
6554 -188 -6426 0
-6682 -189 0
-6682 6554 0
6682 189 -6554 0
-6862 -6250 0
-6862 -6682 0
6862 6250 6682 0
-7042 -5818 0
-7042 6862 0
7042 5818 -6862 0
-7222 -5386 0
-7222 7042 0
7222 5386 -7042 0
-7402 -4954 0
-7402 7222 0
7402 4954 -7222 0
-7582 -4522 0
-7582 7402 0
7582 4522 -7402 0
-7762 -4090 0
-7762 7582 0
7762 4090 -7582 0
-7942 -3658 0
-7942 7762 0
7942 3658 -7762 0
-8122 -3226 0
-8122 7942 0
8122 3226 -7942 0
-8302 -2794 0
-8302 8122 0
8302 2794 -8122 0
-8482 -2362 0
-8482 8302 0
8482 2362 -8302 0
-8662 -1930 0
-8662 8482 0
8662 1930 -8482 0
-8842 -1498 0
-8842 8662 0
8842 1498 -8662 0
-9022 -1066 0
-9022 8842 0
9022 1066 -8842 0
-9202 -634 0
-9202 9022 0
9202 634 -9022 0
-9542 82 0
-9542 9202 0
9542 -82 -9202 0
-9543 -82 0
-9543 -9202 0
9543 82 9202 0
-9544 -9542 0
-9544 -9543 0
9544 9542 9543 0
81 -39794 0
-81 39794 0
-505 300 0
-505 377 0
505 -300 -377 0
-633 -301 0
-633 505 0
633 301 -505 0
-937 292 0
-937 809 0
937 -292 -809 0
-1065 -293 0
-1065 937 0
1065 293 -937 0
-1369 284 0
-1369 1241 0
1369 -284 -1241 0
-1497 -285 0
-1497 1369 0
1497 285 -1369 0
-1801 276 0
-1801 1673 0
1801 -276 -1673 0
-1929 -277 0
-1929 1801 0
1929 277 -1801 0
-2233 268 0
-2233 2105 0
2233 -268 -2105 0
-2361 -269 0
-2361 2233 0
2361 269 -2233 0
-2665 260 0
-2665 2537 0
2665 -260 -2537 0
-2793 -261 0
-2793 2665 0
2793 261 -2665 0
-3097 252 0
-3097 2969 0
3097 -252 -2969 0
-3225 -253 0
-3225 3097 0
3225 253 -3097 0
-3529 244 0
-3529 3401 0
3529 -244 -3401 0
-3657 -245 0
-3657 3529 0
3657 245 -3529 0
-3961 236 0
-3961 3833 0
3961 -236 -3833 0
-4089 -237 0
-4089 3961 0
4089 237 -3961 0
-4393 228 0
-4393 4265 0
4393 -228 -4265 0
-4521 -229 0
-4521 4393 0
4521 229 -4393 0
-4825 220 0
-4825 4697 0
4825 -220 -4697 0
-4953 -221 0
-4953 4825 0
4953 221 -4825 0
-5257 212 0
-5257 5129 0
5257 -212 -5129 0
-5385 -213 0
-5385 5257 0
5385 213 -5257 0
-5689 204 0
-5689 5561 0
5689 -204 -5561 0
-5817 -205 0
-5817 5689 0
5817 205 -5689 0
-6121 196 0
-6121 5993 0
6121 -196 -5993 0
-6249 -197 0
-6249 6121 0
6249 197 -6121 0
-6553 188 0
-6553 6425 0
6553 -188 -6425 0
-6681 -189 0
-6681 6553 0
6681 189 -6553 0
-6861 -6249 0
-6861 -6681 0
6861 6249 6681 0
-7041 -5817 0
-7041 6861 0
7041 5817 -6861 0
-7221 -5385 0
-7221 7041 0
7221 5385 -7041 0
-7401 -4953 0
-7401 7221 0
7401 4953 -7221 0
-7581 -4521 0
-7581 7401 0
7581 4521 -7401 0
-7761 -4089 0
-7761 7581 0
7761 4089 -7581 0
-7941 -3657 0
-7941 7761 0
7941 3657 -7761 0
-8121 -3225 0
-8121 7941 0
8121 3225 -7941 0
-8301 -2793 0
-8301 8121 0
8301 2793 -8121 0
-8481 -2361 0
-8481 8301 0
8481 2361 -8301 0
-8661 -1929 0
-8661 8481 0
8661 1929 -8481 0
-8841 -1497 0
-8841 8661 0
8841 1497 -8661 0
-9021 -1065 0
-9021 8841 0
9021 1065 -8841 0
-9201 -633 0
-9201 9021 0
9201 633 -9021 0
-9539 81 0
-9539 9201 0
9539 -81 -9201 0
-9540 -81 0
-9540 -9201 0
9540 81 9201 0
-9541 -9539 0
-9541 -9540 0
9541 9539 9540 0
80 -39793 0
-80 39793 0
-504 300 0
-504 376 0
504 -300 -376 0
-632 -301 0
-632 504 0
632 301 -504 0
-936 292 0
-936 808 0
936 -292 -808 0
-1064 -293 0
-1064 936 0
1064 293 -936 0
-1368 284 0
-1368 1240 0
1368 -284 -1240 0
-1496 -285 0
-1496 1368 0
1496 285 -1368 0
-1800 276 0
-1800 1672 0
1800 -276 -1672 0
-1928 -277 0
-1928 1800 0
1928 277 -1800 0
-2232 268 0
-2232 2104 0
2232 -268 -2104 0
-2360 -269 0
-2360 2232 0
2360 269 -2232 0
-2664 260 0
-2664 2536 0
2664 -260 -2536 0
-2792 -261 0
-2792 2664 0
2792 261 -2664 0
-3096 252 0
-3096 2968 0
3096 -252 -2968 0
-3224 -253 0
-3224 3096 0
3224 253 -3096 0
-3528 244 0
-3528 3400 0
3528 -244 -3400 0
-3656 -245 0
-3656 3528 0
3656 245 -3528 0
-3960 236 0
-3960 3832 0
3960 -236 -3832 0
-4088 -237 0
-4088 3960 0
4088 237 -3960 0
-4392 228 0
-4392 4264 0
4392 -228 -4264 0
-4520 -229 0
-4520 4392 0
4520 229 -4392 0
-4824 220 0
-4824 4696 0
4824 -220 -4696 0
-4952 -221 0
-4952 4824 0
4952 221 -4824 0
-5256 212 0
-5256 5128 0
5256 -212 -5128 0
-5384 -213 0
-5384 5256 0
5384 213 -5256 0
-5688 204 0
-5688 5560 0
5688 -204 -5560 0
-5816 -205 0
-5816 5688 0
5816 205 -5688 0
-6120 196 0
-6120 5992 0
6120 -196 -5992 0
-6248 -197 0
-6248 6120 0
6248 197 -6120 0
-6552 188 0
-6552 6424 0
6552 -188 -6424 0
-6680 -189 0
-6680 6552 0
6680 189 -6552 0
-6860 -6248 0
-6860 -6680 0
6860 6248 6680 0
-7040 -5816 0
-7040 6860 0
7040 5816 -6860 0
-7220 -5384 0
-7220 7040 0
7220 5384 -7040 0
-7400 -4952 0
-7400 7220 0
7400 4952 -7220 0
-7580 -4520 0
-7580 7400 0
7580 4520 -7400 0
-7760 -4088 0
-7760 7580 0
7760 4088 -7580 0
-7940 -3656 0
-7940 7760 0
7940 3656 -7760 0
-8120 -3224 0
-8120 7940 0
8120 3224 -7940 0
-8300 -2792 0
-8300 8120 0
8300 2792 -8120 0
-8480 -2360 0
-8480 8300 0
8480 2360 -8300 0
-8660 -1928 0
-8660 8480 0
8660 1928 -8480 0
-8840 -1496 0
-8840 8660 0
8840 1496 -8660 0
-9020 -1064 0
-9020 8840 0
9020 1064 -8840 0
-9200 -632 0
-9200 9020 0
9200 632 -9020 0
-9536 80 0
-9536 9200 0
9536 -80 -9200 0
-9537 -80 0
-9537 -9200 0
9537 80 9200 0
-9538 -9536 0
-9538 -9537 0
9538 9536 9537 0
79 -39792 0
-79 39792 0
-503 300 0
-503 375 0
503 -300 -375 0
-631 -301 0
-631 503 0
631 301 -503 0
-935 292 0
-935 807 0
935 -292 -807 0
-1063 -293 0
-1063 935 0
1063 293 -935 0
-1367 284 0
-1367 1239 0
1367 -284 -1239 0
-1495 -285 0
-1495 1367 0
1495 285 -1367 0
-1799 276 0
-1799 1671 0
1799 -276 -1671 0
-1927 -277 0
-1927 1799 0
1927 277 -1799 0
-2231 268 0
-2231 2103 0
2231 -268 -2103 0
-2359 -269 0
-2359 2231 0
2359 269 -2231 0
-2663 260 0
-2663 2535 0
2663 -260 -2535 0
-2791 -261 0
-2791 2663 0
2791 261 -2663 0
-3095 252 0
-3095 2967 0
3095 -252 -2967 0
-3223 -253 0
-3223 3095 0
3223 253 -3095 0
-3527 244 0
-3527 3399 0
3527 -244 -3399 0
-3655 -245 0
-3655 3527 0
3655 245 -3527 0
-3959 236 0
-3959 3831 0
3959 -236 -3831 0
-4087 -237 0
-4087 3959 0
4087 237 -3959 0
-4391 228 0
-4391 4263 0
4391 -228 -4263 0
-4519 -229 0
-4519 4391 0
4519 229 -4391 0
-4823 220 0
-4823 4695 0
4823 -220 -4695 0
-4951 -221 0
-4951 4823 0
4951 221 -4823 0
-5255 212 0
-5255 5127 0
5255 -212 -5127 0
-5383 -213 0
-5383 5255 0
5383 213 -5255 0
-5687 204 0
-5687 5559 0
5687 -204 -5559 0
-5815 -205 0
-5815 5687 0
5815 205 -5687 0
-6119 196 0
-6119 5991 0
6119 -196 -5991 0
-6247 -197 0
-6247 6119 0
6247 197 -6119 0
-6551 188 0
-6551 6423 0
6551 -188 -6423 0
-6679 -189 0
-6679 6551 0
6679 189 -6551 0
-6859 -6247 0
-6859 -6679 0
6859 6247 6679 0
-7039 -5815 0
-7039 6859 0
7039 5815 -6859 0
-7219 -5383 0
-7219 7039 0
7219 5383 -7039 0
-7399 -4951 0
-7399 7219 0
7399 4951 -7219 0
-7579 -4519 0
-7579 7399 0
7579 4519 -7399 0
-7759 -4087 0
-7759 7579 0
7759 4087 -7579 0
-7939 -3655 0
-7939 7759 0
7939 3655 -7759 0
-8119 -3223 0
-8119 7939 0
8119 3223 -7939 0
-8299 -2791 0
-8299 8119 0
8299 2791 -8119 0
-8479 -2359 0
-8479 8299 0
8479 2359 -8299 0
-8659 -1927 0
-8659 8479 0
8659 1927 -8479 0
-8839 -1495 0
-8839 8659 0
8839 1495 -8659 0
-9019 -1063 0
-9019 8839 0
9019 1063 -8839 0
-9199 -631 0
-9199 9019 0
9199 631 -9019 0
-9533 79 0
-9533 9199 0
9533 -79 -9199 0
-9534 -79 0
-9534 -9199 0
9534 79 9199 0
-9535 -9533 0
-9535 -9534 0
9535 9533 9534 0
78 -39791 0
-78 39791 0
-502 300 0
-502 374 0
502 -300 -374 0
-630 -301 0
-630 502 0
630 301 -502 0
-934 292 0
-934 806 0
934 -292 -806 0
-1062 -293 0
-1062 934 0
1062 293 -934 0
-1366 284 0
-1366 1238 0
1366 -284 -1238 0
-1494 -285 0
-1494 1366 0
1494 285 -1366 0
-1798 276 0
-1798 1670 0
1798 -276 -1670 0
-1926 -277 0
-1926 1798 0
1926 277 -1798 0
-2230 268 0
-2230 2102 0
2230 -268 -2102 0
-2358 -269 0
-2358 2230 0
2358 269 -2230 0
-2662 260 0
-2662 2534 0
2662 -260 -2534 0
-2790 -261 0
-2790 2662 0
2790 261 -2662 0
-3094 252 0
-3094 2966 0
3094 -252 -2966 0
-3222 -253 0
-3222 3094 0
3222 253 -3094 0
-3526 244 0
-3526 3398 0
3526 -244 -3398 0
-3654 -245 0
-3654 3526 0
3654 245 -3526 0
-3958 236 0
-3958 3830 0
3958 -236 -3830 0
-4086 -237 0
-4086 3958 0
4086 237 -3958 0
-4390 228 0
-4390 4262 0
4390 -228 -4262 0
-4518 -229 0
-4518 4390 0
4518 229 -4390 0
-4822 220 0
-4822 4694 0
4822 -220 -4694 0
-4950 -221 0
-4950 4822 0
4950 221 -4822 0
-5254 212 0
-5254 5126 0
5254 -212 -5126 0
-5382 -213 0
-5382 5254 0
5382 213 -5254 0
-5686 204 0
-5686 5558 0
5686 -204 -5558 0
-5814 -205 0
-5814 5686 0
5814 205 -5686 0
-6118 196 0
-6118 5990 0
6118 -196 -5990 0
-6246 -197 0
-6246 6118 0
6246 197 -6118 0
-6550 188 0
-6550 6422 0
6550 -188 -6422 0
-6678 -189 0
-6678 6550 0
6678 189 -6550 0
-6858 -6246 0
-6858 -6678 0
6858 6246 6678 0
-7038 -5814 0
-7038 6858 0
7038 5814 -6858 0
-7218 -5382 0
-7218 7038 0
7218 5382 -7038 0
-7398 -4950 0
-7398 7218 0
7398 4950 -7218 0
-7578 -4518 0
-7578 7398 0
7578 4518 -7398 0
-7758 -4086 0
-7758 7578 0
7758 4086 -7578 0
-7938 -3654 0
-7938 7758 0
7938 3654 -7758 0
-8118 -3222 0
-8118 7938 0
8118 3222 -7938 0
-8298 -2790 0
-8298 8118 0
8298 2790 -8118 0
-8478 -2358 0
-8478 8298 0
8478 2358 -8298 0
-8658 -1926 0
-8658 8478 0
8658 1926 -8478 0
-8838 -1494 0
-8838 8658 0
8838 1494 -8658 0
-9018 -1062 0
-9018 8838 0
9018 1062 -8838 0
-9198 -630 0
-9198 9018 0
9198 630 -9018 0
-9530 78 0
-9530 9198 0
9530 -78 -9198 0
-9531 -78 0
-9531 -9198 0
9531 78 9198 0
-9532 -9530 0
-9532 -9531 0
9532 9530 9531 0
77 -39790 0
-77 39790 0
-501 300 0
-501 373 0
501 -300 -373 0
-629 -301 0
-629 501 0
629 301 -501 0
-933 292 0
-933 805 0
933 -292 -805 0
-1061 -293 0
-1061 933 0
1061 293 -933 0
-1365 284 0
-1365 1237 0
1365 -284 -1237 0
-1493 -285 0
-1493 1365 0
1493 285 -1365 0
-1797 276 0
-1797 1669 0
1797 -276 -1669 0
-1925 -277 0
-1925 1797 0
1925 277 -1797 0
-2229 268 0
-2229 2101 0
2229 -268 -2101 0
-2357 -269 0
-2357 2229 0
2357 269 -2229 0
-2661 260 0
-2661 2533 0
2661 -260 -2533 0
-2789 -261 0
-2789 2661 0
2789 261 -2661 0
-3093 252 0
-3093 2965 0
3093 -252 -2965 0
-3221 -253 0
-3221 3093 0
3221 253 -3093 0
-3525 244 0
-3525 3397 0
3525 -244 -3397 0
-3653 -245 0
-3653 3525 0
3653 245 -3525 0
-3957 236 0
-3957 3829 0
3957 -236 -3829 0
-4085 -237 0
-4085 3957 0
4085 237 -3957 0
-4389 228 0
-4389 4261 0
4389 -228 -4261 0
-4517 -229 0
-4517 4389 0
4517 229 -4389 0
-4821 220 0
-4821 4693 0
4821 -220 -4693 0
-4949 -221 0
-4949 4821 0
4949 221 -4821 0
-5253 212 0
-5253 5125 0
5253 -212 -5125 0
-5381 -213 0
-5381 5253 0
5381 213 -5253 0
-5685 204 0
-5685 5557 0
5685 -204 -5557 0
-5813 -205 0
-5813 5685 0
5813 205 -5685 0
-6117 196 0
-6117 5989 0
6117 -196 -5989 0
-6245 -197 0
-6245 6117 0
6245 197 -6117 0
-6549 188 0
-6549 6421 0
6549 -188 -6421 0
-6677 -189 0
-6677 6549 0
6677 189 -6549 0
-6857 -6245 0
-6857 -6677 0
6857 6245 6677 0
-7037 -5813 0
-7037 6857 0
7037 5813 -6857 0
-7217 -5381 0
-7217 7037 0
7217 5381 -7037 0
-7397 -4949 0
-7397 7217 0
7397 4949 -7217 0
-7577 -4517 0
-7577 7397 0
7577 4517 -7397 0
-7757 -4085 0
-7757 7577 0
7757 4085 -7577 0
-7937 -3653 0
-7937 7757 0
7937 3653 -7757 0
-8117 -3221 0
-8117 7937 0
8117 3221 -7937 0
-8297 -2789 0
-8297 8117 0
8297 2789 -8117 0
-8477 -2357 0
-8477 8297 0
8477 2357 -8297 0
-8657 -1925 0
-8657 8477 0
8657 1925 -8477 0
-8837 -1493 0
-8837 8657 0
8837 1493 -8657 0
-9017 -1061 0
-9017 8837 0
9017 1061 -8837 0
-9197 -629 0
-9197 9017 0
9197 629 -9017 0
-9527 77 0
-9527 9197 0
9527 -77 -9197 0
-9528 -77 0
-9528 -9197 0
9528 77 9197 0
-9529 -9527 0
-9529 -9528 0
9529 9527 9528 0
76 -39789 0
-76 39789 0
-500 300 0
-500 372 0
500 -300 -372 0
-628 -301 0
-628 500 0
628 301 -500 0
-932 292 0
-932 804 0
932 -292 -804 0
-1060 -293 0
-1060 932 0
1060 293 -932 0
-1364 284 0
-1364 1236 0
1364 -284 -1236 0
-1492 -285 0
-1492 1364 0
1492 285 -1364 0
-1796 276 0
-1796 1668 0
1796 -276 -1668 0
-1924 -277 0
-1924 1796 0
1924 277 -1796 0
-2228 268 0
-2228 2100 0
2228 -268 -2100 0
-2356 -269 0
-2356 2228 0
2356 269 -2228 0
-2660 260 0
-2660 2532 0
2660 -260 -2532 0
-2788 -261 0
-2788 2660 0
2788 261 -2660 0
-3092 252 0
-3092 2964 0
3092 -252 -2964 0
-3220 -253 0
-3220 3092 0
3220 253 -3092 0
-3524 244 0
-3524 3396 0
3524 -244 -3396 0
-3652 -245 0
-3652 3524 0
3652 245 -3524 0
-3956 236 0
-3956 3828 0
3956 -236 -3828 0
-4084 -237 0
-4084 3956 0
4084 237 -3956 0
-4388 228 0
-4388 4260 0
4388 -228 -4260 0
-4516 -229 0
-4516 4388 0
4516 229 -4388 0
-4820 220 0
-4820 4692 0
4820 -220 -4692 0
-4948 -221 0
-4948 4820 0
4948 221 -4820 0
-5252 212 0
-5252 5124 0
5252 -212 -5124 0
-5380 -213 0
-5380 5252 0
5380 213 -5252 0
-5684 204 0
-5684 5556 0
5684 -204 -5556 0
-5812 -205 0
-5812 5684 0
5812 205 -5684 0
-6116 196 0
-6116 5988 0
6116 -196 -5988 0
-6244 -197 0
-6244 6116 0
6244 197 -6116 0
-6548 188 0
-6548 6420 0
6548 -188 -6420 0
-6676 -189 0
-6676 6548 0
6676 189 -6548 0
-6856 -6244 0
-6856 -6676 0
6856 6244 6676 0
-7036 -5812 0
-7036 6856 0
7036 5812 -6856 0
-7216 -5380 0
-7216 7036 0
7216 5380 -7036 0
-7396 -4948 0
-7396 7216 0
7396 4948 -7216 0
-7576 -4516 0
-7576 7396 0
7576 4516 -7396 0
-7756 -4084 0
-7756 7576 0
7756 4084 -7576 0
-7936 -3652 0
-7936 7756 0
7936 3652 -7756 0
-8116 -3220 0
-8116 7936 0
8116 3220 -7936 0
-8296 -2788 0
-8296 8116 0
8296 2788 -8116 0
-8476 -2356 0
-8476 8296 0
8476 2356 -8296 0
-8656 -1924 0
-8656 8476 0
8656 1924 -8476 0
-8836 -1492 0
-8836 8656 0
8836 1492 -8656 0
-9016 -1060 0
-9016 8836 0
9016 1060 -8836 0
-9196 -628 0
-9196 9016 0
9196 628 -9016 0
-9524 76 0
-9524 9196 0
9524 -76 -9196 0
-9525 -76 0
-9525 -9196 0
9525 76 9196 0
-9526 -9524 0
-9526 -9525 0
9526 9524 9525 0
75 -39788 0
-75 39788 0
-499 300 0
-499 371 0
499 -300 -371 0
-627 -301 0
-627 499 0
627 301 -499 0
-931 292 0
-931 803 0
931 -292 -803 0
-1059 -293 0
-1059 931 0
1059 293 -931 0
-1363 284 0
-1363 1235 0
1363 -284 -1235 0
-1491 -285 0
-1491 1363 0
1491 285 -1363 0
-1795 276 0
-1795 1667 0
1795 -276 -1667 0
-1923 -277 0
-1923 1795 0
1923 277 -1795 0
-2227 268 0
-2227 2099 0
2227 -268 -2099 0
-2355 -269 0
-2355 2227 0
2355 269 -2227 0
-2659 260 0
-2659 2531 0
2659 -260 -2531 0
-2787 -261 0
-2787 2659 0
2787 261 -2659 0
-3091 252 0
-3091 2963 0
3091 -252 -2963 0
-3219 -253 0
-3219 3091 0
3219 253 -3091 0
-3523 244 0
-3523 3395 0
3523 -244 -3395 0
-3651 -245 0
-3651 3523 0
3651 245 -3523 0
-3955 236 0
-3955 3827 0
3955 -236 -3827 0
-4083 -237 0
-4083 3955 0
4083 237 -3955 0
-4387 228 0
-4387 4259 0
4387 -228 -4259 0
-4515 -229 0
-4515 4387 0
4515 229 -4387 0
-4819 220 0
-4819 4691 0
4819 -220 -4691 0
-4947 -221 0
-4947 4819 0
4947 221 -4819 0
-5251 212 0
-5251 5123 0
5251 -212 -5123 0
-5379 -213 0
-5379 5251 0
5379 213 -5251 0
-5683 204 0
-5683 5555 0
5683 -204 -5555 0
-5811 -205 0
-5811 5683 0
5811 205 -5683 0
-6115 196 0
-6115 5987 0
6115 -196 -5987 0
-6243 -197 0
-6243 6115 0
6243 197 -6115 0
-6547 188 0
-6547 6419 0
6547 -188 -6419 0
-6675 -189 0
-6675 6547 0
6675 189 -6547 0
-6855 -6243 0
-6855 -6675 0
6855 6243 6675 0
-7035 -5811 0
-7035 6855 0
7035 5811 -6855 0
-7215 -5379 0
-7215 7035 0
7215 5379 -7035 0
-7395 -4947 0
-7395 7215 0
7395 4947 -7215 0
-7575 -4515 0
-7575 7395 0
7575 4515 -7395 0
-7755 -4083 0
-7755 7575 0
7755 4083 -7575 0
-7935 -3651 0
-7935 7755 0
7935 3651 -7755 0
-8115 -3219 0
-8115 7935 0
8115 3219 -7935 0
-8295 -2787 0
-8295 8115 0
8295 2787 -8115 0
-8475 -2355 0
-8475 8295 0
8475 2355 -8295 0
-8655 -1923 0
-8655 8475 0
8655 1923 -8475 0
-8835 -1491 0
-8835 8655 0
8835 1491 -8655 0
-9015 -1059 0
-9015 8835 0
9015 1059 -8835 0
-9195 -627 0
-9195 9015 0
9195 627 -9015 0
-9521 75 0
-9521 9195 0
9521 -75 -9195 0
-9522 -75 0
-9522 -9195 0
9522 75 9195 0
-9523 -9521 0
-9523 -9522 0
9523 9521 9522 0
74 -39787 0
-74 39787 0
-498 300 0
-498 370 0
498 -300 -370 0
-626 -301 0
-626 498 0
626 301 -498 0
-930 292 0
-930 802 0
930 -292 -802 0
-1058 -293 0
-1058 930 0
1058 293 -930 0
-1362 284 0
-1362 1234 0
1362 -284 -1234 0
-1490 -285 0
-1490 1362 0
1490 285 -1362 0
-1794 276 0
-1794 1666 0
1794 -276 -1666 0
-1922 -277 0
-1922 1794 0
1922 277 -1794 0
-2226 268 0
-2226 2098 0
2226 -268 -2098 0
-2354 -269 0
-2354 2226 0
2354 269 -2226 0
-2658 260 0
-2658 2530 0
2658 -260 -2530 0
-2786 -261 0
-2786 2658 0
2786 261 -2658 0
-3090 252 0
-3090 2962 0
3090 -252 -2962 0
-3218 -253 0
-3218 3090 0
3218 253 -3090 0
-3522 244 0
-3522 3394 0
3522 -244 -3394 0
-3650 -245 0
-3650 3522 0
3650 245 -3522 0
-3954 236 0
-3954 3826 0
3954 -236 -3826 0
-4082 -237 0
-4082 3954 0
4082 237 -3954 0
-4386 228 0
-4386 4258 0
4386 -228 -4258 0
-4514 -229 0
-4514 4386 0
4514 229 -4386 0
-4818 220 0
-4818 4690 0
4818 -220 -4690 0
-4946 -221 0
-4946 4818 0
4946 221 -4818 0
-5250 212 0
-5250 5122 0
5250 -212 -5122 0
-5378 -213 0
-5378 5250 0
5378 213 -5250 0
-5682 204 0
-5682 5554 0
5682 -204 -5554 0
-5810 -205 0
-5810 5682 0
5810 205 -5682 0
-6114 196 0
-6114 5986 0
6114 -196 -5986 0
-6242 -197 0
-6242 6114 0
6242 197 -6114 0
-6546 188 0
-6546 6418 0
6546 -188 -6418 0
-6674 -189 0
-6674 6546 0
6674 189 -6546 0
-6854 -6242 0
-6854 -6674 0
6854 6242 6674 0
-7034 -5810 0
-7034 6854 0
7034 5810 -6854 0
-7214 -5378 0
-7214 7034 0
7214 5378 -7034 0
-7394 -4946 0
-7394 7214 0
7394 4946 -7214 0
-7574 -4514 0
-7574 7394 0
7574 4514 -7394 0
-7754 -4082 0
-7754 7574 0
7754 4082 -7574 0
-7934 -3650 0
-7934 7754 0
7934 3650 -7754 0
-8114 -3218 0
-8114 7934 0
8114 3218 -7934 0
-8294 -2786 0
-8294 8114 0
8294 2786 -8114 0
-8474 -2354 0
-8474 8294 0
8474 2354 -8294 0
-8654 -1922 0
-8654 8474 0
8654 1922 -8474 0
-8834 -1490 0
-8834 8654 0
8834 1490 -8654 0
-9014 -1058 0
-9014 8834 0
9014 1058 -8834 0
-9194 -626 0
-9194 9014 0
9194 626 -9014 0
-9518 74 0
-9518 9194 0
9518 -74 -9194 0
-9519 -74 0
-9519 -9194 0
9519 74 9194 0
-9520 -9518 0
-9520 -9519 0
9520 9518 9519 0
73 -39786 0
-73 39786 0
-497 300 0
-497 369 0
497 -300 -369 0
-625 -301 0
-625 497 0
625 301 -497 0
-929 292 0
-929 801 0
929 -292 -801 0
-1057 -293 0
-1057 929 0
1057 293 -929 0
-1361 284 0
-1361 1233 0
1361 -284 -1233 0
-1489 -285 0
-1489 1361 0
1489 285 -1361 0
-1793 276 0
-1793 1665 0
1793 -276 -1665 0
-1921 -277 0
-1921 1793 0
1921 277 -1793 0
-2225 268 0
-2225 2097 0
2225 -268 -2097 0
-2353 -269 0
-2353 2225 0
2353 269 -2225 0
-2657 260 0
-2657 2529 0
2657 -260 -2529 0
-2785 -261 0
-2785 2657 0
2785 261 -2657 0
-3089 252 0
-3089 2961 0
3089 -252 -2961 0
-3217 -253 0
-3217 3089 0
3217 253 -3089 0
-3521 244 0
-3521 3393 0
3521 -244 -3393 0
-3649 -245 0
-3649 3521 0
3649 245 -3521 0
-3953 236 0
-3953 3825 0
3953 -236 -3825 0
-4081 -237 0
-4081 3953 0
4081 237 -3953 0
-4385 228 0
-4385 4257 0
4385 -228 -4257 0
-4513 -229 0
-4513 4385 0
4513 229 -4385 0
-4817 220 0
-4817 4689 0
4817 -220 -4689 0
-4945 -221 0
-4945 4817 0
4945 221 -4817 0
-5249 212 0
-5249 5121 0
5249 -212 -5121 0
-5377 -213 0
-5377 5249 0
5377 213 -5249 0
-5681 204 0
-5681 5553 0
5681 -204 -5553 0
-5809 -205 0
-5809 5681 0
5809 205 -5681 0
-6113 196 0
-6113 5985 0
6113 -196 -5985 0
-6241 -197 0
-6241 6113 0
6241 197 -6113 0
-6545 188 0
-6545 6417 0
6545 -188 -6417 0
-6673 -189 0
-6673 6545 0
6673 189 -6545 0
-6853 -6241 0
-6853 -6673 0
6853 6241 6673 0
-7033 -5809 0
-7033 6853 0
7033 5809 -6853 0
-7213 -5377 0
-7213 7033 0
7213 5377 -7033 0
-7393 -4945 0
-7393 7213 0
7393 4945 -7213 0
-7573 -4513 0
-7573 7393 0
7573 4513 -7393 0
-7753 -4081 0
-7753 7573 0
7753 4081 -7573 0
-7933 -3649 0
-7933 7753 0
7933 3649 -7753 0
-8113 -3217 0
-8113 7933 0
8113 3217 -7933 0
-8293 -2785 0
-8293 8113 0
8293 2785 -8113 0
-8473 -2353 0
-8473 8293 0
8473 2353 -8293 0
-8653 -1921 0
-8653 8473 0
8653 1921 -8473 0
-8833 -1489 0
-8833 8653 0
8833 1489 -8653 0
-9013 -1057 0
-9013 8833 0
9013 1057 -8833 0
-9193 -625 0
-9193 9013 0
9193 625 -9013 0
-9515 73 0
-9515 9193 0
9515 -73 -9193 0
-9516 -73 0
-9516 -9193 0
9516 73 9193 0
-9517 -9515 0
-9517 -9516 0
9517 9515 9516 0
72 -39785 0
-72 39785 0
-496 300 0
-496 368 0
496 -300 -368 0
-624 -301 0
-624 496 0
624 301 -496 0
-928 292 0
-928 800 0
928 -292 -800 0
-1056 -293 0
-1056 928 0
1056 293 -928 0
-1360 284 0
-1360 1232 0
1360 -284 -1232 0
-1488 -285 0
-1488 1360 0
1488 285 -1360 0
-1792 276 0
-1792 1664 0
1792 -276 -1664 0
-1920 -277 0
-1920 1792 0
1920 277 -1792 0
-2224 268 0
-2224 2096 0
2224 -268 -2096 0
-2352 -269 0
-2352 2224 0
2352 269 -2224 0
-2656 260 0
-2656 2528 0
2656 -260 -2528 0
-2784 -261 0
-2784 2656 0
2784 261 -2656 0
-3088 252 0
-3088 2960 0
3088 -252 -2960 0
-3216 -253 0
-3216 3088 0
3216 253 -3088 0
-3520 244 0
-3520 3392 0
3520 -244 -3392 0
-3648 -245 0
-3648 3520 0
3648 245 -3520 0
-3952 236 0
-3952 3824 0
3952 -236 -3824 0
-4080 -237 0
-4080 3952 0
4080 237 -3952 0
-4384 228 0
-4384 4256 0
4384 -228 -4256 0
-4512 -229 0
-4512 4384 0
4512 229 -4384 0
-4816 220 0
-4816 4688 0
4816 -220 -4688 0
-4944 -221 0
-4944 4816 0
4944 221 -4816 0
-5248 212 0
-5248 5120 0
5248 -212 -5120 0
-5376 -213 0
-5376 5248 0
5376 213 -5248 0
-5680 204 0
-5680 5552 0
5680 -204 -5552 0
-5808 -205 0
-5808 5680 0
5808 205 -5680 0
-6112 196 0
-6112 5984 0
6112 -196 -5984 0
-6240 -197 0
-6240 6112 0
6240 197 -6112 0
-6544 188 0
-6544 6416 0
6544 -188 -6416 0
-6672 -189 0
-6672 6544 0
6672 189 -6544 0
-6852 -6240 0
-6852 -6672 0
6852 6240 6672 0
-7032 -5808 0
-7032 6852 0
7032 5808 -6852 0
-7212 -5376 0
-7212 7032 0
7212 5376 -7032 0
-7392 -4944 0
-7392 7212 0
7392 4944 -7212 0
-7572 -4512 0
-7572 7392 0
7572 4512 -7392 0
-7752 -4080 0
-7752 7572 0
7752 4080 -7572 0
-7932 -3648 0
-7932 7752 0
7932 3648 -7752 0
-8112 -3216 0
-8112 7932 0
8112 3216 -7932 0
-8292 -2784 0
-8292 8112 0
8292 2784 -8112 0
-8472 -2352 0
-8472 8292 0
8472 2352 -8292 0
-8652 -1920 0
-8652 8472 0
8652 1920 -8472 0
-8832 -1488 0
-8832 8652 0
8832 1488 -8652 0
-9012 -1056 0
-9012 8832 0
9012 1056 -8832 0
-9192 -624 0
-9192 9012 0
9192 624 -9012 0
-9512 72 0
-9512 9192 0
9512 -72 -9192 0
-9513 -72 0
-9513 -9192 0
9513 72 9192 0
-9514 -9512 0
-9514 -9513 0
9514 9512 9513 0
71 -39784 0
-71 39784 0
-495 300 0
-495 367 0
495 -300 -367 0
-623 -301 0
-623 495 0
623 301 -495 0
-927 292 0
-927 799 0
927 -292 -799 0
-1055 -293 0
-1055 927 0
1055 293 -927 0
-1359 284 0
-1359 1231 0
1359 -284 -1231 0
-1487 -285 0
-1487 1359 0
1487 285 -1359 0
-1791 276 0
-1791 1663 0
1791 -276 -1663 0
-1919 -277 0
-1919 1791 0
1919 277 -1791 0
-2223 268 0
-2223 2095 0
2223 -268 -2095 0
-2351 -269 0
-2351 2223 0
2351 269 -2223 0
-2655 260 0
-2655 2527 0
2655 -260 -2527 0
-2783 -261 0
-2783 2655 0
2783 261 -2655 0
-3087 252 0
-3087 2959 0
3087 -252 -2959 0
-3215 -253 0
-3215 3087 0
3215 253 -3087 0
-3519 244 0
-3519 3391 0
3519 -244 -3391 0
-3647 -245 0
-3647 3519 0
3647 245 -3519 0
-3951 236 0
-3951 3823 0
3951 -236 -3823 0
-4079 -237 0
-4079 3951 0
4079 237 -3951 0
-4383 228 0
-4383 4255 0
4383 -228 -4255 0
-4511 -229 0
-4511 4383 0
4511 229 -4383 0
-4815 220 0
-4815 4687 0
4815 -220 -4687 0
-4943 -221 0
-4943 4815 0
4943 221 -4815 0
-5247 212 0
-5247 5119 0
5247 -212 -5119 0
-5375 -213 0
-5375 5247 0
5375 213 -5247 0
-5679 204 0
-5679 5551 0
5679 -204 -5551 0
-5807 -205 0
-5807 5679 0
5807 205 -5679 0
-6111 196 0
-6111 5983 0
6111 -196 -5983 0
-6239 -197 0
-6239 6111 0
6239 197 -6111 0
-6543 188 0
-6543 6415 0
6543 -188 -6415 0
-6671 -189 0
-6671 6543 0
6671 189 -6543 0
-6851 -6239 0
-6851 -6671 0
6851 6239 6671 0
-7031 -5807 0
-7031 6851 0
7031 5807 -6851 0
-7211 -5375 0
-7211 7031 0
7211 5375 -7031 0
-7391 -4943 0
-7391 7211 0
7391 4943 -7211 0
-7571 -4511 0
-7571 7391 0
7571 4511 -7391 0
-7751 -4079 0
-7751 7571 0
7751 4079 -7571 0
-7931 -3647 0
-7931 7751 0
7931 3647 -7751 0
-8111 -3215 0
-8111 7931 0
8111 3215 -7931 0
-8291 -2783 0
-8291 8111 0
8291 2783 -8111 0
-8471 -2351 0
-8471 8291 0
8471 2351 -8291 0
-8651 -1919 0
-8651 8471 0
8651 1919 -8471 0
-8831 -1487 0
-8831 8651 0
8831 1487 -8651 0
-9011 -1055 0
-9011 8831 0
9011 1055 -8831 0
-9191 -623 0
-9191 9011 0
9191 623 -9011 0
-9509 71 0
-9509 9191 0
9509 -71 -9191 0
-9510 -71 0
-9510 -9191 0
9510 71 9191 0
-9511 -9509 0
-9511 -9510 0
9511 9509 9510 0
70 -39783 0
-70 39783 0
-494 300 0
-494 366 0
494 -300 -366 0
-622 -301 0
-622 494 0
622 301 -494 0
-926 292 0
-926 798 0
926 -292 -798 0
-1054 -293 0
-1054 926 0
1054 293 -926 0
-1358 284 0
-1358 1230 0
1358 -284 -1230 0
-1486 -285 0
-1486 1358 0
1486 285 -1358 0
-1790 276 0
-1790 1662 0
1790 -276 -1662 0
-1918 -277 0
-1918 1790 0
1918 277 -1790 0
-2222 268 0
-2222 2094 0
2222 -268 -2094 0
-2350 -269 0
-2350 2222 0
2350 269 -2222 0
-2654 260 0
-2654 2526 0
2654 -260 -2526 0
-2782 -261 0
-2782 2654 0
2782 261 -2654 0
-3086 252 0
-3086 2958 0
3086 -252 -2958 0
-3214 -253 0
-3214 3086 0
3214 253 -3086 0
-3518 244 0
-3518 3390 0
3518 -244 -3390 0
-3646 -245 0
-3646 3518 0
3646 245 -3518 0
-3950 236 0
-3950 3822 0
3950 -236 -3822 0
-4078 -237 0
-4078 3950 0
4078 237 -3950 0
-4382 228 0
-4382 4254 0
4382 -228 -4254 0
-4510 -229 0
-4510 4382 0
4510 229 -4382 0
-4814 220 0
-4814 4686 0
4814 -220 -4686 0
-4942 -221 0
-4942 4814 0
4942 221 -4814 0
-5246 212 0
-5246 5118 0
5246 -212 -5118 0
-5374 -213 0
-5374 5246 0
5374 213 -5246 0
-5678 204 0
-5678 5550 0
5678 -204 -5550 0
-5806 -205 0
-5806 5678 0
5806 205 -5678 0
-6110 196 0
-6110 5982 0
6110 -196 -5982 0
-6238 -197 0
-6238 6110 0
6238 197 -6110 0
-6542 188 0
-6542 6414 0
6542 -188 -6414 0
-6670 -189 0
-6670 6542 0
6670 189 -6542 0
-6850 -6238 0
-6850 -6670 0
6850 6238 6670 0
-7030 -5806 0
-7030 6850 0
7030 5806 -6850 0
-7210 -5374 0
-7210 7030 0
7210 5374 -7030 0
-7390 -4942 0
-7390 7210 0
7390 4942 -7210 0
-7570 -4510 0
-7570 7390 0
7570 4510 -7390 0
-7750 -4078 0
-7750 7570 0
7750 4078 -7570 0
-7930 -3646 0
-7930 7750 0
7930 3646 -7750 0
-8110 -3214 0
-8110 7930 0
8110 3214 -7930 0
-8290 -2782 0
-8290 8110 0
8290 2782 -8110 0
-8470 -2350 0
-8470 8290 0
8470 2350 -8290 0
-8650 -1918 0
-8650 8470 0
8650 1918 -8470 0
-8830 -1486 0
-8830 8650 0
8830 1486 -8650 0
-9010 -1054 0
-9010 8830 0
9010 1054 -8830 0
-9190 -622 0
-9190 9010 0
9190 622 -9010 0
-9506 70 0
-9506 9190 0
9506 -70 -9190 0
-9507 -70 0
-9507 -9190 0
9507 70 9190 0
-9508 -9506 0
-9508 -9507 0
9508 9506 9507 0
69 -39782 0
-69 39782 0
-493 300 0
-493 365 0
493 -300 -365 0
-621 -301 0
-621 493 0
621 301 -493 0
-925 292 0
-925 797 0
925 -292 -797 0
-1053 -293 0
-1053 925 0
1053 293 -925 0
-1357 284 0
-1357 1229 0
1357 -284 -1229 0
-1485 -285 0
-1485 1357 0
1485 285 -1357 0
-1789 276 0
-1789 1661 0
1789 -276 -1661 0
-1917 -277 0
-1917 1789 0
1917 277 -1789 0
-2221 268 0
-2221 2093 0
2221 -268 -2093 0
-2349 -269 0
-2349 2221 0
2349 269 -2221 0
-2653 260 0
-2653 2525 0
2653 -260 -2525 0
-2781 -261 0
-2781 2653 0
2781 261 -2653 0
-3085 252 0
-3085 2957 0
3085 -252 -2957 0
-3213 -253 0
-3213 3085 0
3213 253 -3085 0
-3517 244 0
-3517 3389 0
3517 -244 -3389 0
-3645 -245 0
-3645 3517 0
3645 245 -3517 0
-3949 236 0
-3949 3821 0
3949 -236 -3821 0
-4077 -237 0
-4077 3949 0
4077 237 -3949 0
-4381 228 0
-4381 4253 0
4381 -228 -4253 0
-4509 -229 0
-4509 4381 0
4509 229 -4381 0
-4813 220 0
-4813 4685 0
4813 -220 -4685 0
-4941 -221 0
-4941 4813 0
4941 221 -4813 0
-5245 212 0
-5245 5117 0
5245 -212 -5117 0
-5373 -213 0
-5373 5245 0
5373 213 -5245 0
-5677 204 0
-5677 5549 0
5677 -204 -5549 0
-5805 -205 0
-5805 5677 0
5805 205 -5677 0
-6109 196 0
-6109 5981 0
6109 -196 -5981 0
-6237 -197 0
-6237 6109 0
6237 197 -6109 0
-6541 188 0
-6541 6413 0
6541 -188 -6413 0
-6669 -189 0
-6669 6541 0
6669 189 -6541 0
-6849 -6237 0
-6849 -6669 0
6849 6237 6669 0
-7029 -5805 0
-7029 6849 0
7029 5805 -6849 0
-7209 -5373 0
-7209 7029 0
7209 5373 -7029 0
-7389 -4941 0
-7389 7209 0
7389 4941 -7209 0
-7569 -4509 0
-7569 7389 0
7569 4509 -7389 0
-7749 -4077 0
-7749 7569 0
7749 4077 -7569 0
-7929 -3645 0
-7929 7749 0
7929 3645 -7749 0
-8109 -3213 0
-8109 7929 0
8109 3213 -7929 0
-8289 -2781 0
-8289 8109 0
8289 2781 -8109 0
-8469 -2349 0
-8469 8289 0
8469 2349 -8289 0
-8649 -1917 0
-8649 8469 0
8649 1917 -8469 0
-8829 -1485 0
-8829 8649 0
8829 1485 -8649 0
-9009 -1053 0
-9009 8829 0
9009 1053 -8829 0
-9189 -621 0
-9189 9009 0
9189 621 -9009 0
-9503 69 0
-9503 9189 0
9503 -69 -9189 0
-9504 -69 0
-9504 -9189 0
9504 69 9189 0
-9505 -9503 0
-9505 -9504 0
9505 9503 9504 0
68 -39781 0
-68 39781 0
-492 300 0
-492 364 0
492 -300 -364 0
-620 -301 0
-620 492 0
620 301 -492 0
-924 292 0
-924 796 0
924 -292 -796 0
-1052 -293 0
-1052 924 0
1052 293 -924 0
-1356 284 0
-1356 1228 0
1356 -284 -1228 0
-1484 -285 0
-1484 1356 0
1484 285 -1356 0
-1788 276 0
-1788 1660 0
1788 -276 -1660 0
-1916 -277 0
-1916 1788 0
1916 277 -1788 0
-2220 268 0
-2220 2092 0
2220 -268 -2092 0
-2348 -269 0
-2348 2220 0
2348 269 -2220 0
-2652 260 0
-2652 2524 0
2652 -260 -2524 0
-2780 -261 0
-2780 2652 0
2780 261 -2652 0
-3084 252 0
-3084 2956 0
3084 -252 -2956 0
-3212 -253 0
-3212 3084 0
3212 253 -3084 0
-3516 244 0
-3516 3388 0
3516 -244 -3388 0
-3644 -245 0
-3644 3516 0
3644 245 -3516 0
-3948 236 0
-3948 3820 0
3948 -236 -3820 0
-4076 -237 0
-4076 3948 0
4076 237 -3948 0
-4380 228 0
-4380 4252 0
4380 -228 -4252 0
-4508 -229 0
-4508 4380 0
4508 229 -4380 0
-4812 220 0
-4812 4684 0
4812 -220 -4684 0
-4940 -221 0
-4940 4812 0
4940 221 -4812 0
-5244 212 0
-5244 5116 0
5244 -212 -5116 0
-5372 -213 0
-5372 5244 0
5372 213 -5244 0
-5676 204 0
-5676 5548 0
5676 -204 -5548 0
-5804 -205 0
-5804 5676 0
5804 205 -5676 0
-6108 196 0
-6108 5980 0
6108 -196 -5980 0
-6236 -197 0
-6236 6108 0
6236 197 -6108 0
-6540 188 0
-6540 6412 0
6540 -188 -6412 0
-6668 -189 0
-6668 6540 0
6668 189 -6540 0
-6848 -6236 0
-6848 -6668 0
6848 6236 6668 0
-7028 -5804 0
-7028 6848 0
7028 5804 -6848 0
-7208 -5372 0
-7208 7028 0
7208 5372 -7028 0
-7388 -4940 0
-7388 7208 0
7388 4940 -7208 0
-7568 -4508 0
-7568 7388 0
7568 4508 -7388 0
-7748 -4076 0
-7748 7568 0
7748 4076 -7568 0
-7928 -3644 0
-7928 7748 0
7928 3644 -7748 0
-8108 -3212 0
-8108 7928 0
8108 3212 -7928 0
-8288 -2780 0
-8288 8108 0
8288 2780 -8108 0
-8468 -2348 0
-8468 8288 0
8468 2348 -8288 0
-8648 -1916 0
-8648 8468 0
8648 1916 -8468 0
-8828 -1484 0
-8828 8648 0
8828 1484 -8648 0
-9008 -1052 0
-9008 8828 0
9008 1052 -8828 0
-9188 -620 0
-9188 9008 0
9188 620 -9008 0
-9500 68 0
-9500 9188 0
9500 -68 -9188 0
-9501 -68 0
-9501 -9188 0
9501 68 9188 0
-9502 -9500 0
-9502 -9501 0
9502 9500 9501 0
67 -39780 0
-67 39780 0
-491 300 0
-491 363 0
491 -300 -363 0
-619 -301 0
-619 491 0
619 301 -491 0
-923 292 0
-923 795 0
923 -292 -795 0
-1051 -293 0
-1051 923 0
1051 293 -923 0
-1355 284 0
-1355 1227 0
1355 -284 -1227 0
-1483 -285 0
-1483 1355 0
1483 285 -1355 0
-1787 276 0
-1787 1659 0
1787 -276 -1659 0
-1915 -277 0
-1915 1787 0
1915 277 -1787 0
-2219 268 0
-2219 2091 0
2219 -268 -2091 0
-2347 -269 0
-2347 2219 0
2347 269 -2219 0
-2651 260 0
-2651 2523 0
2651 -260 -2523 0
-2779 -261 0
-2779 2651 0
2779 261 -2651 0
-3083 252 0
-3083 2955 0
3083 -252 -2955 0
-3211 -253 0
-3211 3083 0
3211 253 -3083 0
-3515 244 0
-3515 3387 0
3515 -244 -3387 0
-3643 -245 0
-3643 3515 0
3643 245 -3515 0
-3947 236 0
-3947 3819 0
3947 -236 -3819 0
-4075 -237 0
-4075 3947 0
4075 237 -3947 0
-4379 228 0
-4379 4251 0
4379 -228 -4251 0
-4507 -229 0
-4507 4379 0
4507 229 -4379 0
-4811 220 0
-4811 4683 0
4811 -220 -4683 0
-4939 -221 0
-4939 4811 0
4939 221 -4811 0
-5243 212 0
-5243 5115 0
5243 -212 -5115 0
-5371 -213 0
-5371 5243 0
5371 213 -5243 0
-5675 204 0
-5675 5547 0
5675 -204 -5547 0
-5803 -205 0
-5803 5675 0
5803 205 -5675 0
-6107 196 0
-6107 5979 0
6107 -196 -5979 0
-6235 -197 0
-6235 6107 0
6235 197 -6107 0
-6539 188 0
-6539 6411 0
6539 -188 -6411 0
-6667 -189 0
-6667 6539 0
6667 189 -6539 0
-6847 -6235 0
-6847 -6667 0
6847 6235 6667 0
-7027 -5803 0
-7027 6847 0
7027 5803 -6847 0
-7207 -5371 0
-7207 7027 0
7207 5371 -7027 0
-7387 -4939 0
-7387 7207 0
7387 4939 -7207 0
-7567 -4507 0
-7567 7387 0
7567 4507 -7387 0
-7747 -4075 0
-7747 7567 0
7747 4075 -7567 0
-7927 -3643 0
-7927 7747 0
7927 3643 -7747 0
-8107 -3211 0
-8107 7927 0
8107 3211 -7927 0
-8287 -2779 0
-8287 8107 0
8287 2779 -8107 0
-8467 -2347 0
-8467 8287 0
8467 2347 -8287 0
-8647 -1915 0
-8647 8467 0
8647 1915 -8467 0
-8827 -1483 0
-8827 8647 0
8827 1483 -8647 0
-9007 -1051 0
-9007 8827 0
9007 1051 -8827 0
-9187 -619 0
-9187 9007 0
9187 619 -9007 0
-9497 67 0
-9497 9187 0
9497 -67 -9187 0
-9498 -67 0
-9498 -9187 0
9498 67 9187 0
-9499 -9497 0
-9499 -9498 0
9499 9497 9498 0
66 -39779 0
-66 39779 0
-490 300 0
-490 362 0
490 -300 -362 0
-618 -301 0
-618 490 0
618 301 -490 0
-922 292 0
-922 794 0
922 -292 -794 0
-1050 -293 0
-1050 922 0
1050 293 -922 0
-1354 284 0
-1354 1226 0
1354 -284 -1226 0
-1482 -285 0
-1482 1354 0
1482 285 -1354 0
-1786 276 0
-1786 1658 0
1786 -276 -1658 0
-1914 -277 0
-1914 1786 0
1914 277 -1786 0
-2218 268 0
-2218 2090 0
2218 -268 -2090 0
-2346 -269 0
-2346 2218 0
2346 269 -2218 0
-2650 260 0
-2650 2522 0
2650 -260 -2522 0
-2778 -261 0
-2778 2650 0
2778 261 -2650 0
-3082 252 0
-3082 2954 0
3082 -252 -2954 0
-3210 -253 0
-3210 3082 0
3210 253 -3082 0
-3514 244 0
-3514 3386 0
3514 -244 -3386 0
-3642 -245 0
-3642 3514 0
3642 245 -3514 0
-3946 236 0
-3946 3818 0
3946 -236 -3818 0
-4074 -237 0
-4074 3946 0
4074 237 -3946 0
-4378 228 0
-4378 4250 0
4378 -228 -4250 0
-4506 -229 0
-4506 4378 0
4506 229 -4378 0
-4810 220 0
-4810 4682 0
4810 -220 -4682 0
-4938 -221 0
-4938 4810 0
4938 221 -4810 0
-5242 212 0
-5242 5114 0
5242 -212 -5114 0
-5370 -213 0
-5370 5242 0
5370 213 -5242 0
-5674 204 0
-5674 5546 0
5674 -204 -5546 0
-5802 -205 0
-5802 5674 0
5802 205 -5674 0
-6106 196 0
-6106 5978 0
6106 -196 -5978 0
-6234 -197 0
-6234 6106 0
6234 197 -6106 0
-6538 188 0
-6538 6410 0
6538 -188 -6410 0
-6666 -189 0
-6666 6538 0
6666 189 -6538 0
-6846 -6234 0
-6846 -6666 0
6846 6234 6666 0
-7026 -5802 0
-7026 6846 0
7026 5802 -6846 0
-7206 -5370 0
-7206 7026 0
7206 5370 -7026 0
-7386 -4938 0
-7386 7206 0
7386 4938 -7206 0
-7566 -4506 0
-7566 7386 0
7566 4506 -7386 0
-7746 -4074 0
-7746 7566 0
7746 4074 -7566 0
-7926 -3642 0
-7926 7746 0
7926 3642 -7746 0
-8106 -3210 0
-8106 7926 0
8106 3210 -7926 0
-8286 -2778 0
-8286 8106 0
8286 2778 -8106 0
-8466 -2346 0
-8466 8286 0
8466 2346 -8286 0
-8646 -1914 0
-8646 8466 0
8646 1914 -8466 0
-8826 -1482 0
-8826 8646 0
8826 1482 -8646 0
-9006 -1050 0
-9006 8826 0
9006 1050 -8826 0
-9186 -618 0
-9186 9006 0
9186 618 -9006 0
-9494 66 0
-9494 9186 0
9494 -66 -9186 0
-9495 -66 0
-9495 -9186 0
9495 66 9186 0
-9496 -9494 0
-9496 -9495 0
9496 9494 9495 0
65 -39778 0
-65 39778 0
-489 -300 0
-489 425 0
489 300 -425 0
-617 -301 0
-617 489 0
617 301 -489 0
-921 -292 0
-921 857 0
921 292 -857 0
-1049 -293 0
-1049 921 0
1049 293 -921 0
-1353 -284 0
-1353 1289 0
1353 284 -1289 0
-1481 -285 0
-1481 1353 0
1481 285 -1353 0
-1785 -276 0
-1785 1721 0
1785 276 -1721 0
-1913 -277 0
-1913 1785 0
1913 277 -1785 0
-2217 -268 0
-2217 2153 0
2217 268 -2153 0
-2345 -269 0
-2345 2217 0
2345 269 -2217 0
-2649 -260 0
-2649 2585 0
2649 260 -2585 0
-2777 -261 0
-2777 2649 0
2777 261 -2649 0
-3081 -252 0
-3081 3017 0
3081 252 -3017 0
-3209 -253 0
-3209 3081 0
3209 253 -3081 0
-3513 -244 0
-3513 3449 0
3513 244 -3449 0
-3641 -245 0
-3641 3513 0
3641 245 -3513 0
-3945 -236 0
-3945 3881 0
3945 236 -3881 0
-4073 -237 0
-4073 3945 0
4073 237 -3945 0
-4377 -228 0
-4377 4313 0
4377 228 -4313 0
-4505 -229 0
-4505 4377 0
4505 229 -4377 0
-4809 -220 0
-4809 4745 0
4809 220 -4745 0
-4937 -221 0
-4937 4809 0
4937 221 -4809 0
-5241 -212 0
-5241 5177 0
5241 212 -5177 0
-5369 -213 0
-5369 5241 0
5369 213 -5241 0
-5673 -204 0
-5673 5609 0
5673 204 -5609 0
-5801 -205 0
-5801 5673 0
5801 205 -5673 0
-6105 -196 0
-6105 6041 0
6105 196 -6041 0
-6233 -197 0
-6233 6105 0
6233 197 -6105 0
-6537 -188 0
-6537 6473 0
6537 188 -6473 0
-6665 -189 0
-6665 6537 0
6665 189 -6537 0
-6845 -6233 0
-6845 -6665 0
6845 6233 6665 0
-7025 -5801 0
-7025 6845 0
7025 5801 -6845 0
-7205 -5369 0
-7205 7025 0
7205 5369 -7025 0
-7385 -4937 0
-7385 7205 0
7385 4937 -7205 0
-7565 -4505 0
-7565 7385 0
7565 4505 -7385 0
-7745 -4073 0
-7745 7565 0
7745 4073 -7565 0
-7925 -3641 0
-7925 7745 0
7925 3641 -7745 0
-8105 -3209 0
-8105 7925 0
8105 3209 -7925 0
-8285 -2777 0
-8285 8105 0
8285 2777 -8105 0
-8465 -2345 0
-8465 8285 0
8465 2345 -8285 0
-8645 -1913 0
-8645 8465 0
8645 1913 -8465 0
-8825 -1481 0
-8825 8645 0
8825 1481 -8645 0
-9005 -1049 0
-9005 8825 0
9005 1049 -8825 0
-9185 -617 0
-9185 9005 0
9185 617 -9005 0
-9491 65 0
-9491 9185 0
9491 -65 -9185 0
-9492 -65 0
-9492 -9185 0
9492 65 9185 0
-9493 -9491 0
-9493 -9492 0
9493 9491 9492 0
64 -39777 0
-64 39777 0
-488 -300 0
-488 424 0
488 300 -424 0
-616 -301 0
-616 488 0
616 301 -488 0
-920 -292 0
-920 856 0
920 292 -856 0
-1048 -293 0
-1048 920 0
1048 293 -920 0
-1352 -284 0
-1352 1288 0
1352 284 -1288 0
-1480 -285 0
-1480 1352 0
1480 285 -1352 0
-1784 -276 0
-1784 1720 0
1784 276 -1720 0
-1912 -277 0
-1912 1784 0
1912 277 -1784 0
-2216 -268 0
-2216 2152 0
2216 268 -2152 0
-2344 -269 0
-2344 2216 0
2344 269 -2216 0
-2648 -260 0
-2648 2584 0
2648 260 -2584 0
-2776 -261 0
-2776 2648 0
2776 261 -2648 0
-3080 -252 0
-3080 3016 0
3080 252 -3016 0
-3208 -253 0
-3208 3080 0
3208 253 -3080 0
-3512 -244 0
-3512 3448 0
3512 244 -3448 0
-3640 -245 0
-3640 3512 0
3640 245 -3512 0
-3944 -236 0
-3944 3880 0
3944 236 -3880 0
-4072 -237 0
-4072 3944 0
4072 237 -3944 0
-4376 -228 0
-4376 4312 0
4376 228 -4312 0
-4504 -229 0
-4504 4376 0
4504 229 -4376 0
-4808 -220 0
-4808 4744 0
4808 220 -4744 0
-4936 -221 0
-4936 4808 0
4936 221 -4808 0
-5240 -212 0
-5240 5176 0
5240 212 -5176 0
-5368 -213 0
-5368 5240 0
5368 213 -5240 0
-5672 -204 0
-5672 5608 0
5672 204 -5608 0
-5800 -205 0
-5800 5672 0
5800 205 -5672 0
-6104 -196 0
-6104 6040 0
6104 196 -6040 0
-6232 -197 0
-6232 6104 0
6232 197 -6104 0
-6536 -188 0
-6536 6472 0
6536 188 -6472 0
-6664 -189 0
-6664 6536 0
6664 189 -6536 0
-6844 -6232 0
-6844 -6664 0
6844 6232 6664 0
-7024 -5800 0
-7024 6844 0
7024 5800 -6844 0
-7204 -5368 0
-7204 7024 0
7204 5368 -7024 0
-7384 -4936 0
-7384 7204 0
7384 4936 -7204 0
-7564 -4504 0
-7564 7384 0
7564 4504 -7384 0
-7744 -4072 0
-7744 7564 0
7744 4072 -7564 0
-7924 -3640 0
-7924 7744 0
7924 3640 -7744 0
-8104 -3208 0
-8104 7924 0
8104 3208 -7924 0
-8284 -2776 0
-8284 8104 0
8284 2776 -8104 0
-8464 -2344 0
-8464 8284 0
8464 2344 -8284 0
-8644 -1912 0
-8644 8464 0
8644 1912 -8464 0
-8824 -1480 0
-8824 8644 0
8824 1480 -8644 0
-9004 -1048 0
-9004 8824 0
9004 1048 -8824 0
-9184 -616 0
-9184 9004 0
9184 616 -9004 0
-9488 64 0
-9488 9184 0
9488 -64 -9184 0
-9489 -64 0
-9489 -9184 0
9489 64 9184 0
-9490 -9488 0
-9490 -9489 0
9490 9488 9489 0
63 -39776 0
-63 39776 0
-487 -300 0
-487 423 0
487 300 -423 0
-615 -301 0
-615 487 0
615 301 -487 0
-919 -292 0
-919 855 0
919 292 -855 0
-1047 -293 0
-1047 919 0
1047 293 -919 0
-1351 -284 0
-1351 1287 0
1351 284 -1287 0
-1479 -285 0
-1479 1351 0
1479 285 -1351 0
-1783 -276 0
-1783 1719 0
1783 276 -1719 0
-1911 -277 0
-1911 1783 0
1911 277 -1783 0
-2215 -268 0
-2215 2151 0
2215 268 -2151 0
-2343 -269 0
-2343 2215 0
2343 269 -2215 0
-2647 -260 0
-2647 2583 0
2647 260 -2583 0
-2775 -261 0
-2775 2647 0
2775 261 -2647 0
-3079 -252 0
-3079 3015 0
3079 252 -3015 0
-3207 -253 0
-3207 3079 0
3207 253 -3079 0
-3511 -244 0
-3511 3447 0
3511 244 -3447 0
-3639 -245 0
-3639 3511 0
3639 245 -3511 0
-3943 -236 0
-3943 3879 0
3943 236 -3879 0
-4071 -237 0
-4071 3943 0
4071 237 -3943 0
-4375 -228 0
-4375 4311 0
4375 228 -4311 0
-4503 -229 0
-4503 4375 0
4503 229 -4375 0
-4807 -220 0
-4807 4743 0
4807 220 -4743 0
-4935 -221 0
-4935 4807 0
4935 221 -4807 0
-5239 -212 0
-5239 5175 0
5239 212 -5175 0
-5367 -213 0
-5367 5239 0
5367 213 -5239 0
-5671 -204 0
-5671 5607 0
5671 204 -5607 0
-5799 -205 0
-5799 5671 0
5799 205 -5671 0
-6103 -196 0
-6103 6039 0
6103 196 -6039 0
-6231 -197 0
-6231 6103 0
6231 197 -6103 0
-6535 -188 0
-6535 6471 0
6535 188 -6471 0
-6663 -189 0
-6663 6535 0
6663 189 -6535 0
-6843 -6231 0
-6843 -6663 0
6843 6231 6663 0
-7023 -5799 0
-7023 6843 0
7023 5799 -6843 0
-7203 -5367 0
-7203 7023 0
7203 5367 -7023 0
-7383 -4935 0
-7383 7203 0
7383 4935 -7203 0
-7563 -4503 0
-7563 7383 0
7563 4503 -7383 0
-7743 -4071 0
-7743 7563 0
7743 4071 -7563 0
-7923 -3639 0
-7923 7743 0
7923 3639 -7743 0
-8103 -3207 0
-8103 7923 0
8103 3207 -7923 0
-8283 -2775 0
-8283 8103 0
8283 2775 -8103 0
-8463 -2343 0
-8463 8283 0
8463 2343 -8283 0
-8643 -1911 0
-8643 8463 0
8643 1911 -8463 0
-8823 -1479 0
-8823 8643 0
8823 1479 -8643 0
-9003 -1047 0
-9003 8823 0
9003 1047 -8823 0
-9183 -615 0
-9183 9003 0
9183 615 -9003 0
-9485 63 0
-9485 9183 0
9485 -63 -9183 0
-9486 -63 0
-9486 -9183 0
9486 63 9183 0
-9487 -9485 0
-9487 -9486 0
9487 9485 9486 0
62 -39775 0
-62 39775 0
-486 -300 0
-486 422 0
486 300 -422 0
-614 -301 0
-614 486 0
614 301 -486 0
-918 -292 0
-918 854 0
918 292 -854 0
-1046 -293 0
-1046 918 0
1046 293 -918 0
-1350 -284 0
-1350 1286 0
1350 284 -1286 0
-1478 -285 0
-1478 1350 0
1478 285 -1350 0
-1782 -276 0
-1782 1718 0
1782 276 -1718 0
-1910 -277 0
-1910 1782 0
1910 277 -1782 0
-2214 -268 0
-2214 2150 0
2214 268 -2150 0
-2342 -269 0
-2342 2214 0
2342 269 -2214 0
-2646 -260 0
-2646 2582 0
2646 260 -2582 0
-2774 -261 0
-2774 2646 0
2774 261 -2646 0
-3078 -252 0
-3078 3014 0
3078 252 -3014 0
-3206 -253 0
-3206 3078 0
3206 253 -3078 0
-3510 -244 0
-3510 3446 0
3510 244 -3446 0
-3638 -245 0
-3638 3510 0
3638 245 -3510 0
-3942 -236 0
-3942 3878 0
3942 236 -3878 0
-4070 -237 0
-4070 3942 0
4070 237 -3942 0
-4374 -228 0
-4374 4310 0
4374 228 -4310 0
-4502 -229 0
-4502 4374 0
4502 229 -4374 0
-4806 -220 0
-4806 4742 0
4806 220 -4742 0
-4934 -221 0
-4934 4806 0
4934 221 -4806 0
-5238 -212 0
-5238 5174 0
5238 212 -5174 0
-5366 -213 0
-5366 5238 0
5366 213 -5238 0
-5670 -204 0
-5670 5606 0
5670 204 -5606 0
-5798 -205 0
-5798 5670 0
5798 205 -5670 0
-6102 -196 0
-6102 6038 0
6102 196 -6038 0
-6230 -197 0
-6230 6102 0
6230 197 -6102 0
-6534 -188 0
-6534 6470 0
6534 188 -6470 0
-6662 -189 0
-6662 6534 0
6662 189 -6534 0
-6842 -6230 0
-6842 -6662 0
6842 6230 6662 0
-7022 -5798 0
-7022 6842 0
7022 5798 -6842 0
-7202 -5366 0
-7202 7022 0
7202 5366 -7022 0
-7382 -4934 0
-7382 7202 0
7382 4934 -7202 0
-7562 -4502 0
-7562 7382 0
7562 4502 -7382 0
-7742 -4070 0
-7742 7562 0
7742 4070 -7562 0
-7922 -3638 0
-7922 7742 0
7922 3638 -7742 0
-8102 -3206 0
-8102 7922 0
8102 3206 -7922 0
-8282 -2774 0
-8282 8102 0
8282 2774 -8102 0
-8462 -2342 0
-8462 8282 0
8462 2342 -8282 0
-8642 -1910 0
-8642 8462 0
8642 1910 -8462 0
-8822 -1478 0
-8822 8642 0
8822 1478 -8642 0
-9002 -1046 0
-9002 8822 0
9002 1046 -8822 0
-9182 -614 0
-9182 9002 0
9182 614 -9002 0
-9482 62 0
-9482 9182 0
9482 -62 -9182 0
-9483 -62 0
-9483 -9182 0
9483 62 9182 0
-9484 -9482 0
-9484 -9483 0
9484 9482 9483 0
61 -39774 0
-61 39774 0
-485 -300 0
-485 421 0
485 300 -421 0
-613 -301 0
-613 485 0
613 301 -485 0
-917 -292 0
-917 853 0
917 292 -853 0
-1045 -293 0
-1045 917 0
1045 293 -917 0
-1349 -284 0
-1349 1285 0
1349 284 -1285 0
-1477 -285 0
-1477 1349 0
1477 285 -1349 0
-1781 -276 0
-1781 1717 0
1781 276 -1717 0
-1909 -277 0
-1909 1781 0
1909 277 -1781 0
-2213 -268 0
-2213 2149 0
2213 268 -2149 0
-2341 -269 0
-2341 2213 0
2341 269 -2213 0
-2645 -260 0
-2645 2581 0
2645 260 -2581 0
-2773 -261 0
-2773 2645 0
2773 261 -2645 0
-3077 -252 0
-3077 3013 0
3077 252 -3013 0
-3205 -253 0
-3205 3077 0
3205 253 -3077 0
-3509 -244 0
-3509 3445 0
3509 244 -3445 0
-3637 -245 0
-3637 3509 0
3637 245 -3509 0
-3941 -236 0
-3941 3877 0
3941 236 -3877 0
-4069 -237 0
-4069 3941 0
4069 237 -3941 0
-4373 -228 0
-4373 4309 0
4373 228 -4309 0
-4501 -229 0
-4501 4373 0
4501 229 -4373 0
-4805 -220 0
-4805 4741 0
4805 220 -4741 0
-4933 -221 0
-4933 4805 0
4933 221 -4805 0
-5237 -212 0
-5237 5173 0
5237 212 -5173 0
-5365 -213 0
-5365 5237 0
5365 213 -5237 0
-5669 -204 0
-5669 5605 0
5669 204 -5605 0
-5797 -205 0
-5797 5669 0
5797 205 -5669 0
-6101 -196 0
-6101 6037 0
6101 196 -6037 0
-6229 -197 0
-6229 6101 0
6229 197 -6101 0
-6533 -188 0
-6533 6469 0
6533 188 -6469 0
-6661 -189 0
-6661 6533 0
6661 189 -6533 0
-6841 -6229 0
-6841 -6661 0
6841 6229 6661 0
-7021 -5797 0
-7021 6841 0
7021 5797 -6841 0
-7201 -5365 0
-7201 7021 0
7201 5365 -7021 0
-7381 -4933 0
-7381 7201 0
7381 4933 -7201 0
-7561 -4501 0
-7561 7381 0
7561 4501 -7381 0
-7741 -4069 0
-7741 7561 0
7741 4069 -7561 0
-7921 -3637 0
-7921 7741 0
7921 3637 -7741 0
-8101 -3205 0
-8101 7921 0
8101 3205 -7921 0
-8281 -2773 0
-8281 8101 0
8281 2773 -8101 0
-8461 -2341 0
-8461 8281 0
8461 2341 -8281 0
-8641 -1909 0
-8641 8461 0
8641 1909 -8461 0
-8821 -1477 0
-8821 8641 0
8821 1477 -8641 0
-9001 -1045 0
-9001 8821 0
9001 1045 -8821 0
-9181 -613 0
-9181 9001 0
9181 613 -9001 0
-9479 61 0
-9479 9181 0
9479 -61 -9181 0
-9480 -61 0
-9480 -9181 0
9480 61 9181 0
-9481 -9479 0
-9481 -9480 0
9481 9479 9480 0
60 -39773 0
-60 39773 0
-484 -300 0
-484 420 0
484 300 -420 0
-612 -301 0
-612 484 0
612 301 -484 0
-916 -292 0
-916 852 0
916 292 -852 0
-1044 -293 0
-1044 916 0
1044 293 -916 0
-1348 -284 0
-1348 1284 0
1348 284 -1284 0
-1476 -285 0
-1476 1348 0
1476 285 -1348 0
-1780 -276 0
-1780 1716 0
1780 276 -1716 0
-1908 -277 0
-1908 1780 0
1908 277 -1780 0
-2212 -268 0
-2212 2148 0
2212 268 -2148 0
-2340 -269 0
-2340 2212 0
2340 269 -2212 0
-2644 -260 0
-2644 2580 0
2644 260 -2580 0
-2772 -261 0
-2772 2644 0
2772 261 -2644 0
-3076 -252 0
-3076 3012 0
3076 252 -3012 0
-3204 -253 0
-3204 3076 0
3204 253 -3076 0
-3508 -244 0
-3508 3444 0
3508 244 -3444 0
-3636 -245 0
-3636 3508 0
3636 245 -3508 0
-3940 -236 0
-3940 3876 0
3940 236 -3876 0
-4068 -237 0
-4068 3940 0
4068 237 -3940 0
-4372 -228 0
-4372 4308 0
4372 228 -4308 0
-4500 -229 0
-4500 4372 0
4500 229 -4372 0
-4804 -220 0
-4804 4740 0
4804 220 -4740 0
-4932 -221 0
-4932 4804 0
4932 221 -4804 0
-5236 -212 0
-5236 5172 0
5236 212 -5172 0
-5364 -213 0
-5364 5236 0
5364 213 -5236 0
-5668 -204 0
-5668 5604 0
5668 204 -5604 0
-5796 -205 0
-5796 5668 0
5796 205 -5668 0
-6100 -196 0
-6100 6036 0
6100 196 -6036 0
-6228 -197 0
-6228 6100 0
6228 197 -6100 0
-6532 -188 0
-6532 6468 0
6532 188 -6468 0
-6660 -189 0
-6660 6532 0
6660 189 -6532 0
-6840 -6228 0
-6840 -6660 0
6840 6228 6660 0
-7020 -5796 0
-7020 6840 0
7020 5796 -6840 0
-7200 -5364 0
-7200 7020 0
7200 5364 -7020 0
-7380 -4932 0
-7380 7200 0
7380 4932 -7200 0
-7560 -4500 0
-7560 7380 0
7560 4500 -7380 0
-7740 -4068 0
-7740 7560 0
7740 4068 -7560 0
-7920 -3636 0
-7920 7740 0
7920 3636 -7740 0
-8100 -3204 0
-8100 7920 0
8100 3204 -7920 0
-8280 -2772 0
-8280 8100 0
8280 2772 -8100 0
-8460 -2340 0
-8460 8280 0
8460 2340 -8280 0
-8640 -1908 0
-8640 8460 0
8640 1908 -8460 0
-8820 -1476 0
-8820 8640 0
8820 1476 -8640 0
-9000 -1044 0
-9000 8820 0
9000 1044 -8820 0
-9180 -612 0
-9180 9000 0
9180 612 -9000 0
-9476 60 0
-9476 9180 0
9476 -60 -9180 0
-9477 -60 0
-9477 -9180 0
9477 60 9180 0
-9478 -9476 0
-9478 -9477 0
9478 9476 9477 0
59 -39772 0
-59 39772 0
-483 -300 0
-483 419 0
483 300 -419 0
-611 -301 0
-611 483 0
611 301 -483 0
-915 -292 0
-915 851 0
915 292 -851 0
-1043 -293 0
-1043 915 0
1043 293 -915 0
-1347 -284 0
-1347 1283 0
1347 284 -1283 0
-1475 -285 0
-1475 1347 0
1475 285 -1347 0
-1779 -276 0
-1779 1715 0
1779 276 -1715 0
-1907 -277 0
-1907 1779 0
1907 277 -1779 0
-2211 -268 0
-2211 2147 0
2211 268 -2147 0
-2339 -269 0
-2339 2211 0
2339 269 -2211 0
-2643 -260 0
-2643 2579 0
2643 260 -2579 0
-2771 -261 0
-2771 2643 0
2771 261 -2643 0
-3075 -252 0
-3075 3011 0
3075 252 -3011 0
-3203 -253 0
-3203 3075 0
3203 253 -3075 0
-3507 -244 0
-3507 3443 0
3507 244 -3443 0
-3635 -245 0
-3635 3507 0
3635 245 -3507 0
-3939 -236 0
-3939 3875 0
3939 236 -3875 0
-4067 -237 0
-4067 3939 0
4067 237 -3939 0
-4371 -228 0
-4371 4307 0
4371 228 -4307 0
-4499 -229 0
-4499 4371 0
4499 229 -4371 0
-4803 -220 0
-4803 4739 0
4803 220 -4739 0
-4931 -221 0
-4931 4803 0
4931 221 -4803 0
-5235 -212 0
-5235 5171 0
5235 212 -5171 0
-5363 -213 0
-5363 5235 0
5363 213 -5235 0
-5667 -204 0
-5667 5603 0
5667 204 -5603 0
-5795 -205 0
-5795 5667 0
5795 205 -5667 0
-6099 -196 0
-6099 6035 0
6099 196 -6035 0
-6227 -197 0
-6227 6099 0
6227 197 -6099 0
-6531 -188 0
-6531 6467 0
6531 188 -6467 0
-6659 -189 0
-6659 6531 0
6659 189 -6531 0
-6839 -6227 0
-6839 -6659 0
6839 6227 6659 0
-7019 -5795 0
-7019 6839 0
7019 5795 -6839 0
-7199 -5363 0
-7199 7019 0
7199 5363 -7019 0
-7379 -4931 0
-7379 7199 0
7379 4931 -7199 0
-7559 -4499 0
-7559 7379 0
7559 4499 -7379 0
-7739 -4067 0
-7739 7559 0
7739 4067 -7559 0
-7919 -3635 0
-7919 7739 0
7919 3635 -7739 0
-8099 -3203 0
-8099 7919 0
8099 3203 -7919 0
-8279 -2771 0
-8279 8099 0
8279 2771 -8099 0
-8459 -2339 0
-8459 8279 0
8459 2339 -8279 0
-8639 -1907 0
-8639 8459 0
8639 1907 -8459 0
-8819 -1475 0
-8819 8639 0
8819 1475 -8639 0
-8999 -1043 0
-8999 8819 0
8999 1043 -8819 0
-9179 -611 0
-9179 8999 0
9179 611 -8999 0
-9473 59 0
-9473 9179 0
9473 -59 -9179 0
-9474 -59 0
-9474 -9179 0
9474 59 9179 0
-9475 -9473 0
-9475 -9474 0
9475 9473 9474 0
58 -39771 0
-58 39771 0
-482 -300 0
-482 418 0
482 300 -418 0
-610 -301 0
-610 482 0
610 301 -482 0
-914 -292 0
-914 850 0
914 292 -850 0
-1042 -293 0
-1042 914 0
1042 293 -914 0
-1346 -284 0
-1346 1282 0
1346 284 -1282 0
-1474 -285 0
-1474 1346 0
1474 285 -1346 0
-1778 -276 0
-1778 1714 0
1778 276 -1714 0
-1906 -277 0
-1906 1778 0
1906 277 -1778 0
-2210 -268 0
-2210 2146 0
2210 268 -2146 0
-2338 -269 0
-2338 2210 0
2338 269 -2210 0
-2642 -260 0
-2642 2578 0
2642 260 -2578 0
-2770 -261 0
-2770 2642 0
2770 261 -2642 0
-3074 -252 0
-3074 3010 0
3074 252 -3010 0
-3202 -253 0
-3202 3074 0
3202 253 -3074 0
-3506 -244 0
-3506 3442 0
3506 244 -3442 0
-3634 -245 0
-3634 3506 0
3634 245 -3506 0
-3938 -236 0
-3938 3874 0
3938 236 -3874 0
-4066 -237 0
-4066 3938 0
4066 237 -3938 0
-4370 -228 0
-4370 4306 0
4370 228 -4306 0
-4498 -229 0
-4498 4370 0
4498 229 -4370 0
-4802 -220 0
-4802 4738 0
4802 220 -4738 0
-4930 -221 0
-4930 4802 0
4930 221 -4802 0
-5234 -212 0
-5234 5170 0
5234 212 -5170 0
-5362 -213 0
-5362 5234 0
5362 213 -5234 0
-5666 -204 0
-5666 5602 0
5666 204 -5602 0
-5794 -205 0
-5794 5666 0
5794 205 -5666 0
-6098 -196 0
-6098 6034 0
6098 196 -6034 0
-6226 -197 0
-6226 6098 0
6226 197 -6098 0
-6530 -188 0
-6530 6466 0
6530 188 -6466 0
-6658 -189 0
-6658 6530 0
6658 189 -6530 0
-6838 -6226 0
-6838 -6658 0
6838 6226 6658 0
-7018 -5794 0
-7018 6838 0
7018 5794 -6838 0
-7198 -5362 0
-7198 7018 0
7198 5362 -7018 0
-7378 -4930 0
-7378 7198 0
7378 4930 -7198 0
-7558 -4498 0
-7558 7378 0
7558 4498 -7378 0
-7738 -4066 0
-7738 7558 0
7738 4066 -7558 0
-7918 -3634 0
-7918 7738 0
7918 3634 -7738 0
-8098 -3202 0
-8098 7918 0
8098 3202 -7918 0
-8278 -2770 0
-8278 8098 0
8278 2770 -8098 0
-8458 -2338 0
-8458 8278 0
8458 2338 -8278 0
-8638 -1906 0
-8638 8458 0
8638 1906 -8458 0
-8818 -1474 0
-8818 8638 0
8818 1474 -8638 0
-8998 -1042 0
-8998 8818 0
8998 1042 -8818 0
-9178 -610 0
-9178 8998 0
9178 610 -8998 0
-9470 58 0
-9470 9178 0
9470 -58 -9178 0
-9471 -58 0
-9471 -9178 0
9471 58 9178 0
-9472 -9470 0
-9472 -9471 0
9472 9470 9471 0
57 -39770 0
-57 39770 0
-481 -300 0
-481 417 0
481 300 -417 0
-609 -301 0
-609 481 0
609 301 -481 0
-913 -292 0
-913 849 0
913 292 -849 0
-1041 -293 0
-1041 913 0
1041 293 -913 0
-1345 -284 0
-1345 1281 0
1345 284 -1281 0
-1473 -285 0
-1473 1345 0
1473 285 -1345 0
-1777 -276 0
-1777 1713 0
1777 276 -1713 0
-1905 -277 0
-1905 1777 0
1905 277 -1777 0
-2209 -268 0
-2209 2145 0
2209 268 -2145 0
-2337 -269 0
-2337 2209 0
2337 269 -2209 0
-2641 -260 0
-2641 2577 0
2641 260 -2577 0
-2769 -261 0
-2769 2641 0
2769 261 -2641 0
-3073 -252 0
-3073 3009 0
3073 252 -3009 0
-3201 -253 0
-3201 3073 0
3201 253 -3073 0
-3505 -244 0
-3505 3441 0
3505 244 -3441 0
-3633 -245 0
-3633 3505 0
3633 245 -3505 0
-3937 -236 0
-3937 3873 0
3937 236 -3873 0
-4065 -237 0
-4065 3937 0
4065 237 -3937 0
-4369 -228 0
-4369 4305 0
4369 228 -4305 0
-4497 -229 0
-4497 4369 0
4497 229 -4369 0
-4801 -220 0
-4801 4737 0
4801 220 -4737 0
-4929 -221 0
-4929 4801 0
4929 221 -4801 0
-5233 -212 0
-5233 5169 0
5233 212 -5169 0
-5361 -213 0
-5361 5233 0
5361 213 -5233 0
-5665 -204 0
-5665 5601 0
5665 204 -5601 0
-5793 -205 0
-5793 5665 0
5793 205 -5665 0
-6097 -196 0
-6097 6033 0
6097 196 -6033 0
-6225 -197 0
-6225 6097 0
6225 197 -6097 0
-6529 -188 0
-6529 6465 0
6529 188 -6465 0
-6657 -189 0
-6657 6529 0
6657 189 -6529 0
-6837 -6225 0
-6837 -6657 0
6837 6225 6657 0
-7017 -5793 0
-7017 6837 0
7017 5793 -6837 0
-7197 -5361 0
-7197 7017 0
7197 5361 -7017 0
-7377 -4929 0
-7377 7197 0
7377 4929 -7197 0
-7557 -4497 0
-7557 7377 0
7557 4497 -7377 0
-7737 -4065 0
-7737 7557 0
7737 4065 -7557 0
-7917 -3633 0
-7917 7737 0
7917 3633 -7737 0
-8097 -3201 0
-8097 7917 0
8097 3201 -7917 0
-8277 -2769 0
-8277 8097 0
8277 2769 -8097 0
-8457 -2337 0
-8457 8277 0
8457 2337 -8277 0
-8637 -1905 0
-8637 8457 0
8637 1905 -8457 0
-8817 -1473 0
-8817 8637 0
8817 1473 -8637 0
-8997 -1041 0
-8997 8817 0
8997 1041 -8817 0
-9177 -609 0
-9177 8997 0
9177 609 -8997 0
-9467 57 0
-9467 9177 0
9467 -57 -9177 0
-9468 -57 0
-9468 -9177 0
9468 57 9177 0
-9469 -9467 0
-9469 -9468 0
9469 9467 9468 0
56 -39769 0
-56 39769 0
-480 -300 0
-480 416 0
480 300 -416 0
-608 -301 0
-608 480 0
608 301 -480 0
-912 -292 0
-912 848 0
912 292 -848 0
-1040 -293 0
-1040 912 0
1040 293 -912 0
-1344 -284 0
-1344 1280 0
1344 284 -1280 0
-1472 -285 0
-1472 1344 0
1472 285 -1344 0
-1776 -276 0
-1776 1712 0
1776 276 -1712 0
-1904 -277 0
-1904 1776 0
1904 277 -1776 0
-2208 -268 0
-2208 2144 0
2208 268 -2144 0
-2336 -269 0
-2336 2208 0
2336 269 -2208 0
-2640 -260 0
-2640 2576 0
2640 260 -2576 0
-2768 -261 0
-2768 2640 0
2768 261 -2640 0
-3072 -252 0
-3072 3008 0
3072 252 -3008 0
-3200 -253 0
-3200 3072 0
3200 253 -3072 0
-3504 -244 0
-3504 3440 0
3504 244 -3440 0
-3632 -245 0
-3632 3504 0
3632 245 -3504 0
-3936 -236 0
-3936 3872 0
3936 236 -3872 0
-4064 -237 0
-4064 3936 0
4064 237 -3936 0
-4368 -228 0
-4368 4304 0
4368 228 -4304 0
-4496 -229 0
-4496 4368 0
4496 229 -4368 0
-4800 -220 0
-4800 4736 0
4800 220 -4736 0
-4928 -221 0
-4928 4800 0
4928 221 -4800 0
-5232 -212 0
-5232 5168 0
5232 212 -5168 0
-5360 -213 0
-5360 5232 0
5360 213 -5232 0
-5664 -204 0
-5664 5600 0
5664 204 -5600 0
-5792 -205 0
-5792 5664 0
5792 205 -5664 0
-6096 -196 0
-6096 6032 0
6096 196 -6032 0
-6224 -197 0
-6224 6096 0
6224 197 -6096 0
-6528 -188 0
-6528 6464 0
6528 188 -6464 0
-6656 -189 0
-6656 6528 0
6656 189 -6528 0
-6836 -6224 0
-6836 -6656 0
6836 6224 6656 0
-7016 -5792 0
-7016 6836 0
7016 5792 -6836 0
-7196 -5360 0
-7196 7016 0
7196 5360 -7016 0
-7376 -4928 0
-7376 7196 0
7376 4928 -7196 0
-7556 -4496 0
-7556 7376 0
7556 4496 -7376 0
-7736 -4064 0
-7736 7556 0
7736 4064 -7556 0
-7916 -3632 0
-7916 7736 0
7916 3632 -7736 0
-8096 -3200 0
-8096 7916 0
8096 3200 -7916 0
-8276 -2768 0
-8276 8096 0
8276 2768 -8096 0
-8456 -2336 0
-8456 8276 0
8456 2336 -8276 0
-8636 -1904 0
-8636 8456 0
8636 1904 -8456 0
-8816 -1472 0
-8816 8636 0
8816 1472 -8636 0
-8996 -1040 0
-8996 8816 0
8996 1040 -8816 0
-9176 -608 0
-9176 8996 0
9176 608 -8996 0
-9464 56 0
-9464 9176 0
9464 -56 -9176 0
-9465 -56 0
-9465 -9176 0
9465 56 9176 0
-9466 -9464 0
-9466 -9465 0
9466 9464 9465 0
55 -39768 0
-55 39768 0
-479 -300 0
-479 415 0
479 300 -415 0
-607 -301 0
-607 479 0
607 301 -479 0
-911 -292 0
-911 847 0
911 292 -847 0
-1039 -293 0
-1039 911 0
1039 293 -911 0
-1343 -284 0
-1343 1279 0
1343 284 -1279 0
-1471 -285 0
-1471 1343 0
1471 285 -1343 0
-1775 -276 0
-1775 1711 0
1775 276 -1711 0
-1903 -277 0
-1903 1775 0
1903 277 -1775 0
-2207 -268 0
-2207 2143 0
2207 268 -2143 0
-2335 -269 0
-2335 2207 0
2335 269 -2207 0
-2639 -260 0
-2639 2575 0
2639 260 -2575 0
-2767 -261 0
-2767 2639 0
2767 261 -2639 0
-3071 -252 0
-3071 3007 0
3071 252 -3007 0
-3199 -253 0
-3199 3071 0
3199 253 -3071 0
-3503 -244 0
-3503 3439 0
3503 244 -3439 0
-3631 -245 0
-3631 3503 0
3631 245 -3503 0
-3935 -236 0
-3935 3871 0
3935 236 -3871 0
-4063 -237 0
-4063 3935 0
4063 237 -3935 0
-4367 -228 0
-4367 4303 0
4367 228 -4303 0
-4495 -229 0
-4495 4367 0
4495 229 -4367 0
-4799 -220 0
-4799 4735 0
4799 220 -4735 0
-4927 -221 0
-4927 4799 0
4927 221 -4799 0
-5231 -212 0
-5231 5167 0
5231 212 -5167 0
-5359 -213 0
-5359 5231 0
5359 213 -5231 0
-5663 -204 0
-5663 5599 0
5663 204 -5599 0
-5791 -205 0
-5791 5663 0
5791 205 -5663 0
-6095 -196 0
-6095 6031 0
6095 196 -6031 0
-6223 -197 0
-6223 6095 0
6223 197 -6095 0
-6527 -188 0
-6527 6463 0
6527 188 -6463 0
-6655 -189 0
-6655 6527 0
6655 189 -6527 0
-6835 -6223 0
-6835 -6655 0
6835 6223 6655 0
-7015 -5791 0
-7015 6835 0
7015 5791 -6835 0
-7195 -5359 0
-7195 7015 0
7195 5359 -7015 0
-7375 -4927 0
-7375 7195 0
7375 4927 -7195 0
-7555 -4495 0
-7555 7375 0
7555 4495 -7375 0
-7735 -4063 0
-7735 7555 0
7735 4063 -7555 0
-7915 -3631 0
-7915 7735 0
7915 3631 -7735 0
-8095 -3199 0
-8095 7915 0
8095 3199 -7915 0
-8275 -2767 0
-8275 8095 0
8275 2767 -8095 0
-8455 -2335 0
-8455 8275 0
8455 2335 -8275 0
-8635 -1903 0
-8635 8455 0
8635 1903 -8455 0
-8815 -1471 0
-8815 8635 0
8815 1471 -8635 0
-8995 -1039 0
-8995 8815 0
8995 1039 -8815 0
-9175 -607 0
-9175 8995 0
9175 607 -8995 0
-9461 55 0
-9461 9175 0
9461 -55 -9175 0
-9462 -55 0
-9462 -9175 0
9462 55 9175 0
-9463 -9461 0
-9463 -9462 0
9463 9461 9462 0
54 -39767 0
-54 39767 0
-478 -300 0
-478 414 0
478 300 -414 0
-606 -301 0
-606 478 0
606 301 -478 0
-910 -292 0
-910 846 0
910 292 -846 0
-1038 -293 0
-1038 910 0
1038 293 -910 0
-1342 -284 0
-1342 1278 0
1342 284 -1278 0
-1470 -285 0
-1470 1342 0
1470 285 -1342 0
-1774 -276 0
-1774 1710 0
1774 276 -1710 0
-1902 -277 0
-1902 1774 0
1902 277 -1774 0
-2206 -268 0
-2206 2142 0
2206 268 -2142 0
-2334 -269 0
-2334 2206 0
2334 269 -2206 0
-2638 -260 0
-2638 2574 0
2638 260 -2574 0
-2766 -261 0
-2766 2638 0
2766 261 -2638 0
-3070 -252 0
-3070 3006 0
3070 252 -3006 0
-3198 -253 0
-3198 3070 0
3198 253 -3070 0
-3502 -244 0
-3502 3438 0
3502 244 -3438 0
-3630 -245 0
-3630 3502 0
3630 245 -3502 0
-3934 -236 0
-3934 3870 0
3934 236 -3870 0
-4062 -237 0
-4062 3934 0
4062 237 -3934 0
-4366 -228 0
-4366 4302 0
4366 228 -4302 0
-4494 -229 0
-4494 4366 0
4494 229 -4366 0
-4798 -220 0
-4798 4734 0
4798 220 -4734 0
-4926 -221 0
-4926 4798 0
4926 221 -4798 0
-5230 -212 0
-5230 5166 0
5230 212 -5166 0
-5358 -213 0
-5358 5230 0
5358 213 -5230 0
-5662 -204 0
-5662 5598 0
5662 204 -5598 0
-5790 -205 0
-5790 5662 0
5790 205 -5662 0
-6094 -196 0
-6094 6030 0
6094 196 -6030 0
-6222 -197 0
-6222 6094 0
6222 197 -6094 0
-6526 -188 0
-6526 6462 0
6526 188 -6462 0
-6654 -189 0
-6654 6526 0
6654 189 -6526 0
-6834 -6222 0
-6834 -6654 0
6834 6222 6654 0
-7014 -5790 0
-7014 6834 0
7014 5790 -6834 0
-7194 -5358 0
-7194 7014 0
7194 5358 -7014 0
-7374 -4926 0
-7374 7194 0
7374 4926 -7194 0
-7554 -4494 0
-7554 7374 0
7554 4494 -7374 0
-7734 -4062 0
-7734 7554 0
7734 4062 -7554 0
-7914 -3630 0
-7914 7734 0
7914 3630 -7734 0
-8094 -3198 0
-8094 7914 0
8094 3198 -7914 0
-8274 -2766 0
-8274 8094 0
8274 2766 -8094 0
-8454 -2334 0
-8454 8274 0
8454 2334 -8274 0
-8634 -1902 0
-8634 8454 0
8634 1902 -8454 0
-8814 -1470 0
-8814 8634 0
8814 1470 -8634 0
-8994 -1038 0
-8994 8814 0
8994 1038 -8814 0
-9174 -606 0
-9174 8994 0
9174 606 -8994 0
-9458 54 0
-9458 9174 0
9458 -54 -9174 0
-9459 -54 0
-9459 -9174 0
9459 54 9174 0
-9460 -9458 0
-9460 -9459 0
9460 9458 9459 0
53 -39766 0
-53 39766 0
-605 -301 0
-605 477 0
605 301 -477 0
-1037 -293 0
-1037 909 0
1037 293 -909 0
-1469 -285 0
-1469 1341 0
1469 285 -1341 0
-1901 -277 0
-1901 1773 0
1901 277 -1773 0
-2333 -269 0
-2333 2205 0
2333 269 -2205 0
-2765 -261 0
-2765 2637 0
2765 261 -2637 0
-3197 -253 0
-3197 3069 0
3197 253 -3069 0
-3629 -245 0
-3629 3501 0
3629 245 -3501 0
-4061 -237 0
-4061 3933 0
4061 237 -3933 0
-4493 -229 0
-4493 4365 0
4493 229 -4365 0
-4925 -221 0
-4925 4797 0
4925 221 -4797 0
-5357 -213 0
-5357 5229 0
5357 213 -5229 0
-5789 -205 0
-5789 5661 0
5789 205 -5661 0
-6221 -197 0
-6221 6093 0
6221 197 -6093 0
-6653 -189 0
-6653 6525 0
6653 189 -6525 0
-6833 -6221 0
-6833 -6653 0
6833 6221 6653 0
-7013 -5789 0
-7013 6833 0
7013 5789 -6833 0
-7193 -5357 0
-7193 7013 0
7193 5357 -7013 0
-7373 -4925 0
-7373 7193 0
7373 4925 -7193 0
-7553 -4493 0
-7553 7373 0
7553 4493 -7373 0
-7733 -4061 0
-7733 7553 0
7733 4061 -7553 0
-7913 -3629 0
-7913 7733 0
7913 3629 -7733 0
-8093 -3197 0
-8093 7913 0
8093 3197 -7913 0
-8273 -2765 0
-8273 8093 0
8273 2765 -8093 0
-8453 -2333 0
-8453 8273 0
8453 2333 -8273 0
-8633 -1901 0
-8633 8453 0
8633 1901 -8453 0
-8813 -1469 0
-8813 8633 0
8813 1469 -8633 0
-8993 -1037 0
-8993 8813 0
8993 1037 -8813 0
-9173 -605 0
-9173 8993 0
9173 605 -8993 0
-9455 53 0
-9455 9173 0
9455 -53 -9173 0
-9456 -53 0
-9456 -9173 0
9456 53 9173 0
-9457 -9455 0
-9457 -9456 0
9457 9455 9456 0
52 -39765 0
-52 39765 0
-604 -301 0
-604 476 0
604 301 -476 0
-1036 -293 0
-1036 908 0
1036 293 -908 0
-1468 -285 0
-1468 1340 0
1468 285 -1340 0
-1900 -277 0
-1900 1772 0
1900 277 -1772 0
-2332 -269 0
-2332 2204 0
2332 269 -2204 0
-2764 -261 0
-2764 2636 0
2764 261 -2636 0
-3196 -253 0
-3196 3068 0
3196 253 -3068 0
-3628 -245 0
-3628 3500 0
3628 245 -3500 0
-4060 -237 0
-4060 3932 0
4060 237 -3932 0
-4492 -229 0
-4492 4364 0
4492 229 -4364 0
-4924 -221 0
-4924 4796 0
4924 221 -4796 0
-5356 -213 0
-5356 5228 0
5356 213 -5228 0
-5788 -205 0
-5788 5660 0
5788 205 -5660 0
-6220 -197 0
-6220 6092 0
6220 197 -6092 0
-6652 -189 0
-6652 6524 0
6652 189 -6524 0
-6832 -6220 0
-6832 -6652 0
6832 6220 6652 0
-7012 -5788 0
-7012 6832 0
7012 5788 -6832 0
-7192 -5356 0
-7192 7012 0
7192 5356 -7012 0
-7372 -4924 0
-7372 7192 0
7372 4924 -7192 0
-7552 -4492 0
-7552 7372 0
7552 4492 -7372 0
-7732 -4060 0
-7732 7552 0
7732 4060 -7552 0
-7912 -3628 0
-7912 7732 0
7912 3628 -7732 0
-8092 -3196 0
-8092 7912 0
8092 3196 -7912 0
-8272 -2764 0
-8272 8092 0
8272 2764 -8092 0
-8452 -2332 0
-8452 8272 0
8452 2332 -8272 0
-8632 -1900 0
-8632 8452 0
8632 1900 -8452 0
-8812 -1468 0
-8812 8632 0
8812 1468 -8632 0
-8992 -1036 0
-8992 8812 0
8992 1036 -8812 0
-9172 -604 0
-9172 8992 0
9172 604 -8992 0
-9452 52 0
-9452 9172 0
9452 -52 -9172 0
-9453 -52 0
-9453 -9172 0
9453 52 9172 0
-9454 -9452 0
-9454 -9453 0
9454 9452 9453 0
51 -39764 0
-51 39764 0
-603 -301 0
-603 475 0
603 301 -475 0
-1035 -293 0
-1035 907 0
1035 293 -907 0
-1467 -285 0
-1467 1339 0
1467 285 -1339 0
-1899 -277 0
-1899 1771 0
1899 277 -1771 0
-2331 -269 0
-2331 2203 0
2331 269 -2203 0
-2763 -261 0
-2763 2635 0
2763 261 -2635 0
-3195 -253 0
-3195 3067 0
3195 253 -3067 0
-3627 -245 0
-3627 3499 0
3627 245 -3499 0
-4059 -237 0
-4059 3931 0
4059 237 -3931 0
-4491 -229 0
-4491 4363 0
4491 229 -4363 0
-4923 -221 0
-4923 4795 0
4923 221 -4795 0
-5355 -213 0
-5355 5227 0
5355 213 -5227 0
-5787 -205 0
-5787 5659 0
5787 205 -5659 0
-6219 -197 0
-6219 6091 0
6219 197 -6091 0
-6651 -189 0
-6651 6523 0
6651 189 -6523 0
-6831 -6219 0
-6831 -6651 0
6831 6219 6651 0
-7011 -5787 0
-7011 6831 0
7011 5787 -6831 0
-7191 -5355 0
-7191 7011 0
7191 5355 -7011 0
-7371 -4923 0
-7371 7191 0
7371 4923 -7191 0
-7551 -4491 0
-7551 7371 0
7551 4491 -7371 0
-7731 -4059 0
-7731 7551 0
7731 4059 -7551 0
-7911 -3627 0
-7911 7731 0
7911 3627 -7731 0
-8091 -3195 0
-8091 7911 0
8091 3195 -7911 0
-8271 -2763 0
-8271 8091 0
8271 2763 -8091 0
-8451 -2331 0
-8451 8271 0
8451 2331 -8271 0
-8631 -1899 0
-8631 8451 0
8631 1899 -8451 0
-8811 -1467 0
-8811 8631 0
8811 1467 -8631 0
-8991 -1035 0
-8991 8811 0
8991 1035 -8811 0
-9171 -603 0
-9171 8991 0
9171 603 -8991 0
-9449 51 0
-9449 9171 0
9449 -51 -9171 0
-9450 -51 0
-9450 -9171 0
9450 51 9171 0
-9451 -9449 0
-9451 -9450 0
9451 9449 9450 0
50 -39763 0
-50 39763 0
-602 -301 0
-602 474 0
602 301 -474 0
-1034 -293 0
-1034 906 0
1034 293 -906 0
-1466 -285 0
-1466 1338 0
1466 285 -1338 0
-1898 -277 0
-1898 1770 0
1898 277 -1770 0
-2330 -269 0
-2330 2202 0
2330 269 -2202 0
-2762 -261 0
-2762 2634 0
2762 261 -2634 0
-3194 -253 0
-3194 3066 0
3194 253 -3066 0
-3626 -245 0
-3626 3498 0
3626 245 -3498 0
-4058 -237 0
-4058 3930 0
4058 237 -3930 0
-4490 -229 0
-4490 4362 0
4490 229 -4362 0
-4922 -221 0
-4922 4794 0
4922 221 -4794 0
-5354 -213 0
-5354 5226 0
5354 213 -5226 0
-5786 -205 0
-5786 5658 0
5786 205 -5658 0
-6218 -197 0
-6218 6090 0
6218 197 -6090 0
-6650 -189 0
-6650 6522 0
6650 189 -6522 0
-6830 -6218 0
-6830 -6650 0
6830 6218 6650 0
-7010 -5786 0
-7010 6830 0
7010 5786 -6830 0
-7190 -5354 0
-7190 7010 0
7190 5354 -7010 0
-7370 -4922 0
-7370 7190 0
7370 4922 -7190 0
-7550 -4490 0
-7550 7370 0
7550 4490 -7370 0
-7730 -4058 0
-7730 7550 0
7730 4058 -7550 0
-7910 -3626 0
-7910 7730 0
7910 3626 -7730 0
-8090 -3194 0
-8090 7910 0
8090 3194 -7910 0
-8270 -2762 0
-8270 8090 0
8270 2762 -8090 0
-8450 -2330 0
-8450 8270 0
8450 2330 -8270 0
-8630 -1898 0
-8630 8450 0
8630 1898 -8450 0
-8810 -1466 0
-8810 8630 0
8810 1466 -8630 0
-8990 -1034 0
-8990 8810 0
8990 1034 -8810 0
-9170 -602 0
-9170 8990 0
9170 602 -8990 0
-9446 50 0
-9446 9170 0
9446 -50 -9170 0
-9447 -50 0
-9447 -9170 0
9447 50 9170 0
-9448 -9446 0
-9448 -9447 0
9448 9446 9447 0
49 -39762 0
-49 39762 0
-601 -301 0
-601 473 0
601 301 -473 0
-1033 -293 0
-1033 905 0
1033 293 -905 0
-1465 -285 0
-1465 1337 0
1465 285 -1337 0
-1897 -277 0
-1897 1769 0
1897 277 -1769 0
-2329 -269 0
-2329 2201 0
2329 269 -2201 0
-2761 -261 0
-2761 2633 0
2761 261 -2633 0
-3193 -253 0
-3193 3065 0
3193 253 -3065 0
-3625 -245 0
-3625 3497 0
3625 245 -3497 0
-4057 -237 0
-4057 3929 0
4057 237 -3929 0
-4489 -229 0
-4489 4361 0
4489 229 -4361 0
-4921 -221 0
-4921 4793 0
4921 221 -4793 0
-5353 -213 0
-5353 5225 0
5353 213 -5225 0
-5785 -205 0
-5785 5657 0
5785 205 -5657 0
-6217 -197 0
-6217 6089 0
6217 197 -6089 0
-6649 -189 0
-6649 6521 0
6649 189 -6521 0
-6829 -6217 0
-6829 -6649 0
6829 6217 6649 0
-7009 -5785 0
-7009 6829 0
7009 5785 -6829 0
-7189 -5353 0
-7189 7009 0
7189 5353 -7009 0
-7369 -4921 0
-7369 7189 0
7369 4921 -7189 0
-7549 -4489 0
-7549 7369 0
7549 4489 -7369 0
-7729 -4057 0
-7729 7549 0
7729 4057 -7549 0
-7909 -3625 0
-7909 7729 0
7909 3625 -7729 0
-8089 -3193 0
-8089 7909 0
8089 3193 -7909 0
-8269 -2761 0
-8269 8089 0
8269 2761 -8089 0
-8449 -2329 0
-8449 8269 0
8449 2329 -8269 0
-8629 -1897 0
-8629 8449 0
8629 1897 -8449 0
-8809 -1465 0
-8809 8629 0
8809 1465 -8629 0
-8989 -1033 0
-8989 8809 0
8989 1033 -8809 0
-9169 -601 0
-9169 8989 0
9169 601 -8989 0
-9443 49 0
-9443 9169 0
9443 -49 -9169 0
-9444 -49 0
-9444 -9169 0
9444 49 9169 0
-9445 -9443 0
-9445 -9444 0
9445 9443 9444 0
48 -39761 0
-48 39761 0
-600 -301 0
-600 472 0
600 301 -472 0
-1032 -293 0
-1032 904 0
1032 293 -904 0
-1464 -285 0
-1464 1336 0
1464 285 -1336 0
-1896 -277 0
-1896 1768 0
1896 277 -1768 0
-2328 -269 0
-2328 2200 0
2328 269 -2200 0
-2760 -261 0
-2760 2632 0
2760 261 -2632 0
-3192 -253 0
-3192 3064 0
3192 253 -3064 0
-3624 -245 0
-3624 3496 0
3624 245 -3496 0
-4056 -237 0
-4056 3928 0
4056 237 -3928 0
-4488 -229 0
-4488 4360 0
4488 229 -4360 0
-4920 -221 0
-4920 4792 0
4920 221 -4792 0
-5352 -213 0
-5352 5224 0
5352 213 -5224 0
-5784 -205 0
-5784 5656 0
5784 205 -5656 0
-6216 -197 0
-6216 6088 0
6216 197 -6088 0
-6648 -189 0
-6648 6520 0
6648 189 -6520 0
-6828 -6216 0
-6828 -6648 0
6828 6216 6648 0
-7008 -5784 0
-7008 6828 0
7008 5784 -6828 0
-7188 -5352 0
-7188 7008 0
7188 5352 -7008 0
-7368 -4920 0
-7368 7188 0
7368 4920 -7188 0
-7548 -4488 0
-7548 7368 0
7548 4488 -7368 0
-7728 -4056 0
-7728 7548 0
7728 4056 -7548 0
-7908 -3624 0
-7908 7728 0
7908 3624 -7728 0
-8088 -3192 0
-8088 7908 0
8088 3192 -7908 0
-8268 -2760 0
-8268 8088 0
8268 2760 -8088 0
-8448 -2328 0
-8448 8268 0
8448 2328 -8268 0
-8628 -1896 0
-8628 8448 0
8628 1896 -8448 0
-8808 -1464 0
-8808 8628 0
8808 1464 -8628 0
-8988 -1032 0
-8988 8808 0
8988 1032 -8808 0
-9168 -600 0
-9168 8988 0
9168 600 -8988 0
-9440 48 0
-9440 9168 0
9440 -48 -9168 0
-9441 -48 0
-9441 -9168 0
9441 48 9168 0
-9442 -9440 0
-9442 -9441 0
9442 9440 9441 0
47 -39760 0
-47 39760 0
-599 -301 0
-599 471 0
599 301 -471 0
-1031 -293 0
-1031 903 0
1031 293 -903 0
-1463 -285 0
-1463 1335 0
1463 285 -1335 0
-1895 -277 0
-1895 1767 0
1895 277 -1767 0
-2327 -269 0
-2327 2199 0
2327 269 -2199 0
-2759 -261 0
-2759 2631 0
2759 261 -2631 0
-3191 -253 0
-3191 3063 0
3191 253 -3063 0
-3623 -245 0
-3623 3495 0
3623 245 -3495 0
-4055 -237 0
-4055 3927 0
4055 237 -3927 0
-4487 -229 0
-4487 4359 0
4487 229 -4359 0
-4919 -221 0
-4919 4791 0
4919 221 -4791 0
-5351 -213 0
-5351 5223 0
5351 213 -5223 0
-5783 -205 0
-5783 5655 0
5783 205 -5655 0
-6215 -197 0
-6215 6087 0
6215 197 -6087 0
-6647 -189 0
-6647 6519 0
6647 189 -6519 0
-6827 -6215 0
-6827 -6647 0
6827 6215 6647 0
-7007 -5783 0
-7007 6827 0
7007 5783 -6827 0
-7187 -5351 0
-7187 7007 0
7187 5351 -7007 0
-7367 -4919 0
-7367 7187 0
7367 4919 -7187 0
-7547 -4487 0
-7547 7367 0
7547 4487 -7367 0
-7727 -4055 0
-7727 7547 0
7727 4055 -7547 0
-7907 -3623 0
-7907 7727 0
7907 3623 -7727 0
-8087 -3191 0
-8087 7907 0
8087 3191 -7907 0
-8267 -2759 0
-8267 8087 0
8267 2759 -8087 0
-8447 -2327 0
-8447 8267 0
8447 2327 -8267 0
-8627 -1895 0
-8627 8447 0
8627 1895 -8447 0
-8807 -1463 0
-8807 8627 0
8807 1463 -8627 0
-8987 -1031 0
-8987 8807 0
8987 1031 -8807 0
-9167 -599 0
-9167 8987 0
9167 599 -8987 0
-9437 47 0
-9437 9167 0
9437 -47 -9167 0
-9438 -47 0
-9438 -9167 0
9438 47 9167 0
-9439 -9437 0
-9439 -9438 0
9439 9437 9438 0
46 -39759 0
-46 39759 0
-598 -301 0
-598 470 0
598 301 -470 0
-1030 -293 0
-1030 902 0
1030 293 -902 0
-1462 -285 0
-1462 1334 0
1462 285 -1334 0
-1894 -277 0
-1894 1766 0
1894 277 -1766 0
-2326 -269 0
-2326 2198 0
2326 269 -2198 0
-2758 -261 0
-2758 2630 0
2758 261 -2630 0
-3190 -253 0
-3190 3062 0
3190 253 -3062 0
-3622 -245 0
-3622 3494 0
3622 245 -3494 0
-4054 -237 0
-4054 3926 0
4054 237 -3926 0
-4486 -229 0
-4486 4358 0
4486 229 -4358 0
-4918 -221 0
-4918 4790 0
4918 221 -4790 0
-5350 -213 0
-5350 5222 0
5350 213 -5222 0
-5782 -205 0
-5782 5654 0
5782 205 -5654 0
-6214 -197 0
-6214 6086 0
6214 197 -6086 0
-6646 -189 0
-6646 6518 0
6646 189 -6518 0
-6826 -6214 0
-6826 -6646 0
6826 6214 6646 0
-7006 -5782 0
-7006 6826 0
7006 5782 -6826 0
-7186 -5350 0
-7186 7006 0
7186 5350 -7006 0
-7366 -4918 0
-7366 7186 0
7366 4918 -7186 0
-7546 -4486 0
-7546 7366 0
7546 4486 -7366 0
-7726 -4054 0
-7726 7546 0
7726 4054 -7546 0
-7906 -3622 0
-7906 7726 0
7906 3622 -7726 0
-8086 -3190 0
-8086 7906 0
8086 3190 -7906 0
-8266 -2758 0
-8266 8086 0
8266 2758 -8086 0
-8446 -2326 0
-8446 8266 0
8446 2326 -8266 0
-8626 -1894 0
-8626 8446 0
8626 1894 -8446 0
-8806 -1462 0
-8806 8626 0
8806 1462 -8626 0
-8986 -1030 0
-8986 8806 0
8986 1030 -8806 0
-9166 -598 0
-9166 8986 0
9166 598 -8986 0
-9434 46 0
-9434 9166 0
9434 -46 -9166 0
-9435 -46 0
-9435 -9166 0
9435 46 9166 0
-9436 -9434 0
-9436 -9435 0
9436 9434 9435 0
45 -39758 0
-45 39758 0
-597 -301 0
-597 469 0
597 301 -469 0
-1029 -293 0
-1029 901 0
1029 293 -901 0
-1461 -285 0
-1461 1333 0
1461 285 -1333 0
-1893 -277 0
-1893 1765 0
1893 277 -1765 0
-2325 -269 0
-2325 2197 0
2325 269 -2197 0
-2757 -261 0
-2757 2629 0
2757 261 -2629 0
-3189 -253 0
-3189 3061 0
3189 253 -3061 0
-3621 -245 0
-3621 3493 0
3621 245 -3493 0
-4053 -237 0
-4053 3925 0
4053 237 -3925 0
-4485 -229 0
-4485 4357 0
4485 229 -4357 0
-4917 -221 0
-4917 4789 0
4917 221 -4789 0
-5349 -213 0
-5349 5221 0
5349 213 -5221 0
-5781 -205 0
-5781 5653 0
5781 205 -5653 0
-6213 -197 0
-6213 6085 0
6213 197 -6085 0
-6645 -189 0
-6645 6517 0
6645 189 -6517 0
-6825 -6213 0
-6825 -6645 0
6825 6213 6645 0
-7005 -5781 0
-7005 6825 0
7005 5781 -6825 0
-7185 -5349 0
-7185 7005 0
7185 5349 -7005 0
-7365 -4917 0
-7365 7185 0
7365 4917 -7185 0
-7545 -4485 0
-7545 7365 0
7545 4485 -7365 0
-7725 -4053 0
-7725 7545 0
7725 4053 -7545 0
-7905 -3621 0
-7905 7725 0
7905 3621 -7725 0
-8085 -3189 0
-8085 7905 0
8085 3189 -7905 0
-8265 -2757 0
-8265 8085 0
8265 2757 -8085 0
-8445 -2325 0
-8445 8265 0
8445 2325 -8265 0
-8625 -1893 0
-8625 8445 0
8625 1893 -8445 0
-8805 -1461 0
-8805 8625 0
8805 1461 -8625 0
-8985 -1029 0
-8985 8805 0
8985 1029 -8805 0
-9165 -597 0
-9165 8985 0
9165 597 -8985 0
-9431 45 0
-9431 9165 0
9431 -45 -9165 0
-9432 -45 0
-9432 -9165 0
9432 45 9165 0
-9433 -9431 0
-9433 -9432 0
9433 9431 9432 0
44 -39757 0
-44 39757 0
-596 -301 0
-596 468 0
596 301 -468 0
-1028 -293 0
-1028 900 0
1028 293 -900 0
-1460 -285 0
-1460 1332 0
1460 285 -1332 0
-1892 -277 0
-1892 1764 0
1892 277 -1764 0
-2324 -269 0
-2324 2196 0
2324 269 -2196 0
-2756 -261 0
-2756 2628 0
2756 261 -2628 0
-3188 -253 0
-3188 3060 0
3188 253 -3060 0
-3620 -245 0
-3620 3492 0
3620 245 -3492 0
-4052 -237 0
-4052 3924 0
4052 237 -3924 0
-4484 -229 0
-4484 4356 0
4484 229 -4356 0
-4916 -221 0
-4916 4788 0
4916 221 -4788 0
-5348 -213 0
-5348 5220 0
5348 213 -5220 0
-5780 -205 0
-5780 5652 0
5780 205 -5652 0
-6212 -197 0
-6212 6084 0
6212 197 -6084 0
-6644 -189 0
-6644 6516 0
6644 189 -6516 0
-6824 -6212 0
-6824 -6644 0
6824 6212 6644 0
-7004 -5780 0
-7004 6824 0
7004 5780 -6824 0
-7184 -5348 0
-7184 7004 0
7184 5348 -7004 0
-7364 -4916 0
-7364 7184 0
7364 4916 -7184 0
-7544 -4484 0
-7544 7364 0
7544 4484 -7364 0
-7724 -4052 0
-7724 7544 0
7724 4052 -7544 0
-7904 -3620 0
-7904 7724 0
7904 3620 -7724 0
-8084 -3188 0
-8084 7904 0
8084 3188 -7904 0
-8264 -2756 0
-8264 8084 0
8264 2756 -8084 0
-8444 -2324 0
-8444 8264 0
8444 2324 -8264 0
-8624 -1892 0
-8624 8444 0
8624 1892 -8444 0
-8804 -1460 0
-8804 8624 0
8804 1460 -8624 0
-8984 -1028 0
-8984 8804 0
8984 1028 -8804 0
-9164 -596 0
-9164 8984 0
9164 596 -8984 0
-9428 44 0
-9428 9164 0
9428 -44 -9164 0
-9429 -44 0
-9429 -9164 0
9429 44 9164 0
-9430 -9428 0
-9430 -9429 0
9430 9428 9429 0
43 -39756 0
-43 39756 0
-595 -301 0
-595 467 0
595 301 -467 0
-1027 -293 0
-1027 899 0
1027 293 -899 0
-1459 -285 0
-1459 1331 0
1459 285 -1331 0
-1891 -277 0
-1891 1763 0
1891 277 -1763 0
-2323 -269 0
-2323 2195 0
2323 269 -2195 0
-2755 -261 0
-2755 2627 0
2755 261 -2627 0
-3187 -253 0
-3187 3059 0
3187 253 -3059 0
-3619 -245 0
-3619 3491 0
3619 245 -3491 0
-4051 -237 0
-4051 3923 0
4051 237 -3923 0
-4483 -229 0
-4483 4355 0
4483 229 -4355 0
-4915 -221 0
-4915 4787 0
4915 221 -4787 0
-5347 -213 0
-5347 5219 0
5347 213 -5219 0
-5779 -205 0
-5779 5651 0
5779 205 -5651 0
-6211 -197 0
-6211 6083 0
6211 197 -6083 0
-6643 -189 0
-6643 6515 0
6643 189 -6515 0
-6823 -6211 0
-6823 -6643 0
6823 6211 6643 0
-7003 -5779 0
-7003 6823 0
7003 5779 -6823 0
-7183 -5347 0
-7183 7003 0
7183 5347 -7003 0
-7363 -4915 0
-7363 7183 0
7363 4915 -7183 0
-7543 -4483 0
-7543 7363 0
7543 4483 -7363 0
-7723 -4051 0
-7723 7543 0
7723 4051 -7543 0
-7903 -3619 0
-7903 7723 0
7903 3619 -7723 0
-8083 -3187 0
-8083 7903 0
8083 3187 -7903 0
-8263 -2755 0
-8263 8083 0
8263 2755 -8083 0
-8443 -2323 0
-8443 8263 0
8443 2323 -8263 0
-8623 -1891 0
-8623 8443 0
8623 1891 -8443 0
-8803 -1459 0
-8803 8623 0
8803 1459 -8623 0
-8983 -1027 0
-8983 8803 0
8983 1027 -8803 0
-9163 -595 0
-9163 8983 0
9163 595 -8983 0
-9425 43 0
-9425 9163 0
9425 -43 -9163 0
-9426 -43 0
-9426 -9163 0
9426 43 9163 0
-9427 -9425 0
-9427 -9426 0
9427 9425 9426 0
42 -39755 0
-42 39755 0
-594 -301 0
-594 466 0
594 301 -466 0
-1026 -293 0
-1026 898 0
1026 293 -898 0
-1458 -285 0
-1458 1330 0
1458 285 -1330 0
-1890 -277 0
-1890 1762 0
1890 277 -1762 0
-2322 -269 0
-2322 2194 0
2322 269 -2194 0
-2754 -261 0
-2754 2626 0
2754 261 -2626 0
-3186 -253 0
-3186 3058 0
3186 253 -3058 0
-3618 -245 0
-3618 3490 0
3618 245 -3490 0
-4050 -237 0
-4050 3922 0
4050 237 -3922 0
-4482 -229 0
-4482 4354 0
4482 229 -4354 0
-4914 -221 0
-4914 4786 0
4914 221 -4786 0
-5346 -213 0
-5346 5218 0
5346 213 -5218 0
-5778 -205 0
-5778 5650 0
5778 205 -5650 0
-6210 -197 0
-6210 6082 0
6210 197 -6082 0
-6642 -189 0
-6642 6514 0
6642 189 -6514 0
-6822 -6210 0
-6822 -6642 0
6822 6210 6642 0
-7002 -5778 0
-7002 6822 0
7002 5778 -6822 0
-7182 -5346 0
-7182 7002 0
7182 5346 -7002 0
-7362 -4914 0
-7362 7182 0
7362 4914 -7182 0
-7542 -4482 0
-7542 7362 0
7542 4482 -7362 0
-7722 -4050 0
-7722 7542 0
7722 4050 -7542 0
-7902 -3618 0
-7902 7722 0
7902 3618 -7722 0
-8082 -3186 0
-8082 7902 0
8082 3186 -7902 0
-8262 -2754 0
-8262 8082 0
8262 2754 -8082 0
-8442 -2322 0
-8442 8262 0
8442 2322 -8262 0
-8622 -1890 0
-8622 8442 0
8622 1890 -8442 0
-8802 -1458 0
-8802 8622 0
8802 1458 -8622 0
-8982 -1026 0
-8982 8802 0
8982 1026 -8802 0
-9162 -594 0
-9162 8982 0
9162 594 -8982 0
-9422 42 0
-9422 9162 0
9422 -42 -9162 0
-9423 -42 0
-9423 -9162 0
9423 42 9162 0
-9424 -9422 0
-9424 -9423 0
9424 9422 9423 0
41 -39754 0
-41 39754 0
-593 -301 0
-593 465 0
593 301 -465 0
-1025 -293 0
-1025 897 0
1025 293 -897 0
-1457 -285 0
-1457 1329 0
1457 285 -1329 0
-1889 -277 0
-1889 1761 0
1889 277 -1761 0
-2321 -269 0
-2321 2193 0
2321 269 -2193 0
-2753 -261 0
-2753 2625 0
2753 261 -2625 0
-3185 -253 0
-3185 3057 0
3185 253 -3057 0
-3617 -245 0
-3617 3489 0
3617 245 -3489 0
-4049 -237 0
-4049 3921 0
4049 237 -3921 0
-4481 -229 0
-4481 4353 0
4481 229 -4353 0
-4913 -221 0
-4913 4785 0
4913 221 -4785 0
-5345 -213 0
-5345 5217 0
5345 213 -5217 0
-5777 -205 0
-5777 5649 0
5777 205 -5649 0
-6209 -197 0
-6209 6081 0
6209 197 -6081 0
-6641 -189 0
-6641 6513 0
6641 189 -6513 0
-6821 -6209 0
-6821 -6641 0
6821 6209 6641 0
-7001 -5777 0
-7001 6821 0
7001 5777 -6821 0
-7181 -5345 0
-7181 7001 0
7181 5345 -7001 0
-7361 -4913 0
-7361 7181 0
7361 4913 -7181 0
-7541 -4481 0
-7541 7361 0
7541 4481 -7361 0
-7721 -4049 0
-7721 7541 0
7721 4049 -7541 0
-7901 -3617 0
-7901 7721 0
7901 3617 -7721 0
-8081 -3185 0
-8081 7901 0
8081 3185 -7901 0
-8261 -2753 0
-8261 8081 0
8261 2753 -8081 0
-8441 -2321 0
-8441 8261 0
8441 2321 -8261 0
-8621 -1889 0
-8621 8441 0
8621 1889 -8441 0
-8801 -1457 0
-8801 8621 0
8801 1457 -8621 0
-8981 -1025 0
-8981 8801 0
8981 1025 -8801 0
-9161 -593 0
-9161 8981 0
9161 593 -8981 0
-9419 41 0
-9419 9161 0
9419 -41 -9161 0
-9420 -41 0
-9420 -9161 0
9420 41 9161 0
-9421 -9419 0
-9421 -9420 0
9421 9419 9420 0
40 -39753 0
-40 39753 0
-592 -301 0
-592 464 0
592 301 -464 0
-1024 -293 0
-1024 896 0
1024 293 -896 0
-1456 -285 0
-1456 1328 0
1456 285 -1328 0
-1888 -277 0
-1888 1760 0
1888 277 -1760 0
-2320 -269 0
-2320 2192 0
2320 269 -2192 0
-2752 -261 0
-2752 2624 0
2752 261 -2624 0
-3184 -253 0
-3184 3056 0
3184 253 -3056 0
-3616 -245 0
-3616 3488 0
3616 245 -3488 0
-4048 -237 0
-4048 3920 0
4048 237 -3920 0
-4480 -229 0
-4480 4352 0
4480 229 -4352 0
-4912 -221 0
-4912 4784 0
4912 221 -4784 0
-5344 -213 0
-5344 5216 0
5344 213 -5216 0
-5776 -205 0
-5776 5648 0
5776 205 -5648 0
-6208 -197 0
-6208 6080 0
6208 197 -6080 0
-6640 -189 0
-6640 6512 0
6640 189 -6512 0
-6820 -6208 0
-6820 -6640 0
6820 6208 6640 0
-7000 -5776 0
-7000 6820 0
7000 5776 -6820 0
-7180 -5344 0
-7180 7000 0
7180 5344 -7000 0
-7360 -4912 0
-7360 7180 0
7360 4912 -7180 0
-7540 -4480 0
-7540 7360 0
7540 4480 -7360 0
-7720 -4048 0
-7720 7540 0
7720 4048 -7540 0
-7900 -3616 0
-7900 7720 0
7900 3616 -7720 0
-8080 -3184 0
-8080 7900 0
8080 3184 -7900 0
-8260 -2752 0
-8260 8080 0
8260 2752 -8080 0
-8440 -2320 0
-8440 8260 0
8440 2320 -8260 0
-8620 -1888 0
-8620 8440 0
8620 1888 -8440 0
-8800 -1456 0
-8800 8620 0
8800 1456 -8620 0
-8980 -1024 0
-8980 8800 0
8980 1024 -8800 0
-9160 -592 0
-9160 8980 0
9160 592 -8980 0
-9416 40 0
-9416 9160 0
9416 -40 -9160 0
-9417 -40 0
-9417 -9160 0
9417 40 9160 0
-9418 -9416 0
-9418 -9417 0
9418 9416 9417 0
39 -39752 0
-39 39752 0
-591 -301 0
-591 463 0
591 301 -463 0
-1023 -293 0
-1023 895 0
1023 293 -895 0
-1455 -285 0
-1455 1327 0
1455 285 -1327 0
-1887 -277 0
-1887 1759 0
1887 277 -1759 0
-2319 -269 0
-2319 2191 0
2319 269 -2191 0
-2751 -261 0
-2751 2623 0
2751 261 -2623 0
-3183 -253 0
-3183 3055 0
3183 253 -3055 0
-3615 -245 0
-3615 3487 0
3615 245 -3487 0
-4047 -237 0
-4047 3919 0
4047 237 -3919 0
-4479 -229 0
-4479 4351 0
4479 229 -4351 0
-4911 -221 0
-4911 4783 0
4911 221 -4783 0
-5343 -213 0
-5343 5215 0
5343 213 -5215 0
-5775 -205 0
-5775 5647 0
5775 205 -5647 0
-6207 -197 0
-6207 6079 0
6207 197 -6079 0
-6639 -189 0
-6639 6511 0
6639 189 -6511 0
-6819 -6207 0
-6819 -6639 0
6819 6207 6639 0
-6999 -5775 0
-6999 6819 0
6999 5775 -6819 0
-7179 -5343 0
-7179 6999 0
7179 5343 -6999 0
-7359 -4911 0
-7359 7179 0
7359 4911 -7179 0
-7539 -4479 0
-7539 7359 0
7539 4479 -7359 0
-7719 -4047 0
-7719 7539 0
7719 4047 -7539 0
-7899 -3615 0
-7899 7719 0
7899 3615 -7719 0
-8079 -3183 0
-8079 7899 0
8079 3183 -7899 0
-8259 -2751 0
-8259 8079 0
8259 2751 -8079 0
-8439 -2319 0
-8439 8259 0
8439 2319 -8259 0
-8619 -1887 0
-8619 8439 0
8619 1887 -8439 0
-8799 -1455 0
-8799 8619 0
8799 1455 -8619 0
-8979 -1023 0
-8979 8799 0
8979 1023 -8799 0
-9159 -591 0
-9159 8979 0
9159 591 -8979 0
-9413 39 0
-9413 9159 0
9413 -39 -9159 0
-9414 -39 0
-9414 -9159 0
9414 39 9159 0
-9415 -9413 0
-9415 -9414 0
9415 9413 9414 0
38 -39751 0
-38 39751 0
-590 -301 0
-590 462 0
590 301 -462 0
-1022 -293 0
-1022 894 0
1022 293 -894 0
-1454 -285 0
-1454 1326 0
1454 285 -1326 0
-1886 -277 0
-1886 1758 0
1886 277 -1758 0
-2318 -269 0
-2318 2190 0
2318 269 -2190 0
-2750 -261 0
-2750 2622 0
2750 261 -2622 0
-3182 -253 0
-3182 3054 0
3182 253 -3054 0
-3614 -245 0
-3614 3486 0
3614 245 -3486 0
-4046 -237 0
-4046 3918 0
4046 237 -3918 0
-4478 -229 0
-4478 4350 0
4478 229 -4350 0
-4910 -221 0
-4910 4782 0
4910 221 -4782 0
-5342 -213 0
-5342 5214 0
5342 213 -5214 0
-5774 -205 0
-5774 5646 0
5774 205 -5646 0
-6206 -197 0
-6206 6078 0
6206 197 -6078 0
-6638 -189 0
-6638 6510 0
6638 189 -6510 0
-6818 -6206 0
-6818 -6638 0
6818 6206 6638 0
-6998 -5774 0
-6998 6818 0
6998 5774 -6818 0
-7178 -5342 0
-7178 6998 0
7178 5342 -6998 0
-7358 -4910 0
-7358 7178 0
7358 4910 -7178 0
-7538 -4478 0
-7538 7358 0
7538 4478 -7358 0
-7718 -4046 0
-7718 7538 0
7718 4046 -7538 0
-7898 -3614 0
-7898 7718 0
7898 3614 -7718 0
-8078 -3182 0
-8078 7898 0
8078 3182 -7898 0
-8258 -2750 0
-8258 8078 0
8258 2750 -8078 0
-8438 -2318 0
-8438 8258 0
8438 2318 -8258 0
-8618 -1886 0
-8618 8438 0
8618 1886 -8438 0
-8798 -1454 0
-8798 8618 0
8798 1454 -8618 0
-8978 -1022 0
-8978 8798 0
8978 1022 -8798 0
-9158 -590 0
-9158 8978 0
9158 590 -8978 0
-9410 38 0
-9410 9158 0
9410 -38 -9158 0
-9411 -38 0
-9411 -9158 0
9411 38 9158 0
-9412 -9410 0
-9412 -9411 0
9412 9410 9411 0
37 -39750 0
-37 39750 0
-589 -301 0
-589 461 0
589 301 -461 0
-1021 -293 0
-1021 893 0
1021 293 -893 0
-1453 -285 0
-1453 1325 0
1453 285 -1325 0
-1885 -277 0
-1885 1757 0
1885 277 -1757 0
-2317 -269 0
-2317 2189 0
2317 269 -2189 0
-2749 -261 0
-2749 2621 0
2749 261 -2621 0
-3181 -253 0
-3181 3053 0
3181 253 -3053 0
-3613 -245 0
-3613 3485 0
3613 245 -3485 0
-4045 -237 0
-4045 3917 0
4045 237 -3917 0
-4477 -229 0
-4477 4349 0
4477 229 -4349 0
-4909 -221 0
-4909 4781 0
4909 221 -4781 0
-5341 -213 0
-5341 5213 0
5341 213 -5213 0
-5773 -205 0
-5773 5645 0
5773 205 -5645 0
-6205 -197 0
-6205 6077 0
6205 197 -6077 0
-6637 -189 0
-6637 6509 0
6637 189 -6509 0
-6817 -6205 0
-6817 -6637 0
6817 6205 6637 0
-6997 -5773 0
-6997 6817 0
6997 5773 -6817 0
-7177 -5341 0
-7177 6997 0
7177 5341 -6997 0
-7357 -4909 0
-7357 7177 0
7357 4909 -7177 0
-7537 -4477 0
-7537 7357 0
7537 4477 -7357 0
-7717 -4045 0
-7717 7537 0
7717 4045 -7537 0
-7897 -3613 0
-7897 7717 0
7897 3613 -7717 0
-8077 -3181 0
-8077 7897 0
8077 3181 -7897 0
-8257 -2749 0
-8257 8077 0
8257 2749 -8077 0
-8437 -2317 0
-8437 8257 0
8437 2317 -8257 0
-8617 -1885 0
-8617 8437 0
8617 1885 -8437 0
-8797 -1453 0
-8797 8617 0
8797 1453 -8617 0
-8977 -1021 0
-8977 8797 0
8977 1021 -8797 0
-9157 -589 0
-9157 8977 0
9157 589 -8977 0
-9407 37 0
-9407 9157 0
9407 -37 -9157 0
-9408 -37 0
-9408 -9157 0
9408 37 9157 0
-9409 -9407 0
-9409 -9408 0
9409 9407 9408 0
36 -39749 0
-36 39749 0
-588 -301 0
-588 460 0
588 301 -460 0
-1020 -293 0
-1020 892 0
1020 293 -892 0
-1452 -285 0
-1452 1324 0
1452 285 -1324 0
-1884 -277 0
-1884 1756 0
1884 277 -1756 0
-2316 -269 0
-2316 2188 0
2316 269 -2188 0
-2748 -261 0
-2748 2620 0
2748 261 -2620 0
-3180 -253 0
-3180 3052 0
3180 253 -3052 0
-3612 -245 0
-3612 3484 0
3612 245 -3484 0
-4044 -237 0
-4044 3916 0
4044 237 -3916 0
-4476 -229 0
-4476 4348 0
4476 229 -4348 0
-4908 -221 0
-4908 4780 0
4908 221 -4780 0
-5340 -213 0
-5340 5212 0
5340 213 -5212 0
-5772 -205 0
-5772 5644 0
5772 205 -5644 0
-6204 -197 0
-6204 6076 0
6204 197 -6076 0
-6636 -189 0
-6636 6508 0
6636 189 -6508 0
-6816 -6204 0
-6816 -6636 0
6816 6204 6636 0
-6996 -5772 0
-6996 6816 0
6996 5772 -6816 0
-7176 -5340 0
-7176 6996 0
7176 5340 -6996 0
-7356 -4908 0
-7356 7176 0
7356 4908 -7176 0
-7536 -4476 0
-7536 7356 0
7536 4476 -7356 0
-7716 -4044 0
-7716 7536 0
7716 4044 -7536 0
-7896 -3612 0
-7896 7716 0
7896 3612 -7716 0
-8076 -3180 0
-8076 7896 0
8076 3180 -7896 0
-8256 -2748 0
-8256 8076 0
8256 2748 -8076 0
-8436 -2316 0
-8436 8256 0
8436 2316 -8256 0
-8616 -1884 0
-8616 8436 0
8616 1884 -8436 0
-8796 -1452 0
-8796 8616 0
8796 1452 -8616 0
-8976 -1020 0
-8976 8796 0
8976 1020 -8796 0
-9156 -588 0
-9156 8976 0
9156 588 -8976 0
-9404 36 0
-9404 9156 0
9404 -36 -9156 0
-9405 -36 0
-9405 -9156 0
9405 36 9156 0
-9406 -9404 0
-9406 -9405 0
9406 9404 9405 0
35 -39748 0
-35 39748 0
-587 -301 0
-587 459 0
587 301 -459 0
-1019 -293 0
-1019 891 0
1019 293 -891 0
-1451 -285 0
-1451 1323 0
1451 285 -1323 0
-1883 -277 0
-1883 1755 0
1883 277 -1755 0
-2315 -269 0
-2315 2187 0
2315 269 -2187 0
-2747 -261 0
-2747 2619 0
2747 261 -2619 0
-3179 -253 0
-3179 3051 0
3179 253 -3051 0
-3611 -245 0
-3611 3483 0
3611 245 -3483 0
-4043 -237 0
-4043 3915 0
4043 237 -3915 0
-4475 -229 0
-4475 4347 0
4475 229 -4347 0
-4907 -221 0
-4907 4779 0
4907 221 -4779 0
-5339 -213 0
-5339 5211 0
5339 213 -5211 0
-5771 -205 0
-5771 5643 0
5771 205 -5643 0
-6203 -197 0
-6203 6075 0
6203 197 -6075 0
-6635 -189 0
-6635 6507 0
6635 189 -6507 0
-6815 -6203 0
-6815 -6635 0
6815 6203 6635 0
-6995 -5771 0
-6995 6815 0
6995 5771 -6815 0
-7175 -5339 0
-7175 6995 0
7175 5339 -6995 0
-7355 -4907 0
-7355 7175 0
7355 4907 -7175 0
-7535 -4475 0
-7535 7355 0
7535 4475 -7355 0
-7715 -4043 0
-7715 7535 0
7715 4043 -7535 0
-7895 -3611 0
-7895 7715 0
7895 3611 -7715 0
-8075 -3179 0
-8075 7895 0
8075 3179 -7895 0
-8255 -2747 0
-8255 8075 0
8255 2747 -8075 0
-8435 -2315 0
-8435 8255 0
8435 2315 -8255 0
-8615 -1883 0
-8615 8435 0
8615 1883 -8435 0
-8795 -1451 0
-8795 8615 0
8795 1451 -8615 0
-8975 -1019 0
-8975 8795 0
8975 1019 -8795 0
-9155 -587 0
-9155 8975 0
9155 587 -8975 0
-9401 35 0
-9401 9155 0
9401 -35 -9155 0
-9402 -35 0
-9402 -9155 0
9402 35 9155 0
-9403 -9401 0
-9403 -9402 0
9403 9401 9402 0
34 -39747 0
-34 39747 0
-586 -301 0
-586 458 0
586 301 -458 0
-1018 -293 0
-1018 890 0
1018 293 -890 0
-1450 -285 0
-1450 1322 0
1450 285 -1322 0
-1882 -277 0
-1882 1754 0
1882 277 -1754 0
-2314 -269 0
-2314 2186 0
2314 269 -2186 0
-2746 -261 0
-2746 2618 0
2746 261 -2618 0
-3178 -253 0
-3178 3050 0
3178 253 -3050 0
-3610 -245 0
-3610 3482 0
3610 245 -3482 0
-4042 -237 0
-4042 3914 0
4042 237 -3914 0
-4474 -229 0
-4474 4346 0
4474 229 -4346 0
-4906 -221 0
-4906 4778 0
4906 221 -4778 0
-5338 -213 0
-5338 5210 0
5338 213 -5210 0
-5770 -205 0
-5770 5642 0
5770 205 -5642 0
-6202 -197 0
-6202 6074 0
6202 197 -6074 0
-6634 -189 0
-6634 6506 0
6634 189 -6506 0
-6814 -6202 0
-6814 -6634 0
6814 6202 6634 0
-6994 -5770 0
-6994 6814 0
6994 5770 -6814 0
-7174 -5338 0
-7174 6994 0
7174 5338 -6994 0
-7354 -4906 0
-7354 7174 0
7354 4906 -7174 0
-7534 -4474 0
-7534 7354 0
7534 4474 -7354 0
-7714 -4042 0
-7714 7534 0
7714 4042 -7534 0
-7894 -3610 0
-7894 7714 0
7894 3610 -7714 0
-8074 -3178 0
-8074 7894 0
8074 3178 -7894 0
-8254 -2746 0
-8254 8074 0
8254 2746 -8074 0
-8434 -2314 0
-8434 8254 0
8434 2314 -8254 0
-8614 -1882 0
-8614 8434 0
8614 1882 -8434 0
-8794 -1450 0
-8794 8614 0
8794 1450 -8614 0
-8974 -1018 0
-8974 8794 0
8974 1018 -8794 0
-9154 -586 0
-9154 8974 0
9154 586 -8974 0
-9398 34 0
-9398 9154 0
9398 -34 -9154 0
-9399 -34 0
-9399 -9154 0
9399 34 9154 0
-9400 -9398 0
-9400 -9399 0
9400 9398 9399 0
33 -39746 0
-33 39746 0
-585 -301 0
-585 457 0
585 301 -457 0
-1017 -293 0
-1017 889 0
1017 293 -889 0
-1449 -285 0
-1449 1321 0
1449 285 -1321 0
-1881 -277 0
-1881 1753 0
1881 277 -1753 0
-2313 -269 0
-2313 2185 0
2313 269 -2185 0
-2745 -261 0
-2745 2617 0
2745 261 -2617 0
-3177 -253 0
-3177 3049 0
3177 253 -3049 0
-3609 -245 0
-3609 3481 0
3609 245 -3481 0
-4041 -237 0
-4041 3913 0
4041 237 -3913 0
-4473 -229 0
-4473 4345 0
4473 229 -4345 0
-4905 -221 0
-4905 4777 0
4905 221 -4777 0
-5337 -213 0
-5337 5209 0
5337 213 -5209 0
-5769 -205 0
-5769 5641 0
5769 205 -5641 0
-6201 -197 0
-6201 6073 0
6201 197 -6073 0
-6633 -189 0
-6633 6505 0
6633 189 -6505 0
-6813 -6201 0
-6813 -6633 0
6813 6201 6633 0
-6993 -5769 0
-6993 6813 0
6993 5769 -6813 0
-7173 -5337 0
-7173 6993 0
7173 5337 -6993 0
-7353 -4905 0
-7353 7173 0
7353 4905 -7173 0
-7533 -4473 0
-7533 7353 0
7533 4473 -7353 0
-7713 -4041 0
-7713 7533 0
7713 4041 -7533 0
-7893 -3609 0
-7893 7713 0
7893 3609 -7713 0
-8073 -3177 0
-8073 7893 0
8073 3177 -7893 0
-8253 -2745 0
-8253 8073 0
8253 2745 -8073 0
-8433 -2313 0
-8433 8253 0
8433 2313 -8253 0
-8613 -1881 0
-8613 8433 0
8613 1881 -8433 0
-8793 -1449 0
-8793 8613 0
8793 1449 -8613 0
-8973 -1017 0
-8973 8793 0
8973 1017 -8793 0
-9153 -585 0
-9153 8973 0
9153 585 -8973 0
-9395 33 0
-9395 9153 0
9395 -33 -9153 0
-9396 -33 0
-9396 -9153 0
9396 33 9153 0
-9397 -9395 0
-9397 -9396 0
9397 9395 9396 0
32 -39745 0
-32 39745 0
-584 -301 0
-584 456 0
584 301 -456 0
-1016 -293 0
-1016 888 0
1016 293 -888 0
-1448 -285 0
-1448 1320 0
1448 285 -1320 0
-1880 -277 0
-1880 1752 0
1880 277 -1752 0
-2312 -269 0
-2312 2184 0
2312 269 -2184 0
-2744 -261 0
-2744 2616 0
2744 261 -2616 0
-3176 -253 0
-3176 3048 0
3176 253 -3048 0
-3608 -245 0
-3608 3480 0
3608 245 -3480 0
-4040 -237 0
-4040 3912 0
4040 237 -3912 0
-4472 -229 0
-4472 4344 0
4472 229 -4344 0
-4904 -221 0
-4904 4776 0
4904 221 -4776 0
-5336 -213 0
-5336 5208 0
5336 213 -5208 0
-5768 -205 0
-5768 5640 0
5768 205 -5640 0
-6200 -197 0
-6200 6072 0
6200 197 -6072 0
-6632 -189 0
-6632 6504 0
6632 189 -6504 0
-6812 -6200 0
-6812 -6632 0
6812 6200 6632 0
-6992 -5768 0
-6992 6812 0
6992 5768 -6812 0
-7172 -5336 0
-7172 6992 0
7172 5336 -6992 0
-7352 -4904 0
-7352 7172 0
7352 4904 -7172 0
-7532 -4472 0
-7532 7352 0
7532 4472 -7352 0
-7712 -4040 0
-7712 7532 0
7712 4040 -7532 0
-7892 -3608 0
-7892 7712 0
7892 3608 -7712 0
-8072 -3176 0
-8072 7892 0
8072 3176 -7892 0
-8252 -2744 0
-8252 8072 0
8252 2744 -8072 0
-8432 -2312 0
-8432 8252 0
8432 2312 -8252 0
-8612 -1880 0
-8612 8432 0
8612 1880 -8432 0
-8792 -1448 0
-8792 8612 0
8792 1448 -8612 0
-8972 -1016 0
-8972 8792 0
8972 1016 -8792 0
-9152 -584 0
-9152 8972 0
9152 584 -8972 0
-9392 32 0
-9392 9152 0
9392 -32 -9152 0
-9393 -32 0
-9393 -9152 0
9393 32 9152 0
-9394 -9392 0
-9394 -9393 0
9394 9392 9393 0
31 -39744 0
-31 39744 0
-583 -301 0
-583 455 0
583 301 -455 0
-1015 -293 0
-1015 887 0
1015 293 -887 0
-1447 -285 0
-1447 1319 0
1447 285 -1319 0
-1879 -277 0
-1879 1751 0
1879 277 -1751 0
-2311 -269 0
-2311 2183 0
2311 269 -2183 0
-2743 -261 0
-2743 2615 0
2743 261 -2615 0
-3175 -253 0
-3175 3047 0
3175 253 -3047 0
-3607 -245 0
-3607 3479 0
3607 245 -3479 0
-4039 -237 0
-4039 3911 0
4039 237 -3911 0
-4471 -229 0
-4471 4343 0
4471 229 -4343 0
-4903 -221 0
-4903 4775 0
4903 221 -4775 0
-5335 -213 0
-5335 5207 0
5335 213 -5207 0
-5767 -205 0
-5767 5639 0
5767 205 -5639 0
-6199 -197 0
-6199 6071 0
6199 197 -6071 0
-6631 -189 0
-6631 6503 0
6631 189 -6503 0
-6811 -6199 0
-6811 -6631 0
6811 6199 6631 0
-6991 -5767 0
-6991 6811 0
6991 5767 -6811 0
-7171 -5335 0
-7171 6991 0
7171 5335 -6991 0
-7351 -4903 0
-7351 7171 0
7351 4903 -7171 0
-7531 -4471 0
-7531 7351 0
7531 4471 -7351 0
-7711 -4039 0
-7711 7531 0
7711 4039 -7531 0
-7891 -3607 0
-7891 7711 0
7891 3607 -7711 0
-8071 -3175 0
-8071 7891 0
8071 3175 -7891 0
-8251 -2743 0
-8251 8071 0
8251 2743 -8071 0
-8431 -2311 0
-8431 8251 0
8431 2311 -8251 0
-8611 -1879 0
-8611 8431 0
8611 1879 -8431 0
-8791 -1447 0
-8791 8611 0
8791 1447 -8611 0
-8971 -1015 0
-8971 8791 0
8971 1015 -8791 0
-9151 -583 0
-9151 8971 0
9151 583 -8971 0
-9389 31 0
-9389 9151 0
9389 -31 -9151 0
-9390 -31 0
-9390 -9151 0
9390 31 9151 0
-9391 -9389 0
-9391 -9390 0
9391 9389 9390 0
30 -39743 0
-30 39743 0
-582 -301 0
-582 454 0
582 301 -454 0
-1014 -293 0
-1014 886 0
1014 293 -886 0
-1446 -285 0
-1446 1318 0
1446 285 -1318 0
-1878 -277 0
-1878 1750 0
1878 277 -1750 0
-2310 -269 0
-2310 2182 0
2310 269 -2182 0
-2742 -261 0
-2742 2614 0
2742 261 -2614 0
-3174 -253 0
-3174 3046 0
3174 253 -3046 0
-3606 -245 0
-3606 3478 0
3606 245 -3478 0
-4038 -237 0
-4038 3910 0
4038 237 -3910 0
-4470 -229 0
-4470 4342 0
4470 229 -4342 0
-4902 -221 0
-4902 4774 0
4902 221 -4774 0
-5334 -213 0
-5334 5206 0
5334 213 -5206 0
-5766 -205 0
-5766 5638 0
5766 205 -5638 0
-6198 -197 0
-6198 6070 0
6198 197 -6070 0
-6630 -189 0
-6630 6502 0
6630 189 -6502 0
-6810 -6198 0
-6810 -6630 0
6810 6198 6630 0
-6990 -5766 0
-6990 6810 0
6990 5766 -6810 0
-7170 -5334 0
-7170 6990 0
7170 5334 -6990 0
-7350 -4902 0
-7350 7170 0
7350 4902 -7170 0
-7530 -4470 0
-7530 7350 0
7530 4470 -7350 0
-7710 -4038 0
-7710 7530 0
7710 4038 -7530 0
-7890 -3606 0
-7890 7710 0
7890 3606 -7710 0
-8070 -3174 0
-8070 7890 0
8070 3174 -7890 0
-8250 -2742 0
-8250 8070 0
8250 2742 -8070 0
-8430 -2310 0
-8430 8250 0
8430 2310 -8250 0
-8610 -1878 0
-8610 8430 0
8610 1878 -8430 0
-8790 -1446 0
-8790 8610 0
8790 1446 -8610 0
-8970 -1014 0
-8970 8790 0
8970 1014 -8790 0
-9150 -582 0
-9150 8970 0
9150 582 -8970 0
-9386 30 0
-9386 9150 0
9386 -30 -9150 0
-9387 -30 0
-9387 -9150 0
9387 30 9150 0
-9388 -9386 0
-9388 -9387 0
9388 9386 9387 0
29 -39742 0
-29 39742 0
-581 -301 0
-581 453 0
581 301 -453 0
-1013 -293 0
-1013 885 0
1013 293 -885 0
-1445 -285 0
-1445 1317 0
1445 285 -1317 0
-1877 -277 0
-1877 1749 0
1877 277 -1749 0
-2309 -269 0
-2309 2181 0
2309 269 -2181 0
-2741 -261 0
-2741 2613 0
2741 261 -2613 0
-3173 -253 0
-3173 3045 0
3173 253 -3045 0
-3605 -245 0
-3605 3477 0
3605 245 -3477 0
-4037 -237 0
-4037 3909 0
4037 237 -3909 0
-4469 -229 0
-4469 4341 0
4469 229 -4341 0
-4901 -221 0
-4901 4773 0
4901 221 -4773 0
-5333 -213 0
-5333 5205 0
5333 213 -5205 0
-5765 -205 0
-5765 5637 0
5765 205 -5637 0
-6197 -197 0
-6197 6069 0
6197 197 -6069 0
-6629 -189 0
-6629 6501 0
6629 189 -6501 0
-6809 -6197 0
-6809 -6629 0
6809 6197 6629 0
-6989 -5765 0
-6989 6809 0
6989 5765 -6809 0
-7169 -5333 0
-7169 6989 0
7169 5333 -6989 0
-7349 -4901 0
-7349 7169 0
7349 4901 -7169 0
-7529 -4469 0
-7529 7349 0
7529 4469 -7349 0
-7709 -4037 0
-7709 7529 0
7709 4037 -7529 0
-7889 -3605 0
-7889 7709 0
7889 3605 -7709 0
-8069 -3173 0
-8069 7889 0
8069 3173 -7889 0
-8249 -2741 0
-8249 8069 0
8249 2741 -8069 0
-8429 -2309 0
-8429 8249 0
8429 2309 -8249 0
-8609 -1877 0
-8609 8429 0
8609 1877 -8429 0
-8789 -1445 0
-8789 8609 0
8789 1445 -8609 0
-8969 -1013 0
-8969 8789 0
8969 1013 -8789 0
-9149 -581 0
-9149 8969 0
9149 581 -8969 0
-9383 29 0
-9383 9149 0
9383 -29 -9149 0
-9384 -29 0
-9384 -9149 0
9384 29 9149 0
-9385 -9383 0
-9385 -9384 0
9385 9383 9384 0
28 -39741 0
-28 39741 0
-580 -301 0
-580 452 0
580 301 -452 0
-1012 -293 0
-1012 884 0
1012 293 -884 0
-1444 -285 0
-1444 1316 0
1444 285 -1316 0
-1876 -277 0
-1876 1748 0
1876 277 -1748 0
-2308 -269 0
-2308 2180 0
2308 269 -2180 0
-2740 -261 0
-2740 2612 0
2740 261 -2612 0
-3172 -253 0
-3172 3044 0
3172 253 -3044 0
-3604 -245 0
-3604 3476 0
3604 245 -3476 0
-4036 -237 0
-4036 3908 0
4036 237 -3908 0
-4468 -229 0
-4468 4340 0
4468 229 -4340 0
-4900 -221 0
-4900 4772 0
4900 221 -4772 0
-5332 -213 0
-5332 5204 0
5332 213 -5204 0
-5764 -205 0
-5764 5636 0
5764 205 -5636 0
-6196 -197 0
-6196 6068 0
6196 197 -6068 0
-6628 -189 0
-6628 6500 0
6628 189 -6500 0
-6808 -6196 0
-6808 -6628 0
6808 6196 6628 0
-6988 -5764 0
-6988 6808 0
6988 5764 -6808 0
-7168 -5332 0
-7168 6988 0
7168 5332 -6988 0
-7348 -4900 0
-7348 7168 0
7348 4900 -7168 0
-7528 -4468 0
-7528 7348 0
7528 4468 -7348 0
-7708 -4036 0
-7708 7528 0
7708 4036 -7528 0
-7888 -3604 0
-7888 7708 0
7888 3604 -7708 0
-8068 -3172 0
-8068 7888 0
8068 3172 -7888 0
-8248 -2740 0
-8248 8068 0
8248 2740 -8068 0
-8428 -2308 0
-8428 8248 0
8428 2308 -8248 0
-8608 -1876 0
-8608 8428 0
8608 1876 -8428 0
-8788 -1444 0
-8788 8608 0
8788 1444 -8608 0
-8968 -1012 0
-8968 8788 0
8968 1012 -8788 0
-9148 -580 0
-9148 8968 0
9148 580 -8968 0
-9380 28 0
-9380 9148 0
9380 -28 -9148 0
-9381 -28 0
-9381 -9148 0
9381 28 9148 0
-9382 -9380 0
-9382 -9381 0
9382 9380 9381 0
27 -39740 0
-27 39740 0
-579 -301 0
-579 451 0
579 301 -451 0
-1011 -293 0
-1011 883 0
1011 293 -883 0
-1443 -285 0
-1443 1315 0
1443 285 -1315 0
-1875 -277 0
-1875 1747 0
1875 277 -1747 0
-2307 -269 0
-2307 2179 0
2307 269 -2179 0
-2739 -261 0
-2739 2611 0
2739 261 -2611 0
-3171 -253 0
-3171 3043 0
3171 253 -3043 0
-3603 -245 0
-3603 3475 0
3603 245 -3475 0
-4035 -237 0
-4035 3907 0
4035 237 -3907 0
-4467 -229 0
-4467 4339 0
4467 229 -4339 0
-4899 -221 0
-4899 4771 0
4899 221 -4771 0
-5331 -213 0
-5331 5203 0
5331 213 -5203 0
-5763 -205 0
-5763 5635 0
5763 205 -5635 0
-6195 -197 0
-6195 6067 0
6195 197 -6067 0
-6627 -189 0
-6627 6499 0
6627 189 -6499 0
-6807 -6195 0
-6807 -6627 0
6807 6195 6627 0
-6987 -5763 0
-6987 6807 0
6987 5763 -6807 0
-7167 -5331 0
-7167 6987 0
7167 5331 -6987 0
-7347 -4899 0
-7347 7167 0
7347 4899 -7167 0
-7527 -4467 0
-7527 7347 0
7527 4467 -7347 0
-7707 -4035 0
-7707 7527 0
7707 4035 -7527 0
-7887 -3603 0
-7887 7707 0
7887 3603 -7707 0
-8067 -3171 0
-8067 7887 0
8067 3171 -7887 0
-8247 -2739 0
-8247 8067 0
8247 2739 -8067 0
-8427 -2307 0
-8427 8247 0
8427 2307 -8247 0
-8607 -1875 0
-8607 8427 0
8607 1875 -8427 0
-8787 -1443 0
-8787 8607 0
8787 1443 -8607 0
-8967 -1011 0
-8967 8787 0
8967 1011 -8787 0
-9147 -579 0
-9147 8967 0
9147 579 -8967 0
-9377 27 0
-9377 9147 0
9377 -27 -9147 0
-9378 -27 0
-9378 -9147 0
9378 27 9147 0
-9379 -9377 0
-9379 -9378 0
9379 9377 9378 0
26 -39739 0
-26 39739 0
-578 -301 0
-578 450 0
578 301 -450 0
-1010 -293 0
-1010 882 0
1010 293 -882 0
-1442 -285 0
-1442 1314 0
1442 285 -1314 0
-1874 -277 0
-1874 1746 0
1874 277 -1746 0
-2306 -269 0
-2306 2178 0
2306 269 -2178 0
-2738 -261 0
-2738 2610 0
2738 261 -2610 0
-3170 -253 0
-3170 3042 0
3170 253 -3042 0
-3602 -245 0
-3602 3474 0
3602 245 -3474 0
-4034 -237 0
-4034 3906 0
4034 237 -3906 0
-4466 -229 0
-4466 4338 0
4466 229 -4338 0
-4898 -221 0
-4898 4770 0
4898 221 -4770 0
-5330 -213 0
-5330 5202 0
5330 213 -5202 0
-5762 -205 0
-5762 5634 0
5762 205 -5634 0
-6194 -197 0
-6194 6066 0
6194 197 -6066 0
-6626 -189 0
-6626 6498 0
6626 189 -6498 0
-6806 -6194 0
-6806 -6626 0
6806 6194 6626 0
-6986 -5762 0
-6986 6806 0
6986 5762 -6806 0
-7166 -5330 0
-7166 6986 0
7166 5330 -6986 0
-7346 -4898 0
-7346 7166 0
7346 4898 -7166 0
-7526 -4466 0
-7526 7346 0
7526 4466 -7346 0
-7706 -4034 0
-7706 7526 0
7706 4034 -7526 0
-7886 -3602 0
-7886 7706 0
7886 3602 -7706 0
-8066 -3170 0
-8066 7886 0
8066 3170 -7886 0
-8246 -2738 0
-8246 8066 0
8246 2738 -8066 0
-8426 -2306 0
-8426 8246 0
8426 2306 -8246 0
-8606 -1874 0
-8606 8426 0
8606 1874 -8426 0
-8786 -1442 0
-8786 8606 0
8786 1442 -8606 0
-8966 -1010 0
-8966 8786 0
8966 1010 -8786 0
-9146 -578 0
-9146 8966 0
9146 578 -8966 0
-9374 26 0
-9374 9146 0
9374 -26 -9146 0
-9375 -26 0
-9375 -9146 0
9375 26 9146 0
-9376 -9374 0
-9376 -9375 0
9376 9374 9375 0
25 -39738 0
-25 39738 0
-577 -301 0
-577 449 0
577 301 -449 0
-1009 -293 0
-1009 881 0
1009 293 -881 0
-1441 -285 0
-1441 1313 0
1441 285 -1313 0
-1873 -277 0
-1873 1745 0
1873 277 -1745 0
-2305 -269 0
-2305 2177 0
2305 269 -2177 0
-2737 -261 0
-2737 2609 0
2737 261 -2609 0
-3169 -253 0
-3169 3041 0
3169 253 -3041 0
-3601 -245 0
-3601 3473 0
3601 245 -3473 0
-4033 -237 0
-4033 3905 0
4033 237 -3905 0
-4465 -229 0
-4465 4337 0
4465 229 -4337 0
-4897 -221 0
-4897 4769 0
4897 221 -4769 0
-5329 -213 0
-5329 5201 0
5329 213 -5201 0
-5761 -205 0
-5761 5633 0
5761 205 -5633 0
-6193 -197 0
-6193 6065 0
6193 197 -6065 0
-6625 -189 0
-6625 6497 0
6625 189 -6497 0
-6805 -6193 0
-6805 -6625 0
6805 6193 6625 0
-6985 -5761 0
-6985 6805 0
6985 5761 -6805 0
-7165 -5329 0
-7165 6985 0
7165 5329 -6985 0
-7345 -4897 0
-7345 7165 0
7345 4897 -7165 0
-7525 -4465 0
-7525 7345 0
7525 4465 -7345 0
-7705 -4033 0
-7705 7525 0
7705 4033 -7525 0
-7885 -3601 0
-7885 7705 0
7885 3601 -7705 0
-8065 -3169 0
-8065 7885 0
8065 3169 -7885 0
-8245 -2737 0
-8245 8065 0
8245 2737 -8065 0
-8425 -2305 0
-8425 8245 0
8425 2305 -8245 0
-8605 -1873 0
-8605 8425 0
8605 1873 -8425 0
-8785 -1441 0
-8785 8605 0
8785 1441 -8605 0
-8965 -1009 0
-8965 8785 0
8965 1009 -8785 0
-9145 -577 0
-9145 8965 0
9145 577 -8965 0
-9371 25 0
-9371 9145 0
9371 -25 -9145 0
-9372 -25 0
-9372 -9145 0
9372 25 9145 0
-9373 -9371 0
-9373 -9372 0
9373 9371 9372 0
24 -39737 0
-24 39737 0
-576 -301 0
-576 448 0
576 301 -448 0
-1008 -293 0
-1008 880 0
1008 293 -880 0
-1440 -285 0
-1440 1312 0
1440 285 -1312 0
-1872 -277 0
-1872 1744 0
1872 277 -1744 0
-2304 -269 0
-2304 2176 0
2304 269 -2176 0
-2736 -261 0
-2736 2608 0
2736 261 -2608 0
-3168 -253 0
-3168 3040 0
3168 253 -3040 0
-3600 -245 0
-3600 3472 0
3600 245 -3472 0
-4032 -237 0
-4032 3904 0
4032 237 -3904 0
-4464 -229 0
-4464 4336 0
4464 229 -4336 0
-4896 -221 0
-4896 4768 0
4896 221 -4768 0
-5328 -213 0
-5328 5200 0
5328 213 -5200 0
-5760 -205 0
-5760 5632 0
5760 205 -5632 0
-6192 -197 0
-6192 6064 0
6192 197 -6064 0
-6624 -189 0
-6624 6496 0
6624 189 -6496 0
-6804 -6192 0
-6804 -6624 0
6804 6192 6624 0
-6984 -5760 0
-6984 6804 0
6984 5760 -6804 0
-7164 -5328 0
-7164 6984 0
7164 5328 -6984 0
-7344 -4896 0
-7344 7164 0
7344 4896 -7164 0
-7524 -4464 0
-7524 7344 0
7524 4464 -7344 0
-7704 -4032 0
-7704 7524 0
7704 4032 -7524 0
-7884 -3600 0
-7884 7704 0
7884 3600 -7704 0
-8064 -3168 0
-8064 7884 0
8064 3168 -7884 0
-8244 -2736 0
-8244 8064 0
8244 2736 -8064 0
-8424 -2304 0
-8424 8244 0
8424 2304 -8244 0
-8604 -1872 0
-8604 8424 0
8604 1872 -8424 0
-8784 -1440 0
-8784 8604 0
8784 1440 -8604 0
-8964 -1008 0
-8964 8784 0
8964 1008 -8784 0
-9144 -576 0
-9144 8964 0
9144 576 -8964 0
-9368 24 0
-9368 9144 0
9368 -24 -9144 0
-9369 -24 0
-9369 -9144 0
9369 24 9144 0
-9370 -9368 0
-9370 -9369 0
9370 9368 9369 0
23 -39736 0
-23 39736 0
-575 -301 0
-575 447 0
575 301 -447 0
-1007 -293 0
-1007 879 0
1007 293 -879 0
-1439 -285 0
-1439 1311 0
1439 285 -1311 0
-1871 -277 0
-1871 1743 0
1871 277 -1743 0
-2303 -269 0
-2303 2175 0
2303 269 -2175 0
-2735 -261 0
-2735 2607 0
2735 261 -2607 0
-3167 -253 0
-3167 3039 0
3167 253 -3039 0
-3599 -245 0
-3599 3471 0
3599 245 -3471 0
-4031 -237 0
-4031 3903 0
4031 237 -3903 0
-4463 -229 0
-4463 4335 0
4463 229 -4335 0
-4895 -221 0
-4895 4767 0
4895 221 -4767 0
-5327 -213 0
-5327 5199 0
5327 213 -5199 0
-5759 -205 0
-5759 5631 0
5759 205 -5631 0
-6191 -197 0
-6191 6063 0
6191 197 -6063 0
-6623 -189 0
-6623 6495 0
6623 189 -6495 0
-6803 -6191 0
-6803 -6623 0
6803 6191 6623 0
-6983 -5759 0
-6983 6803 0
6983 5759 -6803 0
-7163 -5327 0
-7163 6983 0
7163 5327 -6983 0
-7343 -4895 0
-7343 7163 0
7343 4895 -7163 0
-7523 -4463 0
-7523 7343 0
7523 4463 -7343 0
-7703 -4031 0
-7703 7523 0
7703 4031 -7523 0
-7883 -3599 0
-7883 7703 0
7883 3599 -7703 0
-8063 -3167 0
-8063 7883 0
8063 3167 -7883 0
-8243 -2735 0
-8243 8063 0
8243 2735 -8063 0
-8423 -2303 0
-8423 8243 0
8423 2303 -8243 0
-8603 -1871 0
-8603 8423 0
8603 1871 -8423 0
-8783 -1439 0
-8783 8603 0
8783 1439 -8603 0
-8963 -1007 0
-8963 8783 0
8963 1007 -8783 0
-9143 -575 0
-9143 8963 0
9143 575 -8963 0
-9365 23 0
-9365 9143 0
9365 -23 -9143 0
-9366 -23 0
-9366 -9143 0
9366 23 9143 0
-9367 -9365 0
-9367 -9366 0
9367 9365 9366 0
22 -39735 0
-22 39735 0
-574 -301 0
-574 446 0
574 301 -446 0
-1006 -293 0
-1006 878 0
1006 293 -878 0
-1438 -285 0
-1438 1310 0
1438 285 -1310 0
-1870 -277 0
-1870 1742 0
1870 277 -1742 0
-2302 -269 0
-2302 2174 0
2302 269 -2174 0
-2734 -261 0
-2734 2606 0
2734 261 -2606 0
-3166 -253 0
-3166 3038 0
3166 253 -3038 0
-3598 -245 0
-3598 3470 0
3598 245 -3470 0
-4030 -237 0
-4030 3902 0
4030 237 -3902 0
-4462 -229 0
-4462 4334 0
4462 229 -4334 0
-4894 -221 0
-4894 4766 0
4894 221 -4766 0
-5326 -213 0
-5326 5198 0
5326 213 -5198 0
-5758 -205 0
-5758 5630 0
5758 205 -5630 0
-6190 -197 0
-6190 6062 0
6190 197 -6062 0
-6622 -189 0
-6622 6494 0
6622 189 -6494 0
-6802 -6190 0
-6802 -6622 0
6802 6190 6622 0
-6982 -5758 0
-6982 6802 0
6982 5758 -6802 0
-7162 -5326 0
-7162 6982 0
7162 5326 -6982 0
-7342 -4894 0
-7342 7162 0
7342 4894 -7162 0
-7522 -4462 0
-7522 7342 0
7522 4462 -7342 0
-7702 -4030 0
-7702 7522 0
7702 4030 -7522 0
-7882 -3598 0
-7882 7702 0
7882 3598 -7702 0
-8062 -3166 0
-8062 7882 0
8062 3166 -7882 0
-8242 -2734 0
-8242 8062 0
8242 2734 -8062 0
-8422 -2302 0
-8422 8242 0
8422 2302 -8242 0
-8602 -1870 0
-8602 8422 0
8602 1870 -8422 0
-8782 -1438 0
-8782 8602 0
8782 1438 -8602 0
-8962 -1006 0
-8962 8782 0
8962 1006 -8782 0
-9142 -574 0
-9142 8962 0
9142 574 -8962 0
-9362 22 0
-9362 9142 0
9362 -22 -9142 0
-9363 -22 0
-9363 -9142 0
9363 22 9142 0
-9364 -9362 0
-9364 -9363 0
9364 9362 9363 0
21 -39734 0
-21 39734 0
-573 -301 0
-573 445 0
573 301 -445 0
-1005 -293 0
-1005 877 0
1005 293 -877 0
-1437 -285 0
-1437 1309 0
1437 285 -1309 0
-1869 -277 0
-1869 1741 0
1869 277 -1741 0
-2301 -269 0
-2301 2173 0
2301 269 -2173 0
-2733 -261 0
-2733 2605 0
2733 261 -2605 0
-3165 -253 0
-3165 3037 0
3165 253 -3037 0
-3597 -245 0
-3597 3469 0
3597 245 -3469 0
-4029 -237 0
-4029 3901 0
4029 237 -3901 0
-4461 -229 0
-4461 4333 0
4461 229 -4333 0
-4893 -221 0
-4893 4765 0
4893 221 -4765 0
-5325 -213 0
-5325 5197 0
5325 213 -5197 0
-5757 -205 0
-5757 5629 0
5757 205 -5629 0
-6189 -197 0
-6189 6061 0
6189 197 -6061 0
-6621 -189 0
-6621 6493 0
6621 189 -6493 0
-6801 -6189 0
-6801 -6621 0
6801 6189 6621 0
-6981 -5757 0
-6981 6801 0
6981 5757 -6801 0
-7161 -5325 0
-7161 6981 0
7161 5325 -6981 0
-7341 -4893 0
-7341 7161 0
7341 4893 -7161 0
-7521 -4461 0
-7521 7341 0
7521 4461 -7341 0
-7701 -4029 0
-7701 7521 0
7701 4029 -7521 0
-7881 -3597 0
-7881 7701 0
7881 3597 -7701 0
-8061 -3165 0
-8061 7881 0
8061 3165 -7881 0
-8241 -2733 0
-8241 8061 0
8241 2733 -8061 0
-8421 -2301 0
-8421 8241 0
8421 2301 -8241 0
-8601 -1869 0
-8601 8421 0
8601 1869 -8421 0
-8781 -1437 0
-8781 8601 0
8781 1437 -8601 0
-8961 -1005 0
-8961 8781 0
8961 1005 -8781 0
-9141 -573 0
-9141 8961 0
9141 573 -8961 0
-9359 21 0
-9359 9141 0
9359 -21 -9141 0
-9360 -21 0
-9360 -9141 0
9360 21 9141 0
-9361 -9359 0
-9361 -9360 0
9361 9359 9360 0
20 -39733 0
-20 39733 0
-572 -301 0
-572 444 0
572 301 -444 0
-1004 -293 0
-1004 876 0
1004 293 -876 0
-1436 -285 0
-1436 1308 0
1436 285 -1308 0
-1868 -277 0
-1868 1740 0
1868 277 -1740 0
-2300 -269 0
-2300 2172 0
2300 269 -2172 0
-2732 -261 0
-2732 2604 0
2732 261 -2604 0
-3164 -253 0
-3164 3036 0
3164 253 -3036 0
-3596 -245 0
-3596 3468 0
3596 245 -3468 0
-4028 -237 0
-4028 3900 0
4028 237 -3900 0
-4460 -229 0
-4460 4332 0
4460 229 -4332 0
-4892 -221 0
-4892 4764 0
4892 221 -4764 0
-5324 -213 0
-5324 5196 0
5324 213 -5196 0
-5756 -205 0
-5756 5628 0
5756 205 -5628 0
-6188 -197 0
-6188 6060 0
6188 197 -6060 0
-6620 -189 0
-6620 6492 0
6620 189 -6492 0
-6800 -6188 0
-6800 -6620 0
6800 6188 6620 0
-6980 -5756 0
-6980 6800 0
6980 5756 -6800 0
-7160 -5324 0
-7160 6980 0
7160 5324 -6980 0
-7340 -4892 0
-7340 7160 0
7340 4892 -7160 0
-7520 -4460 0
-7520 7340 0
7520 4460 -7340 0
-7700 -4028 0
-7700 7520 0
7700 4028 -7520 0
-7880 -3596 0
-7880 7700 0
7880 3596 -7700 0
-8060 -3164 0
-8060 7880 0
8060 3164 -7880 0
-8240 -2732 0
-8240 8060 0
8240 2732 -8060 0
-8420 -2300 0
-8420 8240 0
8420 2300 -8240 0
-8600 -1868 0
-8600 8420 0
8600 1868 -8420 0
-8780 -1436 0
-8780 8600 0
8780 1436 -8600 0
-8960 -1004 0
-8960 8780 0
8960 1004 -8780 0
-9140 -572 0
-9140 8960 0
9140 572 -8960 0
-9356 20 0
-9356 9140 0
9356 -20 -9140 0
-9357 -20 0
-9357 -9140 0
9357 20 9140 0
-9358 -9356 0
-9358 -9357 0
9358 9356 9357 0
19 -39732 0
-19 39732 0
-571 -301 0
-571 443 0
571 301 -443 0
-1003 -293 0
-1003 875 0
1003 293 -875 0
-1435 -285 0
-1435 1307 0
1435 285 -1307 0
-1867 -277 0
-1867 1739 0
1867 277 -1739 0
-2299 -269 0
-2299 2171 0
2299 269 -2171 0
-2731 -261 0
-2731 2603 0
2731 261 -2603 0
-3163 -253 0
-3163 3035 0
3163 253 -3035 0
-3595 -245 0
-3595 3467 0
3595 245 -3467 0
-4027 -237 0
-4027 3899 0
4027 237 -3899 0
-4459 -229 0
-4459 4331 0
4459 229 -4331 0
-4891 -221 0
-4891 4763 0
4891 221 -4763 0
-5323 -213 0
-5323 5195 0
5323 213 -5195 0
-5755 -205 0
-5755 5627 0
5755 205 -5627 0
-6187 -197 0
-6187 6059 0
6187 197 -6059 0
-6619 -189 0
-6619 6491 0
6619 189 -6491 0
-6799 -6187 0
-6799 -6619 0
6799 6187 6619 0
-6979 -5755 0
-6979 6799 0
6979 5755 -6799 0
-7159 -5323 0
-7159 6979 0
7159 5323 -6979 0
-7339 -4891 0
-7339 7159 0
7339 4891 -7159 0
-7519 -4459 0
-7519 7339 0
7519 4459 -7339 0
-7699 -4027 0
-7699 7519 0
7699 4027 -7519 0
-7879 -3595 0
-7879 7699 0
7879 3595 -7699 0
-8059 -3163 0
-8059 7879 0
8059 3163 -7879 0
-8239 -2731 0
-8239 8059 0
8239 2731 -8059 0
-8419 -2299 0
-8419 8239 0
8419 2299 -8239 0
-8599 -1867 0
-8599 8419 0
8599 1867 -8419 0
-8779 -1435 0
-8779 8599 0
8779 1435 -8599 0
-8959 -1003 0
-8959 8779 0
8959 1003 -8779 0
-9139 -571 0
-9139 8959 0
9139 571 -8959 0
-9353 19 0
-9353 9139 0
9353 -19 -9139 0
-9354 -19 0
-9354 -9139 0
9354 19 9139 0
-9355 -9353 0
-9355 -9354 0
9355 9353 9354 0
18 -39731 0
-18 39731 0
-570 -301 0
-570 442 0
570 301 -442 0
-1002 -293 0
-1002 874 0
1002 293 -874 0
-1434 -285 0
-1434 1306 0
1434 285 -1306 0
-1866 -277 0
-1866 1738 0
1866 277 -1738 0
-2298 -269 0
-2298 2170 0
2298 269 -2170 0
-2730 -261 0
-2730 2602 0
2730 261 -2602 0
-3162 -253 0
-3162 3034 0
3162 253 -3034 0
-3594 -245 0
-3594 3466 0
3594 245 -3466 0
-4026 -237 0
-4026 3898 0
4026 237 -3898 0
-4458 -229 0
-4458 4330 0
4458 229 -4330 0
-4890 -221 0
-4890 4762 0
4890 221 -4762 0
-5322 -213 0
-5322 5194 0
5322 213 -5194 0
-5754 -205 0
-5754 5626 0
5754 205 -5626 0
-6186 -197 0
-6186 6058 0
6186 197 -6058 0
-6618 -189 0
-6618 6490 0
6618 189 -6490 0
-6798 -6186 0
-6798 -6618 0
6798 6186 6618 0
-6978 -5754 0
-6978 6798 0
6978 5754 -6798 0
-7158 -5322 0
-7158 6978 0
7158 5322 -6978 0
-7338 -4890 0
-7338 7158 0
7338 4890 -7158 0
-7518 -4458 0
-7518 7338 0
7518 4458 -7338 0
-7698 -4026 0
-7698 7518 0
7698 4026 -7518 0
-7878 -3594 0
-7878 7698 0
7878 3594 -7698 0
-8058 -3162 0
-8058 7878 0
8058 3162 -7878 0
-8238 -2730 0
-8238 8058 0
8238 2730 -8058 0
-8418 -2298 0
-8418 8238 0
8418 2298 -8238 0
-8598 -1866 0
-8598 8418 0
8598 1866 -8418 0
-8778 -1434 0
-8778 8598 0
8778 1434 -8598 0
-8958 -1002 0
-8958 8778 0
8958 1002 -8778 0
-9138 -570 0
-9138 8958 0
9138 570 -8958 0
-9350 18 0
-9350 9138 0
9350 -18 -9138 0
-9351 -18 0
-9351 -9138 0
9351 18 9138 0
-9352 -9350 0
-9352 -9351 0
9352 9350 9351 0
17 -39730 0
-17 39730 0
-569 -301 0
-569 441 0
569 301 -441 0
-1001 -293 0
-1001 873 0
1001 293 -873 0
-1433 -285 0
-1433 1305 0
1433 285 -1305 0
-1865 -277 0
-1865 1737 0
1865 277 -1737 0
-2297 -269 0
-2297 2169 0
2297 269 -2169 0
-2729 -261 0
-2729 2601 0
2729 261 -2601 0
-3161 -253 0
-3161 3033 0
3161 253 -3033 0
-3593 -245 0
-3593 3465 0
3593 245 -3465 0
-4025 -237 0
-4025 3897 0
4025 237 -3897 0
-4457 -229 0
-4457 4329 0
4457 229 -4329 0
-4889 -221 0
-4889 4761 0
4889 221 -4761 0
-5321 -213 0
-5321 5193 0
5321 213 -5193 0
-5753 -205 0
-5753 5625 0
5753 205 -5625 0
-6185 -197 0
-6185 6057 0
6185 197 -6057 0
-6617 -189 0
-6617 6489 0
6617 189 -6489 0
-6797 -6185 0
-6797 -6617 0
6797 6185 6617 0
-6977 -5753 0
-6977 6797 0
6977 5753 -6797 0
-7157 -5321 0
-7157 6977 0
7157 5321 -6977 0
-7337 -4889 0
-7337 7157 0
7337 4889 -7157 0
-7517 -4457 0
-7517 7337 0
7517 4457 -7337 0
-7697 -4025 0
-7697 7517 0
7697 4025 -7517 0
-7877 -3593 0
-7877 7697 0
7877 3593 -7697 0
-8057 -3161 0
-8057 7877 0
8057 3161 -7877 0
-8237 -2729 0
-8237 8057 0
8237 2729 -8057 0
-8417 -2297 0
-8417 8237 0
8417 2297 -8237 0
-8597 -1865 0
-8597 8417 0
8597 1865 -8417 0
-8777 -1433 0
-8777 8597 0
8777 1433 -8597 0
-8957 -1001 0
-8957 8777 0
8957 1001 -8777 0
-9137 -569 0
-9137 8957 0
9137 569 -8957 0
-9347 17 0
-9347 9137 0
9347 -17 -9137 0
-9348 -17 0
-9348 -9137 0
9348 17 9137 0
-9349 -9347 0
-9349 -9348 0
9349 9347 9348 0
16 -39729 0
-16 39729 0
-568 -301 0
-568 440 0
568 301 -440 0
-1000 -293 0
-1000 872 0
1000 293 -872 0
-1432 -285 0
-1432 1304 0
1432 285 -1304 0
-1864 -277 0
-1864 1736 0
1864 277 -1736 0
-2296 -269 0
-2296 2168 0
2296 269 -2168 0
-2728 -261 0
-2728 2600 0
2728 261 -2600 0
-3160 -253 0
-3160 3032 0
3160 253 -3032 0
-3592 -245 0
-3592 3464 0
3592 245 -3464 0
-4024 -237 0
-4024 3896 0
4024 237 -3896 0
-4456 -229 0
-4456 4328 0
4456 229 -4328 0
-4888 -221 0
-4888 4760 0
4888 221 -4760 0
-5320 -213 0
-5320 5192 0
5320 213 -5192 0
-5752 -205 0
-5752 5624 0
5752 205 -5624 0
-6184 -197 0
-6184 6056 0
6184 197 -6056 0
-6616 -189 0
-6616 6488 0
6616 189 -6488 0
-6796 -6184 0
-6796 -6616 0
6796 6184 6616 0
-6976 -5752 0
-6976 6796 0
6976 5752 -6796 0
-7156 -5320 0
-7156 6976 0
7156 5320 -6976 0
-7336 -4888 0
-7336 7156 0
7336 4888 -7156 0
-7516 -4456 0
-7516 7336 0
7516 4456 -7336 0
-7696 -4024 0
-7696 7516 0
7696 4024 -7516 0
-7876 -3592 0
-7876 7696 0
7876 3592 -7696 0
-8056 -3160 0
-8056 7876 0
8056 3160 -7876 0
-8236 -2728 0
-8236 8056 0
8236 2728 -8056 0
-8416 -2296 0
-8416 8236 0
8416 2296 -8236 0
-8596 -1864 0
-8596 8416 0
8596 1864 -8416 0
-8776 -1432 0
-8776 8596 0
8776 1432 -8596 0
-8956 -1000 0
-8956 8776 0
8956 1000 -8776 0
-9136 -568 0
-9136 8956 0
9136 568 -8956 0
-9344 16 0
-9344 9136 0
9344 -16 -9136 0
-9345 -16 0
-9345 -9136 0
9345 16 9136 0
-9346 -9344 0
-9346 -9345 0
9346 9344 9345 0
15 -39728 0
-15 39728 0
-567 -301 0
-567 439 0
567 301 -439 0
-999 -293 0
-999 871 0
999 293 -871 0
-1431 -285 0
-1431 1303 0
1431 285 -1303 0
-1863 -277 0
-1863 1735 0
1863 277 -1735 0
-2295 -269 0
-2295 2167 0
2295 269 -2167 0
-2727 -261 0
-2727 2599 0
2727 261 -2599 0
-3159 -253 0
-3159 3031 0
3159 253 -3031 0
-3591 -245 0
-3591 3463 0
3591 245 -3463 0
-4023 -237 0
-4023 3895 0
4023 237 -3895 0
-4455 -229 0
-4455 4327 0
4455 229 -4327 0
-4887 -221 0
-4887 4759 0
4887 221 -4759 0
-5319 -213 0
-5319 5191 0
5319 213 -5191 0
-5751 -205 0
-5751 5623 0
5751 205 -5623 0
-6183 -197 0
-6183 6055 0
6183 197 -6055 0
-6615 -189 0
-6615 6487 0
6615 189 -6487 0
-6795 -6183 0
-6795 -6615 0
6795 6183 6615 0
-6975 -5751 0
-6975 6795 0
6975 5751 -6795 0
-7155 -5319 0
-7155 6975 0
7155 5319 -6975 0
-7335 -4887 0
-7335 7155 0
7335 4887 -7155 0
-7515 -4455 0
-7515 7335 0
7515 4455 -7335 0
-7695 -4023 0
-7695 7515 0
7695 4023 -7515 0
-7875 -3591 0
-7875 7695 0
7875 3591 -7695 0
-8055 -3159 0
-8055 7875 0
8055 3159 -7875 0
-8235 -2727 0
-8235 8055 0
8235 2727 -8055 0
-8415 -2295 0
-8415 8235 0
8415 2295 -8235 0
-8595 -1863 0
-8595 8415 0
8595 1863 -8415 0
-8775 -1431 0
-8775 8595 0
8775 1431 -8595 0
-8955 -999 0
-8955 8775 0
8955 999 -8775 0
-9135 -567 0
-9135 8955 0
9135 567 -8955 0
-9341 15 0
-9341 9135 0
9341 -15 -9135 0
-9342 -15 0
-9342 -9135 0
9342 15 9135 0
-9343 -9341 0
-9343 -9342 0
9343 9341 9342 0
14 -39727 0
-14 39727 0
-566 -301 0
-566 438 0
566 301 -438 0
-998 -293 0
-998 870 0
998 293 -870 0
-1430 -285 0
-1430 1302 0
1430 285 -1302 0
-1862 -277 0
-1862 1734 0
1862 277 -1734 0
-2294 -269 0
-2294 2166 0
2294 269 -2166 0
-2726 -261 0
-2726 2598 0
2726 261 -2598 0
-3158 -253 0
-3158 3030 0
3158 253 -3030 0
-3590 -245 0
-3590 3462 0
3590 245 -3462 0
-4022 -237 0
-4022 3894 0
4022 237 -3894 0
-4454 -229 0
-4454 4326 0
4454 229 -4326 0
-4886 -221 0
-4886 4758 0
4886 221 -4758 0
-5318 -213 0
-5318 5190 0
5318 213 -5190 0
-5750 -205 0
-5750 5622 0
5750 205 -5622 0
-6182 -197 0
-6182 6054 0
6182 197 -6054 0
-6614 -189 0
-6614 6486 0
6614 189 -6486 0
-6794 -6182 0
-6794 -6614 0
6794 6182 6614 0
-6974 -5750 0
-6974 6794 0
6974 5750 -6794 0
-7154 -5318 0
-7154 6974 0
7154 5318 -6974 0
-7334 -4886 0
-7334 7154 0
7334 4886 -7154 0
-7514 -4454 0
-7514 7334 0
7514 4454 -7334 0
-7694 -4022 0
-7694 7514 0
7694 4022 -7514 0
-7874 -3590 0
-7874 7694 0
7874 3590 -7694 0
-8054 -3158 0
-8054 7874 0
8054 3158 -7874 0
-8234 -2726 0
-8234 8054 0
8234 2726 -8054 0
-8414 -2294 0
-8414 8234 0
8414 2294 -8234 0
-8594 -1862 0
-8594 8414 0
8594 1862 -8414 0
-8774 -1430 0
-8774 8594 0
8774 1430 -8594 0
-8954 -998 0
-8954 8774 0
8954 998 -8774 0
-9134 -566 0
-9134 8954 0
9134 566 -8954 0
-9338 14 0
-9338 9134 0
9338 -14 -9134 0
-9339 -14 0
-9339 -9134 0
9339 14 9134 0
-9340 -9338 0
-9340 -9339 0
9340 9338 9339 0
13 -39726 0
-13 39726 0
-565 -301 0
-565 437 0
565 301 -437 0
-997 -293 0
-997 869 0
997 293 -869 0
-1429 -285 0
-1429 1301 0
1429 285 -1301 0
-1861 -277 0
-1861 1733 0
1861 277 -1733 0
-2293 -269 0
-2293 2165 0
2293 269 -2165 0
-2725 -261 0
-2725 2597 0
2725 261 -2597 0
-3157 -253 0
-3157 3029 0
3157 253 -3029 0
-3589 -245 0
-3589 3461 0
3589 245 -3461 0
-4021 -237 0
-4021 3893 0
4021 237 -3893 0
-4453 -229 0
-4453 4325 0
4453 229 -4325 0
-4885 -221 0
-4885 4757 0
4885 221 -4757 0
-5317 -213 0
-5317 5189 0
5317 213 -5189 0
-5749 -205 0
-5749 5621 0
5749 205 -5621 0
-6181 -197 0
-6181 6053 0
6181 197 -6053 0
-6613 -189 0
-6613 6485 0
6613 189 -6485 0
-6793 -6181 0
-6793 -6613 0
6793 6181 6613 0
-6973 -5749 0
-6973 6793 0
6973 5749 -6793 0
-7153 -5317 0
-7153 6973 0
7153 5317 -6973 0
-7333 -4885 0
-7333 7153 0
7333 4885 -7153 0
-7513 -4453 0
-7513 7333 0
7513 4453 -7333 0
-7693 -4021 0
-7693 7513 0
7693 4021 -7513 0
-7873 -3589 0
-7873 7693 0
7873 3589 -7693 0
-8053 -3157 0
-8053 7873 0
8053 3157 -7873 0
-8233 -2725 0
-8233 8053 0
8233 2725 -8053 0
-8413 -2293 0
-8413 8233 0
8413 2293 -8233 0
-8593 -1861 0
-8593 8413 0
8593 1861 -8413 0
-8773 -1429 0
-8773 8593 0
8773 1429 -8593 0
-8953 -997 0
-8953 8773 0
8953 997 -8773 0
-9133 -565 0
-9133 8953 0
9133 565 -8953 0
-9335 13 0
-9335 9133 0
9335 -13 -9133 0
-9336 -13 0
-9336 -9133 0
9336 13 9133 0
-9337 -9335 0
-9337 -9336 0
9337 9335 9336 0
12 -39725 0
-12 39725 0
-564 -301 0
-564 436 0
564 301 -436 0
-996 -293 0
-996 868 0
996 293 -868 0
-1428 -285 0
-1428 1300 0
1428 285 -1300 0
-1860 -277 0
-1860 1732 0
1860 277 -1732 0
-2292 -269 0
-2292 2164 0
2292 269 -2164 0
-2724 -261 0
-2724 2596 0
2724 261 -2596 0
-3156 -253 0
-3156 3028 0
3156 253 -3028 0
-3588 -245 0
-3588 3460 0
3588 245 -3460 0
-4020 -237 0
-4020 3892 0
4020 237 -3892 0
-4452 -229 0
-4452 4324 0
4452 229 -4324 0
-4884 -221 0
-4884 4756 0
4884 221 -4756 0
-5316 -213 0
-5316 5188 0
5316 213 -5188 0
-5748 -205 0
-5748 5620 0
5748 205 -5620 0
-6180 -197 0
-6180 6052 0
6180 197 -6052 0
-6612 -189 0
-6612 6484 0
6612 189 -6484 0
-6792 -6180 0
-6792 -6612 0
6792 6180 6612 0
-6972 -5748 0
-6972 6792 0
6972 5748 -6792 0
-7152 -5316 0
-7152 6972 0
7152 5316 -6972 0
-7332 -4884 0
-7332 7152 0
7332 4884 -7152 0
-7512 -4452 0
-7512 7332 0
7512 4452 -7332 0
-7692 -4020 0
-7692 7512 0
7692 4020 -7512 0
-7872 -3588 0
-7872 7692 0
7872 3588 -7692 0
-8052 -3156 0
-8052 7872 0
8052 3156 -7872 0
-8232 -2724 0
-8232 8052 0
8232 2724 -8052 0
-8412 -2292 0
-8412 8232 0
8412 2292 -8232 0
-8592 -1860 0
-8592 8412 0
8592 1860 -8412 0
-8772 -1428 0
-8772 8592 0
8772 1428 -8592 0
-8952 -996 0
-8952 8772 0
8952 996 -8772 0
-9132 -564 0
-9132 8952 0
9132 564 -8952 0
-9332 12 0
-9332 9132 0
9332 -12 -9132 0
-9333 -12 0
-9333 -9132 0
9333 12 9132 0
-9334 -9332 0
-9334 -9333 0
9334 9332 9333 0
11 -39724 0
-11 39724 0
-563 -301 0
-563 435 0
563 301 -435 0
-995 -293 0
-995 867 0
995 293 -867 0
-1427 -285 0
-1427 1299 0
1427 285 -1299 0
-1859 -277 0
-1859 1731 0
1859 277 -1731 0
-2291 -269 0
-2291 2163 0
2291 269 -2163 0
-2723 -261 0
-2723 2595 0
2723 261 -2595 0
-3155 -253 0
-3155 3027 0
3155 253 -3027 0
-3587 -245 0
-3587 3459 0
3587 245 -3459 0
-4019 -237 0
-4019 3891 0
4019 237 -3891 0
-4451 -229 0
-4451 4323 0
4451 229 -4323 0
-4883 -221 0
-4883 4755 0
4883 221 -4755 0
-5315 -213 0
-5315 5187 0
5315 213 -5187 0
-5747 -205 0
-5747 5619 0
5747 205 -5619 0
-6179 -197 0
-6179 6051 0
6179 197 -6051 0
-6611 -189 0
-6611 6483 0
6611 189 -6483 0
-6791 -6179 0
-6791 -6611 0
6791 6179 6611 0
-6971 -5747 0
-6971 6791 0
6971 5747 -6791 0
-7151 -5315 0
-7151 6971 0
7151 5315 -6971 0
-7331 -4883 0
-7331 7151 0
7331 4883 -7151 0
-7511 -4451 0
-7511 7331 0
7511 4451 -7331 0
-7691 -4019 0
-7691 7511 0
7691 4019 -7511 0
-7871 -3587 0
-7871 7691 0
7871 3587 -7691 0
-8051 -3155 0
-8051 7871 0
8051 3155 -7871 0
-8231 -2723 0
-8231 8051 0
8231 2723 -8051 0
-8411 -2291 0
-8411 8231 0
8411 2291 -8231 0
-8591 -1859 0
-8591 8411 0
8591 1859 -8411 0
-8771 -1427 0
-8771 8591 0
8771 1427 -8591 0
-8951 -995 0
-8951 8771 0
8951 995 -8771 0
-9131 -563 0
-9131 8951 0
9131 563 -8951 0
-9329 11 0
-9329 9131 0
9329 -11 -9131 0
-9330 -11 0
-9330 -9131 0
9330 11 9131 0
-9331 -9329 0
-9331 -9330 0
9331 9329 9330 0
10 -39723 0
-10 39723 0
-562 -301 0
-562 434 0
562 301 -434 0
-994 -293 0
-994 866 0
994 293 -866 0
-1426 -285 0
-1426 1298 0
1426 285 -1298 0
-1858 -277 0
-1858 1730 0
1858 277 -1730 0
-2290 -269 0
-2290 2162 0
2290 269 -2162 0
-2722 -261 0
-2722 2594 0
2722 261 -2594 0
-3154 -253 0
-3154 3026 0
3154 253 -3026 0
-3586 -245 0
-3586 3458 0
3586 245 -3458 0
-4018 -237 0
-4018 3890 0
4018 237 -3890 0
-4450 -229 0
-4450 4322 0
4450 229 -4322 0
-4882 -221 0
-4882 4754 0
4882 221 -4754 0
-5314 -213 0
-5314 5186 0
5314 213 -5186 0
-5746 -205 0
-5746 5618 0
5746 205 -5618 0
-6178 -197 0
-6178 6050 0
6178 197 -6050 0
-6610 -189 0
-6610 6482 0
6610 189 -6482 0
-6790 -6178 0
-6790 -6610 0
6790 6178 6610 0
-6970 -5746 0
-6970 6790 0
6970 5746 -6790 0
-7150 -5314 0
-7150 6970 0
7150 5314 -6970 0
-7330 -4882 0
-7330 7150 0
7330 4882 -7150 0
-7510 -4450 0
-7510 7330 0
7510 4450 -7330 0
-7690 -4018 0
-7690 7510 0
7690 4018 -7510 0
-7870 -3586 0
-7870 7690 0
7870 3586 -7690 0
-8050 -3154 0
-8050 7870 0
8050 3154 -7870 0
-8230 -2722 0
-8230 8050 0
8230 2722 -8050 0
-8410 -2290 0
-8410 8230 0
8410 2290 -8230 0
-8590 -1858 0
-8590 8410 0
8590 1858 -8410 0
-8770 -1426 0
-8770 8590 0
8770 1426 -8590 0
-8950 -994 0
-8950 8770 0
8950 994 -8770 0
-9130 -562 0
-9130 8950 0
9130 562 -8950 0
-9326 10 0
-9326 9130 0
9326 -10 -9130 0
-9327 -10 0
-9327 -9130 0
9327 10 9130 0
-9328 -9326 0
-9328 -9327 0
9328 9326 9327 0
9 -39722 0
-9 39722 0
-561 -301 0
-561 433 0
561 301 -433 0
-993 -293 0
-993 865 0
993 293 -865 0
-1425 -285 0
-1425 1297 0
1425 285 -1297 0
-1857 -277 0
-1857 1729 0
1857 277 -1729 0
-2289 -269 0
-2289 2161 0
2289 269 -2161 0
-2721 -261 0
-2721 2593 0
2721 261 -2593 0
-3153 -253 0
-3153 3025 0
3153 253 -3025 0
-3585 -245 0
-3585 3457 0
3585 245 -3457 0
-4017 -237 0
-4017 3889 0
4017 237 -3889 0
-4449 -229 0
-4449 4321 0
4449 229 -4321 0
-4881 -221 0
-4881 4753 0
4881 221 -4753 0
-5313 -213 0
-5313 5185 0
5313 213 -5185 0
-5745 -205 0
-5745 5617 0
5745 205 -5617 0
-6177 -197 0
-6177 6049 0
6177 197 -6049 0
-6609 -189 0
-6609 6481 0
6609 189 -6481 0
-6789 -6177 0
-6789 -6609 0
6789 6177 6609 0
-6969 -5745 0
-6969 6789 0
6969 5745 -6789 0
-7149 -5313 0
-7149 6969 0
7149 5313 -6969 0
-7329 -4881 0
-7329 7149 0
7329 4881 -7149 0
-7509 -4449 0
-7509 7329 0
7509 4449 -7329 0
-7689 -4017 0
-7689 7509 0
7689 4017 -7509 0
-7869 -3585 0
-7869 7689 0
7869 3585 -7689 0
-8049 -3153 0
-8049 7869 0
8049 3153 -7869 0
-8229 -2721 0
-8229 8049 0
8229 2721 -8049 0
-8409 -2289 0
-8409 8229 0
8409 2289 -8229 0
-8589 -1857 0
-8589 8409 0
8589 1857 -8409 0
-8769 -1425 0
-8769 8589 0
8769 1425 -8589 0
-8949 -993 0
-8949 8769 0
8949 993 -8769 0
-9129 -561 0
-9129 8949 0
9129 561 -8949 0
-9323 9 0
-9323 9129 0
9323 -9 -9129 0
-9324 -9 0
-9324 -9129 0
9324 9 9129 0
-9325 -9323 0
-9325 -9324 0
9325 9323 9324 0
8 -39721 0
-8 39721 0
-560 -301 0
-560 432 0
560 301 -432 0
-992 -293 0
-992 864 0
992 293 -864 0
-1424 -285 0
-1424 1296 0
1424 285 -1296 0
-1856 -277 0
-1856 1728 0
1856 277 -1728 0
-2288 -269 0
-2288 2160 0
2288 269 -2160 0
-2720 -261 0
-2720 2592 0
2720 261 -2592 0
-3152 -253 0
-3152 3024 0
3152 253 -3024 0
-3584 -245 0
-3584 3456 0
3584 245 -3456 0
-4016 -237 0
-4016 3888 0
4016 237 -3888 0
-4448 -229 0
-4448 4320 0
4448 229 -4320 0
-4880 -221 0
-4880 4752 0
4880 221 -4752 0
-5312 -213 0
-5312 5184 0
5312 213 -5184 0
-5744 -205 0
-5744 5616 0
5744 205 -5616 0
-6176 -197 0
-6176 6048 0
6176 197 -6048 0
-6608 -189 0
-6608 6480 0
6608 189 -6480 0
-6788 -6176 0
-6788 -6608 0
6788 6176 6608 0
-6968 -5744 0
-6968 6788 0
6968 5744 -6788 0
-7148 -5312 0
-7148 6968 0
7148 5312 -6968 0
-7328 -4880 0
-7328 7148 0
7328 4880 -7148 0
-7508 -4448 0
-7508 7328 0
7508 4448 -7328 0
-7688 -4016 0
-7688 7508 0
7688 4016 -7508 0
-7868 -3584 0
-7868 7688 0
7868 3584 -7688 0
-8048 -3152 0
-8048 7868 0
8048 3152 -7868 0
-8228 -2720 0
-8228 8048 0
8228 2720 -8048 0
-8408 -2288 0
-8408 8228 0
8408 2288 -8228 0
-8588 -1856 0
-8588 8408 0
8588 1856 -8408 0
-8768 -1424 0
-8768 8588 0
8768 1424 -8588 0
-8948 -992 0
-8948 8768 0
8948 992 -8768 0
-9128 -560 0
-9128 8948 0
9128 560 -8948 0
-9320 8 0
-9320 9128 0
9320 -8 -9128 0
-9321 -8 0
-9321 -9128 0
9321 8 9128 0
-9322 -9320 0
-9322 -9321 0
9322 9320 9321 0
7 -39720 0
-7 39720 0
-559 -301 0
-559 431 0
559 301 -431 0
-991 -293 0
-991 863 0
991 293 -863 0
-1423 -285 0
-1423 1295 0
1423 285 -1295 0
-1855 -277 0
-1855 1727 0
1855 277 -1727 0
-2287 -269 0
-2287 2159 0
2287 269 -2159 0
-2719 -261 0
-2719 2591 0
2719 261 -2591 0
-3151 -253 0
-3151 3023 0
3151 253 -3023 0
-3583 -245 0
-3583 3455 0
3583 245 -3455 0
-4015 -237 0
-4015 3887 0
4015 237 -3887 0
-4447 -229 0
-4447 4319 0
4447 229 -4319 0
-4879 -221 0
-4879 4751 0
4879 221 -4751 0
-5311 -213 0
-5311 5183 0
5311 213 -5183 0
-5743 -205 0
-5743 5615 0
5743 205 -5615 0
-6175 -197 0
-6175 6047 0
6175 197 -6047 0
-6607 -189 0
-6607 6479 0
6607 189 -6479 0
-6787 -6175 0
-6787 -6607 0
6787 6175 6607 0
-6967 -5743 0
-6967 6787 0
6967 5743 -6787 0
-7147 -5311 0
-7147 6967 0
7147 5311 -6967 0
-7327 -4879 0
-7327 7147 0
7327 4879 -7147 0
-7507 -4447 0
-7507 7327 0
7507 4447 -7327 0
-7687 -4015 0
-7687 7507 0
7687 4015 -7507 0
-7867 -3583 0
-7867 7687 0
7867 3583 -7687 0
-8047 -3151 0
-8047 7867 0
8047 3151 -7867 0
-8227 -2719 0
-8227 8047 0
8227 2719 -8047 0
-8407 -2287 0
-8407 8227 0
8407 2287 -8227 0
-8587 -1855 0
-8587 8407 0
8587 1855 -8407 0
-8767 -1423 0
-8767 8587 0
8767 1423 -8587 0
-8947 -991 0
-8947 8767 0
8947 991 -8767 0
-9127 -559 0
-9127 8947 0
9127 559 -8947 0
-9317 7 0
-9317 9127 0
9317 -7 -9127 0
-9318 -7 0
-9318 -9127 0
9318 7 9127 0
-9319 -9317 0
-9319 -9318 0
9319 9317 9318 0
6 -39719 0
-6 39719 0
-558 -301 0
-558 430 0
558 301 -430 0
-990 -293 0
-990 862 0
990 293 -862 0
-1422 -285 0
-1422 1294 0
1422 285 -1294 0
-1854 -277 0
-1854 1726 0
1854 277 -1726 0
-2286 -269 0
-2286 2158 0
2286 269 -2158 0
-2718 -261 0
-2718 2590 0
2718 261 -2590 0
-3150 -253 0
-3150 3022 0
3150 253 -3022 0
-3582 -245 0
-3582 3454 0
3582 245 -3454 0
-4014 -237 0
-4014 3886 0
4014 237 -3886 0
-4446 -229 0
-4446 4318 0
4446 229 -4318 0
-4878 -221 0
-4878 4750 0
4878 221 -4750 0
-5310 -213 0
-5310 5182 0
5310 213 -5182 0
-5742 -205 0
-5742 5614 0
5742 205 -5614 0
-6174 -197 0
-6174 6046 0
6174 197 -6046 0
-6606 -189 0
-6606 6478 0
6606 189 -6478 0
-6786 -6174 0
-6786 -6606 0
6786 6174 6606 0
-6966 -5742 0
-6966 6786 0
6966 5742 -6786 0
-7146 -5310 0
-7146 6966 0
7146 5310 -6966 0
-7326 -4878 0
-7326 7146 0
7326 4878 -7146 0
-7506 -4446 0
-7506 7326 0
7506 4446 -7326 0
-7686 -4014 0
-7686 7506 0
7686 4014 -7506 0
-7866 -3582 0
-7866 7686 0
7866 3582 -7686 0
-8046 -3150 0
-8046 7866 0
8046 3150 -7866 0
-8226 -2718 0
-8226 8046 0
8226 2718 -8046 0
-8406 -2286 0
-8406 8226 0
8406 2286 -8226 0
-8586 -1854 0
-8586 8406 0
8586 1854 -8406 0
-8766 -1422 0
-8766 8586 0
8766 1422 -8586 0
-8946 -990 0
-8946 8766 0
8946 990 -8766 0
-9126 -558 0
-9126 8946 0
9126 558 -8946 0
-9314 6 0
-9314 9126 0
9314 -6 -9126 0
-9315 -6 0
-9315 -9126 0
9315 6 9126 0
-9316 -9314 0
-9316 -9315 0
9316 9314 9315 0
5 -39718 0
-5 39718 0
-557 -301 0
-557 429 0
557 301 -429 0
-989 -293 0
-989 861 0
989 293 -861 0
-1421 -285 0
-1421 1293 0
1421 285 -1293 0
-1853 -277 0
-1853 1725 0
1853 277 -1725 0
-2285 -269 0
-2285 2157 0
2285 269 -2157 0
-2717 -261 0
-2717 2589 0
2717 261 -2589 0
-3149 -253 0
-3149 3021 0
3149 253 -3021 0
-3581 -245 0
-3581 3453 0
3581 245 -3453 0
-4013 -237 0
-4013 3885 0
4013 237 -3885 0
-4445 -229 0
-4445 4317 0
4445 229 -4317 0
-4877 -221 0
-4877 4749 0
4877 221 -4749 0
-5309 -213 0
-5309 5181 0
5309 213 -5181 0
-5741 -205 0
-5741 5613 0
5741 205 -5613 0
-6173 -197 0
-6173 6045 0
6173 197 -6045 0
-6605 -189 0
-6605 6477 0
6605 189 -6477 0
-6785 -6173 0
-6785 -6605 0
6785 6173 6605 0
-6965 -5741 0
-6965 6785 0
6965 5741 -6785 0
-7145 -5309 0
-7145 6965 0
7145 5309 -6965 0
-7325 -4877 0
-7325 7145 0
7325 4877 -7145 0
-7505 -4445 0
-7505 7325 0
7505 4445 -7325 0
-7685 -4013 0
-7685 7505 0
7685 4013 -7505 0
-7865 -3581 0
-7865 7685 0
7865 3581 -7685 0
-8045 -3149 0
-8045 7865 0
8045 3149 -7865 0
-8225 -2717 0
-8225 8045 0
8225 2717 -8045 0
-8405 -2285 0
-8405 8225 0
8405 2285 -8225 0
-8585 -1853 0
-8585 8405 0
8585 1853 -8405 0
-8765 -1421 0
-8765 8585 0
8765 1421 -8585 0
-8945 -989 0
-8945 8765 0
8945 989 -8765 0
-9125 -557 0
-9125 8945 0
9125 557 -8945 0
-9311 5 0
-9311 9125 0
9311 -5 -9125 0
-9312 -5 0
-9312 -9125 0
9312 5 9125 0
-9313 -9311 0
-9313 -9312 0
9313 9311 9312 0
4 -39717 0
-4 39717 0
-556 -301 0
-556 428 0
556 301 -428 0
-988 -293 0
-988 860 0
988 293 -860 0
-1420 -285 0
-1420 1292 0
1420 285 -1292 0
-1852 -277 0
-1852 1724 0
1852 277 -1724 0
-2284 -269 0
-2284 2156 0
2284 269 -2156 0
-2716 -261 0
-2716 2588 0
2716 261 -2588 0
-3148 -253 0
-3148 3020 0
3148 253 -3020 0
-3580 -245 0
-3580 3452 0
3580 245 -3452 0
-4012 -237 0
-4012 3884 0
4012 237 -3884 0
-4444 -229 0
-4444 4316 0
4444 229 -4316 0
-4876 -221 0
-4876 4748 0
4876 221 -4748 0
-5308 -213 0
-5308 5180 0
5308 213 -5180 0
-5740 -205 0
-5740 5612 0
5740 205 -5612 0
-6172 -197 0
-6172 6044 0
6172 197 -6044 0
-6604 -189 0
-6604 6476 0
6604 189 -6476 0
-6784 -6172 0
-6784 -6604 0
6784 6172 6604 0
-6964 -5740 0
-6964 6784 0
6964 5740 -6784 0
-7144 -5308 0
-7144 6964 0
7144 5308 -6964 0
-7324 -4876 0
-7324 7144 0
7324 4876 -7144 0
-7504 -4444 0
-7504 7324 0
7504 4444 -7324 0
-7684 -4012 0
-7684 7504 0
7684 4012 -7504 0
-7864 -3580 0
-7864 7684 0
7864 3580 -7684 0
-8044 -3148 0
-8044 7864 0
8044 3148 -7864 0
-8224 -2716 0
-8224 8044 0
8224 2716 -8044 0
-8404 -2284 0
-8404 8224 0
8404 2284 -8224 0
-8584 -1852 0
-8584 8404 0
8584 1852 -8404 0
-8764 -1420 0
-8764 8584 0
8764 1420 -8584 0
-8944 -988 0
-8944 8764 0
8944 988 -8764 0
-9124 -556 0
-9124 8944 0
9124 556 -8944 0
-9308 4 0
-9308 9124 0
9308 -4 -9124 0
-9309 -4 0
-9309 -9124 0
9309 4 9124 0
-9310 -9308 0
-9310 -9309 0
9310 9308 9309 0
2 -39715 0
-2 39715 0
-554 -301 0
-554 426 0
554 301 -426 0
-986 -293 0
-986 858 0
986 293 -858 0
-1418 -285 0
-1418 1290 0
1418 285 -1290 0
-1850 -277 0
-1850 1722 0
1850 277 -1722 0
-2282 -269 0
-2282 2154 0
2282 269 -2154 0
-2714 -261 0
-2714 2586 0
2714 261 -2586 0
-3146 -253 0
-3146 3018 0
3146 253 -3018 0
-3578 -245 0
-3578 3450 0
3578 245 -3450 0
-4010 -237 0
-4010 3882 0
4010 237 -3882 0
-4442 -229 0
-4442 4314 0
4442 229 -4314 0
-4874 -221 0
-4874 4746 0
4874 221 -4746 0
-5306 -213 0
-5306 5178 0
5306 213 -5178 0
-5738 -205 0
-5738 5610 0
5738 205 -5610 0
-6170 -197 0
-6170 6042 0
6170 197 -6042 0
-6602 -189 0
-6602 6474 0
6602 189 -6474 0
-6782 -6170 0
-6782 -6602 0
6782 6170 6602 0
-6962 -5738 0
-6962 6782 0
6962 5738 -6782 0
-7142 -5306 0
-7142 6962 0
7142 5306 -6962 0
-7322 -4874 0
-7322 7142 0
7322 4874 -7142 0
-7502 -4442 0
-7502 7322 0
7502 4442 -7322 0
-7682 -4010 0
-7682 7502 0
7682 4010 -7502 0
-7862 -3578 0
-7862 7682 0
7862 3578 -7682 0
-8042 -3146 0
-8042 7862 0
8042 3146 -7862 0
-8222 -2714 0
-8222 8042 0
8222 2714 -8042 0
-8402 -2282 0
-8402 8222 0
8402 2282 -8222 0
-8582 -1850 0
-8582 8402 0
8582 1850 -8402 0
-8762 -1418 0
-8762 8582 0
8762 1418 -8582 0
-8942 -986 0
-8942 8762 0
8942 986 -8762 0
-9122 -554 0
-9122 8942 0
9122 554 -8942 0
-9302 2 0
-9302 9122 0
9302 -2 -9122 0
-9303 -2 0
-9303 -9122 0
9303 2 9122 0
-9304 -9302 0
-9304 -9303 0
9304 9302 9303 0
3 -39716 0
-3 39716 0
-555 -301 0
-555 427 0
555 301 -427 0
-987 -293 0
-987 859 0
987 293 -859 0
-1419 -285 0
-1419 1291 0
1419 285 -1291 0
-1851 -277 0
-1851 1723 0
1851 277 -1723 0
-2283 -269 0
-2283 2155 0
2283 269 -2155 0
-2715 -261 0
-2715 2587 0
2715 261 -2587 0
-3147 -253 0
-3147 3019 0
3147 253 -3019 0
-3579 -245 0
-3579 3451 0
3579 245 -3451 0
-4011 -237 0
-4011 3883 0
4011 237 -3883 0
-4443 -229 0
-4443 4315 0
4443 229 -4315 0
-4875 -221 0
-4875 4747 0
4875 221 -4747 0
-5307 -213 0
-5307 5179 0
5307 213 -5179 0
-5739 -205 0
-5739 5611 0
5739 205 -5611 0
-6171 -197 0
-6171 6043 0
6171 197 -6043 0
-6603 -189 0
-6603 6475 0
6603 189 -6475 0
-6783 -6171 0
-6783 -6603 0
6783 6171 6603 0
-6963 -5739 0
-6963 6783 0
6963 5739 -6783 0
-7143 -5307 0
-7143 6963 0
7143 5307 -6963 0
-7323 -4875 0
-7323 7143 0
7323 4875 -7143 0
-7503 -4443 0
-7503 7323 0
7503 4443 -7323 0
-7683 -4011 0
-7683 7503 0
7683 4011 -7503 0
-7863 -3579 0
-7863 7683 0
7863 3579 -7683 0
-8043 -3147 0
-8043 7863 0
8043 3147 -7863 0
-8223 -2715 0
-8223 8043 0
8223 2715 -8043 0
-8403 -2283 0
-8403 8223 0
8403 2283 -8223 0
-8583 -1851 0
-8583 8403 0
8583 1851 -8403 0
-8763 -1419 0
-8763 8583 0
8763 1419 -8583 0
-8943 -987 0
-8943 8763 0
8943 987 -8763 0
-9123 -555 0
-9123 8943 0
9123 555 -8943 0
-9305 3 0
-9305 9123 0
9305 -3 -9123 0
-9306 -3 0
-9306 -9123 0
9306 3 9123 0
-9307 -9305 0
-9307 -9306 0
9307 9305 9306 0
-9842 9304 0
-9842 9307 0
9842 -9304 -9307 0
-9843 9310 0
-9843 9842 0
9843 -9310 -9842 0
-9844 9313 0
-9844 9843 0
9844 -9313 -9843 0
-9845 9316 0
-9845 9844 0
9845 -9316 -9844 0
-9846 9319 0
-9846 9845 0
9846 -9319 -9845 0
-9847 9322 0
-9847 9846 0
9847 -9322 -9846 0
-9848 9325 0
-9848 9847 0
9848 -9325 -9847 0
-9849 9328 0
-9849 9848 0
9849 -9328 -9848 0
-9850 9331 0
-9850 9849 0
9850 -9331 -9849 0
-9851 9334 0
-9851 9850 0
9851 -9334 -9850 0
-9852 9337 0
-9852 9851 0
9852 -9337 -9851 0
-9853 9340 0
-9853 9852 0
9853 -9340 -9852 0
-9854 9343 0
-9854 9853 0
9854 -9343 -9853 0
-9855 9346 0
-9855 9854 0
9855 -9346 -9854 0
-9856 9349 0
-9856 9855 0
9856 -9349 -9855 0
-9857 9352 0
-9857 9856 0
9857 -9352 -9856 0
-9858 9355 0
-9858 9857 0
9858 -9355 -9857 0
-9859 9358 0
-9859 9858 0
9859 -9358 -9858 0
-9860 9361 0
-9860 9859 0
9860 -9361 -9859 0
-9861 9364 0
-9861 9860 0
9861 -9364 -9860 0
-9862 9367 0
-9862 9861 0
9862 -9367 -9861 0
-9863 9370 0
-9863 9862 0
9863 -9370 -9862 0
-9864 9373 0
-9864 9863 0
9864 -9373 -9863 0
-9865 9376 0
-9865 9864 0
9865 -9376 -9864 0
-9866 9379 0
-9866 9865 0
9866 -9379 -9865 0
-9867 9382 0
-9867 9866 0
9867 -9382 -9866 0
-9868 9385 0
-9868 9867 0
9868 -9385 -9867 0
-9869 9388 0
-9869 9868 0
9869 -9388 -9868 0
-9870 9391 0
-9870 9869 0
9870 -9391 -9869 0
-9871 9394 0
-9871 9870 0
9871 -9394 -9870 0
-9872 9397 0
-9872 9871 0
9872 -9397 -9871 0
-9873 9400 0
-9873 9872 0
9873 -9400 -9872 0
-9874 9403 0
-9874 9873 0
9874 -9403 -9873 0
-9875 9406 0
-9875 9874 0
9875 -9406 -9874 0
-9876 9409 0
-9876 9875 0
9876 -9409 -9875 0
-9877 9412 0
-9877 9876 0
9877 -9412 -9876 0
-9878 9415 0
-9878 9877 0
9878 -9415 -9877 0
-9879 9418 0
-9879 9878 0
9879 -9418 -9878 0
-9880 9421 0
-9880 9879 0
9880 -9421 -9879 0
-9881 9424 0
-9881 9880 0
9881 -9424 -9880 0
-9882 9427 0
-9882 9881 0
9882 -9427 -9881 0
-9883 9430 0
-9883 9882 0
9883 -9430 -9882 0
-9884 9433 0
-9884 9883 0
9884 -9433 -9883 0
-9885 9436 0
-9885 9884 0
9885 -9436 -9884 0
-9886 9439 0
-9886 9885 0
9886 -9439 -9885 0
-9887 9442 0
-9887 9886 0
9887 -9442 -9886 0
-9888 9445 0
-9888 9887 0
9888 -9445 -9887 0
-9889 9448 0
-9889 9888 0
9889 -9448 -9888 0
-9890 9451 0
-9890 9889 0
9890 -9451 -9889 0
-9891 9454 0
-9891 9890 0
9891 -9454 -9890 0
-9892 9457 0
-9892 9891 0
9892 -9457 -9891 0
-9893 9460 0
-9893 9892 0
9893 -9460 -9892 0
-9894 9463 0
-9894 9893 0
9894 -9463 -9893 0
-9895 9466 0
-9895 9894 0
9895 -9466 -9894 0
-9896 9469 0
-9896 9895 0
9896 -9469 -9895 0
-9897 9472 0
-9897 9896 0
9897 -9472 -9896 0
-9898 9475 0
-9898 9897 0
9898 -9475 -9897 0
-9899 9478 0
-9899 9898 0
9899 -9478 -9898 0
-9900 9481 0
-9900 9899 0
9900 -9481 -9899 0
-9901 9484 0
-9901 9900 0
9901 -9484 -9900 0
-9902 9487 0
-9902 9901 0
9902 -9487 -9901 0
-9903 9490 0
-9903 9902 0
9903 -9490 -9902 0
-9904 9493 0
-9904 9903 0
9904 -9493 -9903 0
-9905 9496 0
-9905 9904 0
9905 -9496 -9904 0
-9906 9499 0
-9906 9905 0
9906 -9499 -9905 0
-9907 9502 0
-9907 9906 0
9907 -9502 -9906 0
-9908 9505 0
-9908 9907 0
9908 -9505 -9907 0
-9909 9508 0
-9909 9908 0
9909 -9508 -9908 0
-9910 9511 0
-9910 9909 0
9910 -9511 -9909 0
-9911 9514 0
-9911 9910 0
9911 -9514 -9910 0
-9912 9517 0
-9912 9911 0
9912 -9517 -9911 0
-9913 9520 0
-9913 9912 0
9913 -9520 -9912 0
-9914 9523 0
-9914 9913 0
9914 -9523 -9913 0
-9915 9526 0
-9915 9914 0
9915 -9526 -9914 0
-9916 9529 0
-9916 9915 0
9916 -9529 -9915 0
-9917 9532 0
-9917 9916 0
9917 -9532 -9916 0
-9918 9535 0
-9918 9917 0
9918 -9535 -9917 0
-9919 9538 0
-9919 9918 0
9919 -9538 -9918 0
-9920 9541 0
-9920 9919 0
9920 -9541 -9919 0
-9921 9544 0
-9921 9920 0
9921 -9544 -9920 0
-9922 9547 0
-9922 9921 0
9922 -9547 -9921 0
-9923 9550 0
-9923 9922 0
9923 -9550 -9922 0
-9924 9553 0
-9924 9923 0
9924 -9553 -9923 0
-9925 9556 0
-9925 9924 0
9925 -9556 -9924 0
-9926 9559 0
-9926 9925 0
9926 -9559 -9925 0
-9927 9562 0
-9927 9926 0
9927 -9562 -9926 0
-9928 9565 0
-9928 9927 0
9928 -9565 -9927 0
-9929 9568 0
-9929 9928 0
9929 -9568 -9928 0
-9930 9571 0
-9930 9929 0
9930 -9571 -9929 0
-9931 9574 0
-9931 9930 0
9931 -9574 -9930 0
-9932 9577 0
-9932 9931 0
9932 -9577 -9931 0
-9933 9580 0
-9933 9932 0
9933 -9580 -9932 0
-9934 9583 0
-9934 9933 0
9934 -9583 -9933 0
-9935 9586 0
-9935 9934 0
9935 -9586 -9934 0
-9936 9589 0
-9936 9935 0
9936 -9589 -9935 0
-9937 9592 0
-9937 9936 0
9937 -9592 -9936 0
-9938 9595 0
-9938 9937 0
9938 -9595 -9937 0
-9939 9598 0
-9939 9938 0
9939 -9598 -9938 0
-9940 9601 0
-9940 9939 0
9940 -9601 -9939 0
-9941 9604 0
-9941 9940 0
9941 -9604 -9940 0
-9942 9607 0
-9942 9941 0
9942 -9607 -9941 0
-9943 9610 0
-9943 9942 0
9943 -9610 -9942 0
-9944 9613 0
-9944 9943 0
9944 -9613 -9943 0
-9945 9616 0
-9945 9944 0
9945 -9616 -9944 0
-9946 9619 0
-9946 9945 0
9946 -9619 -9945 0
-9947 9622 0
-9947 9946 0
9947 -9622 -9946 0
-9948 9625 0
-9948 9947 0
9948 -9625 -9947 0
-9949 9628 0
-9949 9948 0
9949 -9628 -9948 0
-9950 9631 0
-9950 9949 0
9950 -9631 -9949 0
-9951 9634 0
-9951 9950 0
9951 -9634 -9950 0
-9952 9637 0
-9952 9951 0
9952 -9637 -9951 0
-9953 9640 0
-9953 9952 0
9953 -9640 -9952 0
-9954 9643 0
-9954 9953 0
9954 -9643 -9953 0
-9955 9646 0
-9955 9954 0
9955 -9646 -9954 0
-9956 9649 0
-9956 9955 0
9956 -9649 -9955 0
-9957 9652 0
-9957 9956 0
9957 -9652 -9956 0
-9958 9655 0
-9958 9957 0
9958 -9655 -9957 0
-9959 9658 0
-9959 9958 0
9959 -9658 -9958 0
-9960 9661 0
-9960 9959 0
9960 -9661 -9959 0
-9961 9664 0
-9961 9960 0
9961 -9664 -9960 0
-9962 9667 0
-9962 9961 0
9962 -9667 -9961 0
-9963 9670 0
-9963 9962 0
9963 -9670 -9962 0
-9964 9673 0
-9964 9963 0
9964 -9673 -9963 0
-9965 9676 0
-9965 9964 0
9965 -9676 -9964 0
-9966 9679 0
-9966 9965 0
9966 -9679 -9965 0
-9967 9682 0
-9967 9966 0
9967 -9682 -9966 0
-9968 9685 0
-9968 9967 0
9968 -9685 -9967 0
-9969 9688 0
-9969 9968 0
9969 -9688 -9968 0
-9970 9691 0
-9970 9969 0
9970 -9691 -9969 0
-9971 9694 0
-9971 9970 0
9971 -9694 -9970 0
-9972 9697 0
-9972 9971 0
9972 -9697 -9971 0
-9973 9700 0
-9973 9972 0
9973 -9700 -9972 0
-9974 9703 0
-9974 9973 0
9974 -9703 -9973 0
-9975 9706 0
-9975 9974 0
9975 -9706 -9974 0
-9976 9709 0
-9976 9975 0
9976 -9709 -9975 0
-9977 9712 0
-9977 9976 0
9977 -9712 -9976 0
-9978 9715 0
-9978 9977 0
9978 -9715 -9977 0
-9979 9718 0
-9979 9978 0
9979 -9718 -9978 0
-9980 9721 0
-9980 9979 0
9980 -9721 -9979 0
-9981 9724 0
-9981 9980 0
9981 -9724 -9980 0
-9982 9727 0
-9982 9981 0
9982 -9727 -9981 0
-9983 9730 0
-9983 9982 0
9983 -9730 -9982 0
-9984 9733 0
-9984 9983 0
9984 -9733 -9983 0
-9985 9736 0
-9985 9984 0
9985 -9736 -9984 0
-9986 9739 0
-9986 9985 0
9986 -9739 -9985 0
-9987 9742 0
-9987 9986 0
9987 -9742 -9986 0
-9988 9745 0
-9988 9987 0
9988 -9745 -9987 0
-9989 9748 0
-9989 9988 0
9989 -9748 -9988 0
-9990 9751 0
-9990 9989 0
9990 -9751 -9989 0
-9991 9754 0
-9991 9990 0
9991 -9754 -9990 0
-9992 9757 0
-9992 9991 0
9992 -9757 -9991 0
-9993 9760 0
-9993 9992 0
9993 -9760 -9992 0
-9994 9763 0
-9994 9993 0
9994 -9763 -9993 0
-9995 9766 0
-9995 9994 0
9995 -9766 -9994 0
-9996 9769 0
-9996 9995 0
9996 -9769 -9995 0
-9997 9772 0
-9997 9996 0
9997 -9772 -9996 0
-9998 9775 0
-9998 9997 0
9998 -9775 -9997 0
-9999 9778 0
-9999 9998 0
9999 -9778 -9998 0
-10000 9781 0
-10000 9999 0
10000 -9781 -9999 0
-10001 9784 0
-10001 10000 0
10001 -9784 -10000 0
-10002 9787 0
-10002 10001 0
10002 -9787 -10001 0
-10003 9790 0
-10003 10002 0
10003 -9790 -10002 0
-10004 9793 0
-10004 10003 0
10004 -9793 -10003 0
-10005 9796 0
-10005 10004 0
10005 -9796 -10004 0
-10006 9799 0
-10006 10005 0
10006 -9799 -10005 0
-10007 9802 0
-10007 10006 0
10007 -9802 -10006 0
-10008 9805 0
-10008 10007 0
10008 -9805 -10007 0
-10009 9808 0
-10009 10008 0
10009 -9808 -10008 0
-10010 9811 0
-10010 10009 0
10010 -9811 -10009 0
-10011 9814 0
-10011 10010 0
10011 -9814 -10010 0
-10012 9817 0
-10012 10011 0
10012 -9817 -10011 0
-10013 9820 0
-10013 10012 0
10013 -9820 -10012 0
-10014 9823 0
-10014 10013 0
10014 -9823 -10013 0
-10015 9826 0
-10015 10014 0
10015 -9826 -10014 0
-10016 9829 0
-10016 10015 0
10016 -9829 -10015 0
-10017 9832 0
-10017 10016 0
10017 -9832 -10016 0
-10018 9835 0
-10018 10017 0
10018 -9835 -10017 0
-10019 9838 0
-10019 10018 0
10019 -9838 -10018 0
-10020 9841 0
-10020 10019 0
10020 -9841 -10019 0
-10024 16 0
-10024 31 0
10024 -16 -31 0
-10025 -16 0
-10025 -31 0
10025 16 31 0
-10026 -10024 0
-10026 -10025 0
10026 10024 10025 0
-10027 85 0
-10027 10026 0
10027 -85 -10026 0
-10028 -85 0
-10028 -10026 0
10028 85 10026 0
-10029 -10027 0
-10029 -10028 0
10029 10027 10028 0
-10021 179 0
-10021 180 0
10021 -179 -180 0
-10022 -179 0
-10022 -180 0
10022 179 180 0
-10023 -10021 0
-10023 -10022 0
10023 10021 10022 0
-10030 136 0
-10030 10023 0
10030 -136 -10023 0
-10031 -136 0
-10031 -10023 0
10031 136 10023 0
-10032 -10030 0
-10032 -10031 0
10032 10030 10031 0
-10033 10029 0
-10033 10032 0
10033 -10029 -10032 0
-10034 -10029 0
-10034 -10032 0
10034 10029 10032 0
-10035 -10033 0
-10035 -10034 0
10035 10033 10034 0
-10036 10020 0
-10036 -10035 0
10036 -10020 10035 0
-10040 15 0
-10040 30 0
10040 -15 -30 0
-10041 -15 0
-10041 -30 0
10041 15 30 0
-10042 -10040 0
-10042 -10041 0
10042 10040 10041 0
-10043 84 0
-10043 10042 0
10043 -84 -10042 0
-10044 -84 0
-10044 -10042 0
10044 84 10042 0
-10045 -10043 0
-10045 -10044 0
10045 10043 10044 0
-10037 178 0
-10037 179 0
10037 -178 -179 0
-10038 -178 0
-10038 -179 0
10038 178 179 0
-10039 -10037 0
-10039 -10038 0
10039 10037 10038 0
-10046 135 0
-10046 10039 0
10046 -135 -10039 0
-10047 -135 0
-10047 -10039 0
10047 135 10039 0
-10048 -10046 0
-10048 -10047 0
10048 10046 10047 0
-10049 10045 0
-10049 10048 0
10049 -10045 -10048 0
-10050 -10045 0
-10050 -10048 0
10050 10045 10048 0
-10051 -10049 0
-10051 -10050 0
10051 10049 10050 0
-10052 10036 0
-10052 -10051 0
10052 -10036 10051 0
-10056 14 0
-10056 29 0
10056 -14 -29 0
-10057 -14 0
-10057 -29 0
10057 14 29 0
-10058 -10056 0
-10058 -10057 0
10058 10056 10057 0
-10059 83 0
-10059 10058 0
10059 -83 -10058 0
-10060 -83 0
-10060 -10058 0
10060 83 10058 0
-10061 -10059 0
-10061 -10060 0
10061 10059 10060 0
-10053 177 0
-10053 178 0
10053 -177 -178 0
-10054 -177 0
-10054 -178 0
10054 177 178 0
-10055 -10053 0
-10055 -10054 0
10055 10053 10054 0
-10062 134 0
-10062 10055 0
10062 -134 -10055 0
-10063 -134 0
-10063 -10055 0
10063 134 10055 0
-10064 -10062 0
-10064 -10063 0
10064 10062 10063 0
-10065 10061 0
-10065 10064 0
10065 -10061 -10064 0
-10066 -10061 0
-10066 -10064 0
10066 10061 10064 0
-10067 -10065 0
-10067 -10066 0
10067 10065 10066 0
-10068 10052 0
-10068 -10067 0
10068 -10052 10067 0
-10072 13 0
-10072 28 0
10072 -13 -28 0
-10073 -13 0
-10073 -28 0
10073 13 28 0
-10074 -10072 0
-10074 -10073 0
10074 10072 10073 0
-10075 82 0
-10075 10074 0
10075 -82 -10074 0
-10076 -82 0
-10076 -10074 0
10076 82 10074 0
-10077 -10075 0
-10077 -10076 0
10077 10075 10076 0
-10069 176 0
-10069 177 0
10069 -176 -177 0
-10070 -176 0
-10070 -177 0
10070 176 177 0
-10071 -10069 0
-10071 -10070 0
10071 10069 10070 0
-10078 133 0
-10078 10071 0
10078 -133 -10071 0
-10079 -133 0
-10079 -10071 0
10079 133 10071 0
-10080 -10078 0
-10080 -10079 0
10080 10078 10079 0
-10081 10077 0
-10081 10080 0
10081 -10077 -10080 0
-10082 -10077 0
-10082 -10080 0
10082 10077 10080 0
-10083 -10081 0
-10083 -10082 0
10083 10081 10082 0
-10084 10068 0
-10084 -10083 0
10084 -10068 10083 0
-10088 12 0
-10088 27 0
10088 -12 -27 0
-10089 -12 0
-10089 -27 0
10089 12 27 0
-10090 -10088 0
-10090 -10089 0
10090 10088 10089 0
-10091 81 0
-10091 10090 0
10091 -81 -10090 0
-10092 -81 0
-10092 -10090 0
10092 81 10090 0
-10093 -10091 0
-10093 -10092 0
10093 10091 10092 0
-10085 175 0
-10085 176 0
10085 -175 -176 0
-10086 -175 0
-10086 -176 0
10086 175 176 0
-10087 -10085 0
-10087 -10086 0
10087 10085 10086 0
-10094 132 0
-10094 10087 0
10094 -132 -10087 0
-10095 -132 0
-10095 -10087 0
10095 132 10087 0
-10096 -10094 0
-10096 -10095 0
10096 10094 10095 0
-10097 10093 0
-10097 10096 0
10097 -10093 -10096 0
-10098 -10093 0
-10098 -10096 0
10098 10093 10096 0
-10099 -10097 0
-10099 -10098 0
10099 10097 10098 0
-10100 10084 0
-10100 -10099 0
10100 -10084 10099 0
-10104 11 0
-10104 26 0
10104 -11 -26 0
-10105 -11 0
-10105 -26 0
10105 11 26 0
-10106 -10104 0
-10106 -10105 0
10106 10104 10105 0
-10107 80 0
-10107 10106 0
10107 -80 -10106 0
-10108 -80 0
-10108 -10106 0
10108 80 10106 0
-10109 -10107 0
-10109 -10108 0
10109 10107 10108 0
-10101 174 0
-10101 175 0
10101 -174 -175 0
-10102 -174 0
-10102 -175 0
10102 174 175 0
-10103 -10101 0
-10103 -10102 0
10103 10101 10102 0
-10110 131 0
-10110 10103 0
10110 -131 -10103 0
-10111 -131 0
-10111 -10103 0
10111 131 10103 0
-10112 -10110 0
-10112 -10111 0
10112 10110 10111 0
-10113 10109 0
-10113 10112 0
10113 -10109 -10112 0
-10114 -10109 0
-10114 -10112 0
10114 10109 10112 0
-10115 -10113 0
-10115 -10114 0
10115 10113 10114 0
-10116 10100 0
-10116 -10115 0
10116 -10100 10115 0
-10120 10 0
-10120 25 0
10120 -10 -25 0
-10121 -10 0
-10121 -25 0
10121 10 25 0
-10122 -10120 0
-10122 -10121 0
10122 10120 10121 0
-10123 79 0
-10123 10122 0
10123 -79 -10122 0
-10124 -79 0
-10124 -10122 0
10124 79 10122 0
-10125 -10123 0
-10125 -10124 0
10125 10123 10124 0
-10117 173 0
-10117 174 0
10117 -173 -174 0
-10118 -173 0
-10118 -174 0
10118 173 174 0
-10119 -10117 0
-10119 -10118 0
10119 10117 10118 0
-10126 130 0
-10126 10119 0
10126 -130 -10119 0
-10127 -130 0
-10127 -10119 0
10127 130 10119 0
-10128 -10126 0
-10128 -10127 0
10128 10126 10127 0
-10129 10125 0
-10129 10128 0
10129 -10125 -10128 0
-10130 -10125 0
-10130 -10128 0
10130 10125 10128 0
-10131 -10129 0
-10131 -10130 0
10131 10129 10130 0
-10132 10116 0
-10132 -10131 0
10132 -10116 10131 0
-10133 172 0
-10133 173 0
10133 -172 -173 0
-10134 -172 0
-10134 -173 0
10134 172 173 0
-10135 -10133 0
-10135 -10134 0
10135 10133 10134 0
-10136 9 0
-10136 24 0
10136 -9 -24 0
-10137 -9 0
-10137 -24 0
10137 9 24 0
-10138 -10136 0
-10138 -10137 0
10138 10136 10137 0
-10139 78 0
-10139 129 0
10139 -78 -129 0
-10140 -78 0
-10140 -129 0
10140 78 129 0
-10141 -10139 0
-10141 -10140 0
10141 10139 10140 0
-10142 10138 0
-10142 10141 0
10142 -10138 -10141 0
-10143 -10138 0
-10143 -10141 0
10143 10138 10141 0
-10144 -10142 0
-10144 -10143 0
10144 10142 10143 0
-10145 10135 0
-10145 10144 0
10145 -10135 -10144 0
-10146 -10135 0
-10146 -10144 0
10146 10135 10144 0
-10147 -10145 0
-10147 -10146 0
10147 10145 10146 0
-10148 10132 0
-10148 -10147 0
10148 -10132 10147 0
-10149 171 0
-10149 172 0
10149 -171 -172 0
-10150 -171 0
-10150 -172 0
10150 171 172 0
-10151 -10149 0
-10151 -10150 0
10151 10149 10150 0
-10152 8 0
-10152 23 0
10152 -8 -23 0
-10153 -8 0
-10153 -23 0
10153 8 23 0
-10154 -10152 0
-10154 -10153 0
10154 10152 10153 0
-10155 77 0
-10155 128 0
10155 -77 -128 0
-10156 -77 0
-10156 -128 0
10156 77 128 0
-10157 -10155 0
-10157 -10156 0
10157 10155 10156 0
-10158 10154 0
-10158 10157 0
10158 -10154 -10157 0
-10159 -10154 0
-10159 -10157 0
10159 10154 10157 0
-10160 -10158 0
-10160 -10159 0
10160 10158 10159 0
-10161 10151 0
-10161 10160 0
10161 -10151 -10160 0
-10162 -10151 0
-10162 -10160 0
10162 10151 10160 0
-10163 -10161 0
-10163 -10162 0
10163 10161 10162 0
-10164 10148 0
-10164 -10163 0
10164 -10148 10163 0
-10165 170 0
-10165 171 0
10165 -170 -171 0
-10166 -170 0
-10166 -171 0
10166 170 171 0
-10167 -10165 0
-10167 -10166 0
10167 10165 10166 0
-10168 7 0
-10168 22 0
10168 -7 -22 0
-10169 -7 0
-10169 -22 0
10169 7 22 0
-10170 -10168 0
-10170 -10169 0
10170 10168 10169 0
-10171 91 0
-10171 127 0
10171 -91 -127 0
-10172 -91 0
-10172 -127 0
10172 91 127 0
-10173 -10171 0
-10173 -10172 0
10173 10171 10172 0
-10174 10170 0
-10174 10173 0
10174 -10170 -10173 0
-10175 -10170 0
-10175 -10173 0
10175 10170 10173 0
-10176 -10174 0
-10176 -10175 0
10176 10174 10175 0
-10177 10167 0
-10177 10176 0
10177 -10167 -10176 0
-10178 -10167 0
-10178 -10176 0
10178 10167 10176 0
-10179 -10177 0
-10179 -10178 0
10179 10177 10178 0
-10180 10164 0
-10180 -10179 0
10180 -10164 10179 0
-10181 169 0
-10181 170 0
10181 -169 -170 0
-10182 -169 0
-10182 -170 0
10182 169 170 0
-10183 -10181 0
-10183 -10182 0
10183 10181 10182 0
-10184 6 0
-10184 21 0
10184 -6 -21 0
-10185 -6 0
-10185 -21 0
10185 6 21 0
-10186 -10184 0
-10186 -10185 0
10186 10184 10185 0
-10187 90 0
-10187 126 0
10187 -90 -126 0
-10188 -90 0
-10188 -126 0
10188 90 126 0
-10189 -10187 0
-10189 -10188 0
10189 10187 10188 0
-10190 10186 0
-10190 10189 0
10190 -10186 -10189 0
-10191 -10186 0
-10191 -10189 0
10191 10186 10189 0
-10192 -10190 0
-10192 -10191 0
10192 10190 10191 0
-10193 10183 0
-10193 10192 0
10193 -10183 -10192 0
-10194 -10183 0
-10194 -10192 0
10194 10183 10192 0
-10195 -10193 0
-10195 -10194 0
10195 10193 10194 0
-10196 10180 0
-10196 -10195 0
10196 -10180 10195 0
-10197 168 0
-10197 169 0
10197 -168 -169 0
-10198 -168 0
-10198 -169 0
10198 168 169 0
-10199 -10197 0
-10199 -10198 0
10199 10197 10198 0
-10200 5 0
-10200 20 0
10200 -5 -20 0
-10201 -5 0
-10201 -20 0
10201 5 20 0
-10202 -10200 0
-10202 -10201 0
10202 10200 10201 0
-10203 89 0
-10203 125 0
10203 -89 -125 0
-10204 -89 0
-10204 -125 0
10204 89 125 0
-10205 -10203 0
-10205 -10204 0
10205 10203 10204 0
-10206 10202 0
-10206 10205 0
10206 -10202 -10205 0
-10207 -10202 0
-10207 -10205 0
10207 10202 10205 0
-10208 -10206 0
-10208 -10207 0
10208 10206 10207 0
-10209 10199 0
-10209 10208 0
10209 -10199 -10208 0
-10210 -10199 0
-10210 -10208 0
10210 10199 10208 0
-10211 -10209 0
-10211 -10210 0
10211 10209 10210 0
-10212 10196 0
-10212 -10211 0
10212 -10196 10211 0
-10213 167 0
-10213 168 0
10213 -167 -168 0
-10214 -167 0
-10214 -168 0
10214 167 168 0
-10215 -10213 0
-10215 -10214 0
10215 10213 10214 0
-10216 4 0
-10216 19 0
10216 -4 -19 0
-10217 -4 0
-10217 -19 0
10217 4 19 0
-10218 -10216 0
-10218 -10217 0
10218 10216 10217 0
-10219 88 0
-10219 124 0
10219 -88 -124 0
-10220 -88 0
-10220 -124 0
10220 88 124 0
-10221 -10219 0
-10221 -10220 0
10221 10219 10220 0
-10222 10218 0
-10222 10221 0
10222 -10218 -10221 0
-10223 -10218 0
-10223 -10221 0
10223 10218 10221 0
-10224 -10222 0
-10224 -10223 0
10224 10222 10223 0
-10225 10215 0
-10225 10224 0
10225 -10215 -10224 0
-10226 -10215 0
-10226 -10224 0
10226 10215 10224 0
-10227 -10225 0
-10227 -10226 0
10227 10225 10226 0
-10228 10212 0
-10228 -10227 0
10228 -10212 10227 0
-10232 167 0
-10232 181 0
10232 -167 -181 0
-10233 -167 0
-10233 -181 0
10233 167 181 0
-10234 -10232 0
-10234 -10233 0
10234 10232 10233 0
-10229 3 0
-10229 18 0
10229 -3 -18 0
-10230 -3 0
-10230 -18 0
10230 3 18 0
-10231 -10229 0
-10231 -10230 0
10231 10229 10230 0
-10235 87 0
-10235 123 0
10235 -87 -123 0
-10236 -87 0
-10236 -123 0
10236 87 123 0
-10237 -10235 0
-10237 -10236 0
10237 10235 10236 0
-10238 10231 0
-10238 10237 0
10238 -10231 -10237 0
-10239 -10231 0
-10239 -10237 0
10239 10231 10237 0
-10240 -10238 0
-10240 -10239 0
10240 10238 10239 0
-10241 10234 0
-10241 10240 0
10241 -10234 -10240 0
-10242 -10234 0
-10242 -10240 0
10242 10234 10240 0
-10243 -10241 0
-10243 -10242 0
10243 10241 10242 0
-10244 10228 0
-10244 -10243 0
10244 -10228 10243 0
-10245 180 0
-10245 181 0
10245 -180 -181 0
-10246 -180 0
-10246 -181 0
10246 180 181 0
-10247 -10245 0
-10247 -10246 0
10247 10245 10246 0
-10248 2 0
-10248 17 0
10248 -2 -17 0
-10249 -2 0
-10249 -17 0
10249 2 17 0
-10250 -10248 0
-10250 -10249 0
10250 10248 10249 0
-10251 86 0
-10251 122 0
10251 -86 -122 0
-10252 -86 0
-10252 -122 0
10252 86 122 0
-10253 -10251 0
-10253 -10252 0
10253 10251 10252 0
-10254 10250 0
-10254 10253 0
10254 -10250 -10253 0
-10255 -10250 0
-10255 -10253 0
10255 10250 10253 0
-10256 -10254 0
-10256 -10255 0
10256 10254 10255 0
-10257 10247 0
-10257 10256 0
10257 -10247 -10256 0
-10258 -10247 0
-10258 -10256 0
10258 10247 10256 0
-10259 -10257 0
-10259 -10258 0
10259 10257 10258 0
-10260 10244 0
-10260 -10259 0
10260 -10244 10259 0
-10261 164 0
-10261 165 0
10261 -164 -165 0
-10262 -164 0
-10262 -165 0
10262 164 165 0
-10263 -10261 0
-10263 -10262 0
10263 10261 10262 0
-10264 70 0
-10264 91 0
10264 -70 -91 0
-10265 -70 0
-10265 -91 0
10265 70 91 0
-10266 -10264 0
-10266 -10265 0
10266 10264 10265 0
-10270 121 0
-10270 10266 0
10270 -121 -10266 0
-10271 -121 0
-10271 -10266 0
10271 121 10266 0
-10272 -10270 0
-10272 -10271 0
10272 10270 10271 0
-10273 16 0
-10273 10272 0
10273 -16 -10272 0
-10274 -16 0
-10274 -10272 0
10274 16 10272 0
-10275 -10273 0
-10275 -10274 0
10275 10273 10274 0
-10276 10263 0
-10276 10275 0
10276 -10263 -10275 0
-10277 -10263 0
-10277 -10275 0
10277 10263 10275 0
-10278 -10276 0
-10278 -10277 0
10278 10276 10277 0
-10279 10260 0
-10279 -10278 0
10279 -10260 10278 0
-10280 163 0
-10280 164 0
10280 -163 -164 0
-10281 -163 0
-10281 -164 0
10281 163 164 0
-10282 -10280 0
-10282 -10281 0
10282 10280 10281 0
-10283 69 0
-10283 90 0
10283 -69 -90 0
-10284 -69 0
-10284 -90 0
10284 69 90 0
-10285 -10283 0
-10285 -10284 0
10285 10283 10284 0
-10289 120 0
-10289 10285 0
10289 -120 -10285 0
-10290 -120 0
-10290 -10285 0
10290 120 10285 0
-10291 -10289 0
-10291 -10290 0
10291 10289 10290 0
-10292 15 0
-10292 10291 0
10292 -15 -10291 0
-10293 -15 0
-10293 -10291 0
10293 15 10291 0
-10294 -10292 0
-10294 -10293 0
10294 10292 10293 0
-10295 10282 0
-10295 10294 0
10295 -10282 -10294 0
-10296 -10282 0
-10296 -10294 0
10296 10282 10294 0
-10297 -10295 0
-10297 -10296 0
10297 10295 10296 0
-10298 10279 0
-10298 -10297 0
10298 -10279 10297 0
-10299 162 0
-10299 163 0
10299 -162 -163 0
-10300 -162 0
-10300 -163 0
10300 162 163 0
-10301 -10299 0
-10301 -10300 0
10301 10299 10300 0
-10302 68 0
-10302 89 0
10302 -68 -89 0
-10303 -68 0
-10303 -89 0
10303 68 89 0
-10304 -10302 0
-10304 -10303 0
10304 10302 10303 0
-10308 119 0
-10308 10304 0
10308 -119 -10304 0
-10309 -119 0
-10309 -10304 0
10309 119 10304 0
-10310 -10308 0
-10310 -10309 0
10310 10308 10309 0
-10311 14 0
-10311 10310 0
10311 -14 -10310 0
-10312 -14 0
-10312 -10310 0
10312 14 10310 0
-10313 -10311 0
-10313 -10312 0
10313 10311 10312 0
-10314 10301 0
-10314 10313 0
10314 -10301 -10313 0
-10315 -10301 0
-10315 -10313 0
10315 10301 10313 0
-10316 -10314 0
-10316 -10315 0
10316 10314 10315 0
-10317 10298 0
-10317 -10316 0
10317 -10298 10316 0
-10318 161 0
-10318 162 0
10318 -161 -162 0
-10319 -161 0
-10319 -162 0
10319 161 162 0
-10320 -10318 0
-10320 -10319 0
10320 10318 10319 0
-10321 67 0
-10321 88 0
10321 -67 -88 0
-10322 -67 0
-10322 -88 0
10322 67 88 0
-10323 -10321 0
-10323 -10322 0
10323 10321 10322 0
-10327 118 0
-10327 10323 0
10327 -118 -10323 0
-10328 -118 0
-10328 -10323 0
10328 118 10323 0
-10329 -10327 0
-10329 -10328 0
10329 10327 10328 0
-10330 13 0
-10330 10329 0
10330 -13 -10329 0
-10331 -13 0
-10331 -10329 0
10331 13 10329 0
-10332 -10330 0
-10332 -10331 0
10332 10330 10331 0
-10333 10320 0
-10333 10332 0
10333 -10320 -10332 0
-10334 -10320 0
-10334 -10332 0
10334 10320 10332 0
-10335 -10333 0
-10335 -10334 0
10335 10333 10334 0
-10336 10317 0
-10336 -10335 0
10336 -10317 10335 0
-10337 160 0
-10337 161 0
10337 -160 -161 0
-10338 -160 0
-10338 -161 0
10338 160 161 0
-10339 -10337 0
-10339 -10338 0
10339 10337 10338 0
-10340 66 0
-10340 87 0
10340 -66 -87 0
-10341 -66 0
-10341 -87 0
10341 66 87 0
-10342 -10340 0
-10342 -10341 0
10342 10340 10341 0
-10346 117 0
-10346 10342 0
10346 -117 -10342 0
-10347 -117 0
-10347 -10342 0
10347 117 10342 0
-10348 -10346 0
-10348 -10347 0
10348 10346 10347 0
-10349 12 0
-10349 10348 0
10349 -12 -10348 0
-10350 -12 0
-10350 -10348 0
10350 12 10348 0
-10351 -10349 0
-10351 -10350 0
10351 10349 10350 0
-10352 10339 0
-10352 10351 0
10352 -10339 -10351 0
-10353 -10339 0
-10353 -10351 0
10353 10339 10351 0
-10354 -10352 0
-10354 -10353 0
10354 10352 10353 0
-10355 10336 0
-10355 -10354 0
10355 -10336 10354 0
-10356 159 0
-10356 160 0
10356 -159 -160 0
-10357 -159 0
-10357 -160 0
10357 159 160 0
-10358 -10356 0
-10358 -10357 0
10358 10356 10357 0
-10359 11 0
-10359 65 0
10359 -11 -65 0
-10360 -11 0
-10360 -65 0
10360 11 65 0
-10361 -10359 0
-10361 -10360 0
10361 10359 10360 0
-10365 86 0
-10365 116 0
10365 -86 -116 0
-10366 -86 0
-10366 -116 0
10366 86 116 0
-10367 -10365 0
-10367 -10366 0
10367 10365 10366 0
-10368 10361 0
-10368 10367 0
10368 -10361 -10367 0
-10369 -10361 0
-10369 -10367 0
10369 10361 10367 0
-10370 -10368 0
-10370 -10369 0
10370 10368 10369 0
-10371 10358 0
-10371 10370 0
10371 -10358 -10370 0
-10372 -10358 0
-10372 -10370 0
10372 10358 10370 0
-10373 -10371 0
-10373 -10372 0
10373 10371 10372 0
-10374 10355 0
-10374 -10373 0
10374 -10355 10373 0
-10375 158 0
-10375 159 0
10375 -158 -159 0
-10376 -158 0
-10376 -159 0
10376 158 159 0
-10377 -10375 0
-10377 -10376 0
10377 10375 10376 0
-10378 10 0
-10378 64 0
10378 -10 -64 0
-10379 -10 0
-10379 -64 0
10379 10 64 0
-10380 -10378 0
-10380 -10379 0
10380 10378 10379 0
-10384 85 0
-10384 115 0
10384 -85 -115 0
-10385 -85 0
-10385 -115 0
10385 85 115 0
-10386 -10384 0
-10386 -10385 0
10386 10384 10385 0
-10387 10380 0
-10387 10386 0
10387 -10380 -10386 0
-10388 -10380 0
-10388 -10386 0
10388 10380 10386 0
-10389 -10387 0
-10389 -10388 0
10389 10387 10388 0
-10390 10377 0
-10390 10389 0
10390 -10377 -10389 0
-10391 -10377 0
-10391 -10389 0
10391 10377 10389 0
-10392 -10390 0
-10392 -10391 0
10392 10390 10391 0
-10393 10374 0
-10393 -10392 0
10393 -10374 10392 0
-10394 157 0
-10394 158 0
10394 -157 -158 0
-10395 -157 0
-10395 -158 0
10395 157 158 0
-10396 -10394 0
-10396 -10395 0
10396 10394 10395 0
-10397 9 0
-10397 63 0
10397 -9 -63 0
-10398 -9 0
-10398 -63 0
10398 9 63 0
-10399 -10397 0
-10399 -10398 0
10399 10397 10398 0
-10403 84 0
-10403 114 0
10403 -84 -114 0
-10404 -84 0
-10404 -114 0
10404 84 114 0
-10405 -10403 0
-10405 -10404 0
10405 10403 10404 0
-10406 10399 0
-10406 10405 0
10406 -10399 -10405 0
-10407 -10399 0
-10407 -10405 0
10407 10399 10405 0
-10408 -10406 0
-10408 -10407 0
10408 10406 10407 0
-10409 10396 0
-10409 10408 0
10409 -10396 -10408 0
-10410 -10396 0
-10410 -10408 0
10410 10396 10408 0
-10411 -10409 0
-10411 -10410 0
10411 10409 10410 0
-10412 10393 0
-10412 -10411 0
10412 -10393 10411 0
-10413 156 0
-10413 157 0
10413 -156 -157 0
-10414 -156 0
-10414 -157 0
10414 156 157 0
-10415 -10413 0
-10415 -10414 0
10415 10413 10414 0
-10416 8 0
-10416 62 0
10416 -8 -62 0
-10417 -8 0
-10417 -62 0
10417 8 62 0
-10418 -10416 0
-10418 -10417 0
10418 10416 10417 0
-10422 83 0
-10422 113 0
10422 -83 -113 0
-10423 -83 0
-10423 -113 0
10423 83 113 0
-10424 -10422 0
-10424 -10423 0
10424 10422 10423 0
-10425 10418 0
-10425 10424 0
10425 -10418 -10424 0
-10426 -10418 0
-10426 -10424 0
10426 10418 10424 0
-10427 -10425 0
-10427 -10426 0
10427 10425 10426 0
-10428 10415 0
-10428 10427 0
10428 -10415 -10427 0
-10429 -10415 0
-10429 -10427 0
10429 10415 10427 0
-10430 -10428 0
-10430 -10429 0
10430 10428 10429 0
-10431 10412 0
-10431 -10430 0
10431 -10412 10430 0
-10432 155 0
-10432 156 0
10432 -155 -156 0
-10433 -155 0
-10433 -156 0
10433 155 156 0
-10434 -10432 0
-10434 -10433 0
10434 10432 10433 0
-10435 76 0
-10435 82 0
10435 -76 -82 0
-10436 -76 0
-10436 -82 0
10436 76 82 0
-10437 -10435 0
-10437 -10436 0
10437 10435 10436 0
-10441 112 0
-10441 10437 0
10441 -112 -10437 0
-10442 -112 0
-10442 -10437 0
10442 112 10437 0
-10443 -10441 0
-10443 -10442 0
10443 10441 10442 0
-10444 7 0
-10444 10443 0
10444 -7 -10443 0
-10445 -7 0
-10445 -10443 0
10445 7 10443 0
-10446 -10444 0
-10446 -10445 0
10446 10444 10445 0
-10447 10434 0
-10447 10446 0
10447 -10434 -10446 0
-10448 -10434 0
-10448 -10446 0
10448 10434 10446 0
-10449 -10447 0
-10449 -10448 0
10449 10447 10448 0
-10450 10431 0
-10450 -10449 0
10450 -10431 10449 0
-10451 154 0
-10451 155 0
10451 -154 -155 0
-10452 -154 0
-10452 -155 0
10452 154 155 0
-10453 -10451 0
-10453 -10452 0
10453 10451 10452 0
-10454 75 0
-10454 81 0
10454 -75 -81 0
-10455 -75 0
-10455 -81 0
10455 75 81 0
-10456 -10454 0
-10456 -10455 0
10456 10454 10455 0
-10460 111 0
-10460 10456 0
10460 -111 -10456 0
-10461 -111 0
-10461 -10456 0
10461 111 10456 0
-10462 -10460 0
-10462 -10461 0
10462 10460 10461 0
-10463 6 0
-10463 10462 0
10463 -6 -10462 0
-10464 -6 0
-10464 -10462 0
10464 6 10462 0
-10465 -10463 0
-10465 -10464 0
10465 10463 10464 0
-10466 10453 0
-10466 10465 0
10466 -10453 -10465 0
-10467 -10453 0
-10467 -10465 0
10467 10453 10465 0
-10468 -10466 0
-10468 -10467 0
10468 10466 10467 0
-10469 10450 0
-10469 -10468 0
10469 -10450 10468 0
-10470 153 0
-10470 154 0
10470 -153 -154 0
-10471 -153 0
-10471 -154 0
10471 153 154 0
-10472 -10470 0
-10472 -10471 0
10472 10470 10471 0
-10473 74 0
-10473 80 0
10473 -74 -80 0
-10474 -74 0
-10474 -80 0
10474 74 80 0
-10475 -10473 0
-10475 -10474 0
10475 10473 10474 0
-10479 110 0
-10479 10475 0
10479 -110 -10475 0
-10480 -110 0
-10480 -10475 0
10480 110 10475 0
-10481 -10479 0
-10481 -10480 0
10481 10479 10480 0
-10482 5 0
-10482 10481 0
10482 -5 -10481 0
-10483 -5 0
-10483 -10481 0
10483 5 10481 0
-10484 -10482 0
-10484 -10483 0
10484 10482 10483 0
-10485 10472 0
-10485 10484 0
10485 -10472 -10484 0
-10486 -10472 0
-10486 -10484 0
10486 10472 10484 0
-10487 -10485 0
-10487 -10486 0
10487 10485 10486 0
-10488 10469 0
-10488 -10487 0
10488 -10469 10487 0
-10489 152 0
-10489 153 0
10489 -152 -153 0
-10490 -152 0
-10490 -153 0
10490 152 153 0
-10491 -10489 0
-10491 -10490 0
10491 10489 10490 0
-10492 73 0
-10492 79 0
10492 -73 -79 0
-10493 -73 0
-10493 -79 0
10493 73 79 0
-10494 -10492 0
-10494 -10493 0
10494 10492 10493 0
-10498 109 0
-10498 10494 0
10498 -109 -10494 0
-10499 -109 0
-10499 -10494 0
10499 109 10494 0
-10500 -10498 0
-10500 -10499 0
10500 10498 10499 0
-10501 4 0
-10501 10500 0
10501 -4 -10500 0
-10502 -4 0
-10502 -10500 0
10502 4 10500 0
-10503 -10501 0
-10503 -10502 0
10503 10501 10502 0
-10504 10491 0
-10504 10503 0
10504 -10491 -10503 0
-10505 -10491 0
-10505 -10503 0
10505 10491 10503 0
-10506 -10504 0
-10506 -10505 0
10506 10504 10505 0
-10507 10488 0
-10507 -10506 0
10507 -10488 10506 0
-10511 152 0
-10511 166 0
10511 -152 -166 0
-10512 -152 0
-10512 -166 0
10512 152 166 0
-10513 -10511 0
-10513 -10512 0
10513 10511 10512 0
-10508 72 0
-10508 78 0
10508 -72 -78 0
-10509 -72 0
-10509 -78 0
10509 72 78 0
-10510 -10508 0
-10510 -10509 0
10510 10508 10509 0
-10517 108 0
-10517 10510 0
10517 -108 -10510 0
-10518 -108 0
-10518 -10510 0
10518 108 10510 0
-10519 -10517 0
-10519 -10518 0
10519 10517 10518 0
-10520 3 0
-10520 10519 0
10520 -3 -10519 0
-10521 -3 0
-10521 -10519 0
10521 3 10519 0
-10522 -10520 0
-10522 -10521 0
10522 10520 10521 0
-10523 10513 0
-10523 10522 0
10523 -10513 -10522 0
-10524 -10513 0
-10524 -10522 0
10524 10513 10522 0
-10525 -10523 0
-10525 -10524 0
10525 10523 10524 0
-10526 10507 0
-10526 -10525 0
10526 -10507 10525 0
-10527 165 0
-10527 166 0
10527 -165 -166 0
-10528 -165 0
-10528 -166 0
10528 165 166 0
-10529 -10527 0
-10529 -10528 0
10529 10527 10528 0
-10530 71 0
-10530 77 0
10530 -71 -77 0
-10531 -71 0
-10531 -77 0
10531 71 77 0
-10532 -10530 0
-10532 -10531 0
10532 10530 10531 0
-10536 107 0
-10536 10532 0
10536 -107 -10532 0
-10537 -107 0
-10537 -10532 0
10537 107 10532 0
-10538 -10536 0
-10538 -10537 0
10538 10536 10537 0
-10539 2 0
-10539 10538 0
10539 -2 -10538 0
-10540 -2 0
-10540 -10538 0
10540 2 10538 0
-10541 -10539 0
-10541 -10540 0
10541 10539 10540 0
-10542 10529 0
-10542 10541 0
10542 -10529 -10541 0
-10543 -10529 0
-10543 -10541 0
10543 10529 10541 0
-10544 -10542 0
-10544 -10543 0
10544 10542 10543 0
-10545 10526 0
-10545 -10544 0
10545 -10526 10544 0
-10546 149 0
-10546 150 0
10546 -149 -150 0
-10547 -149 0
-10547 -150 0
10547 149 150 0
-10548 -10546 0
-10548 -10547 0
10548 10546 10547 0
-10549 76 0
-10549 91 0
10549 -76 -91 0
-10550 -76 0
-10550 -91 0
10550 76 91 0
-10551 -10549 0
-10551 -10550 0
10551 10549 10550 0
-10561 106 0
-10561 10551 0
10561 -106 -10551 0
-10562 -106 0
-10562 -10551 0
10562 106 10551 0
-10563 -10561 0
-10563 -10562 0
10563 10561 10562 0
-10564 55 0
-10564 10563 0
10564 -55 -10563 0
-10565 -55 0
-10565 -10563 0
10565 55 10563 0
-10566 -10564 0
-10566 -10565 0
10566 10564 10565 0
-10567 10548 0
-10567 10566 0
10567 -10548 -10566 0
-10568 -10548 0
-10568 -10566 0
10568 10548 10566 0
-10569 -10567 0
-10569 -10568 0
10569 10567 10568 0
-10570 10545 0
-10570 -10569 0
10570 -10545 10569 0
-10571 148 0
-10571 149 0
10571 -148 -149 0
-10572 -148 0
-10572 -149 0
10572 148 149 0
-10573 -10571 0
-10573 -10572 0
10573 10571 10572 0
-10574 75 0
-10574 90 0
10574 -75 -90 0
-10575 -75 0
-10575 -90 0
10575 75 90 0
-10576 -10574 0
-10576 -10575 0
10576 10574 10575 0
-10586 105 0
-10586 10576 0
10586 -105 -10576 0
-10587 -105 0
-10587 -10576 0
10587 105 10576 0
-10588 -10586 0
-10588 -10587 0
10588 10586 10587 0
-10589 54 0
-10589 10588 0
10589 -54 -10588 0
-10590 -54 0
-10590 -10588 0
10590 54 10588 0
-10591 -10589 0
-10591 -10590 0
10591 10589 10590 0
-10592 10573 0
-10592 10591 0
10592 -10573 -10591 0
-10593 -10573 0
-10593 -10591 0
10593 10573 10591 0
-10594 -10592 0
-10594 -10593 0
10594 10592 10593 0
-10595 10570 0
-10595 -10594 0
10595 -10570 10594 0
-10596 147 0
-10596 148 0
10596 -147 -148 0
-10597 -147 0
-10597 -148 0
10597 147 148 0
-10598 -10596 0
-10598 -10597 0
10598 10596 10597 0
-10599 74 0
-10599 89 0
10599 -74 -89 0
-10600 -74 0
-10600 -89 0
10600 74 89 0
-10601 -10599 0
-10601 -10600 0
10601 10599 10600 0
-10611 104 0
-10611 10601 0
10611 -104 -10601 0
-10612 -104 0
-10612 -10601 0
10612 104 10601 0
-10613 -10611 0
-10613 -10612 0
10613 10611 10612 0
-10614 53 0
-10614 10613 0
10614 -53 -10613 0
-10615 -53 0
-10615 -10613 0
10615 53 10613 0
-10616 -10614 0
-10616 -10615 0
10616 10614 10615 0
-10617 10598 0
-10617 10616 0
10617 -10598 -10616 0
-10618 -10598 0
-10618 -10616 0
10618 10598 10616 0
-10619 -10617 0
-10619 -10618 0
10619 10617 10618 0
-10620 10595 0
-10620 -10619 0
10620 -10595 10619 0
-10621 146 0
-10621 147 0
10621 -146 -147 0
-10622 -146 0
-10622 -147 0
10622 146 147 0
-10623 -10621 0
-10623 -10622 0
10623 10621 10622 0
-10624 73 0
-10624 88 0
10624 -73 -88 0
-10625 -73 0
-10625 -88 0
10625 73 88 0
-10626 -10624 0
-10626 -10625 0
10626 10624 10625 0
-10636 103 0
-10636 10626 0
10636 -103 -10626 0
-10637 -103 0
-10637 -10626 0
10637 103 10626 0
-10638 -10636 0
-10638 -10637 0
10638 10636 10637 0
-10639 52 0
-10639 10638 0
10639 -52 -10638 0
-10640 -52 0
-10640 -10638 0
10640 52 10638 0
-10641 -10639 0
-10641 -10640 0
10641 10639 10640 0
-10642 10623 0
-10642 10641 0
10642 -10623 -10641 0
-10643 -10623 0
-10643 -10641 0
10643 10623 10641 0
-10644 -10642 0
-10644 -10643 0
10644 10642 10643 0
-10645 10620 0
-10645 -10644 0
10645 -10620 10644 0
-10646 145 0
-10646 146 0
10646 -145 -146 0
-10647 -145 0
-10647 -146 0
10647 145 146 0
-10648 -10646 0
-10648 -10647 0
10648 10646 10647 0
-10649 72 0
-10649 87 0
10649 -72 -87 0
-10650 -72 0
-10650 -87 0
10650 72 87 0
-10651 -10649 0
-10651 -10650 0
10651 10649 10650 0
-10661 102 0
-10661 10651 0
10661 -102 -10651 0
-10662 -102 0
-10662 -10651 0
10662 102 10651 0
-10663 -10661 0
-10663 -10662 0
10663 10661 10662 0
-10664 51 0
-10664 10663 0
10664 -51 -10663 0
-10665 -51 0
-10665 -10663 0
10665 51 10663 0
-10666 -10664 0
-10666 -10665 0
10666 10664 10665 0
-10667 10648 0
-10667 10666 0
10667 -10648 -10666 0
-10668 -10648 0
-10668 -10666 0
10668 10648 10666 0
-10669 -10667 0
-10669 -10668 0
10669 10667 10668 0
-10670 10645 0
-10670 -10669 0
10670 -10645 10669 0
-10671 144 0
-10671 145 0
10671 -144 -145 0
-10672 -144 0
-10672 -145 0
10672 144 145 0
-10673 -10671 0
-10673 -10672 0
10673 10671 10672 0
-10674 71 0
-10674 86 0
10674 -71 -86 0
-10675 -71 0
-10675 -86 0
10675 71 86 0
-10676 -10674 0
-10676 -10675 0
10676 10674 10675 0
-10686 101 0
-10686 10676 0
10686 -101 -10676 0
-10687 -101 0
-10687 -10676 0
10687 101 10676 0
-10688 -10686 0
-10688 -10687 0
10688 10686 10687 0
-10689 50 0
-10689 10688 0
10689 -50 -10688 0
-10690 -50 0
-10690 -10688 0
10690 50 10688 0
-10691 -10689 0
-10691 -10690 0
10691 10689 10690 0
-10692 10673 0
-10692 10691 0
10692 -10673 -10691 0
-10693 -10673 0
-10693 -10691 0
10693 10673 10691 0
-10694 -10692 0
-10694 -10693 0
10694 10692 10693 0
-10695 10670 0
-10695 -10694 0
10695 -10670 10694 0
-10696 143 0
-10696 144 0
10696 -143 -144 0
-10697 -143 0
-10697 -144 0
10697 143 144 0
-10698 -10696 0
-10698 -10697 0
10698 10696 10697 0
-10699 70 0
-10699 85 0
10699 -70 -85 0
-10700 -70 0
-10700 -85 0
10700 70 85 0
-10701 -10699 0
-10701 -10700 0
10701 10699 10700 0
-10711 100 0
-10711 10701 0
10711 -100 -10701 0
-10712 -100 0
-10712 -10701 0
10712 100 10701 0
-10713 -10711 0
-10713 -10712 0
10713 10711 10712 0
-10714 49 0
-10714 10713 0
10714 -49 -10713 0
-10715 -49 0
-10715 -10713 0
10715 49 10713 0
-10716 -10714 0
-10716 -10715 0
10716 10714 10715 0
-10717 10698 0
-10717 10716 0
10717 -10698 -10716 0
-10718 -10698 0
-10718 -10716 0
10718 10698 10716 0
-10719 -10717 0
-10719 -10718 0
10719 10717 10718 0
-10720 10695 0
-10720 -10719 0
10720 -10695 10719 0
-10721 142 0
-10721 143 0
10721 -142 -143 0
-10722 -142 0
-10722 -143 0
10722 142 143 0
-10723 -10721 0
-10723 -10722 0
10723 10721 10722 0
-10724 69 0
-10724 84 0
10724 -69 -84 0
-10725 -69 0
-10725 -84 0
10725 69 84 0
-10726 -10724 0
-10726 -10725 0
10726 10724 10725 0
-10736 99 0
-10736 10726 0
10736 -99 -10726 0
-10737 -99 0
-10737 -10726 0
10737 99 10726 0
-10738 -10736 0
-10738 -10737 0
10738 10736 10737 0
-10739 48 0
-10739 10738 0
10739 -48 -10738 0
-10740 -48 0
-10740 -10738 0
10740 48 10738 0
-10741 -10739 0
-10741 -10740 0
10741 10739 10740 0
-10742 10723 0
-10742 10741 0
10742 -10723 -10741 0
-10743 -10723 0
-10743 -10741 0
10743 10723 10741 0
-10744 -10742 0
-10744 -10743 0
10744 10742 10743 0
-10745 10720 0
-10745 -10744 0
10745 -10720 10744 0
-10746 141 0
-10746 142 0
10746 -141 -142 0
-10747 -141 0
-10747 -142 0
10747 141 142 0
-10748 -10746 0
-10748 -10747 0
10748 10746 10747 0
-10749 68 0
-10749 83 0
10749 -68 -83 0
-10750 -68 0
-10750 -83 0
10750 68 83 0
-10751 -10749 0
-10751 -10750 0
10751 10749 10750 0
-10761 98 0
-10761 10751 0
10761 -98 -10751 0
-10762 -98 0
-10762 -10751 0
10762 98 10751 0
-10763 -10761 0
-10763 -10762 0
10763 10761 10762 0
-10764 47 0
-10764 10763 0
10764 -47 -10763 0
-10765 -47 0
-10765 -10763 0
10765 47 10763 0
-10766 -10764 0
-10766 -10765 0
10766 10764 10765 0
-10767 10748 0
-10767 10766 0
10767 -10748 -10766 0
-10768 -10748 0
-10768 -10766 0
10768 10748 10766 0
-10769 -10767 0
-10769 -10768 0
10769 10767 10768 0
-10770 10745 0
-10770 -10769 0
10770 -10745 10769 0
-10771 140 0
-10771 141 0
10771 -140 -141 0
-10772 -140 0
-10772 -141 0
10772 140 141 0
-10773 -10771 0
-10773 -10772 0
10773 10771 10772 0
-10780 82 0
-10780 97 0
10780 -82 -97 0
-10781 -82 0
-10781 -97 0
10781 82 97 0
-10782 -10780 0
-10782 -10781 0
10782 10780 10781 0
-10783 67 0
-10783 10782 0
10783 -67 -10782 0
-10784 -67 0
-10784 -10782 0
10784 67 10782 0
-10785 -10783 0
-10785 -10784 0
10785 10783 10784 0
-10795 61 0
-10795 10785 0
10795 -61 -10785 0
-10796 -61 0
-10796 -10785 0
10796 61 10785 0
-10797 -10795 0
-10797 -10796 0
10797 10795 10796 0
-10798 10773 0
-10798 10797 0
10798 -10773 -10797 0
-10799 -10773 0
-10799 -10797 0
10799 10773 10797 0
-10800 -10798 0
-10800 -10799 0
10800 10798 10799 0
-10801 10770 0
-10801 -10800 0
10801 -10770 10800 0
-10802 139 0
-10802 140 0
10802 -139 -140 0
-10803 -139 0
-10803 -140 0
10803 139 140 0
-10804 -10802 0
-10804 -10803 0
10804 10802 10803 0
-10808 66 0
-10808 81 0
10808 -66 -81 0
-10809 -66 0
-10809 -81 0
10809 66 81 0
-10810 -10808 0
-10810 -10809 0
10810 10808 10809 0
-10814 96 0
-10814 10810 0
10814 -96 -10810 0
-10815 -96 0
-10815 -10810 0
10815 96 10810 0
-10816 -10814 0
-10816 -10815 0
10816 10814 10815 0
-10826 60 0
-10826 10816 0
10826 -60 -10816 0
-10827 -60 0
-10827 -10816 0
10827 60 10816 0
-10828 -10826 0
-10828 -10827 0
10828 10826 10827 0
-10829 10804 0
-10829 10828 0
10829 -10804 -10828 0
-10830 -10804 0
-10830 -10828 0
10830 10804 10828 0
-10831 -10829 0
-10831 -10830 0
10831 10829 10830 0
-10832 10801 0
-10832 -10831 0
10832 -10801 10831 0
-10833 138 0
-10833 139 0
10833 -138 -139 0
-10834 -138 0
-10834 -139 0
10834 138 139 0
-10835 -10833 0
-10835 -10834 0
10835 10833 10834 0
-10836 59 0
-10836 65 0
10836 -59 -65 0
-10837 -59 0
-10837 -65 0
10837 59 65 0
-10838 -10836 0
-10838 -10837 0
10838 10836 10837 0
-10842 80 0
-10842 95 0
10842 -80 -95 0
-10843 -80 0
-10843 -95 0
10843 80 95 0
-10844 -10842 0
-10844 -10843 0
10844 10842 10843 0
-10857 10838 0
-10857 10844 0
10857 -10838 -10844 0
-10858 -10838 0
-10858 -10844 0
10858 10838 10844 0
-10859 -10857 0
-10859 -10858 0
10859 10857 10858 0
-10860 10835 0
-10860 10859 0
10860 -10835 -10859 0
-10861 -10835 0
-10861 -10859 0
10861 10835 10859 0
-10862 -10860 0
-10862 -10861 0
10862 10860 10861 0
-10863 10832 0
-10863 -10862 0
10863 -10832 10862 0
-10864 137 0
-10864 138 0
10864 -137 -138 0
-10865 -137 0
-10865 -138 0
10865 137 138 0
-10866 -10864 0
-10866 -10865 0
10866 10864 10865 0
-10867 58 0
-10867 64 0
10867 -58 -64 0
-10868 -58 0
-10868 -64 0
10868 58 64 0
-10869 -10867 0
-10869 -10868 0
10869 10867 10868 0
-10873 79 0
-10873 94 0
10873 -79 -94 0
-10874 -79 0
-10874 -94 0
10874 79 94 0
-10875 -10873 0
-10875 -10874 0
10875 10873 10874 0
-10888 10869 0
-10888 10875 0
10888 -10869 -10875 0
-10889 -10869 0
-10889 -10875 0
10889 10869 10875 0
-10890 -10888 0
-10890 -10889 0
10890 10888 10889 0
-10891 10866 0
-10891 10890 0
10891 -10866 -10890 0
-10892 -10866 0
-10892 -10890 0
10892 10866 10890 0
-10893 -10891 0
-10893 -10892 0
10893 10891 10892 0
-10894 10863 0
-10894 -10893 0
10894 -10863 10893 0
-10904 137 0
-10904 151 0
10904 -137 -151 0
-10905 -137 0
-10905 -151 0
10905 137 151 0
-10906 -10904 0
-10906 -10905 0
10906 10904 10905 0
-10895 57 0
-10895 63 0
10895 -57 -63 0
-10896 -57 0
-10896 -63 0
10896 57 63 0
-10897 -10895 0
-10897 -10896 0
10897 10895 10896 0
-10901 78 0
-10901 93 0
10901 -78 -93 0
-10902 -78 0
-10902 -93 0
10902 78 93 0
-10903 -10901 0
-10903 -10902 0
10903 10901 10902 0
-10919 10897 0
-10919 10903 0
10919 -10897 -10903 0
-10920 -10897 0
-10920 -10903 0
10920 10897 10903 0
-10921 -10919 0
-10921 -10920 0
10921 10919 10920 0
-10922 10906 0
-10922 10921 0
10922 -10906 -10921 0
-10923 -10906 0
-10923 -10921 0
10923 10906 10921 0
-10924 -10922 0
-10924 -10923 0
10924 10922 10923 0
-10925 10894 0
-10925 -10924 0
10925 -10894 10924 0
-10926 150 0
-10926 151 0
10926 -150 -151 0
-10927 -150 0
-10927 -151 0
10927 150 151 0
-10928 -10926 0
-10928 -10927 0
10928 10926 10927 0
-10929 56 0
-10929 62 0
10929 -56 -62 0
-10930 -56 0
-10930 -62 0
10930 56 62 0
-10931 -10929 0
-10931 -10930 0
10931 10929 10930 0
-10935 77 0
-10935 92 0
10935 -77 -92 0
-10936 -77 0
-10936 -92 0
10936 77 92 0
-10937 -10935 0
-10937 -10936 0
10937 10935 10936 0
-10950 10931 0
-10950 10937 0
10950 -10931 -10937 0
-10951 -10931 0
-10951 -10937 0
10951 10931 10937 0
-10952 -10950 0
-10952 -10951 0
10952 10950 10951 0
-10953 10928 0
-10953 10952 0
10953 -10928 -10952 0
-10954 -10928 0
-10954 -10952 0
10954 10928 10952 0
-10955 -10953 0
-10955 -10954 0
10955 10953 10954 0
-10956 10925 0
-10956 -10955 0
10956 -10925 10955 0
-10963 40 0
-10963 61 0
10963 -40 -61 0
-10964 -40 0
-10964 -61 0
10964 40 61 0
-10965 -10963 0
-10965 -10964 0
10965 10963 10964 0
-10966 76 0
-10966 10965 0
10966 -76 -10965 0
-10967 -76 0
-10967 -10965 0
10967 76 10965 0
-10968 -10966 0
-10968 -10967 0
10968 10966 10967 0
-10957 134 0
-10957 135 0
10957 -134 -135 0
-10958 -134 0
-10958 -135 0
10958 134 135 0
-10959 -10957 0
-10959 -10958 0
10959 10957 10958 0
-10969 181 0
-10969 10959 0
10969 -181 -10959 0
-10970 -181 0
-10970 -10959 0
10970 181 10959 0
-10971 -10969 0
-10971 -10970 0
10971 10969 10970 0
-10972 10968 0
-10972 10971 0
10972 -10968 -10971 0
-10973 -10968 0
-10973 -10971 0
10973 10968 10971 0
-10974 -10972 0
-10974 -10973 0
10974 10972 10973 0
-10975 10956 0
-10975 -10974 0
10975 -10956 10974 0
-10982 39 0
-10982 60 0
10982 -39 -60 0
-10983 -39 0
-10983 -60 0
10983 39 60 0
-10984 -10982 0
-10984 -10983 0
10984 10982 10983 0
-10985 75 0
-10985 10984 0
10985 -75 -10984 0
-10986 -75 0
-10986 -10984 0
10986 75 10984 0
-10987 -10985 0
-10987 -10986 0
10987 10985 10986 0
-10976 133 0
-10976 134 0
10976 -133 -134 0
-10977 -133 0
-10977 -134 0
10977 133 134 0
-10978 -10976 0
-10978 -10977 0
10978 10976 10977 0
-10988 180 0
-10988 10978 0
10988 -180 -10978 0
-10989 -180 0
-10989 -10978 0
10989 180 10978 0
-10990 -10988 0
-10990 -10989 0
10990 10988 10989 0
-10991 10987 0
-10991 10990 0
10991 -10987 -10990 0
-10992 -10987 0
-10992 -10990 0
10992 10987 10990 0
-10993 -10991 0
-10993 -10992 0
10993 10991 10992 0
-10994 10975 0
-10994 -10993 0
10994 -10975 10993 0
-11001 38 0
-11001 59 0
11001 -38 -59 0
-11002 -38 0
-11002 -59 0
11002 38 59 0
-11003 -11001 0
-11003 -11002 0
11003 11001 11002 0
-11004 74 0
-11004 11003 0
11004 -74 -11003 0
-11005 -74 0
-11005 -11003 0
11005 74 11003 0
-11006 -11004 0
-11006 -11005 0
11006 11004 11005 0
-10995 132 0
-10995 133 0
10995 -132 -133 0
-10996 -132 0
-10996 -133 0
10996 132 133 0
-10997 -10995 0
-10997 -10996 0
10997 10995 10996 0
-11007 179 0
-11007 10997 0
11007 -179 -10997 0
-11008 -179 0
-11008 -10997 0
11008 179 10997 0
-11009 -11007 0
-11009 -11008 0
11009 11007 11008 0
-11010 11006 0
-11010 11009 0
11010 -11006 -11009 0
-11011 -11006 0
-11011 -11009 0
11011 11006 11009 0
-11012 -11010 0
-11012 -11011 0
11012 11010 11011 0
-11013 10994 0
-11013 -11012 0
11013 -10994 11012 0
-11020 37 0
-11020 58 0
11020 -37 -58 0
-11021 -37 0
-11021 -58 0
11021 37 58 0
-11022 -11020 0
-11022 -11021 0
11022 11020 11021 0
-11023 73 0
-11023 11022 0
11023 -73 -11022 0
-11024 -73 0
-11024 -11022 0
11024 73 11022 0
-11025 -11023 0
-11025 -11024 0
11025 11023 11024 0
-11014 131 0
-11014 132 0
11014 -131 -132 0
-11015 -131 0
-11015 -132 0
11015 131 132 0
-11016 -11014 0
-11016 -11015 0
11016 11014 11015 0
-11026 178 0
-11026 11016 0
11026 -178 -11016 0
-11027 -178 0
-11027 -11016 0
11027 178 11016 0
-11028 -11026 0
-11028 -11027 0
11028 11026 11027 0
-11029 11025 0
-11029 11028 0
11029 -11025 -11028 0
-11030 -11025 0
-11030 -11028 0
11030 11025 11028 0
-11031 -11029 0
-11031 -11030 0
11031 11029 11030 0
-11032 11013 0
-11032 -11031 0
11032 -11013 11031 0
-11039 36 0
-11039 57 0
11039 -36 -57 0
-11040 -36 0
-11040 -57 0
11040 36 57 0
-11041 -11039 0
-11041 -11040 0
11041 11039 11040 0
-11042 72 0
-11042 11041 0
11042 -72 -11041 0
-11043 -72 0
-11043 -11041 0
11043 72 11041 0
-11044 -11042 0
-11044 -11043 0
11044 11042 11043 0
-11033 130 0
-11033 131 0
11033 -130 -131 0
-11034 -130 0
-11034 -131 0
11034 130 131 0
-11035 -11033 0
-11035 -11034 0
11035 11033 11034 0
-11045 177 0
-11045 11035 0
11045 -177 -11035 0
-11046 -177 0
-11046 -11035 0
11046 177 11035 0
-11047 -11045 0
-11047 -11046 0
11047 11045 11046 0
-11048 11044 0
-11048 11047 0
11048 -11044 -11047 0
-11049 -11044 0
-11049 -11047 0
11049 11044 11047 0
-11050 -11048 0
-11050 -11049 0
11050 11048 11049 0
-11051 11032 0
-11051 -11050 0
11051 -11032 11050 0
-11058 35 0
-11058 56 0
11058 -35 -56 0
-11059 -35 0
-11059 -56 0
11059 35 56 0
-11060 -11058 0
-11060 -11059 0
11060 11058 11059 0
-11061 71 0
-11061 129 0
11061 -71 -129 0
-11062 -71 0
-11062 -129 0
11062 71 129 0
-11063 -11061 0
-11063 -11062 0
11063 11061 11062 0
-11064 11060 0
-11064 11063 0
11064 -11060 -11063 0
-11065 -11060 0
-11065 -11063 0
11065 11060 11063 0
-11066 -11064 0
-11066 -11065 0
11066 11064 11065 0
-11067 130 0
-11067 176 0
11067 -130 -176 0
-11068 -130 0
-11068 -176 0
11068 130 176 0
-11069 -11067 0
-11069 -11068 0
11069 11067 11068 0
-11070 11066 0
-11070 11069 0
11070 -11066 -11069 0
-11071 -11066 0
-11071 -11069 0
11071 11066 11069 0
-11072 -11070 0
-11072 -11071 0
11072 11070 11071 0
-11073 11051 0
-11073 -11072 0
11073 -11051 11072 0
-11080 34 0
-11080 55 0
11080 -34 -55 0
-11081 -34 0
-11081 -55 0
11081 34 55 0
-11082 -11080 0
-11082 -11081 0
11082 11080 11081 0
-11074 128 0
-11074 129 0
11074 -128 -129 0
-11075 -128 0
-11075 -129 0
11075 128 129 0
-11076 -11074 0
-11076 -11075 0
11076 11074 11075 0
-11083 70 0
-11083 11076 0
11083 -70 -11076 0
-11084 -70 0
-11084 -11076 0
11084 70 11076 0
-11085 -11083 0
-11085 -11084 0
11085 11083 11084 0
-11086 11082 0
-11086 11085 0
11086 -11082 -11085 0
-11087 -11082 0
-11087 -11085 0
11087 11082 11085 0
-11088 -11086 0
-11088 -11087 0
11088 11086 11087 0
-11089 175 0
-11089 11088 0
11089 -175 -11088 0
-11090 -175 0
-11090 -11088 0
11090 175 11088 0
-11091 -11089 0
-11091 -11090 0
11091 11089 11090 0
-11092 11073 0
-11092 -11091 0
11092 -11073 11091 0
-11099 33 0
-11099 54 0
11099 -33 -54 0
-11100 -33 0
-11100 -54 0
11100 33 54 0
-11101 -11099 0
-11101 -11100 0
11101 11099 11100 0
-11093 127 0
-11093 128 0
11093 -127 -128 0
-11094 -127 0
-11094 -128 0
11094 127 128 0
-11095 -11093 0
-11095 -11094 0
11095 11093 11094 0
-11102 69 0
-11102 11095 0
11102 -69 -11095 0
-11103 -69 0
-11103 -11095 0
11103 69 11095 0
-11104 -11102 0
-11104 -11103 0
11104 11102 11103 0
-11105 11101 0
-11105 11104 0
11105 -11101 -11104 0
-11106 -11101 0
-11106 -11104 0
11106 11101 11104 0
-11107 -11105 0
-11107 -11106 0
11107 11105 11106 0
-11108 174 0
-11108 11107 0
11108 -174 -11107 0
-11109 -174 0
-11109 -11107 0
11109 174 11107 0
-11110 -11108 0
-11110 -11109 0
11110 11108 11109 0
-11111 11092 0
-11111 -11110 0
11111 -11092 11110 0
-11118 32 0
-11118 53 0
11118 -32 -53 0
-11119 -32 0
-11119 -53 0
11119 32 53 0
-11120 -11118 0
-11120 -11119 0
11120 11118 11119 0
-11112 126 0
-11112 127 0
11112 -126 -127 0
-11113 -126 0
-11113 -127 0
11113 126 127 0
-11114 -11112 0
-11114 -11113 0
11114 11112 11113 0
-11121 68 0
-11121 11114 0
11121 -68 -11114 0
-11122 -68 0
-11122 -11114 0
11122 68 11114 0
-11123 -11121 0
-11123 -11122 0
11123 11121 11122 0
-11124 11120 0
-11124 11123 0
11124 -11120 -11123 0
-11125 -11120 0
-11125 -11123 0
11125 11120 11123 0
-11126 -11124 0
-11126 -11125 0
11126 11124 11125 0
-11127 173 0
-11127 11126 0
11127 -173 -11126 0
-11128 -173 0
-11128 -11126 0
11128 173 11126 0
-11129 -11127 0
-11129 -11128 0
11129 11127 11128 0
-11130 11111 0
-11130 -11129 0
11130 -11111 11129 0
-11134 46 0
-11134 52 0
11134 -46 -52 0
-11135 -46 0
-11135 -52 0
11135 46 52 0
-11136 -11134 0
-11136 -11135 0
11136 11134 11135 0
-11131 125 0
-11131 126 0
11131 -125 -126 0
-11132 -125 0
-11132 -126 0
11132 125 126 0
-11133 -11131 0
-11133 -11132 0
11133 11131 11132 0
-11146 67 0
-11146 11133 0
11146 -67 -11133 0
-11147 -67 0
-11147 -11133 0
11147 67 11133 0
-11148 -11146 0
-11148 -11147 0
11148 11146 11147 0
-11149 11136 0
-11149 11148 0
11149 -11136 -11148 0
-11150 -11136 0
-11150 -11148 0
11150 11136 11148 0
-11151 -11149 0
-11151 -11150 0
11151 11149 11150 0
-11152 172 0
-11152 11151 0
11152 -172 -11151 0
-11153 -172 0
-11153 -11151 0
11153 172 11151 0
-11154 -11152 0
-11154 -11153 0
11154 11152 11153 0
-11155 11130 0
-11155 -11154 0
11155 -11130 11154 0
-11159 45 0
-11159 51 0
11159 -45 -51 0
-11160 -45 0
-11160 -51 0
11160 45 51 0
-11161 -11159 0
-11161 -11160 0
11161 11159 11160 0
-11156 124 0
-11156 125 0
11156 -124 -125 0
-11157 -124 0
-11157 -125 0
11157 124 125 0
-11158 -11156 0
-11158 -11157 0
11158 11156 11157 0
-11171 66 0
-11171 11158 0
11171 -66 -11158 0
-11172 -66 0
-11172 -11158 0
11172 66 11158 0
-11173 -11171 0
-11173 -11172 0
11173 11171 11172 0
-11174 11161 0
-11174 11173 0
11174 -11161 -11173 0
-11175 -11161 0
-11175 -11173 0
11175 11161 11173 0
-11176 -11174 0
-11176 -11175 0
11176 11174 11175 0
-11177 171 0
-11177 11176 0
11177 -171 -11176 0
-11178 -171 0
-11178 -11176 0
11178 171 11176 0
-11179 -11177 0
-11179 -11178 0
11179 11177 11178 0
-11180 11155 0
-11180 -11179 0
11180 -11155 11179 0
-11181 123 0
-11181 124 0
11181 -123 -124 0
-11182 -123 0
-11182 -124 0
11182 123 124 0
-11183 -11181 0
-11183 -11182 0
11183 11181 11182 0
-11187 50 0
-11187 65 0
11187 -50 -65 0
-11188 -50 0
-11188 -65 0
11188 50 65 0
-11189 -11187 0
-11189 -11188 0
11189 11187 11188 0
-11190 44 0
-11190 11189 0
11190 -44 -11189 0
-11191 -44 0
-11191 -11189 0
11191 44 11189 0
-11192 -11190 0
-11192 -11191 0
11192 11190 11191 0
-11196 11183 0
-11196 11192 0
11196 -11183 -11192 0
-11197 -11183 0
-11197 -11192 0
11197 11183 11192 0
-11198 -11196 0
-11198 -11197 0
11198 11196 11197 0
-11199 170 0
-11199 11198 0
11199 -170 -11198 0
-11200 -170 0
-11200 -11198 0
11200 170 11198 0
-11201 -11199 0
-11201 -11200 0
11201 11199 11200 0
-11202 11180 0
-11202 -11201 0
11202 -11180 11201 0
-11203 122 0
-11203 123 0
11203 -122 -123 0
-11204 -122 0
-11204 -123 0
11204 122 123 0
-11205 -11203 0
-11205 -11204 0
11205 11203 11204 0
-11206 43 0
-11206 49 0
11206 -43 -49 0
-11207 -43 0
-11207 -49 0
11207 43 49 0
-11208 -11206 0
-11208 -11207 0
11208 11206 11207 0
-11212 64 0
-11212 11208 0
11212 -64 -11208 0
-11213 -64 0
-11213 -11208 0
11213 64 11208 0
-11214 -11212 0
-11214 -11213 0
11214 11212 11213 0
-11215 11205 0
-11215 11214 0
11215 -11205 -11214 0
-11216 -11205 0
-11216 -11214 0
11216 11205 11214 0
-11217 -11215 0
-11217 -11216 0
11217 11215 11216 0
-11218 169 0
-11218 11217 0
11218 -169 -11217 0
-11219 -169 0
-11219 -11217 0
11219 169 11217 0
-11220 -11218 0
-11220 -11219 0
11220 11218 11219 0
-11221 11202 0
-11221 -11220 0
11221 -11202 11220 0
-11222 42 0
-11222 48 0
11222 -42 -48 0
-11223 -42 0
-11223 -48 0
11223 42 48 0
-11224 -11222 0
-11224 -11223 0
11224 11222 11223 0
-11231 63 0
-11231 11224 0
11231 -63 -11224 0
-11232 -63 0
-11232 -11224 0
11232 63 11224 0
-11233 -11231 0
-11233 -11232 0
11233 11231 11232 0
-11234 122 0
-11234 11233 0
11234 -122 -11233 0
-11235 -122 0
-11235 -11233 0
11235 122 11233 0
-11236 -11234 0
-11236 -11235 0
11236 11234 11235 0
-11237 136 0
-11237 168 0
11237 -136 -168 0
-11238 -136 0
-11238 -168 0
11238 136 168 0
-11239 -11237 0
-11239 -11238 0
11239 11237 11238 0
-11240 11236 0
-11240 11239 0
11240 -11236 -11239 0
-11241 -11236 0
-11241 -11239 0
11241 11236 11239 0
-11242 -11240 0
-11242 -11241 0
11242 11240 11241 0
-11243 11221 0
-11243 -11242 0
11243 -11221 11242 0
-11247 41 0
-11247 47 0
11247 -41 -47 0
-11248 -41 0
-11248 -47 0
11248 41 47 0
-11249 -11247 0
-11249 -11248 0
11249 11247 11248 0
-11253 62 0
-11253 11249 0
11253 -62 -11249 0
-11254 -62 0
-11254 -11249 0
11254 62 11249 0
-11255 -11253 0
-11255 -11254 0
11255 11253 11254 0
-11244 135 0
-11244 136 0
11244 -135 -136 0
-11245 -135 0
-11245 -136 0
11245 135 136 0
-11246 -11244 0
-11246 -11245 0
11246 11244 11245 0
-11259 167 0
-11259 11246 0
11259 -167 -11246 0
-11260 -167 0
-11260 -11246 0
11260 167 11246 0
-11261 -11259 0
-11261 -11260 0
11261 11259 11260 0
-11262 11255 0
-11262 11261 0
11262 -11255 -11261 0
-11263 -11255 0
-11263 -11261 0
11263 11255 11261 0
-11264 -11262 0
-11264 -11263 0
11264 11262 11263 0
-11265 11243 0
-11265 -11264 0
11265 -11243 11264 0
-11266 119 0
-11266 120 0
11266 -119 -120 0
-11267 -119 0
-11267 -120 0
11267 119 120 0
-11268 -11266 0
-11268 -11267 0
11268 11266 11267 0
-11269 46 0
-11269 61 0
11269 -46 -61 0
-11270 -46 0
-11270 -61 0
11270 46 61 0
-11271 -11269 0
-11271 -11270 0
11271 11269 11270 0
-11272 25 0
-11272 11271 0
11272 -25 -11271 0
-11273 -25 0
-11273 -11271 0
11273 25 11271 0
-11274 -11272 0
-11274 -11273 0
11274 11272 11273 0
-11275 11268 0
-11275 11274 0
11275 -11268 -11274 0
-11276 -11268 0
-11276 -11274 0
11276 11268 11274 0
-11277 -11275 0
-11277 -11276 0
11277 11275 11276 0
-11278 166 0
-11278 11277 0
11278 -166 -11277 0
-11279 -166 0
-11279 -11277 0
11279 166 11277 0
-11280 -11278 0
-11280 -11279 0
11280 11278 11279 0
-11281 11265 0
-11281 -11280 0
11281 -11265 11280 0
-11282 118 0
-11282 119 0
11282 -118 -119 0
-11283 -118 0
-11283 -119 0
11283 118 119 0
-11284 -11282 0
-11284 -11283 0
11284 11282 11283 0
-11285 45 0
-11285 60 0
11285 -45 -60 0
-11286 -45 0
-11286 -60 0
11286 45 60 0
-11287 -11285 0
-11287 -11286 0
11287 11285 11286 0
-11288 24 0
-11288 11287 0
11288 -24 -11287 0
-11289 -24 0
-11289 -11287 0
11289 24 11287 0
-11290 -11288 0
-11290 -11289 0
11290 11288 11289 0
-11291 11284 0
-11291 11290 0
11291 -11284 -11290 0
-11292 -11284 0
-11292 -11290 0
11292 11284 11290 0
-11293 -11291 0
-11293 -11292 0
11293 11291 11292 0
-11294 165 0
-11294 11293 0
11294 -165 -11293 0
-11295 -165 0
-11295 -11293 0
11295 165 11293 0
-11296 -11294 0
-11296 -11295 0
11296 11294 11295 0
-11297 11281 0
-11297 -11296 0
11297 -11281 11296 0
-11298 117 0
-11298 118 0
11298 -117 -118 0
-11299 -117 0
-11299 -118 0
11299 117 118 0
-11300 -11298 0
-11300 -11299 0
11300 11298 11299 0
-11301 44 0
-11301 59 0
11301 -44 -59 0
-11302 -44 0
-11302 -59 0
11302 44 59 0
-11303 -11301 0
-11303 -11302 0
11303 11301 11302 0
-11304 23 0
-11304 11303 0
11304 -23 -11303 0
-11305 -23 0
-11305 -11303 0
11305 23 11303 0
-11306 -11304 0
-11306 -11305 0
11306 11304 11305 0
-11307 11300 0
-11307 11306 0
11307 -11300 -11306 0
-11308 -11300 0
-11308 -11306 0
11308 11300 11306 0
-11309 -11307 0
-11309 -11308 0
11309 11307 11308 0
-11310 164 0
-11310 11309 0
11310 -164 -11309 0
-11311 -164 0
-11311 -11309 0
11311 164 11309 0
-11312 -11310 0
-11312 -11311 0
11312 11310 11311 0
-11313 11297 0
-11313 -11312 0
11313 -11297 11312 0
-11314 116 0
-11314 117 0
11314 -116 -117 0
-11315 -116 0
-11315 -117 0
11315 116 117 0
-11316 -11314 0
-11316 -11315 0
11316 11314 11315 0
-11317 43 0
-11317 58 0
11317 -43 -58 0
-11318 -43 0
-11318 -58 0
11318 43 58 0
-11319 -11317 0
-11319 -11318 0
11319 11317 11318 0
-11320 22 0
-11320 11319 0
11320 -22 -11319 0
-11321 -22 0
-11321 -11319 0
11321 22 11319 0
-11322 -11320 0
-11322 -11321 0
11322 11320 11321 0
-11323 11316 0
-11323 11322 0
11323 -11316 -11322 0
-11324 -11316 0
-11324 -11322 0
11324 11316 11322 0
-11325 -11323 0
-11325 -11324 0
11325 11323 11324 0
-11326 163 0
-11326 11325 0
11326 -163 -11325 0
-11327 -163 0
-11327 -11325 0
11327 163 11325 0
-11328 -11326 0
-11328 -11327 0
11328 11326 11327 0
-11329 11313 0
-11329 -11328 0
11329 -11313 11328 0
-11330 115 0
-11330 116 0
11330 -115 -116 0
-11331 -115 0
-11331 -116 0
11331 115 116 0
-11332 -11330 0
-11332 -11331 0
11332 11330 11331 0
-11333 42 0
-11333 57 0
11333 -42 -57 0
-11334 -42 0
-11334 -57 0
11334 42 57 0
-11335 -11333 0
-11335 -11334 0
11335 11333 11334 0
-11336 21 0
-11336 11335 0
11336 -21 -11335 0
-11337 -21 0
-11337 -11335 0
11337 21 11335 0
-11338 -11336 0
-11338 -11337 0
11338 11336 11337 0
-11339 11332 0
-11339 11338 0
11339 -11332 -11338 0
-11340 -11332 0
-11340 -11338 0
11340 11332 11338 0
-11341 -11339 0
-11341 -11340 0
11341 11339 11340 0
-11342 162 0
-11342 11341 0
11342 -162 -11341 0
-11343 -162 0
-11343 -11341 0
11343 162 11341 0
-11344 -11342 0
-11344 -11343 0
11344 11342 11343 0
-11345 11329 0
-11345 -11344 0
11345 -11329 11344 0
-11346 114 0
-11346 115 0
11346 -114 -115 0
-11347 -114 0
-11347 -115 0
11347 114 115 0
-11348 -11346 0
-11348 -11347 0
11348 11346 11347 0
-11349 41 0
-11349 56 0
11349 -41 -56 0
-11350 -41 0
-11350 -56 0
11350 41 56 0
-11351 -11349 0
-11351 -11350 0
11351 11349 11350 0
-11352 20 0
-11352 11351 0
11352 -20 -11351 0
-11353 -20 0
-11353 -11351 0
11353 20 11351 0
-11354 -11352 0
-11354 -11353 0
11354 11352 11353 0
-11355 11348 0
-11355 11354 0
11355 -11348 -11354 0
-11356 -11348 0
-11356 -11354 0
11356 11348 11354 0
-11357 -11355 0
-11357 -11356 0
11357 11355 11356 0
-11358 161 0
-11358 11357 0
11358 -161 -11357 0
-11359 -161 0
-11359 -11357 0
11359 161 11357 0
-11360 -11358 0
-11360 -11359 0
11360 11358 11359 0
-11361 11345 0
-11361 -11360 0
11361 -11345 11360 0
-11362 113 0
-11362 114 0
11362 -113 -114 0
-11363 -113 0
-11363 -114 0
11363 113 114 0
-11364 -11362 0
-11364 -11363 0
11364 11362 11363 0
-11365 40 0
-11365 55 0
11365 -40 -55 0
-11366 -40 0
-11366 -55 0
11366 40 55 0
-11367 -11365 0
-11367 -11366 0
11367 11365 11366 0
-11368 19 0
-11368 11367 0
11368 -19 -11367 0
-11369 -19 0
-11369 -11367 0
11369 19 11367 0
-11370 -11368 0
-11370 -11369 0
11370 11368 11369 0
-11371 11364 0
-11371 11370 0
11371 -11364 -11370 0
-11372 -11364 0
-11372 -11370 0
11372 11364 11370 0
-11373 -11371 0
-11373 -11372 0
11373 11371 11372 0
-11374 160 0
-11374 11373 0
11374 -160 -11373 0
-11375 -160 0
-11375 -11373 0
11375 160 11373 0
-11376 -11374 0
-11376 -11375 0
11376 11374 11375 0
-11377 11361 0
-11377 -11376 0
11377 -11361 11376 0
-11378 112 0
-11378 113 0
11378 -112 -113 0
-11379 -112 0
-11379 -113 0
11379 112 113 0
-11380 -11378 0
-11380 -11379 0
11380 11378 11379 0
-11381 39 0
-11381 54 0
11381 -39 -54 0
-11382 -39 0
-11382 -54 0
11382 39 54 0
-11383 -11381 0
-11383 -11382 0
11383 11381 11382 0
-11384 18 0
-11384 11383 0
11384 -18 -11383 0
-11385 -18 0
-11385 -11383 0
11385 18 11383 0
-11386 -11384 0
-11386 -11385 0
11386 11384 11385 0
-11387 11380 0
-11387 11386 0
11387 -11380 -11386 0
-11388 -11380 0
-11388 -11386 0
11388 11380 11386 0
-11389 -11387 0
-11389 -11388 0
11389 11387 11388 0
-11390 159 0
-11390 11389 0
11390 -159 -11389 0
-11391 -159 0
-11391 -11389 0
11391 159 11389 0
-11392 -11390 0
-11392 -11391 0
11392 11390 11391 0
-11393 11377 0
-11393 -11392 0
11393 -11377 11392 0
-11394 111 0
-11394 112 0
11394 -111 -112 0
-11395 -111 0
-11395 -112 0
11395 111 112 0
-11396 -11394 0
-11396 -11395 0
11396 11394 11395 0
-11397 38 0
-11397 53 0
11397 -38 -53 0
-11398 -38 0
-11398 -53 0
11398 38 53 0
-11399 -11397 0
-11399 -11398 0
11399 11397 11398 0
-11400 17 0
-11400 11399 0
11400 -17 -11399 0
-11401 -17 0
-11401 -11399 0
11401 17 11399 0
-11402 -11400 0
-11402 -11401 0
11402 11400 11401 0
-11403 11396 0
-11403 11402 0
11403 -11396 -11402 0
-11404 -11396 0
-11404 -11402 0
11404 11396 11402 0
-11405 -11403 0
-11405 -11404 0
11405 11403 11404 0
-11406 158 0
-11406 11405 0
11406 -158 -11405 0
-11407 -158 0
-11407 -11405 0
11407 158 11405 0
-11408 -11406 0
-11408 -11407 0
11408 11406 11407 0
-11409 11393 0
-11409 -11408 0
11409 -11393 11408 0
-11410 110 0
-11410 111 0
11410 -110 -111 0
-11411 -110 0
-11411 -111 0
11411 110 111 0
-11412 -11410 0
-11412 -11411 0
11412 11410 11411 0
-11416 37 0
-11416 52 0
11416 -37 -52 0
-11417 -37 0
-11417 -52 0
11417 37 52 0
-11418 -11416 0
-11418 -11417 0
11418 11416 11417 0
-11419 31 0
-11419 11418 0
11419 -31 -11418 0
-11420 -31 0
-11420 -11418 0
11420 31 11418 0
-11421 -11419 0
-11421 -11420 0
11421 11419 11420 0
-11422 11412 0
-11422 11421 0
11422 -11412 -11421 0
-11423 -11412 0
-11423 -11421 0
11423 11412 11421 0
-11424 -11422 0
-11424 -11423 0
11424 11422 11423 0
-11425 157 0
-11425 11424 0
11425 -157 -11424 0
-11426 -157 0
-11426 -11424 0
11426 157 11424 0
-11427 -11425 0
-11427 -11426 0
11427 11425 11426 0
-11428 11409 0
-11428 -11427 0
11428 -11409 11427 0
-11429 109 0
-11429 110 0
11429 -109 -110 0
-11430 -109 0
-11430 -110 0
11430 109 110 0
-11431 -11429 0
-11431 -11430 0
11431 11429 11430 0
-11435 36 0
-11435 51 0
11435 -36 -51 0
-11436 -36 0
-11436 -51 0
11436 36 51 0
-11437 -11435 0
-11437 -11436 0
11437 11435 11436 0
-11438 30 0
-11438 11437 0
11438 -30 -11437 0
-11439 -30 0
-11439 -11437 0
11439 30 11437 0
-11440 -11438 0
-11440 -11439 0
11440 11438 11439 0
-11441 11431 0
-11441 11440 0
11441 -11431 -11440 0
-11442 -11431 0
-11442 -11440 0
11442 11431 11440 0
-11443 -11441 0
-11443 -11442 0
11443 11441 11442 0
-11444 156 0
-11444 11443 0
11444 -156 -11443 0
-11445 -156 0
-11445 -11443 0
11445 156 11443 0
-11446 -11444 0
-11446 -11445 0
11446 11444 11445 0
-11447 11428 0
-11447 -11446 0
11447 -11428 11446 0
-11448 108 0
-11448 109 0
11448 -108 -109 0
-11449 -108 0
-11449 -109 0
11449 108 109 0
-11450 -11448 0
-11450 -11449 0
11450 11448 11449 0
-11454 35 0
-11454 50 0
11454 -35 -50 0
-11455 -35 0
-11455 -50 0
11455 35 50 0
-11456 -11454 0
-11456 -11455 0
11456 11454 11455 0
-11457 29 0
-11457 11456 0
11457 -29 -11456 0
-11458 -29 0
-11458 -11456 0
11458 29 11456 0
-11459 -11457 0
-11459 -11458 0
11459 11457 11458 0
-11460 11450 0
-11460 11459 0
11460 -11450 -11459 0
-11461 -11450 0
-11461 -11459 0
11461 11450 11459 0
-11462 -11460 0
-11462 -11461 0
11462 11460 11461 0
-11463 155 0
-11463 11462 0
11463 -155 -11462 0
-11464 -155 0
-11464 -11462 0
11464 155 11462 0
-11465 -11463 0
-11465 -11464 0
11465 11463 11464 0
-11466 11447 0
-11466 -11465 0
11466 -11447 11465 0
-11467 107 0
-11467 108 0
11467 -107 -108 0
-11468 -107 0
-11468 -108 0
11468 107 108 0
-11469 -11467 0
-11469 -11468 0
11469 11467 11468 0
-11473 34 0
-11473 49 0
11473 -34 -49 0
-11474 -34 0
-11474 -49 0
11474 34 49 0
-11475 -11473 0
-11475 -11474 0
11475 11473 11474 0
-11476 28 0
-11476 11475 0
11476 -28 -11475 0
-11477 -28 0
-11477 -11475 0
11477 28 11475 0
-11478 -11476 0
-11478 -11477 0
11478 11476 11477 0
-11479 11469 0
-11479 11478 0
11479 -11469 -11478 0
-11480 -11469 0
-11480 -11478 0
11480 11469 11478 0
-11481 -11479 0
-11481 -11480 0
11481 11479 11480 0
-11482 154 0
-11482 11481 0
11482 -154 -11481 0
-11483 -154 0
-11483 -11481 0
11483 154 11481 0
-11484 -11482 0
-11484 -11483 0
11484 11482 11483 0
-11485 11466 0
-11485 -11484 0
11485 -11466 11484 0
-11492 107 0
-11492 121 0
11492 -107 -121 0
-11493 -107 0
-11493 -121 0
11493 107 121 0
-11494 -11492 0
-11494 -11493 0
11494 11492 11493 0
-11486 27 0
-11486 33 0
11486 -27 -33 0
-11487 -27 0
-11487 -33 0
11487 27 33 0
-11488 -11486 0
-11488 -11487 0
11488 11486 11487 0
-11495 48 0
-11495 11488 0
11495 -48 -11488 0
-11496 -48 0
-11496 -11488 0
11496 48 11488 0
-11497 -11495 0
-11497 -11496 0
11497 11495 11496 0
-11498 11494 0
-11498 11497 0
11498 -11494 -11497 0
-11499 -11494 0
-11499 -11497 0
11499 11494 11497 0
-11500 -11498 0
-11500 -11499 0
11500 11498 11499 0
-11501 153 0
-11501 11500 0
11501 -153 -11500 0
-11502 -153 0
-11502 -11500 0
11502 153 11500 0
-11503 -11501 0
-11503 -11502 0
11503 11501 11502 0
-11504 11485 0
-11504 -11503 0
11504 -11485 11503 0
-11505 120 0
-11505 121 0
11505 -120 -121 0
-11506 -120 0
-11506 -121 0
11506 120 121 0
-11507 -11505 0
-11507 -11506 0
11507 11505 11506 0
-11508 26 0
-11508 32 0
11508 -26 -32 0
-11509 -26 0
-11509 -32 0
11509 26 32 0
-11510 -11508 0
-11510 -11509 0
11510 11508 11509 0
-11514 47 0
-11514 11510 0
11514 -47 -11510 0
-11515 -47 0
-11515 -11510 0
11515 47 11510 0
-11516 -11514 0
-11516 -11515 0
11516 11514 11515 0
-11520 11507 0
-11520 11516 0
11520 -11507 -11516 0
-11521 -11507 0
-11521 -11516 0
11521 11507 11516 0
-11522 -11520 0
-11522 -11521 0
11522 11520 11521 0
-11523 152 0
-11523 11522 0
11523 -152 -11522 0
-11524 -152 0
-11524 -11522 0
11524 152 11522 0
-11525 -11523 0
-11525 -11524 0
11525 11523 11524 0
-11526 11504 0
-11526 -11525 0
11526 -11504 11525 0
-11527 104 0
-11527 105 0
11527 -104 -105 0
-11528 -104 0
-11528 -105 0
11528 104 105 0
-11529 -11527 0
-11529 -11528 0
11529 11527 11528 0
-11530 10 0
-11530 31 0
11530 -10 -31 0
-11531 -10 0
-11531 -31 0
11531 10 31 0
-11532 -11530 0
-11532 -11531 0
11532 11530 11531 0
-11536 46 0
-11536 11532 0
11536 -46 -11532 0
-11537 -46 0
-11537 -11532 0
11537 46 11532 0
-11538 -11536 0
-11538 -11537 0
11538 11536 11537 0
-11539 11529 0
-11539 11538 0
11539 -11529 -11538 0
-11540 -11529 0
-11540 -11538 0
11540 11529 11538 0
-11541 -11539 0
-11541 -11540 0
11541 11539 11540 0
-11542 151 0
-11542 11541 0
11542 -151 -11541 0
-11543 -151 0
-11543 -11541 0
11543 151 11541 0
-11544 -11542 0
-11544 -11543 0
11544 11542 11543 0
-11545 11526 0
-11545 -11544 0
11545 -11526 11544 0
-11546 103 0
-11546 104 0
11546 -103 -104 0
-11547 -103 0
-11547 -104 0
11547 103 104 0
-11548 -11546 0
-11548 -11547 0
11548 11546 11547 0
-11549 9 0
-11549 30 0
11549 -9 -30 0
-11550 -9 0
-11550 -30 0
11550 9 30 0
-11551 -11549 0
-11551 -11550 0
11551 11549 11550 0
-11555 45 0
-11555 11551 0
11555 -45 -11551 0
-11556 -45 0
-11556 -11551 0
11556 45 11551 0
-11557 -11555 0
-11557 -11556 0
11557 11555 11556 0
-11558 11548 0
-11558 11557 0
11558 -11548 -11557 0
-11559 -11548 0
-11559 -11557 0
11559 11548 11557 0
-11560 -11558 0
-11560 -11559 0
11560 11558 11559 0
-11561 150 0
-11561 11560 0
11561 -150 -11560 0
-11562 -150 0
-11562 -11560 0
11562 150 11560 0
-11563 -11561 0
-11563 -11562 0
11563 11561 11562 0
-11564 11545 0
-11564 -11563 0
11564 -11545 11563 0
-11565 102 0
-11565 103 0
11565 -102 -103 0
-11566 -102 0
-11566 -103 0
11566 102 103 0
-11567 -11565 0
-11567 -11566 0
11567 11565 11566 0
-11568 8 0
-11568 29 0
11568 -8 -29 0
-11569 -8 0
-11569 -29 0
11569 8 29 0
-11570 -11568 0
-11570 -11569 0
11570 11568 11569 0
-11574 44 0
-11574 11570 0
11574 -44 -11570 0
-11575 -44 0
-11575 -11570 0
11575 44 11570 0
-11576 -11574 0
-11576 -11575 0
11576 11574 11575 0
-11577 11567 0
-11577 11576 0
11577 -11567 -11576 0
-11578 -11567 0
-11578 -11576 0
11578 11567 11576 0
-11579 -11577 0
-11579 -11578 0
11579 11577 11578 0
-11580 149 0
-11580 11579 0
11580 -149 -11579 0
-11581 -149 0
-11581 -11579 0
11581 149 11579 0
-11582 -11580 0
-11582 -11581 0
11582 11580 11581 0
-11583 11564 0
-11583 -11582 0
11583 -11564 11582 0
-11584 101 0
-11584 102 0
11584 -101 -102 0
-11585 -101 0
-11585 -102 0
11585 101 102 0
-11586 -11584 0
-11586 -11585 0
11586 11584 11585 0
-11587 7 0
-11587 28 0
11587 -7 -28 0
-11588 -7 0
-11588 -28 0
11588 7 28 0
-11589 -11587 0
-11589 -11588 0
11589 11587 11588 0
-11593 43 0
-11593 11589 0
11593 -43 -11589 0
-11594 -43 0
-11594 -11589 0
11594 43 11589 0
-11595 -11593 0
-11595 -11594 0
11595 11593 11594 0
-11596 11586 0
-11596 11595 0
11596 -11586 -11595 0
-11597 -11586 0
-11597 -11595 0
11597 11586 11595 0
-11598 -11596 0
-11598 -11597 0
11598 11596 11597 0
-11599 148 0
-11599 11598 0
11599 -148 -11598 0
-11600 -148 0
-11600 -11598 0
11600 148 11598 0
-11601 -11599 0
-11601 -11600 0
11601 11599 11600 0
-11602 11583 0
-11602 -11601 0
11602 -11583 11601 0
-11603 100 0
-11603 101 0
11603 -100 -101 0
-11604 -100 0
-11604 -101 0
11604 100 101 0
-11605 -11603 0
-11605 -11604 0
11605 11603 11604 0
-11606 6 0
-11606 27 0
11606 -6 -27 0
-11607 -6 0
-11607 -27 0
11607 6 27 0
-11608 -11606 0
-11608 -11607 0
11608 11606 11607 0
-11612 42 0
-11612 11608 0
11612 -42 -11608 0
-11613 -42 0
-11613 -11608 0
11613 42 11608 0
-11614 -11612 0
-11614 -11613 0
11614 11612 11613 0
-11615 11605 0
-11615 11614 0
11615 -11605 -11614 0
-11616 -11605 0
-11616 -11614 0
11616 11605 11614 0
-11617 -11615 0
-11617 -11616 0
11617 11615 11616 0
-11618 147 0
-11618 11617 0
11618 -147 -11617 0
-11619 -147 0
-11619 -11617 0
11619 147 11617 0
-11620 -11618 0
-11620 -11619 0
11620 11618 11619 0
-11621 11602 0
-11621 -11620 0
11621 -11602 11620 0
-11622 99 0
-11622 100 0
11622 -99 -100 0
-11623 -99 0
-11623 -100 0
11623 99 100 0
-11624 -11622 0
-11624 -11623 0
11624 11622 11623 0
-11625 5 0
-11625 26 0
11625 -5 -26 0
-11626 -5 0
-11626 -26 0
11626 5 26 0
-11627 -11625 0
-11627 -11626 0
11627 11625 11626 0
-11631 41 0
-11631 11627 0
11631 -41 -11627 0
-11632 -41 0
-11632 -11627 0
11632 41 11627 0
-11633 -11631 0
-11633 -11632 0
11633 11631 11632 0
-11634 11624 0
-11634 11633 0
11634 -11624 -11633 0
-11635 -11624 0
-11635 -11633 0
11635 11624 11633 0
-11636 -11634 0
-11636 -11635 0
11636 11634 11635 0
-11637 146 0
-11637 11636 0
11637 -146 -11636 0
-11638 -146 0
-11638 -11636 0
11638 146 11636 0
-11639 -11637 0
-11639 -11638 0
11639 11637 11638 0
-11640 11621 0
-11640 -11639 0
11640 -11621 11639 0
-11641 98 0
-11641 99 0
11641 -98 -99 0
-11642 -98 0
-11642 -99 0
11642 98 99 0
-11643 -11641 0
-11643 -11642 0
11643 11641 11642 0
-11644 4 0
-11644 25 0
11644 -4 -25 0
-11645 -4 0
-11645 -25 0
11645 4 25 0
-11646 -11644 0
-11646 -11645 0
11646 11644 11645 0
-11650 40 0
-11650 11646 0
11650 -40 -11646 0
-11651 -40 0
-11651 -11646 0
11651 40 11646 0
-11652 -11650 0
-11652 -11651 0
11652 11650 11651 0
-11653 11643 0
-11653 11652 0
11653 -11643 -11652 0
-11654 -11643 0
-11654 -11652 0
11654 11643 11652 0
-11655 -11653 0
-11655 -11654 0
11655 11653 11654 0
-11656 145 0
-11656 11655 0
11656 -145 -11655 0
-11657 -145 0
-11657 -11655 0
11657 145 11655 0
-11658 -11656 0
-11658 -11657 0
11658 11656 11657 0
-11659 11640 0
-11659 -11658 0
11659 -11640 11658 0
-11660 97 0
-11660 98 0
11660 -97 -98 0
-11661 -97 0
-11661 -98 0
11661 97 98 0
-11662 -11660 0
-11662 -11661 0
11662 11660 11661 0
-11663 3 0
-11663 24 0
11663 -3 -24 0
-11664 -3 0
-11664 -24 0
11664 3 24 0
-11665 -11663 0
-11665 -11664 0
11665 11663 11664 0
-11669 39 0
-11669 11665 0
11669 -39 -11665 0
-11670 -39 0
-11670 -11665 0
11670 39 11665 0
-11671 -11669 0
-11671 -11670 0
11671 11669 11670 0
-11672 11662 0
-11672 11671 0
11672 -11662 -11671 0
-11673 -11662 0
-11673 -11671 0
11673 11662 11671 0
-11674 -11672 0
-11674 -11673 0
11674 11672 11673 0
-11675 144 0
-11675 11674 0
11675 -144 -11674 0
-11676 -144 0
-11676 -11674 0
11676 144 11674 0
-11677 -11675 0
-11677 -11676 0
11677 11675 11676 0
-11678 11659 0
-11678 -11677 0
11678 -11659 11677 0
-11679 96 0
-11679 97 0
11679 -96 -97 0
-11680 -96 0
-11680 -97 0
11680 96 97 0
-11681 -11679 0
-11681 -11680 0
11681 11679 11680 0
-11682 2 0
-11682 23 0
11682 -2 -23 0
-11683 -2 0
-11683 -23 0
11683 2 23 0
-11684 -11682 0
-11684 -11683 0
11684 11682 11683 0
-11688 38 0
-11688 11684 0
11688 -38 -11684 0
-11689 -38 0
-11689 -11684 0
11689 38 11684 0
-11690 -11688 0
-11690 -11689 0
11690 11688 11689 0
-11691 11681 0
-11691 11690 0
11691 -11681 -11690 0
-11692 -11681 0
-11692 -11690 0
11692 11681 11690 0
-11693 -11691 0
-11693 -11692 0
11693 11691 11692 0
-11694 143 0
-11694 11693 0
11694 -143 -11693 0
-11695 -143 0
-11695 -11693 0
11695 143 11693 0
-11696 -11694 0
-11696 -11695 0
11696 11694 11695 0
-11697 11678 0
-11697 -11696 0
11697 -11678 11696 0
-11698 95 0
-11698 96 0
11698 -95 -96 0
-11699 -95 0
-11699 -96 0
11699 95 96 0
-11700 -11698 0
-11700 -11699 0
11700 11698 11699 0
-11701 16 0
-11701 22 0
11701 -16 -22 0
-11702 -16 0
-11702 -22 0
11702 16 22 0
-11703 -11701 0
-11703 -11702 0
11703 11701 11702 0
-11707 37 0
-11707 11703 0
11707 -37 -11703 0
-11708 -37 0
-11708 -11703 0
11708 37 11703 0
-11709 -11707 0
-11709 -11708 0
11709 11707 11708 0
-11710 11700 0
-11710 11709 0
11710 -11700 -11709 0
-11711 -11700 0
-11711 -11709 0
11711 11700 11709 0
-11712 -11710 0
-11712 -11711 0
11712 11710 11711 0
-11713 142 0
-11713 11712 0
11713 -142 -11712 0
-11714 -142 0
-11714 -11712 0
11714 142 11712 0
-11715 -11713 0
-11715 -11714 0
11715 11713 11714 0
-11716 11697 0
-11716 -11715 0
11716 -11697 11715 0
-11717 94 0
-11717 95 0
11717 -94 -95 0
-11718 -94 0
-11718 -95 0
11718 94 95 0
-11719 -11717 0
-11719 -11718 0
11719 11717 11718 0
-11720 15 0
-11720 21 0
11720 -15 -21 0
-11721 -15 0
-11721 -21 0
11721 15 21 0
-11722 -11720 0
-11722 -11721 0
11722 11720 11721 0
-11726 36 0
-11726 11722 0
11726 -36 -11722 0
-11727 -36 0
-11727 -11722 0
11727 36 11722 0
-11728 -11726 0
-11728 -11727 0
11728 11726 11727 0
-11729 11719 0
-11729 11728 0
11729 -11719 -11728 0
-11730 -11719 0
-11730 -11728 0
11730 11719 11728 0
-11731 -11729 0
-11731 -11730 0
11731 11729 11730 0
-11732 141 0
-11732 11731 0
11732 -141 -11731 0
-11733 -141 0
-11733 -11731 0
11733 141 11731 0
-11734 -11732 0
-11734 -11733 0
11734 11732 11733 0
-11735 11716 0
-11735 -11734 0
11735 -11716 11734 0
-11736 93 0
-11736 94 0
11736 -93 -94 0
-11737 -93 0
-11737 -94 0
11737 93 94 0
-11738 -11736 0
-11738 -11737 0
11738 11736 11737 0
-11739 14 0
-11739 20 0
11739 -14 -20 0
-11740 -14 0
-11740 -20 0
11740 14 20 0
-11741 -11739 0
-11741 -11740 0
11741 11739 11740 0
-11745 35 0
-11745 11741 0
11745 -35 -11741 0
-11746 -35 0
-11746 -11741 0
11746 35 11741 0
-11747 -11745 0
-11747 -11746 0
11747 11745 11746 0
-11748 11738 0
-11748 11747 0
11748 -11738 -11747 0
-11749 -11738 0
-11749 -11747 0
11749 11738 11747 0
-11750 -11748 0
-11750 -11749 0
11750 11748 11749 0
-11751 140 0
-11751 11750 0
11751 -140 -11750 0
-11752 -140 0
-11752 -11750 0
11752 140 11750 0
-11753 -11751 0
-11753 -11752 0
11753 11751 11752 0
-11754 11735 0
-11754 -11753 0
11754 -11735 11753 0
-11755 92 0
-11755 93 0
11755 -92 -93 0
-11756 -92 0
-11756 -93 0
11756 92 93 0
-11757 -11755 0
-11757 -11756 0
11757 11755 11756 0
-11758 13 0
-11758 19 0
11758 -13 -19 0
-11759 -13 0
-11759 -19 0
11759 13 19 0
-11760 -11758 0
-11760 -11759 0
11760 11758 11759 0
-11764 34 0
-11764 11760 0
11764 -34 -11760 0
-11765 -34 0
-11765 -11760 0
11765 34 11760 0
-11766 -11764 0
-11766 -11765 0
11766 11764 11765 0
-11767 11757 0
-11767 11766 0
11767 -11757 -11766 0
-11768 -11757 0
-11768 -11766 0
11768 11757 11766 0
-11769 -11767 0
-11769 -11768 0
11769 11767 11768 0
-11770 139 0
-11770 11769 0
11770 -139 -11769 0
-11771 -139 0
-11771 -11769 0
11771 139 11769 0
-11772 -11770 0
-11772 -11771 0
11772 11770 11771 0
-11773 11754 0
-11773 -11772 0
11773 -11754 11772 0
-11777 18 0
-11777 33 0
11777 -18 -33 0
-11778 -18 0
-11778 -33 0
11778 18 33 0
-11779 -11777 0
-11779 -11778 0
11779 11777 11778 0
-11780 12 0
-11780 11779 0
11780 -12 -11779 0
-11781 -12 0
-11781 -11779 0
11781 12 11779 0
-11782 -11780 0
-11782 -11781 0
11782 11780 11781 0
-11783 92 0
-11783 106 0
11783 -92 -106 0
-11784 -92 0
-11784 -106 0
11784 92 106 0
-11785 -11783 0
-11785 -11784 0
11785 11783 11784 0
-11786 11782 0
-11786 11785 0
11786 -11782 -11785 0
-11787 -11782 0
-11787 -11785 0
11787 11782 11785 0
-11788 -11786 0
-11788 -11787 0
11788 11786 11787 0
-11789 138 0
-11789 11788 0
11789 -138 -11788 0
-11790 -138 0
-11790 -11788 0
11790 138 11788 0
-11791 -11789 0
-11791 -11790 0
11791 11789 11790 0
-11792 11773 0
-11792 -11791 0
11792 -11773 11791 0
-11793 105 0
-11793 106 0
11793 -105 -106 0
-11794 -105 0
-11794 -106 0
11794 105 106 0
-11795 -11793 0
-11795 -11794 0
11795 11793 11794 0
-11796 11 0
-11796 17 0
11796 -11 -17 0
-11797 -11 0
-11797 -17 0
11797 11 17 0
-11798 -11796 0
-11798 -11797 0
11798 11796 11797 0
-11799 32 0
-11799 11798 0
11799 -32 -11798 0
-11800 -32 0
-11800 -11798 0
11800 32 11798 0
-11801 -11799 0
-11801 -11800 0
11801 11799 11800 0
-11805 11795 0
-11805 11801 0
11805 -11795 -11801 0
-11806 -11795 0
-11806 -11801 0
11806 11795 11801 0
-11807 -11805 0
-11807 -11806 0
11807 11805 11806 0
-11808 137 0
-11808 11807 0
11808 -137 -11807 0
-11809 -137 0
-11809 -11807 0
11809 137 11807 0
-11810 -11808 0
-11810 -11809 0
11810 11808 11809 0
-11811 11792 0
-11811 -11810 0
11811 -11792 11810 0
-11812 3 0
-11812 5 0
11812 -3 -5 0
-11813 -3 0
-11813 -5 0
11813 3 5 0
-11814 -11812 0
-11814 -11813 0
11814 11812 11813 0
-11860 9 0
-11860 11814 0
11860 -9 -11814 0
-11861 -9 0
-11861 -11814 0
11861 9 11814 0
-11862 -11860 0
-11862 -11861 0
11862 11860 11861 0
-11863 11 0
-11863 13 0
11863 -11 -13 0
-11864 -11 0
-11864 -13 0
11864 11 13 0
-11865 -11863 0
-11865 -11864 0
11865 11863 11864 0
-11872 15 0
-11872 17 0
11872 -15 -17 0
-11873 -15 0
-11873 -17 0
11873 15 17 0
-11874 -11872 0
-11874 -11873 0
11874 11872 11873 0
-11950 11865 0
-11950 11874 0
11950 -11865 -11874 0
-11951 -11865 0
-11951 -11874 0
11951 11865 11874 0
-11952 -11950 0
-11952 -11951 0
11952 11950 11951 0
-11953 11862 0
-11953 11952 0
11953 -11862 -11952 0
-11954 -11862 0
-11954 -11952 0
11954 11862 11952 0
-11955 -11953 0
-11955 -11954 0
11955 11953 11954 0
-11818 20 0
-11818 21 0
11818 -20 -21 0
-11819 -20 0
-11819 -21 0
11819 20 21 0
-11820 -11818 0
-11820 -11819 0
11820 11818 11819 0
-11881 19 0
-11881 11820 0
11881 -19 -11820 0
-11882 -19 0
-11882 -11820 0
11882 19 11820 0
-11883 -11881 0
-11883 -11882 0
11883 11881 11882 0
-11890 22 0
-11890 25 0
11890 -22 -25 0
-11891 -22 0
-11891 -25 0
11891 22 25 0
-11892 -11890 0
-11892 -11891 0
11892 11890 11891 0
-11956 11883 0
-11956 11892 0
11956 -11883 -11892 0
-11957 -11883 0
-11957 -11892 0
11957 11883 11892 0
-11958 -11956 0
-11958 -11957 0
11958 11956 11957 0
-11827 26 0
-11827 27 0
11827 -26 -27 0
-11828 -26 0
-11828 -27 0
11828 26 27 0
-11829 -11827 0
-11829 -11828 0
11829 11827 11828 0
-11899 28 0
-11899 11829 0
11899 -28 -11829 0
-11900 -28 0
-11900 -11829 0
11900 28 11829 0
-11901 -11899 0
-11901 -11900 0
11901 11899 11900 0
-11995 31 0
-11995 11901 0
11995 -31 -11901 0
-11996 -31 0
-11996 -11901 0
11996 31 11901 0
-11997 -11995 0
-11997 -11996 0
11997 11995 11996 0
-12073 11958 0
-12073 11997 0
12073 -11958 -11997 0
-12074 -11958 0
-12074 -11997 0
12074 11958 11997 0
-12075 -12073 0
-12075 -12074 0
12075 12073 12074 0
-12076 11955 0
-12076 12075 0
12076 -11955 -12075 0
-12077 -11955 0
-12077 -12075 0
12077 11955 12075 0
-12078 -12076 0
-12078 -12077 0
12078 12076 12077 0
-11836 48 0
-11836 49 0
11836 -48 -49 0
-11837 -48 0
-11837 -49 0
11837 48 49 0
-11838 -11836 0
-11838 -11837 0
11838 11836 11837 0
-11911 47 0
-11911 11838 0
11911 -47 -11838 0
-11912 -47 0
-11912 -11838 0
11912 47 11838 0
-11913 -11911 0
-11913 -11912 0
11913 11911 11912 0
-11908 38 0
-11908 40 0
11908 -38 -40 0
-11909 -38 0
-11909 -40 0
11909 38 40 0
-11910 -11908 0
-11910 -11909 0
11910 11908 11909 0
-12010 34 0
-12010 11910 0
12010 -34 -11910 0
-12011 -34 0
-12011 -11910 0
12011 34 11910 0
-12012 -12010 0
-12012 -12011 0
12012 12010 12011 0
-12079 11913 0
-12079 12012 0
12079 -11913 -12012 0
-12080 -11913 0
-12080 -12012 0
12080 11913 12012 0
-12081 -12079 0
-12081 -12080 0
12081 12079 12080 0
-11839 52 0
-11839 53 0
11839 -52 -53 0
-11840 -52 0
-11840 -53 0
11840 52 53 0
-11841 -11839 0
-11841 -11840 0
11841 11839 11840 0
-11845 54 0
-11845 55 0
11845 -54 -55 0
-11846 -54 0
-11846 -55 0
11846 54 55 0
-11847 -11845 0
-11847 -11846 0
11847 11845 11846 0
-11923 11841 0
-11923 11847 0
11923 -11841 -11847 0
-11924 -11841 0
-11924 -11847 0
11924 11841 11847 0
-11925 -11923 0
-11925 -11924 0
11925 11923 11924 0
-11848 58 0
-11848 59 0
11848 -58 -59 0
-11849 -58 0
-11849 -59 0
11849 58 59 0
-11850 -11848 0
-11850 -11849 0
11850 11848 11849 0
-12046 63 0
-12046 11850 0
12046 -63 -11850 0
-12047 -63 0
-12047 -11850 0
12047 63 11850 0
-12048 -12046 0
-12048 -12047 0
12048 12046 12047 0
-12169 11925 0
-12169 12048 0
12169 -11925 -12048 0
-12170 -11925 0
-12170 -12048 0
12170 11925 12048 0
-12171 -12169 0
-12171 -12170 0
12171 12169 12170 0
-12256 12081 0
-12256 12171 0
12256 -12081 -12171 0
-12257 -12081 0
-12257 -12171 0
12257 12081 12171 0
-12258 -12256 0
-12258 -12257 0
12258 12256 12257 0
-12259 12078 0
-12259 12258 0
12259 -12078 -12258 0
-12260 -12078 0
-12260 -12258 0
12260 12078 12258 0
-12261 -12259 0
-12261 -12260 0
12261 12259 12260 0
-11935 66 0
-11935 68 0
11935 -66 -68 0
-11936 -66 0
-11936 -68 0
11936 66 68 0
-11937 -11935 0
-11937 -11936 0
11937 11935 11936 0
-12058 72 0
-12058 11937 0
12058 -72 -11937 0
-12059 -72 0
-12059 -11937 0
12059 72 11937 0
-12060 -12058 0
-12060 -12059 0
12060 12058 12059 0
-12064 74 0
-12064 81 0
12064 -74 -81 0
-12065 -74 0
-12065 -81 0
12065 74 81 0
-12066 -12064 0
-12066 -12065 0
12066 12064 12065 0
-12211 12060 0
-12211 12066 0
12211 -12060 -12066 0
-12212 -12060 0
-12212 -12066 0
12212 12060 12066 0
-12213 -12211 0
-12213 -12212 0
12213 12211 12212 0
-11854 82 0
-11854 83 0
11854 -82 -83 0
-11855 -82 0
-11855 -83 0
11855 82 83 0
-11856 -11854 0
-11856 -11855 0
11856 11854 11855 0
-11947 84 0
-11947 11856 0
11947 -84 -11856 0
-11948 -84 0
-11948 -11856 0
11948 84 11856 0
-11949 -11947 0
-11949 -11948 0
11949 11947 11948 0
-12247 11757 0
-12247 11949 0
12247 -11757 -11949 0
-12248 -11757 0
-12248 -11949 0
12248 11757 11949 0
-12249 -12247 0
-12249 -12248 0
12249 12247 12248 0
-12262 12213 0
-12262 12249 0
12262 -12213 -12249 0
-12263 -12213 0
-12263 -12249 0
12263 12213 12249 0
-12264 -12262 0
-12264 -12263 0
12264 12262 12263 0
-12382 12261 0
-12382 12264 0
12382 -12261 -12264 0
-12383 -12261 0
-12383 -12264 0
12383 12261 12264 0
-12384 -12382 0
-12384 -12383 0
12384 12382 12383 0
-12385 -181 0
-12385 12384 0
12385 181 -12384 0
-12386 181 0
-12386 -12384 0
12386 -181 12384 0
-12387 -12385 0
-12387 -12386 0
12387 12385 12386 0
-12388 2 0
-12388 3 0
12388 -2 -3 0
-12389 -2 0
-12389 -3 0
12389 2 3 0
-12390 -12388 0
-12390 -12389 0
12390 12388 12389 0
-12391 4 0
-12391 5 0
12391 -4 -5 0
-12392 -4 0
-12392 -5 0
12392 4 5 0
-12393 -12391 0
-12393 -12392 0
12393 12391 12392 0
-12394 12390 0
-12394 12393 0
12394 -12390 -12393 0
-12395 -12390 0
-12395 -12393 0
12395 12390 12393 0
-12396 -12394 0
-12396 -12395 0
12396 12394 12395 0
-12397 8 0
-12397 9 0
12397 -8 -9 0
-12398 -8 0
-12398 -9 0
12398 8 9 0
-12399 -12397 0
-12399 -12398 0
12399 12397 12398 0
-12454 12396 0
-12454 12399 0
12454 -12396 -12399 0
-12455 -12396 0
-12455 -12399 0
12455 12396 12399 0
-12456 -12454 0
-12456 -12455 0
12456 12454 12455 0
-12403 10 0
-12403 11 0
12403 -10 -11 0
-12404 -10 0
-12404 -11 0
12404 10 11 0
-12405 -12403 0
-12405 -12404 0
12405 12403 12404 0
-12553 17 0
-12553 12405 0
12553 -17 -12405 0
-12554 -17 0
-12554 -12405 0
12554 17 12405 0
-12555 -12553 0
-12555 -12554 0
12555 12553 12554 0
-12556 12456 0
-12556 12555 0
12556 -12456 -12555 0
-12557 -12456 0
-12557 -12555 0
12557 12456 12555 0
-12558 -12556 0
-12558 -12557 0
12558 12556 12557 0
-12466 22 0
-12466 24 0
12466 -22 -24 0
-12467 -22 0
-12467 -24 0
12467 22 24 0
-12468 -12466 0
-12468 -12467 0
12468 12466 12467 0
-12559 18 0
-12559 12468 0
12559 -18 -12468 0
-12560 -18 0
-12560 -12468 0
12560 18 12468 0
-12561 -12559 0
-12561 -12560 0
12561 12559 12560 0
-12409 32 0
-12409 33 0
12409 -32 -33 0
-12410 -32 0
-12410 -33 0
12410 32 33 0
-12411 -12409 0
-12411 -12410 0
12411 12409 12410 0
-12475 30 0
-12475 12411 0
12475 -30 -12411 0
-12476 -30 0
-12476 -12411 0
12476 30 12411 0
-12477 -12475 0
-12477 -12476 0
12477 12475 12476 0
-12580 28 0
-12580 12477 0
12580 -28 -12477 0
-12581 -28 0
-12581 -12477 0
12581 28 12477 0
-12582 -12580 0
-12582 -12581 0
12582 12580 12581 0
-12718 12561 0
-12718 12582 0
12718 -12561 -12582 0
-12719 -12561 0
-12719 -12582 0
12719 12561 12582 0
-12720 -12718 0
-12720 -12719 0
12720 12718 12719 0
-12721 12558 0
-12721 12720 0
12721 -12558 -12720 0
-12722 -12558 0
-12722 -12720 0
12722 12558 12720 0
-12723 -12721 0
-12723 -12722 0
12723 12721 12722 0
-12415 34 0
-12415 35 0
12415 -34 -35 0
-12416 -34 0
-12416 -35 0
12416 34 35 0
-12417 -12415 0
-12417 -12416 0
12417 12415 12416 0
-12487 36 0
-12487 12417 0
12487 -36 -12417 0
-12488 -36 0
-12488 -12417 0
12488 36 12417 0
-12489 -12487 0
-12489 -12488 0
12489 12487 12488 0
-12424 40 0
-12424 41 0
12424 -40 -41 0
-12425 -40 0
-12425 -41 0
12425 40 41 0
-12426 -12424 0
-12426 -12425 0
12426 12424 12425 0
-12493 39 0
-12493 12426 0
12493 -39 -12426 0
-12494 -39 0
-12494 -12426 0
12494 39 12426 0
-12495 -12493 0
-12495 -12494 0
12495 12493 12494 0
-12604 12489 0
-12604 12495 0
12604 -12489 -12495 0
-12605 -12489 0
-12605 -12495 0
12605 12489 12495 0
-12606 -12604 0
-12606 -12605 0
12606 12604 12605 0
-12430 42 0
-12430 43 0
12430 -42 -43 0
-12431 -42 0
-12431 -43 0
12431 42 43 0
-12432 -12430 0
-12432 -12431 0
12432 12430 12431 0
-12508 46 0
-12508 49 0
12508 -46 -49 0
-12509 -46 0
-12509 -49 0
12509 46 49 0
-12510 -12508 0
-12510 -12509 0
12510 12508 12509 0
-12628 12432 0
-12628 12510 0
12628 -12432 -12510 0
-12629 -12432 0
-12629 -12510 0
12629 12432 12510 0
-12630 -12628 0
-12630 -12629 0
12630 12628 12629 0
-12724 12606 0
-12724 12630 0
12724 -12606 -12630 0
-12725 -12606 0
-12725 -12630 0
12725 12606 12630 0
-12726 -12724 0
-12726 -12725 0
12726 12724 12725 0
-12433 62 0
-12433 63 0
12433 -62 -63 0
-12434 -62 0
-12434 -63 0
12434 62 63 0
-12435 -12433 0
-12435 -12434 0
12435 12433 12434 0
-12517 65 0
-12517 12435 0
12517 -65 -12435 0
-12518 -65 0
-12518 -12435 0
12518 65 12435 0
-12519 -12517 0
-12519 -12518 0
12519 12517 12518 0
-12514 55 0
-12514 57 0
12514 -55 -57 0
-12515 -55 0
-12515 -57 0
12515 55 57 0
-12516 -12514 0
-12516 -12515 0
12516 12514 12515 0
-12643 51 0
-12643 12516 0
12643 -51 -12516 0
-12644 -51 0
-12644 -12516 0
12644 51 12516 0
-12645 -12643 0
-12645 -12644 0
12645 12643 12644 0
-12811 12519 0
-12811 12645 0
12811 -12519 -12645 0
-12812 -12519 0
-12812 -12645 0
12812 12519 12645 0
-12813 -12811 0
-12813 -12812 0
12813 12811 12812 0
-12907 12726 0
-12907 12813 0
12907 -12726 -12813 0
-12908 -12726 0
-12908 -12813 0
12908 12726 12813 0
-12909 -12907 0
-12909 -12908 0
12909 12907 12908 0
-12910 12723 0
-12910 12909 0
12910 -12723 -12909 0
-12911 -12723 0
-12911 -12909 0
12911 12723 12909 0
-12912 -12910 0
-12912 -12911 0
12912 12910 12911 0
-12439 66 0
-12439 67 0
12439 -66 -67 0
-12440 -66 0
-12440 -67 0
12440 66 67 0
-12441 -12439 0
-12441 -12440 0
12441 12439 12440 0
-12529 68 0
-12529 12441 0
12529 -68 -12441 0
-12530 -68 0
-12530 -12441 0
12530 68 12441 0
-12531 -12529 0
-12531 -12530 0
12531 12529 12530 0
-12448 72 0
-12448 73 0
12448 -72 -73 0
-12449 -72 0
-12449 -73 0
12449 72 73 0
-12450 -12448 0
-12450 -12449 0
12450 12448 12449 0
-12535 71 0
-12535 12450 0
12535 -71 -12450 0
-12536 -71 0
-12536 -12450 0
12536 71 12450 0
-12537 -12535 0
-12537 -12536 0
12537 12535 12536 0
-12673 12531 0
-12673 12537 0
12673 -12531 -12537 0
-12674 -12531 0
-12674 -12537 0
12674 12531 12537 0
-12675 -12673 0
-12675 -12674 0
12675 12673 12674 0
-12544 78 0
-12544 80 0
12544 -78 -80 0
-12545 -78 0
-12545 -80 0
12545 78 80 0
-12546 -12544 0
-12546 -12545 0
12546 12544 12545 0
-12694 74 0
-12694 12546 0
12694 -74 -12546 0
-12695 -74 0
-12695 -12546 0
12695 74 12546 0
-12696 -12694 0
-12696 -12695 0
12696 12694 12695 0
-12859 12675 0
-12859 12696 0
12859 -12675 -12696 0
-12860 -12675 0
-12860 -12696 0
12860 12675 12696 0
-12861 -12859 0
-12861 -12860 0
12861 12859 12860 0
-12550 87 0
-12550 89 0
12550 -87 -89 0
-12551 -87 0
-12551 -89 0
12551 87 89 0
-12552 -12550 0
-12552 -12551 0
12552 12550 12551 0
-12709 82 0
-12709 12552 0
12709 -82 -12552 0
-12710 -82 0
-12710 -12552 0
12710 82 12552 0
-12711 -12709 0
-12711 -12710 0
12711 12709 12710 0
-12904 93 0
-12904 12711 0
12904 -93 -12711 0
-12905 -93 0
-12905 -12711 0
12905 93 12711 0
-12906 -12904 0
-12906 -12905 0
12906 12904 12905 0
-12913 12861 0
-12913 12906 0
12913 -12861 -12906 0
-12914 -12861 0
-12914 -12906 0
12914 12861 12906 0
-12915 -12913 0
-12915 -12914 0
12915 12913 12914 0
-13039 12912 0
-13039 12915 0
13039 -12912 -12915 0
-13040 -12912 0
-13040 -12915 0
13040 12912 12915 0
-13041 -13039 0
-13041 -13040 0
13041 13039 13040 0
-13042 -180 0
-13042 13041 0
13042 180 -13041 0
-13043 180 0
-13043 -13041 0
13043 -180 13041 0
-13044 -13042 0
-13044 -13043 0
13044 13042 13043 0
-13045 4 0
-13045 12390 0
13045 -4 -12390 0
-13046 -4 0
-13046 -12390 0
13046 4 12390 0
-13047 -13045 0
-13047 -13046 0
13047 13045 13046 0
-13057 7 0
-13057 12399 0
13057 -7 -12399 0
-13058 -7 0
-13058 -12399 0
13058 7 12399 0
-13059 -13057 0
-13059 -13058 0
13059 13057 13058 0
-13060 13047 0
-13060 13059 0
13060 -13047 -13059 0
-13061 -13047 0
-13061 -13059 0
13061 13047 13059 0
-13062 -13060 0
-13062 -13061 0
13062 13060 13061 0
-13114 10 0
-13114 16 0
13114 -10 -16 0
-13115 -10 0
-13115 -16 0
13115 10 16 0
-13116 -13114 0
-13116 -13115 0
13116 13114 13115 0
-13117 13062 0
-13117 13116 0
13117 -13062 -13116 0
-13118 -13062 0
-13118 -13116 0
13118 13062 13116 0
-13119 -13117 0
-13119 -13118 0
13119 13117 13118 0
-13138 11901 0
-13138 12411 0
13138 -11901 -12411 0
-13139 -11901 0
-13139 -12411 0
13139 11901 12411 0
-13140 -13138 0
-13140 -13139 0
13140 13138 13139 0
-13237 11958 0
-13237 13140 0
13237 -11958 -13140 0
-13238 -11958 0
-13238 -13140 0
13238 11958 13140 0
-13239 -13237 0
-13239 -13238 0
13239 13237 13238 0
-13240 13119 0
-13240 13239 0
13240 -13119 -13239 0
-13241 -13119 0
-13241 -13239 0
13241 13119 13239 0
-13242 -13240 0
-13242 -13241 0
13242 13240 13241 0
-13099 54 0
-13099 56 0
13099 -54 -56 0
-13100 -54 0
-13100 -56 0
13100 54 56 0
-13101 -13099 0
-13101 -13100 0
13101 13099 13100 0
-13198 50 0
-13198 13101 0
13198 -50 -13101 0
-13199 -50 0
-13199 -13101 0
13199 50 13101 0
-13200 -13198 0
-13200 -13199 0
13200 13198 13199 0
-13051 38 0
-13051 39 0
13051 -38 -39 0
-13052 -38 0
-13052 -39 0
13052 38 39 0
-13053 -13051 0
-13053 -13052 0
13053 13051 13052 0
-13081 12426 0
-13081 13053 0
13081 -12426 -13053 0
-13082 -12426 0
-13082 -13053 0
13082 12426 13053 0
-13083 -13081 0
-13083 -13082 0
13083 13081 13082 0
-13159 12417 0
-13159 13083 0
13159 -12417 -13083 0
-13160 -12417 0
-13160 -13083 0
13160 12417 13083 0
-13161 -13159 0
-13161 -13160 0
13161 13159 13160 0
-13087 42 0
-13087 45 0
13087 -42 -45 0
-13088 -42 0
-13088 -45 0
13088 42 45 0
-13089 -13087 0
-13089 -13088 0
13089 13087 13088 0
-13093 46 0
-13093 48 0
13093 -46 -48 0
-13094 -46 0
-13094 -48 0
13094 46 48 0
-13095 -13093 0
-13095 -13094 0
13095 13093 13094 0
-13183 13089 0
-13183 13095 0
13183 -13089 -13095 0
-13184 -13089 0
-13184 -13095 0
13184 13089 13095 0
-13185 -13183 0
-13185 -13184 0
13185 13183 13184 0
-13243 13161 0
-13243 13185 0
13243 -13161 -13185 0
-13244 -13161 0
-13244 -13185 0
13244 13161 13185 0
-13245 -13243 0
-13245 -13244 0
13245 13243 13244 0
-13399 13200 0
-13399 13245 0
13399 -13200 -13245 0
-13400 -13200 0
-13400 -13245 0
13400 13200 13245 0
-13401 -13399 0
-13401 -13400 0
13401 13399 13400 0
-13402 13242 0
-13402 13401 0
13402 -13242 -13401 0
-13403 -13242 0
-13403 -13401 0
13403 13242 13401 0
-13404 -13402 0
-13404 -13403 0
13404 13402 13403 0
-13111 86 0
-13111 88 0
13111 -86 -88 0
-13112 -86 0
-13112 -88 0
13112 86 88 0
-13113 -13111 0
-13113 -13112 0
13113 13111 13112 0
-13231 92 0
-13231 13113 0
13231 -92 -13113 0
-13232 -92 0
-13232 -13113 0
13232 92 13113 0
-13233 -13231 0
-13233 -13232 0
13233 13231 13232 0
-13102 74 0
-13102 77 0
13102 -74 -77 0
-13103 -74 0
-13103 -77 0
13103 74 77 0
-13104 -13102 0
-13104 -13103 0
13104 13102 13103 0
-13108 79 0
-13108 81 0
13108 -79 -81 0
-13109 -79 0
-13109 -81 0
13109 79 81 0
-13110 -13108 0
-13110 -13109 0
13110 13108 13109 0
-13213 13104 0
-13213 13110 0
13213 -13104 -13110 0
-13214 -13104 0
-13214 -13110 0
13214 13104 13110 0
-13215 -13213 0
-13215 -13214 0
13215 13213 13214 0
-13351 12060 0
-13351 13215 0
13351 -12060 -13215 0
-13352 -12060 0
-13352 -13215 0
13352 12060 13215 0
-13353 -13351 0
-13353 -13352 0
13353 13351 13352 0
-13405 13233 0
-13405 13353 0
13405 -13233 -13353 0
-13406 -13233 0
-13406 -13353 0
13406 13233 13353 0
-13407 -13405 0
-13407 -13406 0
13407 13405 13406 0
-13528 13404 0
-13528 13407 0
13528 -13404 -13407 0
-13529 -13404 0
-13529 -13407 0
13529 13404 13407 0
-13530 -13528 0
-13530 -13529 0
13530 13528 13529 0
-13531 -179 0
-13531 13530 0
13531 179 -13530 0
-13532 179 0
-13532 -13530 0
13532 -179 13530 0
-13533 -13531 0
-13533 -13532 0
13533 13531 13532 0
-13552 4 0
-13552 6 0
13552 -4 -6 0
-13553 -4 0
-13553 -6 0
13553 4 6 0
-13554 -13552 0
-13554 -13553 0
13554 13552 13553 0
-13534 12 0
-13534 13 0
13534 -12 -13 0
-13535 -12 0
-13535 -13 0
13535 12 13 0
-13536 -13534 0
-13536 -13535 0
13536 13534 13535 0
-13555 10 0
-13555 13536 0
13555 -10 -13536 0
-13556 -10 0
-13556 -13536 0
13556 10 13536 0
-13557 -13555 0
-13557 -13556 0
13557 13555 13556 0
-13624 11874 0
-13624 13557 0
13624 -11874 -13557 0
-13625 -11874 0
-13625 -13557 0
13625 11874 13557 0
-13626 -13624 0
-13626 -13625 0
13626 13624 13625 0
-13627 13554 0
-13627 13626 0
13627 -13554 -13626 0
-13628 -13554 0
-13628 -13626 0
13628 13554 13626 0
-13629 -13627 0
-13629 -13628 0
13629 13627 13628 0
-13567 31 0
-13567 12411 0
13567 -31 -12411 0
-13568 -31 0
-13568 -12411 0
13568 31 12411 0
-13569 -13567 0
-13569 -13568 0
13569 13567 13568 0
-13654 28 0
-13654 13569 0
13654 -28 -13569 0
-13655 -28 0
-13655 -13569 0
13655 28 13569 0
-13656 -13654 0
-13656 -13655 0
13656 13654 13655 0
-13798 12561 0
-13798 13656 0
13798 -12561 -13656 0
-13799 -12561 0
-13799 -13656 0
13799 12561 13656 0
-13800 -13798 0
-13800 -13799 0
13800 13798 13799 0
-13801 13629 0
-13801 13800 0
13801 -13629 -13800 0
-13802 -13629 0
-13802 -13800 0
13802 13629 13800 0
-13803 -13801 0
-13803 -13802 0
13803 13801 13802 0
-13540 36 0
-13540 37 0
13540 -36 -37 0
-13541 -36 0
-13541 -37 0
13541 36 37 0
-13542 -13540 0
-13542 -13541 0
13542 13540 13541 0
-13579 34 0
-13579 13542 0
13579 -34 -13542 0
-13580 -34 0
-13580 -13542 0
13580 34 13542 0
-13581 -13579 0
-13581 -13580 0
13581 13579 13580 0
-13678 12495 0
-13678 13581 0
13678 -12495 -13581 0
-13679 -12495 0
-13679 -13581 0
13679 12495 13581 0
-13680 -13678 0
-13680 -13679 0
13680 13678 13679 0
-13543 46 0
-13543 47 0
13543 -46 -47 0
-13544 -46 0
-13544 -47 0
13544 46 47 0
-13545 -13543 0
-13545 -13544 0
13545 13543 13544 0
-13594 11838 0
-13594 13545 0
13594 -11838 -13545 0
-13595 -11838 0
-13595 -13545 0
13595 11838 13545 0
-13596 -13594 0
-13596 -13595 0
13596 13594 13595 0
-13699 13089 0
-13699 13596 0
13699 -13089 -13596 0
-13700 -13089 0
-13700 -13596 0
13700 13089 13596 0
-13701 -13699 0
-13701 -13700 0
13701 13699 13700 0
-13804 13680 0
-13804 13701 0
13804 -13680 -13701 0
-13805 -13680 0
-13805 -13701 0
13805 13680 13701 0
-13806 -13804 0
-13806 -13805 0
13806 13804 13805 0
-13603 50 0
-13603 53 0
13603 -50 -53 0
-13604 -50 0
-13604 -53 0
13604 50 53 0
-13605 -13603 0
-13605 -13604 0
13605 13603 13604 0
-13612 56 0
-13612 11847 0
13612 -56 -11847 0
-13613 -56 0
-13613 -11847 0
13613 56 11847 0
-13614 -13612 0
-13614 -13613 0
13614 13612 13613 0
-13723 13605 0
-13723 13614 0
13723 -13605 -13614 0
-13724 -13605 0
-13724 -13614 0
13724 13605 13614 0
-13725 -13723 0
-13725 -13724 0
13725 13723 13724 0
-13618 63 0
-13618 65 0
13618 -63 -65 0
-13619 -63 0
-13619 -65 0
13619 63 65 0
-13620 -13618 0
-13620 -13619 0
13620 13618 13619 0
-13744 59 0
-13744 13620 0
13744 -59 -13620 0
-13745 -59 0
-13745 -13620 0
13745 59 13620 0
-13746 -13744 0
-13746 -13745 0
13746 13744 13745 0
-13897 13725 0
-13897 13746 0
13897 -13725 -13746 0
-13898 -13725 0
-13898 -13746 0
13898 13725 13746 0
-13899 -13897 0
-13899 -13898 0
13899 13897 13898 0
-13999 13806 0
-13999 13899 0
13999 -13806 -13899 0
-14000 -13806 0
-14000 -13899 0
14000 13806 13899 0
-14001 -13999 0
-14001 -14000 0
14001 13999 14000 0
-14002 13803 0
-14002 14001 0
14002 -13803 -14001 0
-14003 -13803 0
-14003 -14001 0
14003 13803 14001 0
-14004 -14002 0
-14004 -14003 0
14004 14002 14003 0
-13945 12675 0
-13945 13215 0
13945 -12675 -13215 0
-13946 -12675 0
-13946 -13215 0
13946 12675 13215 0
-13947 -13945 0
-13947 -13946 0
13947 13945 13946 0
-13789 82 0
-13789 13113 0
13789 -82 -13113 0
-13790 -82 0
-13790 -13113 0
13790 82 13113 0
-13791 -13789 0
-13791 -13790 0
13791 13789 13790 0
-13993 11757 0
-13993 13791 0
13993 -11757 -13791 0
-13994 -11757 0
-13994 -13791 0
13994 11757 13791 0
-13995 -13993 0
-13995 -13994 0
13995 13993 13994 0
-14005 13947 0
-14005 13995 0
14005 -13947 -13995 0
-14006 -13947 0
-14006 -13995 0
14006 13947 13995 0
-14007 -14005 0
-14007 -14006 0
14007 14005 14006 0
-14134 14004 0
-14134 14007 0
14134 -14004 -14007 0
-14135 -14004 0
-14135 -14007 0
14135 14004 14007 0
-14136 -14134 0
-14136 -14135 0
14136 14134 14135 0
-14137 -178 0
-14137 14136 0
14137 178 -14136 0
-14138 178 0
-14138 -14136 0
14138 -178 14136 0
-14139 -14137 0
-14139 -14138 0
14139 14137 14138 0
-11815 19 0
-11815 20 0
11815 -19 -20 0
-11816 -19 0
-11816 -20 0
11816 19 20 0
-11817 -11815 0
-11817 -11816 0
11817 11815 11816 0
-14140 22 0
-14140 23 0
14140 -22 -23 0
-14141 -22 0
-14141 -23 0
14141 22 23 0
-14142 -14140 0
-14142 -14141 0
14142 14140 14141 0
-14158 25 0
-14158 14142 0
14158 -25 -14142 0
-14159 -25 0
-14159 -14142 0
14159 25 14142 0
-14160 -14158 0
-14160 -14159 0
14160 14158 14159 0
-14206 11817 0
-14206 14160 0
14206 -11817 -14160 0
-14207 -11817 0
-14207 -14160 0
14207 11817 14160 0
-14208 -14206 0
-14208 -14207 0
14208 14206 14207 0
-14167 26 0
-14167 28 0
14167 -26 -28 0
-14168 -26 0
-14168 -28 0
14168 26 28 0
-14169 -14167 0
-14169 -14168 0
14169 14167 14168 0
-14236 12477 0
-14236 14169 0
14236 -12477 -14169 0
-14237 -12477 0
-14237 -14169 0
14237 12477 14169 0
-14238 -14236 0
-14238 -14237 0
14238 14236 14237 0
-14332 14208 0
-14332 14238 0
14332 -14208 -14238 0
-14333 -14208 0
-14333 -14238 0
14333 14208 14238 0
-14334 -14332 0
-14334 -14333 0
14334 14332 14333 0
-14146 64 0
-14146 65 0
14146 -64 -65 0
-14147 -64 0
-14147 -65 0
14147 64 65 0
-14148 -14146 0
-14148 -14147 0
14148 14146 14147 0
-14179 12435 0
-14179 14148 0
14179 -12435 -14148 0
-14180 -12435 0
-14180 -14148 0
14180 12435 14148 0
-14181 -14179 0
-14181 -14180 0
14181 14179 14180 0
-14257 35 0
-14257 12495 0
14257 -35 -12495 0
-14258 -35 0
-14258 -12495 0
14258 35 12495 0
-14259 -14257 0
-14259 -14258 0
14259 14257 14258 0
-14269 46 0
-14269 13089 0
14269 -46 -13089 0
-14270 -46 0
-14270 -13089 0
14270 46 13089 0
-14271 -14269 0
-14271 -14270 0
14271 14269 14270 0
-14335 14259 0
-14335 14271 0
14335 -14259 -14271 0
-14336 -14259 0
-14336 -14271 0
14336 14259 14271 0
-14337 -14335 0
-14337 -14336 0
14337 14335 14336 0
-14470 14181 0
-14470 14337 0
14470 -14181 -14337 0
-14471 -14181 0
-14471 -14337 0
14471 14181 14337 0
-14472 -14470 0
-14472 -14471 0
14472 14470 14471 0
-14473 14334 0
-14473 14472 0
14473 -14334 -14472 0
-14474 -14334 0
-14474 -14472 0
14474 14334 14472 0
-14475 -14473 0
-14475 -14474 0
14475 14473 14474 0
-12442 67 0
-12442 68 0
12442 -67 -68 0
-12443 -67 0
-12443 -68 0
12443 67 68 0
-12444 -12442 0
-12444 -12443 0
12444 12442 12443 0
-14149 70 0
-14149 71 0
14149 -70 -71 0
-14150 -70 0
-14150 -71 0
14150 70 71 0
-14151 -14149 0
-14151 -14150 0
14151 14149 14150 0
-14197 73 0
-14197 14151 0
14197 -73 -14151 0
-14198 -73 0
-14198 -14151 0
14198 73 14151 0
-14199 -14197 0
-14199 -14198 0
14199 14197 14198 0
-14293 12444 0
-14293 14199 0
14293 -12444 -14199 0
-14294 -12444 0
-14294 -14199 0
14294 12444 14199 0
-14295 -14293 0
-14295 -14294 0
14295 14293 14294 0
-14311 79 0
-14311 13104 0
14311 -79 -13104 0
-14312 -79 0
-14312 -13104 0
14312 79 13104 0
-14313 -14311 0
-14313 -14312 0
14313 14311 14312 0
-14425 14295 0
-14425 14313 0
14425 -14295 -14313 0
-14426 -14295 0
-14426 -14313 0
14426 14295 14313 0
-14427 -14425 0
-14427 -14426 0
14427 14425 14426 0
-14467 93 0
-14467 13791 0
14467 -93 -13791 0
-14468 -93 0
-14468 -13791 0
14468 93 13791 0
-14469 -14467 0
-14469 -14468 0
14469 14467 14468 0
-14476 14427 0
-14476 14469 0
14476 -14427 -14469 0
-14477 -14427 0
-14477 -14469 0
14477 14427 14469 0
-14478 -14476 0
-14478 -14477 0
14478 14476 14477 0
-14602 14475 0
-14602 14478 0
14602 -14475 -14478 0
-14603 -14475 0
-14603 -14478 0
14603 14475 14478 0
-14604 -14602 0
-14604 -14603 0
14604 14602 14603 0
-14605 -177 0
-14605 14604 0
14605 177 -14604 0
-14606 177 0
-14606 -14604 0
14606 -177 14604 0
-14607 -14605 0
-14607 -14606 0
14607 14605 14606 0
-14608 23 0
-14608 24 0
14608 -23 -24 0
-14609 -23 0
-14609 -24 0
14609 23 24 0
-14610 -14608 0
-14610 -14609 0
14610 14608 14609 0
-14638 18 0
-14638 11820 0
14638 -18 -11820 0
-14639 -18 0
-14639 -11820 0
14639 18 11820 0
-14640 -14638 0
-14640 -14639 0
14640 14638 14639 0
-14713 14610 0
-14713 14640 0
14713 -14610 -14640 0
-14714 -14610 0
-14714 -14640 0
14714 14610 14640 0
-14715 -14713 0
-14715 -14714 0
14715 14713 14714 0
-14854 11997 0
-14854 14715 0
14854 -11997 -14715 0
-14855 -11997 0
-14855 -14715 0
14855 11997 14715 0
-14856 -14854 0
-14856 -14855 0
14856 14854 14855 0
-14857 17 0
-14857 14856 0
14857 -17 -14856 0
-14858 -17 0
-14858 -14856 0
14858 17 14856 0
-14859 -14857 0
-14859 -14858 0
14859 14857 14858 0
-14662 43 0
-14662 45 0
14662 -43 -45 0
-14663 -43 0
-14663 -45 0
14663 43 45 0
-14664 -14662 0
-14664 -14663 0
14664 14662 14663 0
-14656 35 0
-14656 37 0
14656 -35 -37 0
-14657 -35 0
-14657 -37 0
14657 35 37 0
-14658 -14656 0
-14658 -14657 0
14658 14656 14657 0
-14764 39 0
-14764 14658 0
14764 -39 -14658 0
-14765 -39 0
-14765 -14658 0
14765 39 14658 0
-14766 -14764 0
-14766 -14765 0
14766 14764 14765 0
-14860 14664 0
-14860 14766 0
14860 -14664 -14766 0
-14861 -14664 0
-14861 -14766 0
14861 14664 14766 0
-14862 -14860 0
-14862 -14861 0
14862 14860 14861 0
-14989 13620 0
-14989 14862 0
14989 -13620 -14862 0
-14990 -13620 0
-14990 -14862 0
14990 13620 14862 0
-14991 -14989 0
-14991 -14990 0
14991 14989 14990 0
-14992 14859 0
-14992 14991 0
14992 -14859 -14991 0
-14993 -14859 0
-14993 -14991 0
14993 14859 14991 0
-14994 -14992 0
-14994 -14993 0
14994 14992 14993 0
-12445 71 0
-12445 72 0
12445 -71 -72 0
-12446 -71 0
-12446 -72 0
12446 71 72 0
-12447 -12445 0
-12447 -12446 0
12447 12445 12446 0
-14611 68 0
-14611 69 0
14611 -68 -69 0
-14612 -68 0
-14612 -69 0
14612 68 69 0
-14613 -14611 0
-14613 -14612 0
14613 14611 14612 0
-14668 66 0
-14668 14613 0
14668 -66 -14613 0
-14669 -66 0
-14669 -14613 0
14669 66 14613 0
-14670 -14668 0
-14670 -14669 0
14670 14668 14669 0
-14788 12447 0
-14788 14670 0
14788 -12447 -14670 0
-14789 -12447 0
-14789 -14670 0
14789 12447 14670 0
-14790 -14788 0
-14790 -14789 0
14790 14788 14789 0
-14617 78 0
-14617 79 0
14617 -78 -79 0
-14618 -78 0
-14618 -79 0
14618 78 79 0
-14619 -14617 0
-14619 -14618 0
14619 14617 14618 0
-14623 80 0
-14623 81 0
14623 -80 -81 0
-14624 -80 0
-14624 -81 0
14624 80 81 0
-14625 -14623 0
-14625 -14624 0
14625 14623 14624 0
-14686 14619 0
-14686 14625 0
14686 -14619 -14625 0
-14687 -14619 0
-14687 -14625 0
14687 14619 14625 0
-14688 -14686 0
-14688 -14687 0
14688 14686 14687 0
-14812 13104 0
-14812 14688 0
14812 -13104 -14688 0
-14813 -13104 0
-14813 -14688 0
14813 13104 14688 0
-14814 -14812 0
-14814 -14813 0
14814 14812 14813 0
-14935 14790 0
-14935 14814 0
14935 -14790 -14814 0
-14936 -14790 0
-14936 -14814 0
14936 14790 14814 0
-14937 -14935 0
-14937 -14936 0
14937 14935 14936 0
-14626 86 0
-14626 87 0
14626 -86 -87 0
-14627 -86 0
-14627 -87 0
14627 86 87 0
-14628 -14626 0
-14628 -14627 0
14628 14626 14627 0
-14632 88 0
-14632 89 0
14632 -88 -89 0
-14633 -88 0
-14633 -89 0
14633 88 89 0
-14634 -14632 0
-14634 -14633 0
14634 14632 14633 0
-14704 14628 0
-14704 14634 0
14704 -14628 -14634 0
-14705 -14628 0
-14705 -14634 0
14705 14628 14634 0
-14706 -14704 0
-14706 -14705 0
14706 14704 14705 0
-14836 11856 0
-14836 14706 0
14836 -11856 -14706 0
-14837 -11856 0
-14837 -14706 0
14837 11856 14706 0
-14838 -14836 0
-14838 -14837 0
14838 14836 14837 0
-14983 92 0
-14983 14838 0
14983 -92 -14838 0
-14984 -92 0
-14984 -14838 0
14984 92 14838 0
-14985 -14983 0
-14985 -14984 0
14985 14983 14984 0
-14995 14937 0
-14995 14985 0
14995 -14937 -14985 0
-14996 -14937 0
-14996 -14985 0
14996 14937 14985 0
-14997 -14995 0
-14997 -14996 0
14997 14995 14996 0
-15115 14994 0
-15115 14997 0
15115 -14994 -14997 0
-15116 -14994 0
-15116 -14997 0
15116 14994 14997 0
-15117 -15115 0
-15117 -15116 0
15117 15115 15116 0
-15118 -176 0
-15118 15117 0
15118 176 -15117 0
-15119 176 0
-15119 -15117 0
15119 -176 15117 0
-15120 -15118 0
-15120 -15119 0
15120 15118 15119 0
-15151 16 0
-15151 13557 0
15151 -16 -13557 0
-15152 -16 0
-15152 -13557 0
15152 16 13557 0
-15153 -15151 0
-15153 -15152 0
15153 15151 15152 0
-15154 13062 0
-15154 15153 0
15154 -13062 -15153 0
-15155 -13062 0
-15155 -15153 0
15155 13062 15153 0
-15156 -15154 0
-15156 -15155 0
15156 15154 15155 0
-12469 28 0
-12469 30 0
12469 -28 -30 0
-12470 -28 0
-12470 -30 0
12470 28 30 0
-12471 -12469 0
-12471 -12470 0
12471 12469 12470 0
-15127 21 0
-15127 23 0
15127 -21 -23 0
-15128 -21 0
-15128 -23 0
15128 21 23 0
-15129 -15127 0
-15129 -15128 0
15129 15127 15128 0
-15235 12471 0
-15235 15129 0
15235 -12471 -15129 0
-15236 -12471 0
-15236 -15129 0
15236 12471 15129 0
-15237 -15235 0
-15237 -15236 0
15237 15235 15236 0
-15238 15156 0
-15238 15237 0
15238 -15156 -15237 0
-15239 -15156 0
-15239 -15237 0
15239 15156 15237 0
-15240 -15238 0
-15240 -15239 0
15240 15238 15239 0
-15241 34 0
-15241 48 0
15241 -34 -48 0
-15242 -34 0
-15242 -48 0
15242 34 48 0
-15243 -15241 0
-15243 -15242 0
15243 15241 15242 0
-15196 59 0
-15196 14181 0
15196 -59 -14181 0
-15197 -59 0
-15197 -14181 0
15197 59 14181 0
-15198 -15196 0
-15198 -15197 0
15198 15196 15197 0
-15277 13200 0
-15277 15198 0
15277 -13200 -15198 0
-15278 -13200 0
-15278 -15198 0
15278 13200 15198 0
-15279 -15277 0
-15279 -15278 0
15279 15277 15278 0
-15328 15243 0
-15328 15279 0
15328 -15243 -15279 0
-15329 -15243 0
-15329 -15279 0
15329 15243 15279 0
-15330 -15328 0
-15330 -15329 0
15330 15328 15329 0
-15331 15240 0
-15331 15330 0
15331 -15240 -15330 0
-15332 -15240 0
-15332 -15330 0
15332 15240 15330 0
-15333 -15331 0
-15333 -15332 0
15333 15331 15332 0
-15148 12450 0
-15148 14151 0
15148 -12450 -14151 0
-15149 -12450 0
-15149 -14151 0
15149 12450 14151 0
-15150 -15148 0
-15150 -15149 0
15150 15148 15149 0
-15220 12441 0
-15220 15150 0
15220 -12441 -15150 0
-15221 -12441 0
-15221 -15150 0
15221 12441 15150 0
-15222 -15220 0
-15222 -15221 0
15222 15220 15221 0
-15325 74 0
-15325 15222 0
15325 -74 -15222 0
-15326 -74 0
-15326 -15222 0
15326 74 15222 0
-15327 -15325 0
-15327 -15326 0
15327 15325 15326 0
-15334 11757 0
-15334 15327 0
15334 -11757 -15327 0
-15335 -11757 0
-15335 -15327 0
15335 11757 15327 0
-15336 -15334 0
-15336 -15335 0
15336 15334 15335 0
-15448 15333 0
-15448 15336 0
15448 -15333 -15336 0
-15449 -15333 0
-15449 -15336 0
15449 15333 15336 0
-15450 -15448 0
-15450 -15449 0
15450 15448 15449 0
-15451 -175 0
-15451 15450 0
15451 175 -15450 0
-15452 175 0
-15452 -15450 0
15452 -175 15450 0
-15453 -15451 0
-15453 -15452 0
15453 15451 15452 0
-15454 13 0
-15454 12405 0
15454 -13 -12405 0
-15455 -13 0
-15455 -12405 0
15455 13 12405 0
-15456 -15454 0
-15456 -15455 0
15456 15454 15455 0
-15496 15 0
-15496 15456 0
15496 -15 -15456 0
-15497 -15 0
-15497 -15456 0
15497 15 15456 0
-15498 -15496 0
-15498 -15497 0
15498 15496 15497 0
-15499 13554 0
-15499 15498 0
15499 -13554 -15498 0
-15500 -13554 0
-15500 -15498 0
15500 13554 15498 0
-15501 -15499 0
-15501 -15500 0
15501 15499 15500 0
-15460 11820 0
-15460 14142 0
15460 -11820 -14142 0
-15461 -11820 0
-15461 -14142 0
15461 11820 14142 0
-15462 -15460 0
-15462 -15461 0
15462 15460 15461 0
-15595 12411 0
-15595 15462 0
15595 -12411 -15462 0
-15596 -12411 0
-15596 -15462 0
15596 12411 15462 0
-15597 -15595 0
-15597 -15596 0
15597 15595 15596 0
-15598 15501 0
-15598 15597 0
15598 -15501 -15597 0
-15599 -15501 0
-15599 -15597 0
15599 15501 15597 0
-15600 -15598 0
-15600 -15599 0
15600 15598 15599 0
-15466 12417 0
-15466 13542 0
15466 -12417 -13542 0
-15467 -12417 0
-15467 -13542 0
15467 12417 13542 0
-15468 -15466 0
-15468 -15467 0
15468 15466 15467 0
-15535 12426 0
-15535 15468 0
15535 -12426 -15468 0
-15536 -12426 0
-15536 -15468 0
15536 12426 15468 0
-15537 -15535 0
-15537 -15536 0
15537 15535 15536 0
-15556 12432 0
-15556 13596 0
15556 -12432 -13596 0
-15557 -12432 0
-15557 -13596 0
15557 12432 13596 0
-15558 -15556 0
-15558 -15557 0
15558 15556 15557 0
-15601 15537 0
-15601 15558 0
15601 -15537 -15558 0
-15602 -15537 0
-15602 -15558 0
15602 15537 15558 0
-15603 -15601 0
-15603 -15602 0
15603 15601 15602 0
-15691 11850 0
-15691 13725 0
15691 -11850 -13725 0
-15692 -11850 0
-15692 -13725 0
15692 11850 13725 0
-15693 -15691 0
-15693 -15692 0
15693 15691 15692 0
-15748 15603 0
-15748 15693 0
15748 -15603 -15693 0
-15749 -15603 0
-15749 -15693 0
15749 15603 15693 0
-15750 -15748 0
-15750 -15749 0
15750 15748 15749 0
-15751 15600 0
-15751 15750 0
15751 -15600 -15750 0
-15752 -15600 0
-15752 -15750 0
15752 15600 15750 0
-15753 -15751 0
-15753 -15752 0
15753 15751 15752 0
-15487 67 0
-15487 69 0
15487 -67 -69 0
-15488 -67 0
-15488 -69 0
15488 67 69 0
-15489 -15487 0
-15489 -15488 0
15489 15487 15488 0
-15490 78 0
-15490 81 0
15490 -78 -81 0
-15491 -78 0
-15491 -81 0
15491 78 81 0
-15492 -15490 0
-15492 -15491 0
15492 15490 15491 0
-15721 15489 0
-15721 15492 0
15721 -15489 -15492 0
-15722 -15489 0
-15722 -15492 0
15722 15489 15492 0
-15723 -15721 0
-15723 -15722 0
15723 15721 15722 0
-15592 83 0
-15592 12552 0
15592 -83 -12552 0
-15593 -83 0
-15593 -12552 0
15593 83 12552 0
-15594 -15592 0
-15594 -15593 0
15594 15592 15593 0
-15745 93 0
-15745 15594 0
15745 -93 -15594 0
-15746 -93 0
-15746 -15594 0
15746 93 15594 0
-15747 -15745 0
-15747 -15746 0
15747 15745 15746 0
-15754 15723 0
-15754 15747 0
15754 -15723 -15747 0
-15755 -15723 0
-15755 -15747 0
15755 15723 15747 0
-15756 -15754 0
-15756 -15755 0
15756 15754 15755 0
-15859 15753 0
-15859 15756 0
15859 -15753 -15756 0
-15860 -15753 0
-15860 -15756 0
15860 15753 15756 0
-15861 -15859 0
-15861 -15860 0
15861 15859 15860 0
-15862 -174 0
-15862 15861 0
15862 174 -15861 0
-15863 174 0
-15863 -15861 0
15863 -174 15861 0
-15864 -15862 0
-15864 -15863 0
15864 15862 15863 0
-15871 11 0
-15871 13536 0
15871 -11 -13536 0
-15872 -11 0
-15872 -13536 0
15872 11 13536 0
-15873 -15871 0
-15873 -15872 0
15873 15871 15872 0
-15898 16 0
-15898 15873 0
15898 -16 -15873 0
-15899 -16 0
-15899 -15873 0
15899 16 15873 0
-15900 -15898 0
-15900 -15899 0
15900 15898 15899 0
-15901 13062 0
-15901 15900 0
15901 -13062 -15900 0
-15902 -13062 0
-15902 -15900 0
15902 13062 15900 0
-15903 -15901 0
-15903 -15902 0
15903 15901 15902 0
-15904 22 0
-15904 11883 0
15904 -22 -11883 0
-15905 -22 0
-15905 -11883 0
15905 22 11883 0
-15906 -15904 0
-15906 -15905 0
15906 15904 15905 0
-15946 12411 0
-15946 15906 0
15946 -12411 -15906 0
-15947 -12411 0
-15947 -15906 0
15947 12411 15906 0
-15948 -15946 0
-15948 -15947 0
15948 15946 15947 0
-15949 15903 0
-15949 15948 0
15949 -15903 -15948 0
-15950 -15903 0
-15950 -15948 0
15950 15903 15948 0
-15951 -15949 0
-15951 -15950 0
15951 15949 15950 0
-15952 12606 0
-15952 13185 0
15952 -12606 -13185 0
-15953 -12606 0
-15953 -13185 0
15953 12606 13185 0
-15954 -15952 0
-15954 -15953 0
15954 15952 15953 0
-15868 56 0
-15868 57 0
15868 -56 -57 0
-15869 -56 0
-15869 -57 0
15869 56 57 0
-15870 -15868 0
-15870 -15869 0
15870 15868 15869 0
-15886 54 0
-15886 15870 0
15886 -54 -15870 0
-15887 -54 0
-15887 -15870 0
15887 54 15870 0
-15888 -15886 0
-15888 -15887 0
15888 15886 15887 0
-15922 50 0
-15922 15888 0
15922 -50 -15888 0
-15923 -50 0
-15923 -15888 0
15923 50 15888 0
-15924 -15922 0
-15924 -15923 0
15924 15922 15923 0
-16027 59 0
-16027 15924 0
16027 -59 -15924 0
-16028 -59 0
-16028 -15924 0
16028 59 15924 0
-16029 -16027 0
-16029 -16028 0
16029 16027 16028 0
-16084 15954 0
-16084 16029 0
16084 -15954 -16029 0
-16085 -15954 0
-16085 -16029 0
16085 15954 16029 0
-16086 -16084 0
-16086 -16085 0
16086 16084 16085 0
-16087 15951 0
-16087 16086 0
16087 -15951 -16086 0
-16088 -15951 0
-16088 -16086 0
16088 15951 16086 0
-16089 -16087 0
-16089 -16088 0
16089 16087 16088 0
-15895 77 0
-15895 80 0
15895 -77 -80 0
-15896 -77 0
-15896 -80 0
15896 77 80 0
-15897 -15895 0
-15897 -15896 0
15897 15895 15896 0
-16057 11937 0
-16057 15897 0
16057 -11937 -15897 0
-16058 -11937 0
-16058 -15897 0
16058 11937 15897 0
-16059 -16057 0
-16059 -16058 0
16059 16057 16058 0
-16081 92 0
-16081 13791 0
16081 -92 -13791 0
-16082 -92 0
-16082 -13791 0
16082 92 13791 0
-16083 -16081 0
-16083 -16082 0
16083 16081 16082 0
-16090 16059 0
-16090 16083 0
16090 -16059 -16083 0
-16091 -16059 0
-16091 -16083 0
16091 16059 16083 0
-16092 -16090 0
-16092 -16091 0
16092 16090 16091 0
-16189 16089 0
-16189 16092 0
16189 -16089 -16092 0
-16190 -16089 0
-16190 -16092 0
16190 16089 16092 0
-16191 -16189 0
-16191 -16190 0
16191 16189 16190 0
-16192 -173 0
-16192 16191 0
16192 173 -16191 0
-16193 173 0
-16193 -16191 0
16193 -173 16191 0
-16194 -16192 0
-16194 -16193 0
16194 16192 16193 0
-16195 6 0
-16195 9 0
16195 -6 -9 0
-16196 -6 0
-16196 -9 0
16196 6 9 0
-16197 -16195 0
-16197 -16196 0
16197 16195 16196 0
-16198 4 0
-16198 16197 0
16198 -4 -16197 0
-16199 -4 0
-16199 -16197 0
16199 4 16197 0
-16200 -16198 0
-16200 -16199 0
16200 16198 16199 0
-16204 11952 0
-16204 16200 0
16204 -11952 -16200 0
-16205 -11952 0
-16205 -16200 0
16205 11952 16200 0
-16206 -16204 0
-16206 -16205 0
16206 16204 16205 0
-16207 18 0
-16207 11892 0
16207 -18 -11892 0
-16208 -18 0
-16208 -11892 0
16208 18 11892 0
-16209 -16207 0
-16209 -16208 0
16209 16207 16208 0
-16225 11901 0
-16225 13569 0
16225 -11901 -13569 0
-16226 -11901 0
-16226 -13569 0
16226 11901 13569 0
-16227 -16225 0
-16227 -16226 0
16227 16225 16226 0
-16285 16209 0
-16285 16227 0
16285 -16209 -16227 0
-16286 -16209 0
-16286 -16227 0
16286 16209 16227 0
-16287 -16285 0
-16287 -16286 0
16287 16285 16286 0
-16288 16206 0
-16288 16287 0
16288 -16206 -16287 0
-16289 -16206 0
-16289 -16287 0
16289 16206 16287 0
-16290 -16288 0
-16290 -16289 0
16290 16288 16289 0
-16291 12606 0
-16291 13701 0
16291 -12606 -13701 0
-16292 -12606 0
-16292 -13701 0
16292 12606 13701 0
-16293 -16291 0
-16293 -16292 0
16293 16291 16292 0
-16246 11847 0
-16246 13605 0
16246 -11847 -13605 0
-16247 -11847 0
-16247 -13605 0
16247 11847 13605 0
-16248 -16246 0
-16248 -16247 0
16248 16246 16247 0
-16255 11850 0
-16255 13620 0
16255 -11850 -13620 0
-16256 -11850 0
-16256 -13620 0
16256 11850 13620 0
-16257 -16255 0
-16257 -16256 0
16257 16255 16256 0
-16375 16248 0
-16375 16257 0
16375 -16248 -16257 0
-16376 -16248 0
-16376 -16257 0
16376 16248 16257 0
-16377 -16375 0
-16377 -16376 0
16377 16375 16376 0
-16459 16293 0
-16459 16377 0
16459 -16293 -16377 0
-16460 -16293 0
-16460 -16377 0
16460 16293 16377 0
-16461 -16459 0
-16461 -16460 0
16461 16459 16460 0
-16462 16290 0
-16462 16461 0
16462 -16290 -16461 0
-16463 -16290 0
-16463 -16461 0
16463 16290 16461 0
-16464 -16462 0
-16464 -16463 0
16464 16462 16463 0
-16264 72 0
-16264 12531 0
16264 -72 -12531 0
-16265 -72 0
-16265 -12531 0
16265 72 12531 0
-16266 -16264 0
-16266 -16265 0
16266 16264 16265 0
-16276 12546 0
-16276 13104 0
16276 -12546 -13104 0
-16277 -12546 0
-16277 -13104 0
16277 12546 13104 0
-16278 -16276 0
-16278 -16277 0
16278 16276 16277 0
-16423 16266 0
-16423 16278 0
16423 -16266 -16278 0
-16424 -16266 0
-16424 -16278 0
16424 16266 16278 0
-16425 -16423 0
-16425 -16424 0
16425 16423 16424 0
-16465 13995 0
-16465 16425 0
16465 -13995 -16425 0
-16466 -13995 0
-16466 -16425 0
16466 13995 16425 0
-16467 -16465 0
-16467 -16466 0
16467 16465 16466 0
-16588 16464 0
-16588 16467 0
16588 -16464 -16467 0
-16589 -16464 0
-16589 -16467 0
16589 16464 16467 0
-16590 -16588 0
-16590 -16589 0
16590 16588 16589 0
-16591 -172 0
-16591 16590 0
16591 172 -16590 0
-16592 172 0
-16592 -16590 0
16592 -172 16590 0
-16593 -16591 0
-16593 -16592 0
16593 16591 16592 0
-12460 12399 0
-12460 12405 0
12460 -12399 -12405 0
-12461 -12399 0
-12461 -12405 0
12461 12399 12405 0
-12462 -12460 0
-12462 -12461 0
12462 12460 12461 0
-16597 11817 0
-16597 12468 0
16597 -11817 -12468 0
-16598 -11817 0
-16598 -12468 0
16598 11817 12468 0
-16599 -16597 0
-16599 -16598 0
16599 16597 16598 0
-16624 12582 0
-16624 16599 0
16624 -12582 -16599 0
-16625 -12582 0
-16625 -16599 0
16625 12582 16599 0
-16626 -16624 0
-16626 -16625 0
16626 16624 16625 0
-16627 12462 0
-16627 16626 0
16627 -12462 -16626 0
-16628 -12462 0
-16628 -16626 0
16628 12462 16626 0
-16629 -16627 0
-16629 -16628 0
16629 16627 16628 0
-16630 12606 0
-16630 14271 0
16630 -12606 -14271 0
-16631 -12606 0
-16631 -14271 0
16631 12606 14271 0
-16632 -16630 0
-16632 -16631 0
16632 16630 16631 0
-16678 12516 0
-16678 14181 0
16678 -12516 -14181 0
-16679 -12516 0
-16679 -14181 0
16679 12516 14181 0
-16680 -16678 0
-16680 -16679 0
16680 16678 16679 0
-16753 16632 0
-16753 16680 0
16753 -16632 -16680 0
-16754 -16632 0
-16754 -16680 0
16754 16632 16680 0
-16755 -16753 0
-16755 -16754 0
16755 16753 16754 0
-16756 16629 0
-16756 16755 0
16756 -16629 -16755 0
-16757 -16629 0
-16757 -16755 0
16757 16629 16755 0
-16758 -16756 0
-16758 -16757 0
16758 16756 16757 0
-16621 12444 0
-16621 12537 0
16621 -12444 -12537 0
-16622 -12444 0
-16622 -12537 0
16622 12444 12537 0
-16623 -16621 0
-16623 -16622 0
16623 16621 16622 0
-16726 12696 0
-16726 16623 0
16726 -12696 -16623 0
-16727 -12696 0
-16727 -16623 0
16727 12696 16623 0
-16728 -16726 0
-16728 -16727 0
16728 16726 16727 0
-16759 14469 0
-16759 16728 0
16759 -14469 -16728 0
-16760 -14469 0
-16760 -16728 0
16760 14469 16728 0
-16761 -16759 0
-16761 -16760 0
16761 16759 16760 0
-16885 16758 0
-16885 16761 0
16885 -16758 -16761 0
-16886 -16758 0
-16886 -16761 0
16886 16758 16761 0
-16887 -16885 0
-16887 -16886 0
16887 16885 16886 0
-16888 -171 0
-16888 16887 0
16888 171 -16887 0
-16889 171 0
-16889 -16887 0
16889 -171 16887 0
-16890 -16888 0
-16890 -16889 0
16890 16888 16889 0
-16909 10 0
-16909 17 0
16909 -10 -17 0
-16910 -10 0
-16910 -17 0
16910 10 17 0
-16911 -16909 0
-16911 -16910 0
16911 16909 16910 0
-16912 13059 0
-16912 16911 0
16912 -13059 -16911 0
-16913 -13059 0
-16913 -16911 0
16913 13059 16911 0
-16914 -16912 0
-16914 -16913 0
16914 16912 16913 0
-16915 11892 0
-16915 14640 0
16915 -11892 -14640 0
-16916 -11892 0
-16916 -14640 0
16916 11892 14640 0
-16917 -16915 0
-16917 -16916 0
16917 16915 16916 0
-16981 16227 0
-16981 16917 0
16981 -16227 -16917 0
-16982 -16227 0
-16982 -16917 0
16982 16227 16917 0
-16983 -16981 0
-16983 -16982 0
16983 16981 16982 0
-16984 16914 0
-16984 16983 0
16984 -16914 -16983 0
-16985 -16914 0
-16985 -16983 0
16985 16914 16983 0
-16986 -16984 0
-16986 -16985 0
16986 16984 16985 0
-16891 44 0
-16891 45 0
16891 -44 -45 0
-16892 -44 0
-16892 -45 0
16892 44 45 0
-16893 -16891 0
-16893 -16892 0
16893 16891 16892 0
-16903 46 0
-16903 16893 0
16903 -46 -16893 0
-16904 -46 0
-16904 -16893 0
16904 46 16893 0
-16905 -16903 0
-16905 -16904 0
16905 16903 16904 0
-16987 13161 0
-16987 16905 0
16987 -13161 -16905 0
-16988 -13161 0
-16988 -16905 0
16988 13161 16905 0
-16989 -16987 0
-16989 -16988 0
16989 16987 16988 0
-17074 13101 0
-17074 13620 0
17074 -13101 -13620 0
-17075 -13101 0
-17075 -13620 0
17075 13101 13620 0
-17076 -17074 0
-17076 -17075 0
17076 17074 17075 0
-17146 16989 0
-17146 17076 0
17146 -16989 -17076 0
-17147 -16989 0
-17147 -17076 0
17147 16989 17076 0
-17148 -17146 0
-17148 -17147 0
17148 17146 17147 0
-17149 16986 0
-17149 17148 0
17149 -16986 -17148 0
-17150 -16986 0
-17150 -17148 0
17150 16986 17148 0
-17151 -17149 0
-17151 -17150 0
17151 17149 17150 0
-16906 85 0
-16906 87 0
16906 -85 -87 0
-16907 -85 0
-16907 -87 0
16907 85 87 0
-16908 -16906 0
-16908 -16907 0
16908 16906 16907 0
-16975 92 0
-16975 16908 0
16975 -92 -16908 0
-16976 -92 0
-16976 -16908 0
16976 92 16908 0
-16977 -16975 0
-16977 -16976 0
16977 16975 16976 0
-17152 13353 0
-17152 16977 0
17152 -13353 -16977 0
-17153 -13353 0
-17153 -16977 0
17153 13353 16977 0
-17154 -17152 0
-17154 -17153 0
17154 17152 17153 0
-17278 17151 0
-17278 17154 0
17278 -17151 -17154 0
-17279 -17151 0
-17279 -17154 0
17279 17151 17154 0
-17280 -17278 0
-17280 -17279 0
17280 17278 17279 0
-17281 -170 0
-17281 17280 0
17281 170 -17280 0
-17282 170 0
-17282 -17280 0
17282 -170 17280 0
-17283 -17281 0
-17283 -17282 0
17283 17281 17282 0
-17287 6 0
-17287 13047 0
17287 -6 -13047 0
-17288 -6 0
-17288 -13047 0
17288 6 13047 0
-17289 -17287 0
-17289 -17288 0
17289 17287 17288 0
-17314 15153 0
-17314 17289 0
17314 -15153 -17289 0
-17315 -15153 0
-17315 -17289 0
17315 15153 17289 0
-17316 -17314 0
-17316 -17315 0
17316 17314 17315 0
-17416 12468 0
-17416 12582 0
17416 -12468 -12582 0
-17417 -12468 0
-17417 -12582 0
17417 12468 12582 0
-17418 -17416 0
-17418 -17417 0
17418 17416 17417 0
-17419 17316 0
-17419 17418 0
17419 -17316 -17418 0
-17420 -17316 0
-17420 -17418 0
17420 17316 17418 0
-17421 -17419 0
-17421 -17420 0
17421 17419 17420 0
-12421 39 0
-12421 40 0
12421 -39 -40 0
-12422 -39 0
-12422 -40 0
12422 39 40 0
-12423 -12421 0
-12423 -12422 0
12423 12421 12422 0
-17329 12423 0
-17329 13581 0
17329 -12423 -13581 0
-17330 -12423 0
-17330 -13581 0
17330 12423 13581 0
-17331 -17329 0
-17331 -17330 0
17331 17329 17330 0
-17296 45 0
-17296 12432 0
17296 -45 -12432 0
-17297 -45 0
-17297 -12432 0
17297 45 12432 0
-17298 -17296 0
-17298 -17297 0
17298 17296 17297 0
-17353 13095 0
-17353 17298 0
17353 -13095 -17298 0
-17354 -13095 0
-17354 -17298 0
17354 13095 17298 0
-17355 -17353 0
-17355 -17354 0
17355 17353 17354 0
-17422 17331 0
-17422 17355 0
17422 -17331 -17355 0
-17423 -17331 0
-17423 -17355 0
17423 17331 17355 0
-17424 -17422 0
-17424 -17423 0
17424 17422 17423 0
-17512 13725 0
-17512 15198 0
17512 -13725 -15198 0
-17513 -13725 0
-17513 -15198 0
17513 13725 15198 0
-17514 -17512 0
-17514 -17513 0
17514 17512 17513 0
-17608 17424 0
-17608 17514 0
17608 -17424 -17514 0
-17609 -17424 0
-17609 -17514 0
17609 17424 17514 0
-17610 -17608 0
-17610 -17609 0
17610 17608 17609 0
-17611 17421 0
-17611 17610 0
17611 -17421 -17610 0
-17612 -17421 0
-17612 -17610 0
17612 17421 17610 0
-17613 -17611 0
-17613 -17612 0
17613 17611 17612 0
-14629 87 0
-14629 88 0
14629 -87 -88 0
-14630 -87 0
-14630 -88 0
14630 87 88 0
-14631 -14629 0
-14631 -14630 0
14631 14629 14630 0
-17284 84 0
-17284 85 0
17284 -84 -85 0
-17285 -84 0
-17285 -85 0
17285 84 85 0
-17286 -17284 0
-17286 -17285 0
17286 17284 17285 0
-17305 82 0
-17305 17286 0
17305 -82 -17286 0
-17306 -82 0
-17306 -17286 0
17306 82 17286 0
-17307 -17305 0
-17307 -17306 0
17307 17305 17306 0
-17401 14631 0
-17401 17307 0
17401 -14631 -17307 0
-17402 -14631 0
-17402 -17307 0
17402 14631 17307 0
-17403 -17401 0
-17403 -17402 0
17403 17401 17402 0
-17596 11757 0
-17596 17403 0
17596 -11757 -17403 0
-17597 -11757 0
-17597 -17403 0
17597 11757 17403 0
-17598 -17596 0
-17598 -17597 0
17598 17596 17597 0
-17614 13947 0
-17614 17598 0
17614 -13947 -17598 0
-17615 -13947 0
-17615 -17598 0
17615 13947 17598 0
-17616 -17614 0
-17616 -17615 0
17616 17614 17615 0
-17743 17613 0
-17743 17616 0
17743 -17613 -17616 0
-17744 -17613 0
-17744 -17616 0
17744 17613 17616 0
-17745 -17743 0
-17745 -17744 0
17745 17743 17744 0
-17746 -169 0
-17746 17745 0
17746 169 -17745 0
-17747 169 0
-17747 -17745 0
17747 -169 17745 0
-17748 -17746 0
-17748 -17747 0
17748 17746 17747 0
-13048 7 0
-13048 8 0
13048 -7 -8 0
-13049 -7 0
-13049 -8 0
13049 7 8 0
-13050 -13048 0
-13050 -13049 0
13050 13048 13049 0
-17749 12393 0
-17749 13050 0
17749 -12393 -13050 0
-17750 -12393 0
-17750 -13050 0
17750 12393 13050 0
-17751 -17749 0
-17751 -17750 0
17751 17749 17750 0
-17785 15498 0
-17785 17751 0
17785 -15498 -17751 0
-17786 -15498 0
-17786 -17751 0
17786 15498 17751 0
-17787 -17785 0
-17787 -17786 0
17787 17785 17786 0
-17866 12411 0
-17866 17787 0
17866 -12411 -17787 0
-17867 -12411 0
-17867 -17787 0
17867 12411 17787 0
-17868 -17866 0
-17868 -17867 0
17868 17866 17867 0
-17758 39 0
-17758 41 0
17758 -39 -41 0
-17759 -39 0
-17759 -41 0
17759 39 41 0
-17760 -17758 0
-17760 -17759 0
17760 17758 17759 0
-17794 35 0
-17794 17760 0
17794 -35 -17760 0
-17795 -35 0
-17795 -17760 0
17795 35 17760 0
-17796 -17794 0
-17796 -17795 0
17796 17794 17795 0
-17809 45 0
-17809 13596 0
17809 -45 -13596 0
-17810 -45 0
-17810 -13596 0
17810 45 13596 0
-17811 -17809 0
-17811 -17810 0
17811 17809 17810 0
-17869 17796 0
-17869 17811 0
17869 -17796 -17811 0
-17870 -17796 0
-17870 -17811 0
17870 17796 17811 0
-17871 -17869 0
-17871 -17870 0
17871 17869 17870 0
-13549 55 0
-13549 56 0
13549 -55 -56 0
-13550 -55 0
-13550 -56 0
13550 55 56 0
-13551 -13549 0
-13551 -13550 0
13551 13549 13550 0
-17764 50 0
-17764 11841 0
17764 -50 -11841 0
-17765 -50 0
-17765 -11841 0
17765 50 11841 0
-17766 -17764 0
-17766 -17765 0
17766 17764 17765 0
-17827 13551 0
-17827 17766 0
17827 -13551 -17766 0
-17828 -13551 0
-17828 -17766 0
17828 13551 17766 0
-17829 -17827 0
-17829 -17828 0
17829 17827 17828 0
-17941 11850 0
-17941 17829 0
17941 -11850 -17829 0
-17942 -11850 0
-17942 -17829 0
17942 11850 17829 0
-17943 -17941 0
-17943 -17942 0
17943 17941 17942 0
-17995 17871 0
-17995 17943 0
17995 -17871 -17943 0
-17996 -17871 0
-17996 -17943 0
17996 17871 17943 0
-17997 -17995 0
-17997 -17996 0
17997 17995 17996 0
-17998 17868 0
-17998 17997 0
17998 -17868 -17997 0
-17999 -17868 0
-17999 -17997 0
17999 17868 17997 0
-18000 -17998 0
-18000 -17999 0
18000 17998 17999 0
-13105 77 0
-13105 79 0
13105 -77 -79 0
-13106 -77 0
-13106 -79 0
13106 77 79 0
-13107 -13105 0
-13107 -13106 0
13107 13105 13106 0
-17776 11856 0
-17776 17286 0
17776 -11856 -17286 0
-17777 -11856 0
-17777 -17286 0
17777 11856 17286 0
-17778 -17776 0
-17778 -17777 0
17778 17776 17777 0
-17857 88 0
-17857 17778 0
17857 -88 -17778 0
-17858 -88 0
-17858 -17778 0
17858 88 17778 0
-17859 -17857 0
-17859 -17858 0
17859 17857 17858 0
-17983 93 0
-17983 17859 0
17983 -93 -17859 0
-17984 -93 0
-17984 -17859 0
17984 93 17859 0
-17985 -17983 0
-17985 -17984 0
17985 17983 17984 0
-18001 13107 0
-18001 17985 0
18001 -13107 -17985 0
-18002 -13107 0
-18002 -17985 0
18002 13107 17985 0
-18003 -18001 0
-18003 -18002 0
18003 18001 18002 0
-18118 18000 0
-18118 18003 0
18118 -18000 -18003 0
-18119 -18000 0
-18119 -18003 0
18119 18000 18003 0
-18120 -18118 0
-18120 -18119 0
18120 18118 18119 0
-18121 -168 0
-18121 18120 0
18121 168 -18120 0
-18122 168 0
-18122 -18120 0
18122 -168 18120 0
-18123 -18121 0
-18123 -18122 0
18123 18121 18122 0
-18124 5 0
-18124 12390 0
18124 -5 -12390 0
-18125 -5 0
-18125 -12390 0
18125 5 12390 0
-18126 -18124 0
-18126 -18125 0
18126 18124 18125 0
-18136 6 0
-18136 12399 0
18136 -6 -12399 0
-18137 -6 0
-18137 -12399 0
18137 6 12399 0
-18138 -18136 0
-18138 -18137 0
18138 18136 18137 0
-18139 18126 0
-18139 18138 0
18139 -18126 -18138 0
-18140 -18126 0
-18140 -18138 0
18140 18126 18138 0
-18141 -18139 0
-18141 -18140 0
18141 18139 18140 0
-18175 15900 0
-18175 18141 0
18175 -15900 -18141 0
-18176 -15900 0
-18176 -18141 0
18176 15900 18141 0
-18177 -18175 0
-18177 -18176 0
18177 18175 18176 0
-18178 41 0
-18178 14658 0
18178 -41 -14658 0
-18179 -41 0
-18179 -14658 0
18179 41 14658 0
-18180 -18178 0
-18180 -18179 0
18180 18178 18179 0
-18193 48 0
-18193 14664 0
18193 -48 -14664 0
-18194 -48 0
-18194 -14664 0
18194 48 14664 0
-18195 -18193 0
-18195 -18194 0
18195 18193 18194 0
-18265 18180 0
-18265 18195 0
18265 -18180 -18195 0
-18266 -18180 0
-18266 -18195 0
18266 18180 18195 0
-18267 -18265 0
-18267 -18266 0
18267 18265 18266 0
-18130 50 0
-18130 51 0
18130 -50 -51 0
-18131 -50 0
-18131 -51 0
18131 50 51 0
-18132 -18130 0
-18132 -18131 0
18132 18130 18131 0
-18151 53 0
-18151 18132 0
18151 -53 -18132 0
-18152 -53 0
-18152 -18132 0
18152 53 18132 0
-18153 -18151 0
-18153 -18152 0
18153 18151 18152 0
-18217 15888 0
-18217 18153 0
18217 -15888 -18153 0
-18218 -15888 0
-18218 -18153 0
18218 15888 18153 0
-18219 -18217 0
-18219 -18218 0
18219 18217 18218 0
-18325 59 0
-18325 18219 0
18325 -59 -18219 0
-18326 -59 0
-18326 -18219 0
18326 59 18219 0
-18327 -18325 0
-18327 -18326 0
18327 18325 18326 0
-18376 18267 0
-18376 18327 0
18376 -18267 -18327 0
-18377 -18267 0
-18377 -18327 0
18377 18267 18327 0
-18378 -18376 0
-18378 -18377 0
18378 18376 18377 0
-18379 18177 0
-18379 18378 0
18379 -18177 -18378 0
-18380 -18177 0
-18380 -18378 0
18380 18177 18378 0
-18381 -18379 0
-18381 -18380 0
18381 18379 18380 0
-18229 77 0
-18229 14688 0
18229 -77 -14688 0
-18230 -77 0
-18230 -14688 0
18230 77 14688 0
-18231 -18229 0
-18231 -18230 0
18231 18229 18230 0
-18253 14706 0
-18253 17286 0
18253 -14706 -17286 0
-18254 -14706 0
-18254 -17286 0
18254 14706 17286 0
-18255 -18253 0
-18255 -18254 0
18255 18253 18254 0
-18367 92 0
-18367 18255 0
18367 -92 -18255 0
-18368 -92 0
-18368 -18255 0
18368 92 18255 0
-18369 -18367 0
-18369 -18368 0
18369 18367 18368 0
-18382 18231 0
-18382 18369 0
18382 -18231 -18369 0
-18383 -18231 0
-18383 -18369 0
18383 18231 18369 0
-18384 -18382 0
-18384 -18383 0
18384 18382 18383 0
-18493 18381 0
-18493 18384 0
18493 -18381 -18384 0
-18494 -18381 0
-18494 -18384 0
18494 18381 18384 0
-18495 -18493 0
-18495 -18494 0
18495 18493 18494 0
-18496 -167 0
-18496 18495 0
18496 167 -18495 0
-18497 167 0
-18497 -18495 0
18497 -167 18495 0
-18498 -18496 0
-18498 -18497 0
18498 18496 18497 0
-15502 15 0
-15502 11865 0
15502 -15 -11865 0
-15503 -15 0
-15503 -11865 0
15503 15 11865 0
-15504 -15502 0
-15504 -15503 0
15504 15502 15503 0
-18511 11862 0
-18511 15504 0
18511 -11862 -15504 0
-18512 -11862 0
-18512 -15504 0
18512 11862 15504 0
-18513 -18511 0
-18513 -18512 0
18513 18511 18512 0
-18499 23 0
-18499 25 0
18499 -23 -25 0
-18500 -23 0
-18500 -25 0
18500 23 25 0
-18501 -18499 0
-18501 -18500 0
18501 18499 18500 0
-18514 19 0
-18514 18501 0
18514 -19 -18501 0
-18515 -19 0
-18515 -18501 0
18515 19 18501 0
-18516 -18514 0
-18516 -18515 0
18516 18514 18515 0
-18550 12411 0
-18550 18516 0
18550 -12411 -18516 0
-18551 -12411 0
-18551 -18516 0
18551 12411 18516 0
-18552 -18550 0
-18552 -18551 0
18552 18550 18551 0
-18553 18513 0
-18553 18552 0
18553 -18513 -18552 0
-18554 -18513 0
-18554 -18552 0
18554 18513 18552 0
-18555 -18553 0
-18555 -18554 0
18555 18553 18554 0
-12034 11850 0
-12034 11925 0
12034 -11850 -11925 0
-12035 -11850 0
-12035 -11925 0
12035 11850 11925 0
-12036 -12034 0
-12036 -12035 0
12036 12034 12035 0
-18679 12036 0
-18679 16293 0
18679 -12036 -16293 0
-18680 -12036 0
-18680 -16293 0
18680 12036 16293 0
-18681 -18679 0
-18681 -18680 0
18681 18679 18680 0
-18682 18555 0
-18682 18681 0
18682 -18555 -18681 0
-18683 -18555 0
-18683 -18681 0
18683 18555 18681 0
-18684 -18682 0
-18684 -18683 0
18684 18682 18683 0
-18505 12441 0
-18505 14613 0
18505 -12441 -14613 0
-18506 -12441 0
-18506 -14613 0
18506 12441 14613 0
-18507 -18505 0
-18507 -18506 0
18507 18505 18506 0
-18547 77 0
-18547 12546 0
18547 -77 -12546 0
-18548 -77 0
-18548 -12546 0
18548 77 12546 0
-18549 -18547 0
-18549 -18548 0
18549 18547 18548 0
-18655 18507 0
-18655 18549 0
18655 -18507 -18549 0
-18656 -18507 0
-18656 -18549 0
18656 18507 18549 0
-18657 -18655 0
-18657 -18656 0
18657 18655 18656 0
-18685 13995 0
-18685 18657 0
18685 -13995 -18657 0
-18686 -13995 0
-18686 -18657 0
18686 13995 18657 0
-18687 -18685 0
-18687 -18686 0
18687 18685 18686 0
-18802 18684 0
-18802 18687 0
18802 -18684 -18687 0
-18803 -18684 0
-18803 -18687 0
18803 18684 18687 0
-18804 -18802 0
-18804 -18803 0
18804 18802 18803 0
-18805 -166 0
-18805 18804 0
18805 166 -18804 0
-18806 166 0
-18806 -18804 0
18806 -166 18804 0
-18807 -18805 0
-18807 -18806 0
18807 18805 18806 0
-18811 24 0
-18811 25 0
18811 -24 -25 0
-18812 -24 0
-18812 -25 0
18812 24 25 0
-18813 -18811 0
-18813 -18812 0
18813 18811 18812 0
-18808 18 0
-18808 19 0
18808 -18 -19 0
-18809 -18 0
-18809 -19 0
18809 18 19 0
-18810 -18808 0
-18810 -18809 0
18810 18808 18809 0
-18820 11820 0
-18820 18810 0
18820 -11820 -18810 0
-18821 -11820 0
-18821 -18810 0
18821 11820 18810 0
-18822 -18820 0
-18822 -18821 0
18822 18820 18821 0
-18838 18813 0
-18838 18822 0
18838 -18813 -18822 0
-18839 -18813 0
-18839 -18822 0
18839 18813 18822 0
-18840 -18838 0
-18840 -18839 0
18840 18838 18839 0
-18898 16227 0
-18898 18840 0
18898 -16227 -18840 0
-18899 -16227 0
-18899 -18840 0
18899 16227 18840 0
-18900 -18898 0
-18900 -18899 0
18900 18898 18899 0
-18901 12558 0
-18901 18900 0
18901 -12558 -18900 0
-18902 -12558 0
-18902 -18900 0
18902 12558 18900 0
-18903 -18901 0
-18903 -18902 0
18903 18901 18902 0
-18871 12510 0
-18871 13089 0
18871 -12510 -13089 0
-18872 -12510 0
-18872 -13089 0
18872 12510 13089 0
-18873 -18871 0
-18873 -18872 0
18873 18871 18872 0
-18904 12606 0
-18904 18873 0
18904 -12606 -18873 0
-18905 -12606 0
-18905 -18873 0
18905 12606 18873 0
-18906 -18904 0
-18906 -18905 0
18906 18904 18905 0
-18961 12645 0
-18961 13620 0
18961 -12645 -13620 0
-18962 -12645 0
-18962 -13620 0
18962 12645 13620 0
-18963 -18961 0
-18963 -18962 0
18963 18961 18962 0
-19012 18906 0
-19012 18963 0
19012 -18906 -18963 0
-19013 -18906 0
-19013 -18963 0
19013 18906 18963 0
-19014 -19012 0
-19014 -19013 0
19014 19012 19013 0
-19015 18903 0
-19015 19014 0
19015 -18903 -19014 0
-19016 -18903 0
-19016 -19014 0
19016 18903 19014 0
-19017 -19015 0
-19017 -19016 0
19017 19015 19016 0
-18889 67 0
-18889 72 0
18889 -67 -72 0
-18890 -67 0
-18890 -72 0
18890 67 72 0
-18891 -18889 0
-18891 -18890 0
18891 18889 18890 0
-18997 12696 0
-18997 18891 0
18997 -12696 -18891 0
-18998 -12696 0
-18998 -18891 0
18998 12696 18891 0
-18999 -18997 0
-18999 -18998 0
18999 18997 18998 0
-19018 14469 0
-19018 18999 0
19018 -14469 -18999 0
-19019 -14469 0
-19019 -18999 0
19019 14469 18999 0
-19020 -19018 0
-19020 -19019 0
19020 19018 19019 0
-19123 19017 0
-19123 19020 0
19123 -19017 -19020 0
-19124 -19017 0
-19124 -19020 0
19124 19017 19020 0
-19125 -19123 0
-19125 -19124 0
19125 19123 19124 0
-19126 -165 0
-19126 19125 0
19126 165 -19125 0
-19127 165 0
-19127 -19125 0
19127 -165 19125 0
-19128 -19126 0
-19128 -19127 0
19128 19126 19127 0
-19129 16 0
-19129 17 0
19129 -16 -17 0
-19130 -16 0
-19130 -17 0
19130 16 17 0
-19131 -19129 0
-19131 -19130 0
19131 19129 19130 0
-19174 10 0
-19174 19131 0
19174 -10 -19131 0
-19175 -10 0
-19175 -19131 0
19175 10 19131 0
-19176 -19174 0
-19176 -19175 0
19176 19174 19175 0
-19177 13062 0
-19177 19176 0
19177 -13062 -19176 0
-19178 -13062 0
-19178 -19176 0
19178 13062 19176 0
-19179 -19177 0
-19179 -19178 0
19179 19177 19178 0
-19141 20 0
-19141 18810 0
19141 -20 -18810 0
-19142 -20 0
-19142 -18810 0
19142 20 18810 0
-19143 -19141 0
-19143 -19142 0
19143 19141 19142 0
-19147 23 0
-19147 18813 0
19147 -23 -18813 0
-19148 -23 0
-19148 -18813 0
19148 23 18813 0
-19149 -19147 0
-19149 -19148 0
19149 19147 19148 0
-19180 19143 0
-19180 19149 0
19180 -19143 -19149 0
-19181 -19143 0
-19181 -19149 0
19181 19143 19149 0
-19182 -19180 0
-19182 -19181 0
19182 19180 19181 0
-19132 30 0
-19132 31 0
19132 -30 -31 0
-19133 -30 0
-19133 -31 0
19133 30 31 0
-19134 -19132 0
-19134 -19133 0
19134 19132 19133 0
-19162 12411 0
-19162 19134 0
19162 -12411 -19134 0
-19163 -12411 0
-19163 -19134 0
19163 12411 19134 0
-19164 -19162 0
-19164 -19163 0
19164 19162 19163 0
-19219 11829 0
-19219 19164 0
19219 -11829 -19164 0
-19220 -11829 0
-19220 -19164 0
19220 11829 19164 0
-19221 -19219 0
-19221 -19220 0
19221 19219 19220 0
-19267 19182 0
-19267 19221 0
19267 -19182 -19221 0
-19268 -19182 0
-19268 -19221 0
19268 19182 19221 0
-19269 -19267 0
-19269 -19268 0
19269 19267 19268 0
-19270 19179 0
-19270 19269 0
19270 -19179 -19269 0
-19271 -19179 0
-19271 -19269 0
19271 19179 19269 0
-19272 -19270 0
-19272 -19271 0
19272 19270 19271 0
-19237 13095 0
-19237 16893 0
19237 -13095 -16893 0
-19238 -13095 0
-19238 -16893 0
19238 13095 16893 0
-19239 -19237 0
-19239 -19238 0
19239 19237 19238 0
-19273 13161 0
-19273 19239 0
19273 -13161 -19239 0
-19274 -13161 0
-19274 -19239 0
19274 13161 19239 0
-19275 -19273 0
-19275 -19274 0
19275 19273 19274 0
-19165 62 0
-19165 64 0
19165 -62 -64 0
-19166 -62 0
-19166 -64 0
19166 62 64 0
-19167 -19165 0
-19167 -19166 0
19167 19165 19166 0
-19348 13200 0
-19348 19167 0
19348 -13200 -19167 0
-19349 -13200 0
-19349 -19167 0
19349 13200 19167 0
-19350 -19348 0
-19350 -19349 0
19350 19348 19349 0
-19402 19275 0
-19402 19350 0
19402 -19275 -19350 0
-19403 -19275 0
-19403 -19350 0
19403 19275 19350 0
-19404 -19402 0
-19404 -19403 0
19404 19402 19403 0
-19405 19272 0
-19405 19404 0
19405 -19272 -19404 0
-19406 -19272 0
-19406 -19404 0
19406 19272 19404 0
-19407 -19405 0
-19407 -19406 0
19407 19405 19406 0
-13216 77 0
-13216 13110 0
13216 -77 -13110 0
-13217 -77 0
-13217 -13110 0
13217 77 13110 0
-13218 -13216 0
-13218 -13217 0
13218 13216 13217 0
-19171 71 0
-19171 73 0
19171 -71 -73 0
-19172 -71 0
-19172 -73 0
19172 71 73 0
-19173 -19171 0
-19173 -19172 0
19173 19171 19172 0
-19258 66 0
-19258 19173 0
19258 -66 -19173 0
-19259 -66 0
-19259 -19173 0
19259 66 19173 0
-19260 -19258 0
-19260 -19259 0
19260 19258 19259 0
-19387 13218 0
-19387 19260 0
19387 -13218 -19260 0
-19388 -13218 0
-19388 -19260 0
19388 13218 19260 0
-19389 -19387 0
-19389 -19388 0
19389 19387 19388 0
-19408 16977 0
-19408 19389 0
19408 -16977 -19389 0
-19409 -16977 0
-19409 -19389 0
19409 16977 19389 0
-19410 -19408 0
-19410 -19409 0
19410 19408 19409 0
-19516 19407 0
-19516 19410 0
19516 -19407 -19410 0
-19517 -19407 0
-19517 -19410 0
19517 19407 19410 0
-19518 -19516 0
-19518 -19517 0
19518 19516 19517 0
-19519 -164 0
-19519 19518 0
19519 164 -19518 0
-19520 164 0
-19520 -19518 0
19520 -164 19518 0
-19521 -19519 0
-19521 -19520 0
19521 19519 19520 0
-19525 21 0
-19525 18810 0
19525 -21 -18810 0
-19526 -21 0
-19526 -18810 0
19526 21 18810 0
-19527 -19525 0
-19527 -19526 0
19527 19525 19526 0
-19534 22 0
-19534 18813 0
19534 -22 -18813 0
-19535 -22 0
-19535 -18813 0
19535 22 18813 0
-19536 -19534 0
-19536 -19535 0
19536 19534 19535 0
-19540 19527 0
-19540 19536 0
19540 -19527 -19536 0
-19541 -19527 0
-19541 -19536 0
19541 19527 19536 0
-19542 -19540 0
-19542 -19541 0
19542 19540 19541 0
-19627 19221 0
-19627 19542 0
19627 -19221 -19542 0
-19628 -19221 0
-19628 -19542 0
19628 19221 19542 0
-19629 -19627 0
-19629 -19628 0
19629 19627 19628 0
-19630 13629 0
-19630 19629 0
19630 -13629 -19629 0
-19631 -13629 0
-19631 -19629 0
19631 13629 19629 0
-19632 -19630 0
-19632 -19631 0
19632 19630 19631 0
-19591 13596 0
-19591 17298 0
19591 -13596 -17298 0
-19592 -13596 0
-19592 -17298 0
19592 13596 17298 0
-19593 -19591 0
-19593 -19592 0
19593 19591 19592 0
-19633 17331 0
-19633 19593 0
19633 -17331 -19593 0
-19634 -17331 0
-19634 -19593 0
19634 17331 19593 0
-19635 -19633 0
-19635 -19634 0
19635 19633 19634 0
-19600 59 0
-19600 19167 0
19600 -59 -19167 0
-19601 -59 0
-19601 -19167 0
19601 59 19167 0
-19602 -19600 0
-19602 -19601 0
19602 19600 19601 0
-19717 13725 0
-19717 19602 0
19717 -13725 -19602 0
-19718 -13725 0
-19718 -19602 0
19718 13725 19602 0
-19719 -19717 0
-19719 -19718 0
19719 19717 19718 0
-19792 19635 0
-19792 19719 0
19792 -19635 -19719 0
-19793 -19635 0
-19793 -19719 0
19793 19635 19719 0
-19794 -19792 0
-19794 -19793 0
19794 19792 19793 0
-19795 19632 0
-19795 19794 0
19795 -19632 -19794 0
-19796 -19632 0
-19796 -19794 0
19796 19632 19794 0
-19797 -19795 0
-19797 -19796 0
19797 19795 19796 0
-19621 12441 0
-19621 19173 0
19621 -12441 -19173 0
-19622 -12441 0
-19622 -19173 0
19622 12441 19173 0
-19623 -19621 0
-19623 -19622 0
19623 19621 19622 0
-19765 13218 0
-19765 19623 0
19765 -13218 -19623 0
-19766 -13218 0
-19766 -19623 0
19766 13218 19623 0
-19767 -19765 0
-19767 -19766 0
19767 19765 19766 0
-19798 17598 0
-19798 19767 0
19798 -17598 -19767 0
-19799 -17598 0
-19799 -19767 0
19799 17598 19767 0
-19800 -19798 0
-19800 -19799 0
19800 19798 19799 0
-19918 19797 0
-19918 19800 0
19918 -19797 -19800 0
-19919 -19797 0
-19919 -19800 0
19919 19797 19800 0
-19920 -19918 0
-19920 -19919 0
19920 19918 19919 0
-19921 -163 0
-19921 19920 0
19921 163 -19920 0
-19922 163 0
-19922 -19920 0
19922 -163 19920 0
-19923 -19921 0
-19923 -19922 0
19923 19921 19922 0
-19924 18 0
-19924 20 0
19924 -18 -20 0
-19925 -18 0
-19925 -20 0
19925 18 20 0
-19926 -19924 0
-19926 -19925 0
19926 19924 19925 0
-19933 18813 0
-19933 19926 0
19933 -18813 -19926 0
-19934 -18813 0
-19934 -19926 0
19934 18813 19926 0
-19935 -19933 0
-19935 -19934 0
19935 19933 19934 0
-19981 19221 0
-19981 19935 0
19981 -19221 -19935 0
-19982 -19221 0
-19982 -19935 0
19982 19221 19935 0
-19983 -19981 0
-19983 -19982 0
19983 19981 19982 0
-19984 17 0
-19984 19983 0
19984 -17 -19983 0
-19985 -17 0
-19985 -19983 0
19985 17 19983 0
-19986 -19984 0
-19986 -19985 0
19986 19984 19985 0
-13054 45 0
-13054 46 0
13054 -45 -46 0
-13055 -45 0
-13055 -46 0
13055 45 46 0
-13056 -13054 0
-13056 -13055 0
13056 13054 13055 0
-19987 13056 0
-19987 17796 0
19987 -13056 -17796 0
-19988 -13056 0
-19988 -17796 0
19988 13056 17796 0
-19989 -19987 0
-19989 -19988 0
19989 19987 19988 0
-20089 19167 0
-20089 19989 0
20089 -19167 -19989 0
-20090 -19167 0
-20090 -19989 0
20090 19167 19989 0
-20091 -20089 0
-20091 -20090 0
20091 20089 20090 0
-20092 19986 0
-20092 20091 0
20092 -19986 -20091 0
-20093 -19986 0
-20093 -20091 0
20093 19986 20091 0
-20094 -20092 0
-20094 -20093 0
20094 20092 20093 0
-19624 67 0
-19624 19173 0
19624 -67 -19173 0
-19625 -67 0
-19625 -19173 0
19625 67 19173 0
-19626 -19624 0
-19626 -19625 0
19626 19624 19625 0
-20065 13107 0
-20065 19626 0
20065 -13107 -19626 0
-20066 -13107 0
-20066 -19626 0
20066 13107 19626 0
-20067 -20065 0
-20067 -20066 0
20067 20065 20066 0
-20095 17985 0
-20095 20067 0
20095 -17985 -20067 0
-20096 -17985 0
-20096 -20067 0
20096 17985 20067 0
-20097 -20095 0
-20097 -20096 0
20097 20095 20096 0
-20203 20094 0
-20203 20097 0
20203 -20094 -20097 0
-20204 -20094 0
-20204 -20097 0
20204 20094 20097 0
-20205 -20203 0
-20205 -20204 0
20205 20203 20204 0
-20206 -162 0
-20206 20205 0
20206 162 -20205 0
-20207 162 0
-20207 -20205 0
20207 -162 20205 0
-20208 -20206 0
-20208 -20207 0
20208 20206 20207 0
-20209 20 0
-20209 12468 0
20209 -20 -12468 0
-20210 -20 0
-20210 -12468 0
20210 20 12468 0
-20211 -20209 0
-20211 -20210 0
20211 20209 20210 0
-20233 12471 0
-20233 20211 0
20233 -12471 -20211 0
-20234 -12471 0
-20234 -20211 0
20234 12471 20211 0
-20235 -20233 0
-20235 -20234 0
20235 20233 20234 0
-20236 14664 0
-20236 18180 0
20236 -14664 -18180 0
-20237 -14664 0
-20237 -18180 0
20237 14664 18180 0
-20238 -20236 0
-20238 -20237 0
20238 20236 20237 0
-20323 14181 0
-20323 20238 0
20323 -14181 -20238 0
-20324 -14181 0
-20324 -20238 0
20324 14181 20238 0
-20325 -20323 0
-20325 -20324 0
20325 20323 20324 0
-20326 20235 0
-20326 20325 0
20326 -20235 -20325 0
-20327 -20235 0
-20327 -20325 0
20327 20235 20325 0
-20328 -20326 0
-20328 -20327 0
20328 20326 20327 0
-20296 12675 0
-20296 14814 0
20296 -12675 -14814 0
-20297 -12675 0
-20297 -14814 0
20297 12675 14814 0
-20298 -20296 0
-20298 -20297 0
20298 20296 20297 0
-20329 18369 0
-20329 20298 0
20329 -18369 -20298 0
-20330 -18369 0
-20330 -20298 0
20330 18369 20298 0
-20331 -20329 0
-20331 -20330 0
20331 20329 20330 0
-20446 20328 0
-20446 20331 0
20446 -20328 -20331 0
-20447 -20328 0
-20447 -20331 0
20447 20328 20331 0
-20448 -20446 0
-20448 -20447 0
20448 20446 20447 0
-20449 -161 0
-20449 20448 0
20449 161 -20448 0
-20450 161 0
-20450 -20448 0
20450 -161 20448 0
-20451 -20449 0
-20451 -20450 0
20451 20449 20450 0
-20455 19 0
-20455 15156 0
20455 -19 -15156 0
-20456 -19 0
-20456 -15156 0
20456 19 15156 0
-20457 -20455 0
-20457 -20456 0
20457 20455 20456 0
-20458 48 0
-20458 12012 0
20458 -48 -12012 0
-20459 -48 0
-20459 -12012 0
20459 48 12012 0
-20460 -20458 0
-20460 -20459 0
20460 20458 20459 0
-20473 59 0
-20473 13200 0
20473 -59 -13200 0
-20474 -59 0
-20474 -13200 0
20474 59 13200 0
-20475 -20473 0
-20475 -20474 0
20475 20473 20474 0
-20476 20460 0
-20476 20475 0
20476 -20460 -20475 0
-20477 -20460 0
-20477 -20475 0
20477 20460 20475 0
-20478 -20476 0
-20478 -20477 0
20478 20476 20477 0
-20479 20457 0
-20479 20478 0
20479 -20457 -20478 0
-20480 -20457 0
-20480 -20478 0
20480 20457 20478 0
-20481 -20479 0
-20481 -20480 0
20481 20479 20480 0
-20482 81 0
-20482 12249 0
20482 -81 -12249 0
-20483 -81 0
-20483 -12249 0
20483 81 12249 0
-20484 -20482 0
-20484 -20483 0
20484 20482 20483 0
-20533 20481 0
-20533 20484 0
20533 -20481 -20484 0
-20534 -20481 0
-20534 -20484 0
20534 20481 20484 0
-20535 -20533 0
-20535 -20534 0
20535 20533 20534 0
-20536 -160 0
-20536 20535 0
20536 160 -20535 0
-20537 160 0
-20537 -20535 0
20537 -160 20535 0
-20538 -20536 0
-20538 -20537 0
20538 20536 20537 0
-20539 11874 0
-20539 15456 0
20539 -11874 -15456 0
-20540 -11874 0
-20540 -15456 0
20540 11874 15456 0
-20541 -20539 0
-20541 -20540 0
20541 20539 20540 0
-20542 13554 0
-20542 20541 0
20542 -13554 -20541 0
-20543 -13554 0
-20543 -20541 0
20543 13554 20541 0
-20544 -20542 0
-20544 -20543 0
20544 20542 20543 0
-20545 11892 0
-20545 18822 0
20545 -11892 -18822 0
-20546 -11892 0
-20546 -18822 0
20546 11892 18822 0
-20547 -20545 0
-20547 -20546 0
20547 20545 20546 0
-20569 16227 0
-20569 20547 0
20569 -16227 -20547 0
-20570 -16227 0
-20570 -20547 0
20570 16227 20547 0
-20571 -20569 0
-20571 -20570 0
20571 20569 20570 0
-20572 20544 0
-20572 20571 0
20572 -20544 -20571 0
-20573 -20544 0
-20573 -20571 0
20573 20544 20571 0
-20574 -20572 0
-20574 -20573 0
20574 20572 20573 0
-20575 12606 0
-20575 15558 0
20575 -12606 -15558 0
-20576 -12606 0
-20576 -15558 0
20576 12606 15558 0
-20577 -20575 0
-20577 -20576 0
20577 20575 20576 0
-20623 12048 0
-20623 13725 0
20623 -12048 -13725 0
-20624 -12048 0
-20624 -13725 0
20624 12048 13725 0
-20625 -20623 0
-20625 -20624 0
20625 20623 20624 0
-20665 20577 0
-20665 20625 0
20665 -20577 -20625 0
-20666 -20577 0
-20666 -20625 0
20666 20577 20625 0
-20667 -20665 0
-20667 -20666 0
20667 20665 20666 0
-20668 20574 0
-20668 20667 0
20668 -20574 -20667 0
-20669 -20574 0
-20669 -20667 0
20669 20574 20667 0
-20670 -20668 0
-20670 -20669 0
20670 20668 20669 0
-20650 12060 0
-20650 12696 0
20650 -12060 -12696 0
-20651 -12060 0
-20651 -12696 0
20651 12060 12696 0
-20652 -20650 0
-20652 -20651 0
20652 20650 20651 0
-20671 12906 0
-20671 20652 0
20671 -12906 -20652 0
-20672 -12906 0
-20672 -20652 0
20672 12906 20652 0
-20673 -20671 0
-20673 -20672 0
20673 20671 20672 0
-20782 20670 0
-20782 20673 0
20782 -20670 -20673 0
-20783 -20670 0
-20783 -20673 0
20783 20670 20673 0
-20784 -20782 0
-20784 -20783 0
20784 20782 20783 0
-20785 -159 0
-20785 20784 0
20785 159 -20784 0
-20786 159 0
-20786 -20784 0
20786 -159 20784 0
-20787 -20785 0
-20787 -20786 0
20787 20785 20786 0
-20791 15873 0
-20791 19131 0
20791 -15873 -19131 0
-20792 -15873 0
-20792 -19131 0
20792 15873 19131 0
-20793 -20791 0
-20793 -20792 0
20793 20791 20792 0
-20794 13062 0
-20794 20793 0
20794 -13062 -20793 0
-20795 -13062 0
-20795 -20793 0
20795 13062 20793 0
-20796 -20794 0
-20796 -20795 0
20796 20794 20795 0
-20842 18840 0
-20842 19221 0
20842 -18840 -19221 0
-20843 -18840 0
-20843 -19221 0
20843 18840 19221 0
-20844 -20842 0
-20844 -20843 0
20844 20842 20843 0
-20845 20796 0
-20845 20844 0
20845 -20796 -20844 0
-20846 -20796 0
-20846 -20844 0
20846 20796 20844 0
-20847 -20845 0
-20847 -20846 0
20847 20845 20846 0
-20788 62 0
-20788 65 0
20788 -62 -65 0
-20789 -62 0
-20789 -65 0
20789 62 65 0
-20790 -20788 0
-20790 -20789 0
20790 20788 20789 0
-20827 59 0
-20827 20790 0
20827 -59 -20790 0
-20828 -59 0
-20828 -20790 0
20828 59 20790 0
-20829 -20827 0
-20829 -20828 0
20829 20827 20828 0
-20887 15924 0
-20887 20829 0
20887 -15924 -20829 0
-20888 -15924 0
-20888 -20829 0
20888 15924 20829 0
-20889 -20887 0
-20889 -20888 0
20889 20887 20888 0
-20944 13245 0
-20944 20889 0
20944 -13245 -20889 0
-20945 -13245 0
-20945 -20889 0
20945 13245 20889 0
-20946 -20944 0
-20946 -20945 0
20946 20944 20945 0
-20947 20847 0
-20947 20946 0
20947 -20847 -20946 0
-20948 -20847 0
-20948 -20946 0
20948 20847 20946 0
-20949 -20947 0
-20949 -20948 0
20949 20947 20948 0
-20929 13218 0
-20929 19626 0
20929 -13218 -19626 0
-20930 -13218 0
-20930 -19626 0
20930 13218 19626 0
-20931 -20929 0
-20931 -20930 0
20931 20929 20930 0
-20950 13233 0
-20950 20931 0
20950 -13233 -20931 0
-20951 -13233 0
-20951 -20931 0
20951 13233 20931 0
-20952 -20950 0
-20952 -20951 0
20952 20950 20951 0
-21061 20949 0
-21061 20952 0
21061 -20949 -20952 0
-21062 -20949 0
-21062 -20952 0
21062 20949 20952 0
-21063 -21061 0
-21063 -21062 0
21063 21061 21062 0
-21064 -158 0
-21064 21063 0
21064 158 -21063 0
-21065 158 0
-21065 -21063 0
21065 -158 21063 0
-21066 -21064 0
-21066 -21065 0
21066 21064 21065 0
-21088 16206 0
-21088 20844 0
21088 -16206 -20844 0
-21089 -16206 0
-21089 -20844 0
21089 16206 20844 0
-21090 -21088 0
-21090 -21089 0
21090 21088 21089 0
-21076 11850 0
-21076 12519 0
21076 -11850 -12519 0
-21077 -11850 0
-21077 -12519 0
21077 11850 12519 0
-21078 -21076 0
-21078 -21077 0
21078 21076 21077 0
-21124 16248 0
-21124 21078 0
21124 -16248 -21078 0
-21125 -16248 0
-21125 -21078 0
21125 16248 21078 0
-21126 -21124 0
-21126 -21125 0
21126 21124 21125 0
-21175 13806 0
-21175 21126 0
21175 -13806 -21126 0
-21176 -13806 0
-21176 -21126 0
21176 13806 21126 0
-21177 -21175 0
-21177 -21176 0
21177 21175 21176 0
-21178 21090 0
-21178 21177 0
21178 -21090 -21177 0
-21179 -21090 0
-21179 -21177 0
21179 21090 21177 0
-21180 -21178 0
-21180 -21179 0
21180 21178 21179 0
-21181 13995 0
-21181 20931 0
21181 -13995 -20931 0
-21182 -13995 0
-21182 -20931 0
21182 13995 20931 0
-21183 -21181 0
-21183 -21182 0
21183 21181 21182 0
-21301 21180 0
-21301 21183 0
21301 -21180 -21183 0
-21302 -21180 0
-21302 -21183 0
21302 21180 21183 0
-21303 -21301 0
-21303 -21302 0
21303 21301 21302 0
-21304 -157 0
-21304 21303 0
21304 157 -21303 0
-21305 157 0
-21305 -21303 0
21305 -157 21303 0
-21306 -21304 0
-21306 -21305 0
21306 21304 21305 0
-21307 12399 0
-21307 12555 0
21307 -12399 -12555 0
-21308 -12399 0
-21308 -12555 0
21308 12399 12555 0
-21309 -21307 0
-21309 -21308 0
21309 21307 21308 0
-21310 20844 0
-21310 21309 0
21310 -20844 -21309 0
-21311 -20844 0
-21311 -21309 0
21311 20844 21309 0
-21312 -21310 0
-21312 -21311 0
21312 21310 21311 0
-21346 12516 0
-21346 13620 0
21346 -12516 -13620 0
-21347 -12516 0
-21347 -13620 0
21347 12516 13620 0
-21348 -21346 0
-21348 -21347 0
21348 21346 21347 0
-21376 14337 0
-21376 21348 0
21376 -14337 -21348 0
-21377 -14337 0
-21377 -21348 0
21377 14337 21348 0
-21378 -21376 0
-21378 -21377 0
21378 21376 21377 0
-21379 21312 0
-21379 21378 0
21379 -21312 -21378 0
-21380 -21312 0
-21380 -21378 0
21380 21312 21378 0
-21381 -21379 0
-21381 -21380 0
21381 21379 21380 0
-21382 14469 0
-21382 20067 0
21382 -14469 -20067 0
-21383 -14469 0
-21383 -20067 0
21383 14469 20067 0
-21384 -21382 0
-21384 -21383 0
21384 21382 21383 0
-21487 21381 0
-21487 21384 0
21487 -21381 -21384 0
-21488 -21381 0
-21488 -21384 0
21488 21381 21384 0
-21489 -21487 0
-21489 -21488 0
21489 21487 21488 0
-21490 -156 0
-21490 21489 0
21490 156 -21489 0
-21491 156 0
-21491 -21489 0
21491 -156 21489 0
-21492 -21490 0
-21492 -21491 0
21492 21490 21491 0
-21499 26 0
-21499 29 0
21499 -26 -29 0
-21500 -26 0
-21500 -29 0
21500 26 29 0
-21501 -21499 0
-21501 -21500 0
21501 21499 21500 0
-21532 19134 0
-21532 21501 0
21532 -19134 -21501 0
-21533 -19134 0
-21533 -21501 0
21533 19134 21501 0
-21534 -21532 0
-21534 -21533 0
21534 21532 21533 0
-21559 19182 0
-21559 21534 0
21559 -19182 -21534 0
-21560 -19182 0
-21560 -21534 0
21560 19182 21534 0
-21561 -21559 0
-21561 -21560 0
21561 21559 21560 0
-21562 16914 0
-21562 21561 0
21562 -16914 -21561 0
-21563 -16914 0
-21563 -21561 0
21563 16914 21561 0
-21564 -21562 0
-21564 -21563 0
21564 21562 21563 0
-21616 13101 0
-21616 19167 0
21616 -13101 -19167 0
-21617 -13101 0
-21617 -19167 0
21617 13101 19167 0
-21618 -21616 0
-21618 -21617 0
21618 21616 21617 0
-21670 14862 0
-21670 21618 0
21670 -14862 -21618 0
-21671 -14862 0
-21671 -21618 0
21671 14862 21618 0
-21672 -21670 0
-21672 -21671 0
21672 21670 21671 0
-21673 21564 0
-21673 21672 0
21673 -21564 -21672 0
-21674 -21564 0
-21674 -21672 0
21674 21564 21672 0
-21675 -21673 0
-21675 -21674 0
21675 21673 21674 0
-21508 70 0
-21508 72 0
21508 -70 -72 0
-21509 -70 0
-21509 -72 0
21509 70 72 0
-21510 -21508 0
-21510 -21509 0
21510 21508 21509 0
-21547 66 0
-21547 21510 0
21547 -66 -21510 0
-21548 -66 0
-21548 -21510 0
21548 66 21510 0
-21549 -21547 0
-21549 -21548 0
21549 21547 21548 0
-21643 18231 0
-21643 21549 0
21643 -18231 -21549 0
-21644 -18231 0
-21644 -21549 0
21644 18231 21549 0
-21645 -21643 0
-21645 -21644 0
21645 21643 21644 0
-21676 14985 0
-21676 21645 0
21676 -14985 -21645 0
-21677 -14985 0
-21677 -21645 0
21677 14985 21645 0
-21678 -21676 0
-21678 -21677 0
21678 21676 21677 0
-21793 21675 0
-21793 21678 0
21793 -21675 -21678 0
-21794 -21675 0
-21794 -21678 0
21794 21675 21678 0
-21795 -21793 0
-21795 -21794 0
21795 21793 21794 0
-21796 -155 0
-21796 21795 0
21796 155 -21795 0
-21797 155 0
-21797 -21795 0
21797 -155 21795 0
-21798 -21796 0
-21798 -21797 0
21798 21796 21797 0
-21826 13557 0
-21826 19131 0
21826 -13557 -19131 0
-21827 -13557 0
-21827 -19131 0
21827 13557 19131 0
-21828 -21826 0
-21828 -21827 0
21828 21826 21827 0
-21829 17289 0
-21829 21828 0
21829 -17289 -21828 0
-21830 -17289 0
-21830 -21828 0
21830 17289 21828 0
-21831 -21829 0
-21831 -21830 0
21831 21829 21830 0
-11830 27 0
-11830 28 0
11830 -27 -28 0
-11831 -27 0
-11831 -28 0
11831 27 28 0
-11832 -11830 0
-11832 -11831 0
11832 11830 11831 0
-21868 11832 0
-21868 19134 0
21868 -11832 -19134 0
-21869 -11832 0
-21869 -19134 0
21869 11832 19134 0
-21870 -21868 0
-21870 -21869 0
21870 21868 21869 0
-21907 19542 0
-21907 21870 0
21907 -19542 -21870 0
-21908 -19542 0
-21908 -21870 0
21908 19542 21870 0
-21909 -21907 0
-21909 -21908 0
21909 21907 21908 0
-21910 21831 0
-21910 21909 0
21910 -21831 -21909 0
-21911 -21831 0
-21911 -21909 0
21911 21831 21909 0
-21912 -21910 0
-21912 -21911 0
21912 21910 21911 0
-21997 15243 0
-21997 19719 0
21997 -15243 -19719 0
-21998 -15243 0
-21998 -19719 0
21998 15243 19719 0
-21999 -21997 0
-21999 -21998 0
21999 21997 21998 0
-22000 21912 0
-22000 21999 0
22000 -21912 -21999 0
-22001 -21912 0
-22001 -21999 0
22001 21912 21999 0
-22002 -22000 0
-22002 -22001 0
22002 22000 22001 0
-21814 69 0
-21814 12441 0
21814 -69 -12441 0
-21815 -69 0
-21815 -12441 0
21815 69 12441 0
-21816 -21814 0
-21816 -21815 0
21816 21814 21815 0
-21823 70 0
-21823 12450 0
21823 -70 -12450 0
-21824 -70 0
-21824 -12450 0
21824 70 12450 0
-21825 -21823 0
-21825 -21824 0
21825 21823 21824 0
-21895 21816 0
-21895 21825 0
21895 -21816 -21825 0
-21896 -21816 0
-21896 -21825 0
21896 21816 21825 0
-21897 -21895 0
-21897 -21896 0
21897 21895 21896 0
-22003 11757 0
-22003 21897 0
22003 -11757 -21897 0
-22004 -11757 0
-22004 -21897 0
22004 11757 21897 0
-22005 -22003 0
-22005 -22004 0
22005 22003 22004 0
-22108 22002 0
-22108 22005 0
22108 -22002 -22005 0
-22109 -22002 0
-22109 -22005 0
22109 22002 22005 0
-22110 -22108 0
-22110 -22109 0
22110 22108 22109 0
-22111 -154 0
-22111 22110 0
22111 154 -22110 0
-22112 154 0
-22112 -22110 0
22112 -154 22110 0
-22113 -22111 0
-22113 -22112 0
22113 22111 22112 0
-22129 17751 0
-22129 20541 0
22129 -17751 -20541 0
-22130 -17751 0
-22130 -20541 0
22130 17751 20541 0
-22131 -22129 0
-22131 -22130 0
22131 22129 22130 0
-22132 24 0
-22132 19926 0
22132 -24 -19926 0
-22133 -24 0
-22133 -19926 0
22133 24 19926 0
-22134 -22132 0
-22134 -22133 0
22134 22132 22133 0
-22156 26 0
-22156 19164 0
22156 -26 -19164 0
-22157 -26 0
-22157 -19164 0
22157 26 19164 0
-22158 -22156 0
-22158 -22157 0
22158 22156 22157 0
-22213 22134 0
-22213 22158 0
22213 -22134 -22158 0
-22214 -22134 0
-22214 -22158 0
22214 22134 22158 0
-22215 -22213 0
-22215 -22214 0
22215 22213 22214 0
-22216 22131 0
-22216 22215 0
22216 -22131 -22215 0
-22217 -22131 0
-22217 -22215 0
22217 22131 22215 0
-22218 -22216 0
-22218 -22217 0
22218 22216 22217 0
-22180 11850 0
-22180 19167 0
22180 -11850 -19167 0
-22181 -11850 0
-22181 -19167 0
22181 11850 19167 0
-22182 -22180 0
-22182 -22181 0
22182 22180 22181 0
-22294 17829 0
-22294 22182 0
22294 -17829 -22182 0
-22295 -17829 0
-22295 -22182 0
22295 17829 22182 0
-22296 -22294 0
-22296 -22295 0
22296 22294 22295 0
-22363 15603 0
-22363 22296 0
22363 -15603 -22296 0
-22364 -15603 0
-22364 -22296 0
22364 15603 22296 0
-22365 -22363 0
-22365 -22364 0
22365 22363 22364 0
-22366 22218 0
-22366 22365 0
22366 -22218 -22365 0
-22367 -22218 0
-22367 -22365 0
22367 22218 22365 0
-22368 -22366 0
-22368 -22367 0
22368 22366 22367 0
-22117 67 0
-22117 14613 0
22117 -67 -14613 0
-22118 -67 0
-22118 -14613 0
22118 67 14613 0
-22119 -22117 0
-22119 -22118 0
22119 22117 22118 0
-22126 70 0
-22126 73 0
22126 -70 -73 0
-22127 -70 0
-22127 -73 0
22127 70 73 0
-22128 -22126 0
-22128 -22127 0
22128 22126 22127 0
-22198 22119 0
-22198 22128 0
22198 -22119 -22128 0
-22199 -22119 0
-22199 -22128 0
22199 22119 22128 0
-22200 -22198 0
-22200 -22199 0
22200 22198 22199 0
-22342 15492 0
-22342 22200 0
22342 -15492 -22200 0
-22343 -15492 0
-22343 -22200 0
22343 15492 22200 0
-22344 -22342 0
-22344 -22343 0
22344 22342 22343 0
-22369 15747 0
-22369 22344 0
22369 -15747 -22344 0
-22370 -15747 0
-22370 -22344 0
22370 15747 22344 0
-22371 -22369 0
-22371 -22370 0
22371 22369 22370 0
-22483 22368 0
-22483 22371 0
22483 -22368 -22371 0
-22484 -22368 0
-22484 -22371 0
22484 22368 22371 0
-22485 -22483 0
-22485 -22484 0
22485 22483 22484 0
-22486 -153 0
-22486 22485 0
22486 153 -22485 0
-22487 153 0
-22487 -22485 0
22487 -153 22485 0
-22488 -22486 0
-22488 -22487 0
22488 22486 22487 0
-16594 20 0
-16594 22 0
16594 -20 -22 0
-16595 -20 0
-16595 -22 0
16595 20 22 0
-16596 -16594 0
-16596 -16595 0
16596 16594 16595 0
-22579 14238 0
-22579 16596 0
22579 -14238 -16596 0
-22580 -14238 0
-22580 -16596 0
22580 14238 16596 0
-22581 -22579 0
-22581 -22580 0
22581 22579 22580 0
-22582 18177 0
-22582 22581 0
22582 -18177 -22581 0
-22583 -18177 0
-22583 -22581 0
22583 18177 22581 0
-22584 -22582 0
-22584 -22583 0
22584 22582 22583 0
-22651 15198 0
-22651 18219 0
22651 -15198 -18219 0
-22652 -15198 0
-22652 -18219 0
22652 15198 18219 0
-22653 -22651 0
-22653 -22652 0
22653 22651 22652 0
-22726 15954 0
-22726 22653 0
22726 -15954 -22653 0
-22727 -15954 0
-22727 -22653 0
22727 15954 22653 0
-22728 -22726 0
-22728 -22727 0
22728 22726 22727 0
-22729 22584 0
-22729 22728 0
22729 -22584 -22728 0
-22730 -22584 0
-22730 -22728 0
22730 22584 22728 0
-22731 -22729 0
-22731 -22730 0
22731 22729 22730 0
-22492 66 0
-22492 69 0
22492 -66 -69 0
-22493 -66 0
-22493 -69 0
22493 66 69 0
-22494 -22492 0
-22494 -22493 0
22494 22492 22493 0
-22555 15150 0
-22555 22494 0
22555 -15150 -22494 0
-22556 -15150 0
-22556 -22494 0
22556 15150 22494 0
-22557 -22555 0
-22557 -22556 0
22557 22555 22556 0
-22576 80 0
-22576 13104 0
22576 -80 -13104 0
-22577 -80 0
-22577 -13104 0
22577 80 13104 0
-22578 -22576 0
-22578 -22577 0
22578 22576 22577 0
-22699 22557 0
-22699 22578 0
22699 -22557 -22578 0
-22700 -22557 0
-22700 -22578 0
22700 22557 22578 0
-22701 -22699 0
-22701 -22700 0
22701 22699 22700 0
-22732 16083 0
-22732 22701 0
22732 -16083 -22701 0
-22733 -16083 0
-22733 -22701 0
22733 16083 22701 0
-22734 -22732 0
-22734 -22733 0
22734 22732 22733 0
-22852 22731 0
-22852 22734 0
22852 -22731 -22734 0
-22853 -22731 0
-22853 -22734 0
22853 22731 22734 0
-22854 -22852 0
-22854 -22853 0
22854 22852 22853 0
-22855 -152 0
-22855 22854 0
22855 152 -22854 0
-22856 152 0
-22856 -22854 0
22856 -152 22854 0
-22857 -22855 0
-22857 -22856 0
22857 22855 22856 0
-22858 6 0
-22858 7 0
22858 -6 -7 0
-22859 -6 0
-22859 -7 0
22859 6 7 0
-22860 -22858 0
-22860 -22859 0
22860 22858 22859 0
-22867 12399 0
-22867 22860 0
22867 -12399 -22860 0
-22868 -12399 0
-22868 -22860 0
22868 12399 22860 0
-22869 -22867 0
-22869 -22868 0
22869 22867 22868 0
-22870 12390 0
-22870 22869 0
22870 -12390 -22869 0
-22871 -12390 0
-22871 -22869 0
22871 12390 22869 0
-22872 -22870 0
-22872 -22871 0
22872 22870 22871 0
-22879 15 0
-22879 19131 0
22879 -15 -19131 0
-22880 -15 0
-22880 -19131 0
22880 15 19131 0
-22881 -22879 0
-22881 -22880 0
22881 22879 22880 0
-22900 12 0
-22900 22881 0
22900 -12 -22881 0
-22901 -12 0
-22901 -22881 0
22901 12 22881 0
-22902 -22900 0
-22902 -22901 0
22902 22900 22901 0
-22903 22872 0
-22903 22902 0
22903 -22872 -22902 0
-22904 -22872 0
-22904 -22902 0
22904 22872 22902 0
-22905 -22903 0
-22905 -22904 0
22905 22903 22904 0
-22981 20844 0
-22981 22905 0
22981 -20844 -22905 0
-22982 -20844 0
-22982 -22905 0
22982 20844 22905 0
-22983 -22981 0
-22983 -22982 0
22983 22981 22982 0
-22888 49 0
-22888 13545 0
22888 -49 -13545 0
-22889 -49 0
-22889 -13545 0
22889 49 13545 0
-22890 -22888 0
-22890 -22889 0
22890 22888 22889 0
-22927 13089 0
-22927 22890 0
22927 -13089 -22890 0
-22928 -13089 0
-22928 -22890 0
22928 13089 22890 0
-22929 -22927 0
-22929 -22928 0
22929 22927 22928 0
-22984 12606 0
-22984 22929 0
22984 -12606 -22929 0
-22985 -12606 0
-22985 -22929 0
22985 12606 22929 0
-22986 -22984 0
-22986 -22985 0
22986 22984 22985 0
-22948 53 0
-22948 12516 0
22948 -53 -12516 0
-22949 -53 0
-22949 -12516 0
22949 53 12516 0
-22950 -22948 0
-22950 -22949 0
22950 22948 22949 0
-22966 58 0
-22966 12519 0
22966 -58 -12519 0
-22967 -58 0
-22967 -12519 0
22967 58 12519 0
-22968 -22966 0
-22968 -22967 0
22968 22966 22967 0
-23062 22950 0
-23062 22968 0
23062 -22950 -22968 0
-23063 -22950 0
-23063 -22968 0
23063 22950 22968 0
-23064 -23062 0
-23064 -23063 0
23064 23062 23063 0
-23119 22986 0
-23119 23064 0
23119 -22986 -23064 0
-23120 -22986 0
-23120 -23064 0
23120 22986 23064 0
-23121 -23119 0
-23121 -23120 0
23121 23119 23120 0
-23122 22983 0
-23122 23121 0
23122 -22983 -23121 0
-23123 -22983 0
-23123 -23121 0
23123 22983 23121 0
-23124 -23122 0
-23124 -23123 0
23124 23122 23123 0
-23095 18549 0
-23095 19626 0
23095 -18549 -19626 0
-23096 -18549 0
-23096 -19626 0
23096 18549 19626 0
-23097 -23095 0
-23097 -23096 0
23097 23095 23096 0
-23125 13995 0
-23125 23097 0
23125 -13995 -23097 0
-23126 -13995 0
-23126 -23097 0
23126 13995 23097 0
-23127 -23125 0
-23127 -23126 0
23127 23125 23126 0
-23242 23124 0
-23242 23127 0
23242 -23124 -23127 0
-23243 -23124 0
-23243 -23127 0
23243 23124 23127 0
-23244 -23242 0
-23244 -23243 0
23244 23242 23243 0
-23245 -151 0
-23245 23244 0
23245 151 -23244 0
-23246 151 0
-23246 -23244 0
23246 -151 23244 0
-23247 -23245 0
-23247 -23246 0
23247 23245 23246 0
-23248 55 0
-23248 15870 0
23248 -55 -15870 0
-23249 -55 0
-23249 -15870 0
23249 55 15870 0
-23250 -23248 0
-23250 -23249 0
23250 23248 23249 0
-23260 53 0
-23260 23250 0
23260 -53 -23250 0
-23261 -53 0
-23261 -23250 0
23261 53 23250 0
-23262 -23260 0
-23262 -23261 0
23262 23260 23261 0
-23281 58 0
-23281 13620 0
23281 -58 -13620 0
-23282 -58 0
-23282 -13620 0
23282 58 13620 0
-23283 -23281 0
-23283 -23282 0
23283 23281 23282 0
-23317 23262 0
-23317 23283 0
23317 -23262 -23283 0
-23318 -23262 0
-23318 -23283 0
23318 23262 23283 0
-23319 -23317 0
-23319 -23318 0
23319 23317 23318 0
-23380 22986 0
-23380 23319 0
23380 -22986 -23319 0
-23381 -22986 0
-23381 -23319 0
23381 22986 23319 0
-23382 -23380 0
-23382 -23381 0
23382 23380 23381 0
-23383 22983 0
-23383 23382 0
23383 -22983 -23382 0
-23384 -22983 0
-23384 -23382 0
23384 22983 23382 0
-23385 -23383 0
-23385 -23384 0
23385 23383 23384 0
-23356 12546 0
-23356 19626 0
23356 -12546 -19626 0
-23357 -12546 0
-23357 -19626 0
23357 12546 19626 0
-23358 -23356 0
-23358 -23357 0
23358 23356 23357 0
-23386 14469 0
-23386 23358 0
23386 -14469 -23358 0
-23387 -14469 0
-23387 -23358 0
23387 14469 23358 0
-23388 -23386 0
-23388 -23387 0
23388 23386 23387 0
-23503 23385 0
-23503 23388 0
23503 -23385 -23388 0
-23504 -23385 0
-23504 -23388 0
23504 23385 23388 0
-23505 -23503 0
-23505 -23504 0
23505 23503 23504 0
-23506 -150 0
-23506 23505 0
23506 150 -23505 0
-23507 150 0
-23507 -23505 0
23507 -150 23505 0
-23508 -23506 0
-23508 -23507 0
23508 23506 23507 0
-23509 10 0
-23509 13 0
23509 -10 -13 0
-23510 -10 0
-23510 -13 0
23510 10 13 0
-23511 -23509 0
-23511 -23510 0
23511 23509 23510 0
-23527 11874 0
-23527 23511 0
23527 -11874 -23511 0
-23528 -11874 0
-23528 -23511 0
23528 11874 23511 0
-23529 -23527 0
-23529 -23528 0
23529 23527 23528 0
-23530 13554 0
-23530 23529 0
23530 -13554 -23529 0
-23531 -13554 0
-23531 -23529 0
23531 13554 23529 0
-23532 -23530 0
-23532 -23531 0
23532 23530 23531 0
-23545 19164 0
-23545 21501 0
23545 -19164 -21501 0
-23546 -19164 0
-23546 -21501 0
23546 19164 21501 0
-23547 -23545 0
-23547 -23546 0
23547 23545 23546 0
-23608 19182 0
-23608 23547 0
23608 -19182 -23547 0
-23609 -19182 0
-23609 -23547 0
23609 19182 23547 0
-23610 -23608 0
-23610 -23609 0
23610 23608 23609 0
-23611 23532 0
-23611 23610 0
23611 -23532 -23610 0
-23612 -23532 0
-23612 -23610 0
23612 23532 23610 0
-23613 -23611 0
-23613 -23612 0
23613 23611 23612 0
-23563 13596 0
-23563 16893 0
23563 -13596 -16893 0
-23564 -13596 0
-23564 -16893 0
23564 13596 16893 0
-23565 -23563 0
-23565 -23564 0
23565 23563 23564 0
-23614 13161 0
-23614 23565 0
23614 -13161 -23565 0
-23615 -13161 0
-23615 -23565 0
23615 13161 23565 0
-23616 -23614 0
-23616 -23615 0
23616 23614 23615 0
-23518 54 0
-23518 57 0
23518 -54 -57 0
-23519 -54 0
-23519 -57 0
23519 54 57 0
-23520 -23518 0
-23520 -23519 0
23520 23518 23519 0
-23578 13605 0
-23578 23520 0
23578 -13605 -23520 0
-23579 -13605 0
-23579 -23520 0
23579 13605 23520 0
-23580 -23578 0
-23580 -23579 0
23580 23578 23579 0
-23701 22182 0
-23701 23580 0
23701 -22182 -23580 0
-23702 -22182 0
-23702 -23580 0
23702 22182 23580 0
-23703 -23701 0
-23703 -23702 0
23703 23701 23702 0
-23761 23616 0
-23761 23703 0
23761 -23616 -23703 0
-23762 -23616 0
-23762 -23703 0
23762 23616 23703 0
-23763 -23761 0
-23763 -23762 0
23763 23761 23762 0
-23764 23613 0
-23764 23763 0
23764 -23613 -23763 0
-23765 -23613 0
-23765 -23763 0
23765 23613 23763 0
-23766 -23764 0
-23766 -23765 0
23766 23764 23765 0
-23740 13218 0
-23740 21549 0
23740 -13218 -21549 0
-23741 -13218 0
-23741 -21549 0
23741 13218 21549 0
-23742 -23740 0
-23742 -23741 0
23742 23740 23741 0
-23767 16977 0
-23767 23742 0
23767 -16977 -23742 0
-23768 -16977 0
-23768 -23742 0
23768 16977 23742 0
-23769 -23767 0
-23769 -23768 0
23769 23767 23768 0
-23881 23766 0
-23881 23769 0
23881 -23766 -23769 0
-23882 -23766 0
-23882 -23769 0
23882 23766 23769 0
-23883 -23881 0
-23883 -23882 0
23883 23881 23882 0
-23884 -149 0
-23884 23883 0
23884 149 -23883 0
-23885 149 0
-23885 -23883 0
23885 -149 23883 0
-23886 -23884 0
-23886 -23885 0
23886 23884 23885 0
-23905 11832 0
-23905 19164 0
23905 -11832 -19164 0
-23906 -11832 0
-23906 -19164 0
23906 11832 19164 0
-23907 -23905 0
-23907 -23906 0
23907 23905 23906 0
-23944 19542 0
-23944 23907 0
23944 -19542 -23907 0
-23945 -19542 0
-23945 -23907 0
23945 19542 23907 0
-23946 -23944 0
-23946 -23945 0
23946 23944 23945 0
-23947 11798 0
-23947 23946 0
23947 -11798 -23946 0
-23948 -11798 0
-23948 -23946 0
23948 11798 23946 0
-23949 -23947 0
-23949 -23948 0
23949 23947 23948 0
-23917 46 0
-23917 17298 0
23917 -46 -17298 0
-23918 -46 0
-23918 -17298 0
23918 46 17298 0
-23919 -23917 0
-23919 -23918 0
23919 23917 23918 0
-23950 17331 0
-23950 23919 0
23950 -17331 -23919 0
-23951 -17331 0
-23951 -23919 0
23951 17331 23919 0
-23952 -23950 0
-23952 -23951 0
23952 23950 23951 0
-23890 11847 0
-23890 15870 0
23890 -11847 -15870 0
-23891 -11847 0
-23891 -15870 0
23891 11847 15870 0
-23892 -23890 0
-23892 -23891 0
23892 23890 23891 0
-24031 19167 0
-24031 23892 0
24031 -19167 -23892 0
-24032 -19167 0
-24032 -23892 0
24032 19167 23892 0
-24033 -24031 0
-24033 -24032 0
24033 24031 24032 0
-24094 23952 0
-24094 24033 0
24094 -23952 -24033 0
-24095 -23952 0
-24095 -24033 0
24095 23952 24033 0
-24096 -24094 0
-24096 -24095 0
24096 24094 24095 0
-24097 23949 0
-24097 24096 0
24097 -23949 -24096 0
-24098 -23949 0
-24098 -24096 0
24098 23949 24096 0
-24099 -24097 0
-24099 -24098 0
24099 24097 24098 0
-24073 13218 0
-24073 21897 0
24073 -13218 -21897 0
-24074 -13218 0
-24074 -21897 0
24074 13218 21897 0
-24075 -24073 0
-24075 -24074 0
24075 24073 24074 0
-24100 17598 0
-24100 24075 0
24100 -17598 -24075 0
-24101 -17598 0
-24101 -24075 0
24101 17598 24075 0
-24102 -24100 0
-24102 -24101 0
24102 24100 24101 0
-24214 24099 0
-24214 24102 0
24214 -24099 -24102 0
-24215 -24099 0
-24215 -24102 0
24215 24099 24102 0
-24216 -24214 0
-24216 -24215 0
24216 24214 24215 0
-24217 -148 0
-24217 24216 0
24217 148 -24216 0
-24218 148 0
-24218 -24216 0
24218 -148 24216 0
-24219 -24217 0
-24219 -24218 0
24219 24217 24218 0
-24223 13536 0
-24223 19131 0
24223 -13536 -19131 0
-24224 -13536 0
-24224 -19131 0
24224 13536 19131 0
-24225 -24223 0
-24225 -24224 0
24225 24223 24224 0
-24226 13062 0
-24226 24225 0
24226 -13062 -24225 0
-24227 -13062 0
-24227 -24225 0
24227 13062 24225 0
-24228 -24226 0
-24228 -24227 0
24228 24226 24227 0
-24280 22215 0
-24280 24228 0
24280 -22215 -24228 0
-24281 -22215 0
-24281 -24228 0
24281 22215 24228 0
-24282 -24280 0
-24282 -24281 0
24282 24280 24281 0
-24250 45 0
-24250 13095 0
24250 -45 -13095 0
-24251 -45 0
-24251 -13095 0
24251 45 13095 0
-24252 -24250 0
-24252 -24251 0
24252 24250 24251 0
-24283 17796 0
-24283 24252 0
24283 -17796 -24252 0
-24284 -17796 0
-24284 -24252 0
24284 17796 24252 0
-24285 -24283 0
-24285 -24284 0
24285 24283 24284 0
-24262 55 0
-24262 13605 0
24262 -55 -13605 0
-24263 -55 0
-24263 -13605 0
24263 55 13605 0
-24264 -24262 0
-24264 -24263 0
24264 24262 24263 0
-24361 19602 0
-24361 24264 0
24361 -19602 -24264 0
-24362 -19602 0
-24362 -24264 0
24362 19602 24264 0
-24363 -24361 0
-24363 -24362 0
24363 24361 24362 0
-24418 24285 0
-24418 24363 0
24418 -24285 -24363 0
-24419 -24285 0
-24419 -24363 0
24419 24285 24363 0
-24420 -24418 0
-24420 -24419 0
24420 24418 24419 0
-24421 24282 0
-24421 24420 0
24421 -24282 -24420 0
-24422 -24282 0
-24422 -24420 0
24422 24282 24420 0
-24423 -24421 0
-24423 -24422 0
24423 24421 24422 0
-24400 13107 0
-24400 22200 0
24400 -13107 -22200 0
-24401 -13107 0
-24401 -22200 0
24401 13107 22200 0
-24402 -24400 0
-24402 -24401 0
24402 24400 24401 0
-24424 17985 0
-24424 24402 0
24424 -17985 -24402 0
-24425 -17985 0
-24425 -24402 0
24425 17985 24402 0
-24426 -24424 0
-24426 -24425 0
24426 24424 24425 0
-24535 24423 0
-24535 24426 0
24535 -24423 -24426 0
-24536 -24423 0
-24536 -24426 0
24536 24423 24426 0
-24537 -24535 0
-24537 -24536 0
24537 24535 24536 0
-24538 -147 0
-24538 24537 0
24538 147 -24537 0
-24539 147 0
-24539 -24537 0
24539 -147 24537 0
-24540 -24538 0
-24540 -24539 0
24540 24538 24539 0
-24541 8 0
-24541 22860 0
24541 -8 -22860 0
-24542 -8 0
-24542 -22860 0
24542 8 22860 0
-24543 -24541 0
-24543 -24542 0
24543 24541 24542 0
-24544 12390 0
-24544 24543 0
24544 -12390 -24543 0
-24545 -12390 0
-24545 -24543 0
24545 12390 24543 0
-24546 -24544 0
-24546 -24545 0
24546 24544 24545 0
-15865 11 0
-15865 12 0
15865 -11 -12 0
-15866 -11 0
-15866 -12 0
15866 11 12 0
-15867 -15865 0
-15867 -15866 0
15867 15865 15866 0
-22861 15 0
-22861 16 0
22861 -15 -16 0
-22862 -15 0
-22862 -16 0
22862 15 16 0
-22863 -22861 0
-22863 -22862 0
22863 22861 22862 0
-24556 15867 0
-24556 22863 0
24556 -15867 -22863 0
-24557 -15867 0
-24557 -22863 0
24557 15867 22863 0
-24558 -24556 0
-24558 -24557 0
24558 24556 24557 0
-24559 24546 0
-24559 24558 0
24559 -24546 -24558 0
-24560 -24546 0
-24560 -24558 0
24560 24546 24558 0
-24561 -24559 0
-24561 -24560 0
24561 24559 24560 0
-24571 30 0
-24571 14169 0
24571 -30 -14169 0
-24572 -30 0
-24572 -14169 0
24572 30 14169 0
-24573 -24571 0
-24573 -24572 0
24573 24571 24572 0
-24616 16596 0
-24616 24573 0
24616 -16596 -24573 0
-24617 -16596 0
-24617 -24573 0
24617 16596 24573 0
-24618 -24616 0
-24618 -24617 0
24618 24616 24617 0
-24619 24561 0
-24619 24618 0
24619 -24561 -24618 0
-24620 -24561 0
-24620 -24618 0
24620 24561 24618 0
-24621 -24619 0
-24621 -24620 0
24621 24619 24620 0
-22891 47 0
-22891 49 0
22891 -47 -49 0
-22892 -47 0
-22892 -49 0
22892 47 49 0
-22893 -22891 0
-22893 -22892 0
22893 22891 22892 0
-24577 14664 0
-24577 22893 0
24577 -14664 -22893 0
-24578 -14664 0
-24578 -22893 0
24578 14664 22893 0
-24579 -24577 0
-24579 -24578 0
24579 24577 24578 0
-24622 18180 0
-24622 24579 0
24622 -18180 -24579 0
-24623 -18180 0
-24623 -24579 0
24623 18180 24579 0
-24624 -24622 0
-24624 -24623 0
24624 24622 24623 0
-24553 52 0
-24553 54 0
24553 -52 -54 0
-24554 -52 0
-24554 -54 0
24554 52 54 0
-24555 -24553 0
-24555 -24554 0
24555 24553 24554 0
-24613 58 0
-24613 14181 0
24613 -58 -14181 0
-24614 -58 0
-24614 -14181 0
24614 58 14181 0
-24615 -24613 0
-24615 -24614 0
24615 24613 24614 0
-24691 24555 0
-24691 24615 0
24691 -24555 -24615 0
-24692 -24555 0
-24692 -24615 0
24692 24555 24615 0
-24693 -24691 0
-24693 -24692 0
24693 24691 24692 0
-24745 24624 0
-24745 24693 0
24745 -24624 -24693 0
-24746 -24624 0
-24746 -24693 0
24746 24624 24693 0
-24747 -24745 0
-24747 -24746 0
24747 24745 24746 0
-24748 24621 0
-24748 24747 0
24748 -24621 -24747 0
-24749 -24621 0
-24749 -24747 0
24749 24621 24747 0
-24750 -24748 0
-24750 -24749 0
24750 24748 24749 0
-24730 14814 0
-24730 22557 0
24730 -14814 -22557 0
-24731 -14814 0
-24731 -22557 0
24731 14814 22557 0
-24732 -24730 0
-24732 -24731 0
24732 24730 24731 0
-24751 18369 0
-24751 24732 0
24751 -18369 -24732 0
-24752 -18369 0
-24752 -24732 0
24752 18369 24732 0
-24753 -24751 0
-24753 -24752 0
24753 24751 24752 0
-24859 24750 0
-24859 24753 0
24859 -24750 -24753 0
-24860 -24750 0
-24860 -24753 0
24860 24750 24753 0
-24861 -24859 0
-24861 -24860 0
24861 24859 24860 0
-24862 -146 0
-24862 24861 0
24862 146 -24861 0
-24863 146 0
-24863 -24861 0
24863 -146 24861 0
-24864 -24862 0
-24864 -24863 0
24864 24862 24863 0
-24868 9 0
-24868 22860 0
24868 -9 -22860 0
-24869 -9 0
-24869 -22860 0
24869 9 22860 0
-24870 -24868 0
-24870 -24869 0
24870 24868 24869 0
-24871 12390 0
-24871 24870 0
24871 -12390 -24870 0
-24872 -12390 0
-24872 -24870 0
24872 12390 24870 0
-24873 -24871 0
-24873 -24872 0
24873 24871 24872 0
-13558 10 0
-13558 12 0
13558 -10 -12 0
-13559 -10 0
-13559 -12 0
13559 10 12 0
-13560 -13558 0
-13560 -13559 0
13560 13558 13559 0
-24889 13560 0
-24889 22863 0
24889 -13560 -22863 0
-24890 -13560 0
-24890 -22863 0
24890 13560 22863 0
-24891 -24889 0
-24891 -24890 0
24891 24889 24890 0
-24892 24873 0
-24892 24891 0
24892 -24873 -24891 0
-24893 -24873 0
-24893 -24891 0
24893 24873 24891 0
-24894 -24892 0
-24894 -24893 0
24894 24892 24893 0
-24940 18516 0
-24940 24894 0
24940 -18516 -24894 0
-24941 -18516 0
-24941 -24894 0
24941 18516 24894 0
-24942 -24940 0
-24942 -24941 0
24942 24940 24941 0
-24943 12012 0
-24943 22893 0
24943 -12012 -22893 0
-24944 -12012 0
-24944 -22893 0
24944 12012 22893 0
-24945 -24943 0
-24945 -24944 0
24945 24943 24944 0
-24865 51 0
-24865 52 0
24865 -51 -52 0
-24866 -51 0
-24866 -52 0
24866 51 52 0
-24867 -24865 0
-24867 -24866 0
24867 24865 24866 0
-24886 57 0
-24886 11847 0
24886 -57 -11847 0
-24887 -57 0
-24887 -11847 0
24887 57 11847 0
-24888 -24886 0
-24888 -24887 0
24888 24886 24887 0
-24925 24867 0
-24925 24888 0
24925 -24867 -24888 0
-24926 -24867 0
-24926 -24888 0
24926 24867 24888 0
-24927 -24925 0
-24927 -24926 0
24927 24925 24926 0
-25009 58 0
-25009 24927 0
25009 -58 -24927 0
-25010 -58 0
-25010 -24927 0
25010 58 24927 0
-25011 -25009 0
-25011 -25010 0
25011 25009 25010 0
-25048 24945 0
-25048 25011 0
25048 -24945 -25011 0
-25049 -24945 0
-25049 -25011 0
25049 24945 25011 0
-25050 -25048 0
-25050 -25049 0
25050 25048 25049 0
-25051 24942 0
-25051 25050 0
25051 -24942 -25050 0
-25052 -24942 0
-25052 -25050 0
25052 24942 25050 0
-25053 -25051 0
-25053 -25052 0
25053 25051 25052 0
-25036 81 0
-25036 18507 0
25036 -81 -18507 0
-25037 -81 0
-25037 -18507 0
25037 81 18507 0
-25038 -25036 0
-25038 -25037 0
25038 25036 25037 0
-25054 12249 0
-25054 25038 0
25054 -12249 -25038 0
-25055 -12249 0
-25055 -25038 0
25055 12249 25038 0
-25056 -25054 0
-25056 -25055 0
25056 25054 25055 0
-25159 25053 0
-25159 25056 0
25159 -25053 -25056 0
-25160 -25053 0
-25160 -25056 0
25160 25053 25056 0
-25161 -25159 0
-25161 -25160 0
25161 25159 25160 0
-25162 -145 0
-25162 25161 0
25162 145 -25161 0
-25163 145 0
-25163 -25161 0
25163 -145 25161 0
-25164 -25162 0
-25164 -25163 0
25164 25162 25163 0
-25165 6 0
-25165 8 0
25165 -6 -8 0
-25166 -6 0
-25166 -8 0
25166 6 8 0
-25167 -25165 0
-25167 -25166 0
25167 25165 25166 0
-25168 12390 0
-25168 25167 0
25168 -12390 -25167 0
-25169 -12390 0
-25169 -25167 0
25169 12390 25167 0
-25170 -25168 0
-25170 -25169 0
25170 25168 25169 0
-25186 22902 0
-25186 25170 0
25186 -22902 -25170 0
-25187 -22902 0
-25187 -25170 0
25187 22902 25170 0
-25188 -25186 0
-25188 -25187 0
25188 25186 25187 0
-25225 18900 0
-25225 25188 0
25225 -18900 -25188 0
-25226 -18900 0
-25226 -25188 0
25226 18900 25188 0
-25227 -25225 0
-25227 -25226 0
25227 25225 25226 0
-25192 12432 0
-25192 22890 0
25192 -12432 -22890 0
-25193 -12432 0
-25193 -22890 0
25193 12432 22890 0
-25194 -25192 0
-25194 -25193 0
25194 25192 25193 0
-25228 12606 0
-25228 25194 0
25228 -12606 -25194 0
-25229 -12606 0
-25229 -25194 0
25229 12606 25194 0
-25230 -25228 0
-25230 -25229 0
25230 25228 25229 0
-25180 52 0
-25180 18132 0
25180 -52 -18132 0
-25181 -52 0
-25181 -18132 0
25181 52 18132 0
-25182 -25180 0
-25182 -25181 0
25182 25180 25181 0
-25216 23250 0
-25216 25182 0
25216 -23250 -25182 0
-25217 -23250 0
-25217 -25182 0
25217 23250 25182 0
-25218 -25216 0
-25218 -25217 0
25218 25216 25217 0
-25279 23283 0
-25279 25218 0
25279 -23283 -25218 0
-25280 -23283 0
-25280 -25218 0
25280 23283 25218 0
-25281 -25279 0
-25281 -25280 0
25281 25279 25280 0
-25300 25230 0
-25300 25281 0
25300 -25230 -25281 0
-25301 -25230 0
-25301 -25281 0
25301 25230 25281 0
-25302 -25300 0
-25302 -25301 0
25302 25300 25301 0
-25303 25227 0
-25303 25302 0
25303 -25227 -25302 0
-25304 -25227 0
-25304 -25302 0
25304 25227 25302 0
-25305 -25303 0
-25305 -25304 0
25305 25303 25304 0
-25306 12906 0
-25306 18999 0
25306 -12906 -18999 0
-25307 -12906 0
-25307 -18999 0
25307 12906 18999 0
-25308 -25306 0
-25308 -25307 0
25308 25306 25307 0
-25408 25305 0
-25408 25308 0
25408 -25305 -25308 0
-25409 -25305 0
-25409 -25308 0
25409 25305 25308 0
-25410 -25408 0
-25410 -25409 0
25410 25408 25409 0
-25411 -144 0
-25411 25410 0
25411 144 -25410 0
-25412 144 0
-25412 -25410 0
25412 -144 25410 0
-25413 -25411 0
-25413 -25412 0
25413 25411 25412 0
-25414 4 0
-25414 8 0
25414 -4 -8 0
-25415 -4 0
-25415 -8 0
25415 4 8 0
-25416 -25414 0
-25416 -25415 0
25416 25414 25415 0
-25435 23529 0
-25435 25416 0
25435 -23529 -25416 0
-25436 -23529 0
-25436 -25416 0
25436 23529 25416 0
-25437 -25435 0
-25437 -25436 0
25437 25435 25436 0
-25465 19269 0
-25465 25437 0
25465 -19269 -25437 0
-25466 -19269 0
-25466 -25437 0
25466 19269 25437 0
-25467 -25465 0
-25467 -25466 0
25467 25465 25466 0
-25420 48 0
-25420 13545 0
25420 -48 -13545 0
-25421 -48 0
-25421 -13545 0
25421 48 13545 0
-25422 -25420 0
-25422 -25421 0
25422 25420 25421 0
-25438 13089 0
-25438 25422 0
25438 -13089 -25422 0
-25439 -13089 0
-25439 -25422 0
25439 13089 25422 0
-25440 -25438 0
-25440 -25439 0
25440 25438 25439 0
-25468 13161 0
-25468 25440 0
25468 -13161 -25440 0
-25469 -13161 0
-25469 -25440 0
25469 13161 25440 0
-25470 -25468 0
-25470 -25469 0
25470 25468 25469 0
-25426 51 0
-25426 11841 0
25426 -51 -11841 0
-25427 -51 0
-25427 -11841 0
25427 51 11841 0
-25428 -25426 0
-25428 -25427 0
25428 25426 25427 0
-25456 23520 0
-25456 25428 0
25456 -23520 -25428 0
-25457 -23520 0
-25457 -25428 0
25457 23520 25428 0
-25458 -25456 0
-25458 -25457 0
25458 25456 25457 0
-25522 22182 0
-25522 25458 0
25522 -22182 -25458 0
-25523 -22182 0
-25523 -25458 0
25523 22182 25458 0
-25524 -25522 0
-25524 -25523 0
25524 25522 25523 0
-25546 25470 0
-25546 25524 0
25546 -25470 -25524 0
-25547 -25470 0
-25547 -25524 0
25547 25470 25524 0
-25548 -25546 0
-25548 -25547 0
25548 25546 25547 0
-25549 25467 0
-25549 25548 0
25549 -25467 -25548 0
-25550 -25467 0
-25550 -25548 0
25550 25467 25548 0
-25551 -25549 0
-25551 -25550 0
25551 25549 25550 0
-25552 13233 0
-25552 19389 0
25552 -13233 -19389 0
-25553 -13233 0
-25553 -19389 0
25553 13233 19389 0
-25554 -25552 0
-25554 -25553 0
25554 25552 25553 0
-25651 25551 0
-25651 25554 0
25651 -25551 -25554 0
-25652 -25551 0
-25652 -25554 0
25652 25551 25554 0
-25653 -25651 0
-25653 -25652 0
25653 25651 25652 0
-25654 -143 0
-25654 25653 0
25654 143 -25653 0
-25655 143 0
-25655 -25653 0
25655 -143 25653 0
-25656 -25654 0
-25656 -25655 0
25656 25654 25655 0
-25657 5 0
-25657 7 0
25657 -5 -7 0
-25658 -5 0
-25658 -7 0
25658 5 7 0
-25659 -25657 0
-25659 -25658 0
25659 25657 25658 0
-25675 11798 0
-25675 25659 0
25675 -11798 -25659 0
-25676 -11798 0
-25676 -25659 0
25676 11798 25659 0
-25677 -25675 0
-25677 -25676 0
25677 25675 25676 0
-25708 19629 0
-25708 25677 0
25708 -19629 -25677 0
-25709 -19629 0
-25709 -25677 0
25709 19629 25677 0
-25710 -25708 0
-25710 -25709 0
25710 25708 25709 0
-25660 46 0
-25660 11838 0
25660 -46 -11838 0
-25661 -46 0
-25661 -11838 0
25661 46 11838 0
-25662 -25660 0
-25662 -25661 0
25662 25660 25661 0
-25678 13089 0
-25678 25662 0
25678 -13089 -25662 0
-25679 -13089 0
-25679 -25662 0
25679 13089 25662 0
-25680 -25678 0
-25680 -25679 0
25680 25678 25679 0
-25711 13680 0
-25711 25680 0
25711 -13680 -25680 0
-25712 -13680 0
-25712 -25680 0
25712 13680 25680 0
-25713 -25711 0
-25713 -25712 0
25713 25711 25712 0
-25702 18132 0
-25702 23892 0
25702 -18132 -23892 0
-25703 -18132 0
-25703 -23892 0
25703 18132 23892 0
-25704 -25702 0
-25704 -25703 0
25704 25702 25703 0
-25765 19167 0
-25765 25704 0
25765 -19167 -25704 0
-25766 -19167 0
-25766 -25704 0
25766 19167 25704 0
-25767 -25765 0
-25767 -25766 0
25767 25765 25766 0
-25789 25713 0
-25789 25767 0
25789 -25713 -25767 0
-25790 -25713 0
-25790 -25767 0
25790 25713 25767 0
-25791 -25789 0
-25791 -25790 0
25791 25789 25790 0
-25792 25710 0
-25792 25791 0
25792 -25710 -25791 0
-25793 -25710 0
-25793 -25791 0
25793 25710 25791 0
-25794 -25792 0
-25794 -25793 0
25794 25792 25793 0
-25795 13995 0
-25795 19767 0
25795 -13995 -19767 0
-25796 -13995 0
-25796 -19767 0
25796 13995 19767 0
-25797 -25795 0
-25797 -25796 0
25797 25795 25796 0
-25891 25794 0
-25891 25797 0
25891 -25794 -25797 0
-25892 -25794 0
-25892 -25797 0
25892 25794 25797 0
-25893 -25891 0
-25893 -25892 0
25893 25891 25892 0
-25894 -142 0
-25894 25893 0
25894 142 -25893 0
-25895 142 0
-25895 -25893 0
25895 -142 25893 0
-25896 -25894 0
-25896 -25895 0
25896 25894 25895 0
-25897 22872 0
-25897 24225 0
25897 -22872 -24225 0
-25898 -22872 0
-25898 -24225 0
25898 22872 24225 0
-25899 -25897 0
-25899 -25898 0
25899 25897 25898 0
-25900 19983 0
-25900 25899 0
25900 -19983 -25899 0
-25901 -19983 0
-25901 -25899 0
25901 19983 25899 0
-25902 -25900 0
-25902 -25901 0
25902 25900 25901 0
-25903 14259 0
-25903 22929 0
25903 -14259 -22929 0
-25904 -14259 0
-25904 -22929 0
25904 14259 22929 0
-25905 -25903 0
-25905 -25904 0
25905 25903 25904 0
-22894 53 0
-22894 55 0
22894 -53 -55 0
-22895 -53 0
-22895 -55 0
22895 53 55 0
-22896 -22894 0
-22896 -22895 0
22896 22894 22895 0
-25942 19602 0
-25942 22896 0
25942 -19602 -22896 0
-25943 -19602 0
-25943 -22896 0
25943 19602 22896 0
-25944 -25942 0
-25944 -25943 0
25944 25942 25943 0
-25966 25905 0
-25966 25944 0
25966 -25905 -25944 0
-25967 -25905 0
-25967 -25944 0
25967 25905 25944 0
-25968 -25966 0
-25968 -25967 0
25968 25966 25967 0
-25969 25902 0
-25969 25968 0
25969 -25902 -25968 0
-25970 -25902 0
-25970 -25968 0
25970 25902 25968 0
-25971 -25969 0
-25971 -25970 0
25971 25969 25970 0
-26065 21384 0
-26065 25971 0
26065 -21384 -25971 0
-26066 -21384 0
-26066 -25971 0
26066 21384 25971 0
-26067 -26065 0
-26067 -26066 0
26067 26065 26066 0
-26068 -141 0
-26068 26067 0
26068 141 -26067 0
-26069 141 0
-26069 -26067 0
26069 -141 26067 0
-26070 -26068 0
-26070 -26069 0
26070 26068 26069 0
-26074 14 0
-26074 15 0
26074 -14 -15 0
-26075 -14 0
-26075 -15 0
26075 14 15 0
-26076 -26074 0
-26076 -26075 0
26076 26074 26075 0
-26089 13557 0
-26089 26076 0
26089 -13557 -26076 0
-26090 -13557 0
-26090 -26076 0
26090 13557 26076 0
-26091 -26089 0
-26091 -26090 0
26091 26089 26090 0
-26092 13554 0
-26092 26091 0
26092 -13554 -26091 0
-26093 -13554 0
-26093 -26091 0
26093 13554 26091 0
-26094 -26092 0
-26094 -26093 0
26094 26092 26093 0
-26128 20235 0
-26128 26094 0
26128 -20235 -26094 0
-26129 -20235 0
-26129 -26094 0
26129 20235 26094 0
-26130 -26128 0
-26130 -26129 0
26130 26128 26129 0
-26113 11913 0
-26113 14664 0
26113 -11913 -14664 0
-26114 -11913 0
-26114 -14664 0
26114 11913 14664 0
-26115 -26113 0
-26115 -26114 0
26115 26113 26114 0
-26131 14766 0
-26131 26115 0
26131 -14766 -26115 0
-26132 -14766 0
-26132 -26115 0
26132 14766 26115 0
-26133 -26131 0
-26133 -26132 0
26133 26131 26132 0
-26224 17514 0
-26224 26133 0
26224 -17514 -26133 0
-26225 -17514 0
-26225 -26133 0
26225 17514 26133 0
-26226 -26224 0
-26226 -26225 0
26226 26224 26225 0
-26227 26130 0
-26227 26226 0
26227 -26130 -26226 0
-26228 -26130 0
-26228 -26226 0
26228 26130 26226 0
-26229 -26227 0
-26229 -26228 0
26229 26227 26228 0
-26230 14985 0
-26230 20298 0
26230 -14985 -20298 0
-26231 -14985 0
-26231 -20298 0
26231 14985 20298 0
-26232 -26230 0
-26232 -26231 0
26232 26230 26231 0
-26347 26229 0
-26347 26232 0
26347 -26229 -26232 0
-26348 -26229 0
-26348 -26232 0
26348 26229 26232 0
-26349 -26347 0
-26349 -26348 0
26349 26347 26348 0
-26350 -140 0
-26350 26349 0
26350 140 -26349 0
-26351 140 0
-26351 -26349 0
26351 -140 26349 0
-26352 -26350 0
-26352 -26351 0
26352 26350 26351 0
-26353 -139 0
-26353 11769 0
26353 139 -11769 0
-26354 139 0
-26354 -11769 0
26354 -139 11769 0
-26355 -26353 0
-26355 -26354 0
26355 26353 26354 0
-26356 19131 0
-26356 23511 0
26356 -19131 -23511 0
-26357 -19131 0
-26357 -23511 0
26357 19131 23511 0
-26358 -26356 0
-26358 -26357 0
26358 26356 26357 0
-26359 13062 0
-26359 26358 0
26359 -13062 -26358 0
-26360 -13062 0
-26360 -26358 0
26360 13062 26358 0
-26361 -26359 0
-26361 -26360 0
26361 26359 26360 0
-26395 20571 0
-26395 26361 0
26395 -20571 -26361 0
-26396 -20571 0
-26396 -26361 0
26396 20571 26361 0
-26397 -26395 0
-26397 -26396 0
26397 26395 26396 0
-26380 12432 0
-26380 13095 0
26380 -12432 -13095 0
-26381 -12432 0
-26381 -13095 0
26381 12432 13095 0
-26382 -26380 0
-26382 -26381 0
26382 26380 26381 0
-26398 15537 0
-26398 26382 0
26398 -15537 -26382 0
-26399 -15537 0
-26399 -26382 0
26399 15537 26382 0
-26400 -26398 0
-26400 -26399 0
26400 26398 26399 0
-13741 59 0
-13741 63 0
13741 -59 -63 0
-13742 -59 0
-13742 -63 0
13742 59 63 0
-13743 -13741 0
-13743 -13742 0
13743 13741 13742 0
-26470 13200 0
-26470 13743 0
26470 -13200 -13743 0
-26471 -13200 0
-26471 -13743 0
26471 13200 13743 0
-26472 -26470 0
-26472 -26471 0
26472 26470 26471 0
-26521 26400 0
-26521 26472 0
26521 -26400 -26472 0
-26522 -26400 0
-26522 -26472 0
26522 26400 26472 0
-26523 -26521 0
-26523 -26522 0
26523 26521 26522 0
-26524 26397 0
-26524 26523 0
26524 -26397 -26523 0
-26525 -26397 0
-26525 -26523 0
26525 26397 26523 0
-26526 -26524 0
-26526 -26525 0
26526 26524 26525 0
-26392 74 0
-26392 15492 0
26392 -74 -15492 0
-26393 -74 0
-26393 -15492 0
26393 74 15492 0
-26394 -26392 0
-26394 -26393 0
26394 26392 26393 0
-26494 12060 0
-26494 26394 0
26494 -12060 -26394 0
-26495 -12060 0
-26495 -26394 0
26495 12060 26394 0
-26496 -26494 0
-26496 -26495 0
26496 26494 26495 0
-26527 15747 0
-26527 26496 0
26527 -15747 -26496 0
-26528 -15747 0
-26528 -26496 0
26528 15747 26496 0
-26529 -26527 0
-26529 -26528 0
26529 26527 26528 0
-26644 26526 0
-26644 26529 0
26644 -26526 -26529 0
-26645 -26526 0
-26645 -26529 0
26645 26526 26529 0
-26646 -26644 0
-26646 -26645 0
26646 26644 26645 0
-26647 -138 0
-26647 26646 0
26647 138 -26646 0
-26648 138 0
-26648 -26646 0
26648 -138 26646 0
-26649 -26647 0
-26649 -26648 0
26649 26647 26648 0
-26659 58 0
-26659 20790 0
26659 -58 -20790 0
-26660 -58 0
-26660 -20790 0
26660 58 20790 0
-26661 -26659 0
-26661 -26660 0
26661 26659 26660 0
-26683 22896 0
-26683 26661 0
26683 -22896 -26661 0
-26684 -22896 0
-26684 -26661 0
26684 22896 26661 0
-26685 -26683 0
-26685 -26684 0
26685 26683 26684 0
-26737 22986 0
-26737 26685 0
26737 -22986 -26685 0
-26738 -22986 0
-26738 -26685 0
26738 22986 26685 0
-26739 -26737 0
-26739 -26738 0
26739 26737 26738 0
-26740 22983 0
-26740 26739 0
26740 -22983 -26739 0
-26741 -22983 0
-26741 -26739 0
26741 22983 26739 0
-26742 -26740 0
-26742 -26741 0
26742 26740 26741 0
-26713 15897 0
-26713 19626 0
26713 -15897 -19626 0
-26714 -15897 0
-26714 -19626 0
26714 15897 19626 0
-26715 -26713 0
-26715 -26714 0
26715 26713 26714 0
-26743 16083 0
-26743 26715 0
26743 -16083 -26715 0
-26744 -16083 0
-26744 -26715 0
26744 16083 26715 0
-26745 -26743 0
-26745 -26744 0
26745 26743 26744 0
-26860 26742 0
-26860 26745 0
26860 -26742 -26745 0
-26861 -26742 0
-26861 -26745 0
26861 26742 26745 0
-26862 -26860 0
-26862 -26861 0
26862 26860 26861 0
-26863 -137 0
-26863 26862 0
26863 137 -26862 0
-26864 137 0
-26864 -26862 0
26864 -137 26862 0
-26865 -26863 0
-26865 -26864 0
26865 26863 26864 0
-26881 11829 0
-26881 19134 0
26881 -11829 -19134 0
-26882 -11829 0
-26882 -19134 0
26882 11829 19134 0
-26883 -26881 0
-26883 -26882 0
26883 26881 26882 0
-26965 18840 0
-26965 26883 0
26965 -18840 -26883 0
-26966 -18840 0
-26966 -26883 0
26966 18840 26883 0
-26967 -26965 0
-26967 -26966 0
26967 26965 26966 0
-26968 25677 0
-26968 26967 0
26968 -25677 -26967 0
-26969 -25677 0
-26969 -26967 0
26969 25677 26967 0
-26970 -26968 0
-26970 -26969 0
26970 26968 26969 0
-26866 36 0
-26866 38 0
26866 -36 -38 0
-26867 -36 0
-26867 -38 0
26867 36 38 0
-26868 -26866 0
-26868 -26867 0
26868 26866 26867 0
-26905 11838 0
-26905 14664 0
26905 -11838 -14664 0
-26906 -11838 0
-26906 -14664 0
26906 11838 14664 0
-26907 -26905 0
-26907 -26906 0
26907 26905 26906 0
-26971 26868 0
-26971 26907 0
26971 -26868 -26907 0
-26972 -26868 0
-26972 -26907 0
26972 26868 26907 0
-26973 -26971 0
-26973 -26972 0
26973 26971 26972 0
-27061 12519 0
-27061 25704 0
27061 -12519 -25704 0
-27062 -12519 0
-27062 -25704 0
27062 12519 25704 0
-27063 -27061 0
-27063 -27062 0
27063 27061 27062 0
-27154 26973 0
-27154 27063 0
27154 -26973 -27063 0
-27155 -26973 0
-27155 -27063 0
27155 26973 27063 0
-27156 -27154 0
-27156 -27155 0
27156 27154 27155 0
-27157 26970 0
-27157 27156 0
27157 -26970 -27156 0
-27158 -26970 0
-27158 -27156 0
27158 26970 27156 0
-27159 -27157 0
-27159 -27158 0
27159 27157 27158 0
-27094 18231 0
-27094 19626 0
27094 -18231 -19626 0
-27095 -18231 0
-27095 -19626 0
27095 18231 19626 0
-27096 -27094 0
-27096 -27095 0
27096 27094 27095 0
-26872 82 0
-26872 85 0
26872 -82 -85 0
-26873 -82 0
-26873 -85 0
26873 82 85 0
-26874 -26872 0
-26874 -26873 0
26874 26872 26873 0
-26944 14706 0
-26944 26874 0
26944 -14706 -26874 0
-26945 -14706 0
-26945 -26874 0
26945 14706 26874 0
-26946 -26944 0
-26946 -26945 0
26946 26944 26945 0
-27142 11757 0
-27142 26946 0
27142 -11757 -26946 0
-27143 -11757 0
-27143 -26946 0
27143 11757 26946 0
-27144 -27142 0
-27144 -27143 0
27144 27142 27143 0
-27160 27096 0
-27160 27144 0
27160 -27096 -27144 0
-27161 -27096 0
-27161 -27144 0
27161 27096 27144 0
-27162 -27160 0
-27162 -27161 0
27162 27160 27161 0
-27289 27159 0
-27289 27162 0
27289 -27159 -27162 0
-27290 -27159 0
-27290 -27162 0
27290 27159 27162 0
-27291 -27289 0
-27291 -27290 0
27291 27289 27290 0
-27292 -136 0
-27292 27291 0
27292 136 -27291 0
-27293 136 0
-27293 -27291 0
27293 -136 27291 0
-27294 -27292 0
-27294 -27293 0
27294 27292 27293 0
-27328 25899 0
-27328 26967 0
27328 -25899 -26967 0
-27329 -25899 0
-27329 -26967 0
27329 25899 26967 0
-27330 -27328 0
-27330 -27329 0
27330 27328 27329 0
-27298 35 0
-27298 13542 0
27298 -35 -13542 0
-27299 -35 0
-27299 -13542 0
27299 35 13542 0
-27300 -27298 0
-27300 -27299 0
27300 27298 27299 0
-27325 38 0
-27325 27300 0
27325 -38 -27300 0
-27326 -38 0
-27326 -27300 0
27326 38 27300 0
-27327 -27325 0
-27327 -27326 0
27327 27325 27326 0
-27331 22893 0
-27331 27327 0
27331 -22893 -27327 0
-27332 -22893 0
-27332 -27327 0
27332 22893 27327 0
-27333 -27331 0
-27333 -27332 0
27333 27331 27332 0
-27400 13746 0
-27400 22896 0
27400 -13746 -22896 0
-27401 -13746 0
-27401 -22896 0
27401 13746 22896 0
-27402 -27400 0
-27402 -27401 0
27402 27400 27401 0
-27436 27333 0
-27436 27402 0
27436 -27333 -27402 0
-27437 -27333 0
-27437 -27402 0
27437 27333 27402 0
-27438 -27436 0
-27438 -27437 0
27438 27436 27437 0
-27439 27330 0
-27439 27438 0
27439 -27330 -27438 0
-27440 -27330 0
-27440 -27438 0
27440 27330 27438 0
-27441 -27439 0
-27441 -27440 0
27441 27439 27440 0
-27307 82 0
-27307 84 0
27307 -82 -84 0
-27308 -82 0
-27308 -84 0
27308 82 84 0
-27309 -27307 0
-27309 -27308 0
27309 27307 27308 0
-27430 93 0
-27430 27309 0
27430 -93 -27309 0
-27431 -93 0
-27431 -27309 0
27431 93 27309 0
-27432 -27430 0
-27432 -27431 0
27432 27430 27431 0
-27442 19626 0
-27442 27432 0
27442 -19626 -27432 0
-27443 -19626 0
-27443 -27432 0
27443 19626 27432 0
-27444 -27442 0
-27444 -27443 0
27444 27442 27443 0
-27517 27441 0
-27517 27444 0
27517 -27441 -27444 0
-27518 -27441 0
-27518 -27444 0
27518 27441 27444 0
-27519 -27517 0
-27519 -27518 0
27519 27517 27518 0
-27520 -135 0
-27520 27519 0
27520 135 -27519 0
-27521 135 0
-27521 -27519 0
27521 -135 27519 0
-27522 -27520 0
-27522 -27521 0
27522 27520 27521 0
-27523 17 0
-27523 26076 0
27523 -17 -26076 0
-27524 -17 0
-27524 -26076 0
27524 17 26076 0
-27525 -27523 0
-27525 -27524 0
27525 27523 27524 0
-27529 13557 0
-27529 27525 0
27529 -13557 -27525 0
-27530 -13557 0
-27530 -27525 0
27530 13557 27525 0
-27531 -27529 0
-27531 -27530 0
27531 27529 27530 0
-27532 13554 0
-27532 27531 0
27532 -13554 -27531 0
-27533 -13554 0
-27533 -27531 0
27533 13554 27531 0
-27534 -27532 0
-27534 -27533 0
27534 27532 27533 0
-27568 21561 0
-27568 27534 0
27568 -21561 -27534 0
-27569 -21561 0
-27569 -27534 0
27569 21561 27534 0
-27570 -27568 0
-27570 -27569 0
27570 27568 27569 0
-27571 11913 0
-27571 15468 0
27571 -11913 -15468 0
-27572 -11913 0
-27572 -15468 0
27572 11913 15468 0
-27573 -27571 0
-27573 -27572 0
27573 27571 27572 0
-27679 19719 0
-27679 27573 0
27679 -19719 -27573 0
-27680 -19719 0
-27680 -27573 0
27680 19719 27573 0
-27681 -27679 0
-27681 -27680 0
27681 27679 27680 0
-27682 27570 0
-27682 27681 0
27682 -27570 -27681 0
-27683 -27570 0
-27683 -27681 0
27683 27570 27681 0
-27684 -27682 0
-27684 -27683 0
27684 27682 27683 0
-27661 81 0
-27661 21549 0
27661 -81 -21549 0
-27662 -81 0
-27662 -21549 0
27662 81 21549 0
-27663 -27661 0
-27663 -27662 0
27663 27661 27662 0
-27676 83 0
-27676 92 0
27676 -83 -92 0
-27677 -83 0
-27677 -92 0
27677 83 92 0
-27678 -27676 0
-27678 -27677 0
27678 27676 27677 0
-27685 27663 0
-27685 27678 0
27685 -27663 -27678 0
-27686 -27663 0
-27686 -27678 0
27686 27663 27678 0
-27687 -27685 0
-27687 -27686 0
27687 27685 27686 0
-27781 27684 0
-27781 27687 0
27781 -27684 -27687 0
-27782 -27684 0
-27782 -27687 0
27782 27684 27687 0
-27783 -27781 0
-27783 -27782 0
27783 27781 27782 0
-27784 -134 0
-27784 27783 0
27784 134 -27783 0
-27785 134 0
-27785 -27783 0
27785 -134 27783 0
-27786 -27784 0
-27786 -27785 0
27786 27784 27785 0
-27793 13 0
-27793 17 0
27793 -13 -17 0
-27794 -13 0
-27794 -17 0
27794 13 17 0
-27795 -27793 0
-27795 -27794 0
27795 27793 27794 0
-27874 23946 0
-27874 27795 0
27874 -23946 -27795 0
-27875 -23946 0
-27875 -27795 0
27875 23946 27795 0
-27876 -27874 0
-27876 -27875 0
27876 27874 27875 0
-27826 37 0
-27826 12426 0
27826 -37 -12426 0
-27827 -37 0
-27827 -12426 0
27827 37 12426 0
-27828 -27826 0
-27828 -27827 0
27828 27826 27827 0
-27835 46 0
-27835 12432 0
27835 -46 -12432 0
-27836 -46 0
-27836 -12432 0
27836 46 12432 0
-27837 -27835 0
-27837 -27836 0
27837 27835 27836 0
-27877 27828 0
-27877 27837 0
27877 -27828 -27837 0
-27878 -27828 0
-27878 -27837 0
27878 27828 27837 0
-27879 -27877 0
-27879 -27878 0
27879 27877 27878 0
-28009 19167 0
-28009 27879 0
28009 -19167 -27879 0
-28010 -19167 0
-28010 -27879 0
28010 19167 27879 0
-28011 -28009 0
-28011 -28010 0
28011 28009 28010 0
-28012 27876 0
-28012 28011 0
28012 -27876 -28011 0
-28013 -27876 0
-28013 -28011 0
28013 27876 28011 0
-28014 -28012 0
-28014 -28013 0
28014 28012 28013 0
-27787 78 0
-27787 14625 0
27787 -78 -14625 0
-27788 -78 0
-27788 -14625 0
27788 78 14625 0
-27789 -27787 0
-27789 -27788 0
27789 27787 27788 0
-27952 21897 0
-27952 27789 0
27952 -21897 -27789 0
-27953 -21897 0
-27953 -27789 0
27953 21897 27789 0
-27954 -27952 0
-27954 -27953 0
27954 27952 27953 0
-27862 11856 0
-27862 12552 0
27862 -11856 -12552 0
-27863 -11856 0
-27863 -12552 0
27863 11856 12552 0
-27864 -27862 0
-27864 -27863 0
27864 27862 27863 0
-28000 11757 0
-28000 27864 0
28000 -11757 -27864 0
-28001 -11757 0
-28001 -27864 0
28001 11757 27864 0
-28002 -28000 0
-28002 -28001 0
28002 28000 28001 0
-28015 27954 0
-28015 28002 0
28015 -27954 -28002 0
-28016 -27954 0
-28016 -28002 0
28016 27954 28002 0
-28017 -28015 0
-28017 -28016 0
28017 28015 28016 0
-28144 28014 0
-28144 28017 0
28144 -28014 -28017 0
-28145 -28014 0
-28145 -28017 0
28145 28014 28017 0
-28146 -28144 0
-28146 -28145 0
28146 28144 28145 0
-28147 -133 0
-28147 28146 0
28147 133 -28146 0
-28148 133 0
-28148 -28146 0
28148 -133 28146 0
-28149 -28147 0
-28149 -28148 0
28149 28147 28148 0
-28165 26 0
-28165 19134 0
28165 -26 -19134 0
-28166 -26 0
-28166 -19134 0
28166 26 19134 0
-28167 -28165 0
-28167 -28166 0
28167 28165 28166 0
-28228 22134 0
-28228 28167 0
28228 -22134 -28167 0
-28229 -22134 0
-28229 -28167 0
28229 22134 28167 0
-28230 -28228 0
-28230 -28229 0
28230 28228 28229 0
-28231 26361 0
-28231 28230 0
28231 -26361 -28230 0
-28232 -26361 0
-28232 -28230 0
28232 26361 28230 0
-28233 -28231 0
-28233 -28232 0
28233 28231 28232 0
-28150 37 0
-28150 12417 0
28150 -37 -12417 0
-28151 -37 0
-28151 -12417 0
28151 37 12417 0
-28152 -28150 0
-28152 -28151 0
28152 28150 28151 0
-28183 39 0
-28183 28152 0
28183 -39 -28152 0
-28184 -39 0
-28184 -28152 0
28184 39 28152 0
-28185 -28183 0
-28185 -28184 0
28185 28183 28184 0
-28234 18195 0
-28234 28185 0
28234 -18195 -28185 0
-28235 -18195 0
-28235 -28185 0
28235 18195 28185 0
-28236 -28234 0
-28236 -28235 0
28236 28234 28235 0
-28315 13200 0
-28315 19602 0
28315 -13200 -19602 0
-28316 -13200 0
-28316 -19602 0
28316 13200 19602 0
-28317 -28315 0
-28317 -28316 0
28317 28315 28316 0
-28402 28236 0
-28402 28317 0
28402 -28236 -28317 0
-28403 -28236 0
-28403 -28317 0
28403 28236 28317 0
-28404 -28402 0
-28404 -28403 0
28404 28402 28403 0
-28405 28233 0
-28405 28404 0
28405 -28233 -28404 0
-28406 -28233 0
-28406 -28404 0
28406 28233 28404 0
-28407 -28405 0
-28407 -28406 0
28407 28405 28406 0
-28153 80 0
-28153 14619 0
28153 -80 -14619 0
-28154 -80 0
-28154 -14619 0
28154 80 14619 0
-28155 -28153 0
-28155 -28154 0
28155 28153 28154 0
-28192 77 0
-28192 28155 0
28192 -77 -28155 0
-28193 -77 0
-28193 -28155 0
28193 77 28155 0
-28194 -28192 0
-28194 -28193 0
28194 28192 28193 0
-28345 22200 0
-28345 28194 0
28345 -22200 -28194 0
-28346 -22200 0
-28346 -28194 0
28346 22200 28194 0
-28347 -28345 0
-28347 -28346 0
28347 28345 28346 0
-28393 93 0
-28393 14838 0
28393 -93 -14838 0
-28394 -93 0
-28394 -14838 0
28394 93 14838 0
-28395 -28393 0
-28395 -28394 0
28395 28393 28394 0
-28408 28347 0
-28408 28395 0
28408 -28347 -28395 0
-28409 -28347 0
-28409 -28395 0
28409 28347 28395 0
-28410 -28408 0
-28410 -28409 0
28410 28408 28409 0
-28537 28407 0
-28537 28410 0
28537 -28407 -28410 0
-28538 -28407 0
-28538 -28410 0
28538 28407 28410 0
-28539 -28537 0
-28539 -28538 0
28539 28537 28538 0
-28540 -132 0
-28540 28539 0
28540 132 -28539 0
-28541 132 0
-28541 -28539 0
28541 -132 28539 0
-28542 -28540 0
-28542 -28541 0
28542 28540 28541 0
-24895 12 0
-24895 22863 0
24895 -12 -22863 0
-24896 -12 0
-24896 -22863 0
24896 12 22863 0
-24897 -24895 0
-24897 -24896 0
24897 24895 24896 0
-28549 22872 0
-28549 24897 0
28549 -22872 -24897 0
-28550 -22872 0
-28550 -24897 0
28550 22872 24897 0
-28551 -28549 0
-28551 -28550 0
28551 28549 28550 0
-28591 22581 0
-28591 28551 0
28591 -22581 -28551 0
-28592 -22581 0
-28592 -28551 0
28592 22581 28551 0
-28593 -28591 0
-28593 -28592 0
28593 28591 28592 0
-28567 12426 0
-28567 27300 0
28567 -12426 -27300 0
-28568 -12426 0
-28568 -27300 0
28568 12426 27300 0
-28569 -28567 0
-28569 -28568 0
28569 28567 28568 0
-28594 25194 0
-28594 28569 0
28594 -25194 -28569 0
-28595 -25194 0
-28595 -28569 0
28595 25194 28569 0
-28596 -28594 0
-28596 -28595 0
28596 28594 28595 0
-28678 22896 0
-28678 24615 0
28678 -22896 -24615 0
-28679 -22896 0
-28679 -24615 0
28679 22896 24615 0
-28680 -28678 0
-28680 -28679 0
28680 28678 28679 0
-28759 28596 0
-28759 28680 0
28759 -28596 -28680 0
-28760 -28596 0
-28760 -28680 0
28760 28596 28680 0
-28761 -28759 0
-28761 -28760 0
28761 28759 28760 0
-28762 28593 0
-28762 28761 0
28762 -28593 -28761 0
-28763 -28593 0
-28763 -28761 0
28763 28593 28761 0
-28764 -28762 0
-28764 -28763 0
28764 28762 28763 0
-28573 74 0
-28573 27789 0
28573 -74 -27789 0
-28574 -74 0
-28574 -27789 0
28574 74 27789 0
-28575 -28573 0
-28575 -28574 0
28575 28573 28574 0
-28708 22557 0
-28708 28575 0
28708 -22557 -28575 0
-28709 -22557 0
-28709 -28575 0
28709 22557 28575 0
-28710 -28708 0
-28710 -28709 0
28710 28708 28709 0
-28756 92 0
-28756 15594 0
28756 -92 -15594 0
-28757 -92 0
-28757 -15594 0
28757 92 15594 0
-28758 -28756 0
-28758 -28757 0
28758 28756 28757 0
-28765 28710 0
-28765 28758 0
28765 -28710 -28758 0
-28766 -28710 0
-28766 -28758 0
28766 28710 28758 0
-28767 -28765 0
-28767 -28766 0
28767 28765 28766 0
-28891 28764 0
-28891 28767 0
28891 -28764 -28767 0
-28892 -28764 0
-28892 -28767 0
28892 28764 28767 0
-28893 -28891 0
-28893 -28892 0
28893 28891 28892 0
-28894 -131 0
-28894 28893 0
28894 131 -28893 0
-28895 131 0
-28895 -28893 0
28895 -131 28893 0
-28896 -28894 0
-28896 -28895 0
28896 28894 28895 0
-28897 18516 0
-28897 28551 0
28897 -18516 -28551 0
-28898 -18516 0
-28898 -28551 0
28898 18516 28551 0
-28899 -28897 0
-28899 -28898 0
28899 28897 28898 0
-14659 37 0
-14659 39 0
14659 -37 -39 0
-14660 -37 0
-14660 -39 0
14660 37 39 0
-14661 -14659 0
-14661 -14660 0
14661 14659 14660 0
-28900 14661 0
-28900 24579 0
28900 -14661 -24579 0
-28901 -14661 0
-28901 -24579 0
28901 14661 24579 0
-28902 -28900 0
-28902 -28901 0
28902 28900 28901 0
-28942 58 0
-28942 22950 0
28942 -58 -22950 0
-28943 -58 0
-28943 -22950 0
28943 58 22950 0
-28944 -28942 0
-28944 -28943 0
28944 28942 28943 0
-29005 28902 0
-29005 28944 0
29005 -28902 -28944 0
-29006 -28902 0
-29006 -28944 0
29006 28902 28944 0
-29007 -29005 0
-29007 -29006 0
29007 29005 29006 0
-29008 28899 0
-29008 29007 0
29008 -28899 -29007 0
-29009 -28899 0
-29009 -29007 0
29009 28899 29007 0
-29010 -29008 0
-29010 -29009 0
29010 29008 29009 0
-28963 18231 0
-28963 18507 0
28963 -18231 -18507 0
-28964 -18231 0
-28964 -18507 0
28964 18231 18507 0
-28965 -28963 0
-28965 -28964 0
28965 28963 28964 0
-28996 11757 0
-28996 14838 0
28996 -11757 -14838 0
-28997 -11757 0
-28997 -14838 0
28997 11757 14838 0
-28998 -28996 0
-28998 -28997 0
28998 28996 28997 0
-29011 28965 0
-29011 28998 0
29011 -28965 -28998 0
-29012 -28965 0
-29012 -28998 0
29012 28965 28998 0
-29013 -29011 0
-29013 -29012 0
29013 29011 29012 0
-29140 29010 0
-29140 29013 0
29140 -29010 -29013 0
-29141 -29010 0
-29141 -29013 0
29141 29010 29013 0
-29142 -29140 0
-29142 -29141 0
29142 29140 29141 0
-29143 -130 0
-29143 29142 0
29143 130 -29142 0
-29144 130 0
-29144 -29142 0
29144 -130 29142 0
-29145 -29143 0
-29145 -29144 0
29145 29143 29144 0
-29146 11997 0
-29146 18840 0
29146 -11997 -18840 0
-29147 -11997 0
-29147 -18840 0
29147 11997 18840 0
-29148 -29146 0
-29148 -29147 0
29148 29146 29147 0
-29149 22905 0
-29149 29148 0
29149 -22905 -29148 0
-29150 -22905 0
-29150 -29148 0
29150 22905 29148 0
-29151 -29149 0
-29151 -29150 0
29151 29149 29150 0
-29194 22893 0
-29194 23319 0
29194 -22893 -23319 0
-29195 -22893 0
-29195 -23319 0
29195 22893 23319 0
-29196 -29194 0
-29196 -29195 0
29196 29194 29195 0
-29197 29151 0
-29197 29196 0
29197 -29151 -29196 0
-29198 -29151 0
-29198 -29196 0
29198 29151 29196 0
-29199 -29197 0
-29199 -29198 0
29199 29197 29198 0
-29191 74 0
-29191 18891 0
29191 -74 -18891 0
-29192 -74 0
-29192 -18891 0
29192 74 18891 0
-29193 -29191 0
-29193 -29192 0
29193 29191 29192 0
-29200 93 0
-29200 29193 0
29200 -93 -29193 0
-29201 -93 0
-29201 -29193 0
29201 93 29193 0
-29202 -29200 0
-29202 -29201 0
29202 29200 29201 0
-29293 129 0
-29293 29202 0
29293 -129 -29202 0
-29294 -129 0
-29294 -29202 0
29294 129 29202 0
-29295 -29293 0
-29295 -29294 0
29295 29293 29294 0
-29296 29199 0
-29296 29295 0
29296 -29199 -29295 0
-29297 -29199 0
-29297 -29295 0
29297 29199 29295 0
-29298 -29296 0
-29298 -29297 0
29298 29296 29297 0
-29299 19182 0
-29299 26883 0
29299 -19182 -26883 0
-29300 -19182 0
-29300 -26883 0
29300 19182 26883 0
-29301 -29299 0
-29301 -29300 0
29301 29299 29300 0
-29302 23532 0
-29302 29301 0
29302 -23532 -29301 0
-29303 -23532 0
-29303 -29301 0
29303 23532 29301 0
-29304 -29302 0
-29304 -29303 0
29304 29302 29303 0
-29350 11913 0
-29350 23703 0
29350 -11913 -23703 0
-29351 -11913 0
-29351 -23703 0
29351 11913 23703 0
-29352 -29350 0
-29352 -29351 0
29352 29350 29351 0
-29353 29304 0
-29353 29352 0
29353 -29304 -29352 0
-29354 -29304 0
-29354 -29352 0
29354 29304 29352 0
-29355 -29353 0
-29355 -29354 0
29355 29353 29354 0
-29356 92 0
-29356 19260 0
29356 -92 -19260 0
-29357 -92 0
-29357 -19260 0
29357 92 19260 0
-29358 -29356 0
-29358 -29357 0
29358 29356 29357 0
-29446 128 0
-29446 29358 0
29446 -128 -29358 0
-29447 -128 0
-29447 -29358 0
29447 128 29358 0
-29448 -29446 0
-29448 -29447 0
29448 29446 29447 0
-29449 29355 0
-29449 29448 0
29449 -29355 -29448 0
-29450 -29355 0
-29450 -29448 0
29450 29355 29448 0
-29451 -29449 0
-29451 -29450 0
29451 29449 29450 0
-29452 32 0
-29452 19134 0
29452 -32 -19134 0
-29453 -32 0
-29453 -19134 0
29453 32 19134 0
-29454 -29452 0
-29454 -29453 0
29454 29452 29453 0
-29461 11829 0
-29461 29454 0
29461 -11829 -29454 0
-29462 -11829 0
-29462 -29454 0
29462 11829 29454 0
-29463 -29461 0
-29463 -29462 0
29463 29461 29462 0
-29485 19542 0
-29485 29463 0
29485 -19542 -29463 0
-29486 -19542 0
-29486 -29463 0
29486 19542 29463 0
-29487 -29485 0
-29487 -29486 0
29487 29485 29486 0
-29488 11798 0
-29488 29487 0
29488 -11798 -29487 0
-29489 -11798 0
-29489 -29487 0
29489 11798 29487 0
-29490 -29488 0
-29490 -29489 0
29490 29488 29489 0
-29491 15537 0
-29491 27837 0
29491 -15537 -27837 0
-29492 -15537 0
-29492 -27837 0
29492 15537 27837 0
-29493 -29491 0
-29493 -29492 0
29493 29491 29492 0
-29602 24033 0
-29602 29493 0
29602 -24033 -29493 0
-29603 -24033 0
-29603 -29493 0
29603 24033 29493 0
-29604 -29602 0
-29604 -29603 0
29604 29602 29603 0
-29605 29490 0
-29605 29604 0
29605 -29490 -29604 0
-29606 -29490 0
-29606 -29604 0
29606 29490 29604 0
-29607 -29605 0
-29607 -29606 0
29607 29605 29606 0
-28003 11757 0
-28003 15594 0
28003 -11757 -15594 0
-28004 -11757 0
-28004 -15594 0
28004 11757 15594 0
-28005 -28003 0
-28005 -28004 0
28005 28003 28004 0
-29572 15492 0
-29572 19623 0
29572 -15492 -19623 0
-29573 -15492 0
-29573 -19623 0
29573 15492 19623 0
-29574 -29572 0
-29574 -29573 0
29574 29572 29573 0
-29608 28005 0
-29608 29574 0
29608 -28005 -29574 0
-29609 -28005 0
-29609 -29574 0
29609 28005 29574 0
-29610 -29608 0
-29610 -29609 0
29610 29608 29609 0
-29734 127 0
-29734 29610 0
29734 -127 -29610 0
-29735 -127 0
-29735 -29610 0
29735 127 29610 0
-29736 -29734 0
-29736 -29735 0
29736 29734 29735 0
-29737 29607 0
-29737 29736 0
29737 -29607 -29736 0
-29738 -29607 0
-29738 -29736 0
29738 29607 29736 0
-29739 -29737 0
-29739 -29738 0
29739 29737 29738 0
-29761 19983 0
-29761 24228 0
29761 -19983 -24228 0
-29762 -19983 0
-29762 -24228 0
29762 19983 24228 0
-29763 -29761 0
-29763 -29762 0
29763 29761 29762 0
-29764 14661 0
-29764 18195 0
29764 -14661 -18195 0
-29765 -14661 0
-29765 -18195 0
29765 14661 18195 0
-29766 -29764 0
-29766 -29765 0
29766 29764 29765 0
-29896 24363 0
-29896 29766 0
29896 -24363 -29766 0
-29897 -24363 0
-29897 -29766 0
29897 24363 29766 0
-29898 -29896 0
-29898 -29897 0
29898 29896 29897 0
-29899 29763 0
-29899 29898 0
29899 -29763 -29898 0
-29900 -29763 0
-29900 -29898 0
29900 29763 29898 0
-29901 -29899 0
-29901 -29900 0
29901 29899 29900 0
-29746 77 0
-29746 27789 0
29746 -77 -27789 0
-29747 -77 0
-29747 -27789 0
29747 77 27789 0
-29748 -29746 0
-29748 -29747 0
29748 29746 29747 0
-29848 19626 0
-29848 29748 0
29848 -19626 -29748 0
-29849 -19626 0
-29849 -29748 0
29849 19626 29748 0
-29850 -29848 0
-29850 -29849 0
29850 29848 29849 0
-29902 28395 0
-29902 29850 0
29902 -28395 -29850 0
-29903 -28395 0
-29903 -29850 0
29903 28395 29850 0
-29904 -29902 0
-29904 -29903 0
29904 29902 29903 0
-30031 126 0
-30031 29904 0
30031 -126 -29904 0
-30032 -126 0
-30032 -29904 0
30032 126 29904 0
-30033 -30031 0
-30033 -30032 0
30033 30031 30032 0
-30034 29901 0
-30034 30033 0
30034 -29901 -30033 0
-30035 -29901 0
-30035 -30033 0
30035 29901 30033 0
-30036 -30034 0
-30036 -30035 0
30036 30034 30035 0
-30067 20235 0
-30067 24561 0
30067 -20235 -24561 0
-30068 -20235 0
-30068 -24561 0
30068 20235 24561 0
-30069 -30067 0
-30069 -30068 0
30069 30067 30068 0
-30058 12432 0
-30058 22893 0
30058 -12432 -22893 0
-30059 -12432 0
-30059 -22893 0
30059 12432 22893 0
-30060 -30058 0
-30060 -30059 0
30060 30058 30059 0
-30070 15537 0
-30070 30060 0
30070 -15537 -30060 0
-30071 -15537 0
-30071 -30060 0
30071 15537 30060 0
-30072 -30070 0
-30072 -30071 0
30072 30070 30071 0
-30220 24693 0
-30220 30072 0
30220 -24693 -30072 0
-30221 -24693 0
-30221 -30072 0
30221 24693 30072 0
-30222 -30220 0
-30222 -30221 0
30222 30220 30221 0
-30223 30069 0
-30223 30222 0
30223 -30069 -30222 0
-30224 -30069 0
-30224 -30222 0
30224 30069 30222 0
-30225 -30223 0
-30225 -30224 0
30225 30223 30224 0
-30184 12066 0
-30184 12675 0
30184 -12066 -12675 0
-30185 -12066 0
-30185 -12675 0
30185 12066 12675 0
-30186 -30184 0
-30186 -30185 0
30186 30184 30185 0
-30226 28758 0
-30226 30186 0
30226 -28758 -30186 0
-30227 -28758 0
-30227 -30186 0
30227 28758 30186 0
-30228 -30226 0
-30228 -30227 0
30228 30226 30227 0
-30352 125 0
-30352 30228 0
30352 -125 -30228 0
-30353 -125 0
-30353 -30228 0
30353 125 30228 0
-30354 -30352 0
-30354 -30353 0
30354 30352 30353 0
-30355 30225 0
-30355 30354 0
30355 -30225 -30354 0
-30356 -30225 0
-30356 -30354 0
30356 30225 30354 0
-30357 -30355 0
-30357 -30356 0
30357 30355 30356 0
-30379 19 0
-30379 12411 0
30379 -19 -12411 0
-30380 -19 0
-30380 -12411 0
30380 19 12411 0
-30381 -30379 0
-30381 -30380 0
30381 30379 30380 0
-30382 24894 0
-30382 30381 0
30382 -24894 -30381 0
-30383 -24894 0
-30383 -30381 0
30383 24894 30381 0
-30384 -30382 0
-30384 -30383 0
30384 30382 30383 0
-30367 43 0
-30367 22890 0
30367 -43 -22890 0
-30368 -43 0
-30368 -22890 0
30368 43 22890 0
-30369 -30367 0
-30369 -30368 0
30369 30367 30368 0
-30385 14661 0
-30385 30369 0
30385 -14661 -30369 0
-30386 -14661 0
-30386 -30369 0
30386 14661 30369 0
-30387 -30385 0
-30387 -30386 0
30387 30385 30386 0
-30469 25011 0
-30469 30387 0
30469 -25011 -30387 0
-30470 -25011 0
-30470 -30387 0
30470 25011 30387 0
-30471 -30469 0
-30471 -30470 0
30471 30469 30470 0
-30472 30384 0
-30472 30471 0
30472 -30384 -30471 0
-30473 -30384 0
-30473 -30471 0
30473 30384 30471 0
-30474 -30472 0
-30474 -30473 0
30474 30472 30473 0
-30475 27789 0
-30475 28998 0
30475 -27789 -28998 0
-30476 -27789 0
-30476 -28998 0
30476 27789 28998 0
-30477 -30475 0
-30477 -30476 0
30477 30475 30476 0
-30580 124 0
-30580 30477 0
30580 -124 -30477 0
-30581 -124 0
-30581 -30477 0
30581 124 30477 0
-30582 -30580 0
-30582 -30581 0
30582 30580 30581 0
-30583 30474 0
-30583 30582 0
30583 -30474 -30582 0
-30584 -30474 0
-30584 -30582 0
30584 30474 30582 0
-30585 -30583 0
-30585 -30584 0
30585 30583 30584 0
-30697 11997 0
-30697 20547 0
30697 -11997 -20547 0
-30698 -11997 0
-30698 -20547 0
30698 11997 20547 0
-30699 -30697 0
-30699 -30698 0
30699 30697 30698 0
-30700 25188 0
-30700 30699 0
30700 -25188 -30699 0
-30701 -25188 0
-30701 -30699 0
30701 25188 30699 0
-30702 -30700 0
-30702 -30701 0
30702 30700 30701 0
-30592 38 0
-30592 12426 0
30592 -38 -12426 0
-30593 -38 0
-30593 -12426 0
30593 38 12426 0
-30594 -30592 0
-30594 -30593 0
30594 30592 30593 0
-30631 28152 0
-30631 30594 0
30631 -28152 -30594 0
-30632 -28152 0
-30632 -30594 0
30632 28152 30594 0
-30633 -30631 0
-30633 -30632 0
30633 30631 30632 0
-30703 24579 0
-30703 30633 0
30703 -24579 -30633 0
-30704 -24579 0
-30704 -30633 0
30704 24579 30633 0
-30705 -30703 0
-30705 -30704 0
30705 30703 30704 0
-30664 58 0
-30664 63 0
30664 -58 -63 0
-30665 -58 0
-30665 -63 0
30665 58 63 0
-30666 -30664 0
-30666 -30665 0
30666 30664 30665 0
-30784 25218 0
-30784 30666 0
30784 -25218 -30666 0
-30785 -25218 0
-30785 -30666 0
30785 25218 30666 0
-30786 -30784 0
-30786 -30785 0
30786 30784 30785 0
-30883 30705 0
-30883 30786 0
30883 -30705 -30786 0
-30884 -30705 0
-30884 -30786 0
30884 30705 30786 0
-30885 -30883 0
-30885 -30884 0
30885 30883 30884 0
-30886 30702 0
-30886 30885 0
30886 -30702 -30885 0
-30887 -30702 0
-30887 -30885 0
30887 30702 30885 0
-30888 -30886 0
-30888 -30887 0
30888 30886 30887 0
-30667 13104 0
-30667 28155 0
30667 -13104 -28155 0
-30668 -13104 0
-30668 -28155 0
30668 13104 28155 0
-30669 -30667 0
-30669 -30668 0
30669 30667 30668 0
-30823 12060 0
-30823 30669 0
30823 -12060 -30669 0
-30824 -12060 0
-30824 -30669 0
30824 12060 30669 0
-30825 -30823 0
-30825 -30824 0
30825 30823 30824 0
-30598 85 0
-30598 11856 0
30598 -85 -11856 0
-30599 -85 0
-30599 -11856 0
30599 85 11856 0
-30600 -30598 0
-30600 -30599 0
30600 30598 30599 0
-30607 86 0
-30607 14634 0
30607 -86 -14634 0
-30608 -86 0
-30608 -14634 0
30608 86 14634 0
-30609 -30607 0
-30609 -30608 0
30609 30607 30608 0
-30682 30600 0
-30682 30609 0
30682 -30600 -30609 0
-30683 -30600 0
-30683 -30609 0
30683 30600 30609 0
-30684 -30682 0
-30684 -30683 0
30684 30682 30683 0
-30871 93 0
-30871 30684 0
30871 -93 -30684 0
-30872 -93 0
-30872 -30684 0
30872 93 30684 0
-30873 -30871 0
-30873 -30872 0
30873 30871 30872 0
-30889 30825 0
-30889 30873 0
30889 -30825 -30873 0
-30890 -30825 0
-30890 -30873 0
30890 30825 30873 0
-30891 -30889 0
-30891 -30890 0
30891 30889 30890 0
-31021 123 0
-31021 30891 0
31021 -123 -30891 0
-31022 -123 0
-31022 -30891 0
31022 123 30891 0
-31023 -31021 0
-31023 -31022 0
31023 31021 31022 0
-31024 30888 0
-31024 31023 0
31024 -30888 -31023 0
-31025 -30888 0
-31025 -31023 0
31025 30888 31023 0
-31026 -31024 0
-31026 -31025 0
31026 31024 31025 0
-31138 20844 0
-31138 25437 0
31138 -20844 -25437 0
-31139 -20844 0
-31139 -25437 0
31139 20844 25437 0
-31140 -31138 0
-31140 -31139 0
31140 31138 31139 0
-12418 35 0
-12418 36 0
12418 -35 -36 0
-12419 -35 0
-12419 -36 0
12419 35 36 0
-12420 -12418 0
-12420 -12419 0
12420 12418 12419 0
-31033 41 0
-31033 13053 0
31033 -41 -13053 0
-31034 -41 0
-31034 -13053 0
31034 41 13053 0
-31035 -31033 0
-31035 -31034 0
31035 31033 31034 0
-31069 12420 0
-31069 31035 0
31069 -12420 -31035 0
-31070 -12420 0
-31070 -31035 0
31070 12420 31035 0
-31071 -31069 0
-31071 -31070 0
31071 31069 31070 0
-31090 12432 0
-31090 25422 0
31090 -12432 -25422 0
-31091 -12432 0
-31091 -25422 0
31091 12432 25422 0
-31092 -31090 0
-31092 -31091 0
31092 31090 31091 0
-31141 31071 0
-31141 31092 0
31141 -31071 -31092 0
-31142 -31071 0
-31142 -31092 0
31142 31071 31092 0
-31143 -31141 0
-31143 -31142 0
31143 31141 31142 0
-31105 11850 0
-31105 20790 0
31105 -11850 -20790 0
-31106 -11850 0
-31106 -20790 0
31106 11850 20790 0
-31107 -31105 0
-31107 -31106 0
31107 31105 31106 0
-31219 25458 0
-31219 31107 0
31219 -25458 -31107 0
-31220 -25458 0
-31220 -31107 0
31220 25458 31107 0
-31221 -31219 0
-31221 -31220 0
31221 31219 31220 0
-31306 31143 0
-31306 31221 0
31306 -31143 -31221 0
-31307 -31143 0
-31307 -31221 0
31307 31143 31221 0
-31308 -31306 0
-31308 -31307 0
31308 31306 31307 0
-31309 31140 0
-31309 31308 0
31309 -31140 -31308 0
-31310 -31140 0
-31310 -31308 0
31310 31140 31308 0
-31311 -31309 0
-31311 -31310 0
31311 31309 31310 0
-31252 19626 0
-31252 27789 0
31252 -19626 -27789 0
-31253 -19626 0
-31253 -27789 0
31253 19626 27789 0
-31254 -31252 0
-31254 -31253 0
31254 31252 31253 0
-11857 83 0
-11857 84 0
11857 -83 -84 0
-11858 -83 0
-11858 -84 0
11858 83 84 0
-11859 -11857 0
-11859 -11858 0
11859 11857 11858 0
-31051 89 0
-31051 14628 0
31051 -89 -14628 0
-31052 -89 0
-31052 -14628 0
31052 89 14628 0
-31053 -31051 0
-31053 -31052 0
31053 31051 31052 0
-31123 11859 0
-31123 31053 0
31123 -11859 -31053 0
-31124 -11859 0
-31124 -31053 0
31124 11859 31053 0
-31125 -31123 0
-31125 -31124 0
31125 31123 31124 0
-31297 92 0
-31297 31125 0
31297 -92 -31125 0
-31298 -92 0
-31298 -31125 0
31298 92 31125 0
-31299 -31297 0
-31299 -31298 0
31299 31297 31298 0
-31312 31254 0
-31312 31299 0
31312 -31254 -31299 0
-31313 -31254 0
-31313 -31299 0
31313 31254 31299 0
-31314 -31312 0
-31314 -31313 0
31314 31312 31313 0
-31441 122 0
-31441 31314 0
31441 -122 -31314 0
-31442 -122 0
-31442 -31314 0
31442 122 31314 0
-31443 -31441 0
-31443 -31442 0
31443 31441 31442 0
-31444 31311 0
-31444 31443 0
31444 -31311 -31443 0
-31445 -31311 0
-31445 -31443 0
31445 31311 31443 0
-31446 -31444 0
-31446 -31445 0
31446 31444 31445 0
-31450 11 0
-31450 25659 0
31450 -11 -25659 0
-31451 -11 0
-31451 -25659 0
31451 11 25659 0
-31452 -31450 0
-31452 -31451 0
31452 31450 31451 0
-12472 30 0
-12472 32 0
12472 -30 -32 0
-12473 -30 0
-12473 -32 0
12473 30 32 0
-12474 -12472 0
-12474 -12473 0
12474 12472 12473 0
-12577 28 0
-12577 12474 0
12577 -28 -12474 0
-12578 -28 0
-12578 -12474 0
12578 28 12474 0
-12579 -12577 0
-12579 -12578 0
12579 12577 12578 0
-31483 12579 0
-31483 15129 0
31483 -12579 -15129 0
-31484 -12579 0
-31484 -15129 0
31484 12579 15129 0
-31485 -31483 0
-31485 -31484 0
31485 31483 31484 0
-31486 31452 0
-31486 31485 0
31486 -31452 -31485 0
-31487 -31452 0
-31487 -31485 0
31487 31452 31485 0
-31488 -31486 0
-31488 -31487 0
31488 31486 31487 0
-31468 12432 0
-31468 25662 0
31468 -12432 -25662 0
-31469 -12432 0
-31469 -25662 0
31469 12432 25662 0
-31470 -31468 0
-31470 -31469 0
31470 31468 31469 0
-31489 15537 0
-31489 31470 0
31489 -15537 -31470 0
-31490 -15537 0
-31490 -31470 0
31490 15537 31470 0
-31491 -31489 0
-31491 -31490 0
31491 31489 31490 0
-31570 14181 0
-31570 25704 0
31570 -14181 -25704 0
-31571 -14181 0
-31571 -25704 0
31571 14181 25704 0
-31572 -31570 0
-31572 -31571 0
31572 31570 31571 0
-31633 31491 0
-31633 31572 0
31633 -31491 -31572 0
-31634 -31491 0
-31634 -31572 0
31634 31491 31572 0
-31635 -31633 0
-31635 -31634 0
31635 31633 31634 0
-31636 31488 0
-31636 31635 0
31636 -31488 -31635 0
-31637 -31488 0
-31637 -31635 0
31637 31488 31635 0
-31638 -31636 0
-31638 -31637 0
31638 31636 31637 0
-31609 15222 0
-31609 26394 0
31609 -15222 -26394 0
-31610 -15222 0
-31610 -26394 0
31610 15222 26394 0
-31611 -31609 0
-31611 -31610 0
31611 31609 31610 0
-31639 28005 0
-31639 31611 0
31639 -28005 -31611 0
-31640 -28005 0
-31640 -31611 0
31640 28005 31611 0
-31641 -31639 0
-31641 -31640 0
31641 31639 31640 0
-31765 121 0
-31765 31641 0
31765 -121 -31641 0
-31766 -121 0
-31766 -31641 0
31766 121 31641 0
-31767 -31765 0
-31767 -31766 0
31767 31765 31766 0
-31768 31638 0
-31768 31767 0
31768 -31638 -31767 0
-31769 -31638 0
-31769 -31767 0
31769 31638 31767 0
-31770 -31768 0
-31770 -31769 0
31770 31768 31769 0
-15157 16 0
-15157 13536 0
15157 -16 -13536 0
-15158 -16 0
-15158 -13536 0
15158 16 13536 0
-15159 -15157 0
-15159 -15158 0
15159 15157 15158 0
-31771 15159 0
-31771 22872 0
31771 -15159 -22872 0
-31772 -15159 0
-31772 -22872 0
31772 15159 22872 0
-31773 -31771 0
-31773 -31772 0
31773 31771 31772 0
-31783 15597 0
-31783 31773 0
31783 -15597 -31773 0
-31784 -15597 0
-31784 -31773 0
31784 15597 31773 0
-31785 -31783 0
-31785 -31784 0
31785 31783 31784 0
-24265 59 0
-24265 22896 0
24265 -59 -22896 0
-24266 -59 0
-24266 -22896 0
24266 59 22896 0
-24267 -24265 0
-24267 -24266 0
24267 24265 24266 0
-31855 24267 0
-31855 28902 0
31855 -24267 -28902 0
-31856 -24267 0
-31856 -28902 0
31856 24267 28902 0
-31857 -31855 0
-31857 -31856 0
31857 31855 31856 0
-31858 31785 0
-31858 31857 0
31858 -31785 -31857 0
-31859 -31785 0
-31859 -31857 0
31859 31785 31857 0
-31860 -31858 0
-31860 -31859 0
31860 31858 31859 0
-31831 15489 0
-31831 29748 0
31831 -15489 -29748 0
-31832 -15489 0
-31832 -29748 0
31832 15489 29748 0
-31833 -31831 0
-31833 -31832 0
31833 31831 31832 0
-31861 28395 0
-31861 31833 0
31861 -28395 -31833 0
-31862 -28395 0
-31862 -31833 0
31862 28395 31833 0
-31863 -31861 0
-31863 -31862 0
31863 31861 31862 0
-31966 120 0
-31966 31863 0
31966 -120 -31863 0
-31967 -120 0
-31967 -31863 0
31967 120 31863 0
-31968 -31966 0
-31968 -31967 0
31968 31966 31967 0
-31969 31860 0
-31969 31968 0
31969 -31860 -31968 0
-31970 -31860 0
-31970 -31968 0
31970 31860 31968 0
-31971 -31969 0
-31971 -31970 0
31971 31969 31970 0
-31996 15906 0
-31996 26094 0
31996 -15906 -26094 0
-31997 -15906 0
-31997 -26094 0
31997 15906 26094 0
-31998 -31996 0
-31998 -31997 0
31998 31996 31997 0
-31990 11913 0
-31990 12432 0
31990 -11913 -12432 0
-31991 -11913 0
-31991 -12432 0
31991 11913 12432 0
-31992 -31990 0
-31992 -31991 0
31992 31990 31991 0
-31999 15537 0
-31999 31992 0
31999 -15537 -31992 0
-32000 -15537 0
-32000 -31992 0
32000 15537 31992 0
-32001 -31999 0
-32001 -32000 0
32001 31999 32000 0
-32062 59 0
-32062 13725 0
32062 -59 -13725 0
-32063 -59 0
-32063 -13725 0
32063 59 13725 0
-32064 -32062 0
-32064 -32063 0
32064 32062 32063 0
-32092 32001 0
-32092 32064 0
32092 -32001 -32064 0
-32093 -32001 0
-32093 -32064 0
32093 32001 32064 0
-32094 -32092 0
-32094 -32093 0
32094 32092 32093 0
-32095 31998 0
-32095 32094 0
32095 -31998 -32094 0
-32096 -31998 0
-32096 -32094 0
32096 31998 32094 0
-32097 -32095 0
-32097 -32096 0
32097 32095 32096 0
-32083 81 0
-32083 11937 0
32083 -81 -11937 0
-32084 -81 0
-32084 -11937 0
32084 81 11937 0
-32085 -32083 0
-32085 -32084 0
32085 32083 32084 0
-32098 28758 0
-32098 32085 0
32098 -28758 -32085 0
-32099 -28758 0
-32099 -32085 0
32099 28758 32085 0
-32100 -32098 0
-32100 -32099 0
32100 32098 32099 0
-32200 119 0
-32200 32100 0
32200 -119 -32100 0
-32201 -119 0
-32201 -32100 0
32201 119 32100 0
-32202 -32200 0
-32202 -32201 0
32202 32200 32201 0
-32203 32097 0
-32203 32202 0
32203 -32097 -32202 0
-32204 -32097 0
-32204 -32202 0
32204 32097 32202 0
-32205 -32203 0
-32205 -32204 0
32205 32203 32204 0
-32215 16287 0
-32215 27795 0
32215 -16287 -27795 0
-32216 -16287 0
-32216 -27795 0
32216 16287 27795 0
-32217 -32215 0
-32217 -32216 0
32217 32215 32216 0
-12505 43 0
-12505 46 0
12505 -43 -46 0
-12506 -43 0
-12506 -46 0
12506 43 46 0
-12507 -12505 0
-12507 -12506 0
12507 12505 12506 0
-32218 12507 0
-32218 14661 0
32218 -12507 -14661 0
-32219 -12507 0
-32219 -14661 0
32219 12507 14661 0
-32220 -32218 0
-32220 -32219 0
32220 32218 32219 0
-32323 13620 0
-32323 32220 0
32323 -13620 -32220 0
-32324 -13620 0
-32324 -32220 0
32324 13620 32220 0
-32325 -32323 0
-32325 -32324 0
32325 32323 32324 0
-32326 32217 0
-32326 32325 0
32326 -32217 -32325 0
-32327 -32217 0
-32327 -32325 0
32327 32217 32325 0
-32328 -32326 0
-32328 -32327 0
32328 32326 32327 0
-32296 16266 0
-32296 28575 0
32296 -16266 -28575 0
-32297 -16266 0
-32297 -28575 0
32297 16266 28575 0
-32298 -32296 0
-32298 -32297 0
32298 32296 32297 0
-32329 28998 0
-32329 32298 0
32329 -28998 -32298 0
-32330 -28998 0
-32330 -32298 0
32330 28998 32298 0
-32331 -32329 0
-32331 -32330 0
32331 32329 32330 0
-32461 118 0
-32461 32331 0
32461 -118 -32331 0
-32462 -118 0
-32462 -32331 0
32462 118 32331 0
-32463 -32461 0
-32463 -32462 0
32463 32461 32462 0
-32464 32328 0
-32464 32463 0
32464 -32328 -32463 0
-32465 -32328 0
-32465 -32463 0
32465 32328 32463 0
-32466 -32464 0
-32466 -32465 0
32466 32464 32465 0
-32467 16 0
-32467 23511 0
32467 -16 -23511 0
-32468 -16 0
-32468 -23511 0
32468 16 23511 0
-32469 -32467 0
-32469 -32468 0
32469 32467 32468 0
-32470 13062 0
-32470 32469 0
32470 -13062 -32469 0
-32471 -13062 0
-32471 -32469 0
32471 13062 32469 0
-32472 -32470 0
-32472 -32471 0
32472 32470 32471 0
-32497 12471 0
-32497 16599 0
32497 -12471 -16599 0
-32498 -12471 0
-32498 -16599 0
32498 12471 16599 0
-32499 -32497 0
-32499 -32498 0
32499 32497 32498 0
-32500 32472 0
-32500 32499 0
32500 -32472 -32499 0
-32501 -32472 0
-32501 -32499 0
32501 32472 32499 0
-32502 -32500 0
-32502 -32501 0
32502 32500 32501 0
-32503 18195 0
-32503 30633 0
32503 -18195 -30633 0
-32504 -18195 0
-32504 -30633 0
32504 18195 30633 0
-32505 -32503 0
-32505 -32504 0
32505 32503 32504 0
-32632 15279 0
-32632 32505 0
32632 -15279 -32505 0
-32633 -15279 0
-32633 -32505 0
32633 15279 32505 0
-32634 -32632 0
-32634 -32633 0
32634 32632 32633 0
-32635 32502 0
-32635 32634 0
32635 -32502 -32634 0
-32636 -32502 0
-32636 -32634 0
32636 32502 32634 0
-32637 -32635 0
-32637 -32636 0
32637 32635 32636 0
-32608 16623 0
-32608 30669 0
32608 -16623 -30669 0
-32609 -16623 0
-32609 -30669 0
32609 16623 30669 0
-32610 -32608 0
-32610 -32609 0
32610 32608 32609 0
-32638 30873 0
-32638 32610 0
32638 -30873 -32610 0
-32639 -30873 0
-32639 -32610 0
32639 30873 32610 0
-32640 -32638 0
-32640 -32639 0
32640 32638 32639 0
-32767 117 0
-32767 32640 0
32767 -117 -32640 0
-32768 -117 0
-32768 -32640 0
32768 117 32640 0
-32769 -32767 0
-32769 -32768 0
32769 32767 32768 0
-32770 32637 0
-32770 32769 0
32770 -32637 -32769 0
-32771 -32637 0
-32771 -32769 0
32771 32637 32769 0
-32772 -32770 0
-32772 -32771 0
32772 32770 32771 0
-32797 16983 0
-32797 22905 0
32797 -16983 -22905 0
-32798 -16983 0
-32798 -22905 0
32798 16983 22905 0
-32799 -32797 0
-32799 -32798 0
32799 32797 32798 0
-32800 25194 0
-32800 31071 0
32800 -25194 -31071 0
-32801 -25194 0
-32801 -31071 0
32801 25194 31071 0
-32802 -32800 0
-32802 -32801 0
32802 32800 32801 0
-32866 22896 0
-32866 23283 0
32866 -22896 -23283 0
-32867 -22896 0
-32867 -23283 0
32867 22896 23283 0
-32868 -32866 0
-32868 -32867 0
32868 32866 32867 0
-32932 32802 0
-32932 32868 0
32932 -32802 -32868 0
-32933 -32802 0
-32933 -32868 0
32933 32802 32868 0
-32934 -32932 0
-32934 -32933 0
32934 32932 32933 0
-32935 32799 0
-32935 32934 0
32935 -32799 -32934 0
-32936 -32799 0
-32936 -32934 0
32936 32799 32934 0
-32937 -32935 0
-32937 -32936 0
32937 32935 32936 0
-32905 12060 0
-32905 28575 0
32905 -12060 -28575 0
-32906 -12060 0
-32906 -28575 0
32906 12060 28575 0
-32907 -32905 0
-32907 -32906 0
32907 32905 32906 0
-32938 31299 0
-32938 32907 0
32938 -31299 -32907 0
-32939 -31299 0
-32939 -32907 0
32939 31299 32907 0
-32940 -32938 0
-32940 -32939 0
32940 32938 32939 0
-33073 116 0
-33073 32940 0
33073 -116 -32940 0
-33074 -116 0
-33074 -32940 0
33074 116 32940 0
-33075 -33073 0
-33075 -33074 0
33075 33073 33074 0
-33076 32937 0
-33076 33075 0
33076 -32937 -33075 0
-33077 -32937 0
-33077 -33075 0
33077 32937 33075 0
-33078 -33076 0
-33078 -33077 0
33078 33076 33077 0
-33085 12468 0
-33085 12471 0
33085 -12468 -12471 0
-33086 -12468 0
-33086 -12471 0
33086 12468 12471 0
-33087 -33085 0
-33087 -33086 0
33087 33085 33086 0
-33088 28551 0
-33088 33087 0
33088 -28551 -33087 0
-33089 -28551 0
-33089 -33087 0
33089 28551 33087 0
-33090 -33088 0
-33090 -33089 0
33090 33088 33089 0
-33091 24579 0
-33091 26868 0
33091 -24579 -26868 0
-33092 -24579 0
-33092 -26868 0
33092 24579 26868 0
-33093 -33091 0
-33093 -33092 0
33093 33091 33092 0
-33130 22950 0
-33130 24615 0
33130 -22950 -24615 0
-33131 -22950 0
-33131 -24615 0
33131 22950 24615 0
-33132 -33130 0
-33132 -33131 0
33132 33130 33131 0
-33175 33093 0
-33175 33132 0
33175 -33093 -33132 0
-33176 -33093 0
-33176 -33132 0
33176 33093 33132 0
-33177 -33175 0
-33177 -33176 0
33177 33175 33176 0
-33178 33090 0
-33178 33177 0
33178 -33090 -33177 0
-33179 -33090 0
-33179 -33177 0
33179 33090 33177 0
-33180 -33178 0
-33180 -33179 0
33180 33178 33179 0
-33181 20298 0
-33181 27144 0
33181 -20298 -27144 0
-33182 -20298 0
-33182 -27144 0
33182 20298 27144 0
-33183 -33181 0
-33183 -33182 0
33183 33181 33182 0
-33325 115 0
-33325 33183 0
33325 -115 -33183 0
-33326 -115 0
-33326 -33183 0
33326 115 33183 0
-33327 -33325 0
-33327 -33326 0
33327 33325 33326 0
-33328 33180 0
-33328 33327 0
33328 -33180 -33327 0
-33329 -33180 0
-33329 -33327 0
33329 33180 33327 0
-33330 -33328 0
-33330 -33329 0
33330 33328 33329 0
-33337 58 0
-33337 23262 0
33337 -58 -23262 0
-33338 -58 0
-33338 -23262 0
33338 58 23262 0
-33339 -33337 0
-33339 -33338 0
33339 33337 33338 0
-33340 27333 0
-33340 33339 0
33340 -27333 -33339 0
-33341 -27333 0
-33341 -33339 0
33341 27333 33339 0
-33342 -33340 0
-33342 -33341 0
33342 33340 33341 0
-33343 28551 0
-33343 33342 0
33343 -28551 -33342 0
-33344 -28551 0
-33344 -33342 0
33344 28551 33342 0
-33345 -33343 0
-33345 -33344 0
33345 33343 33344 0
-33400 114 0
-33400 27432 0
33400 -114 -27432 0
-33401 -114 0
-33401 -27432 0
33401 114 27432 0
-33402 -33400 0
-33402 -33401 0
33402 33400 33401 0
-33403 33345 0
-33403 33402 0
33403 -33345 -33402 0
-33404 -33345 0
-33404 -33402 0
33404 33345 33402 0
-33405 -33403 0
-33405 -33404 0
33405 33403 33404 0
-33406 15 0
-33406 23511 0
33406 -15 -23511 0
-33407 -15 0
-33407 -23511 0
33407 15 23511 0
-33408 -33406 0
-33408 -33407 0
33408 33406 33407 0
-33409 13554 0
-33409 33408 0
33409 -13554 -33408 0
-33410 -13554 0
-33410 -33408 0
33410 13554 33408 0
-33411 -33409 0
-33411 -33410 0
33411 33409 33410 0
-33421 11850 0
-33421 23580 0
33421 -11850 -23580 0
-33422 -11850 0
-33422 -23580 0
33422 11850 23580 0
-33423 -33421 0
-33423 -33422 0
33423 33421 33422 0
-33427 27573 0
-33427 33423 0
33427 -27573 -33423 0
-33428 -27573 0
-33428 -33423 0
33428 27573 33423 0
-33429 -33427 0
-33429 -33428 0
33429 33427 33428 0
-33430 33411 0
-33430 33429 0
33430 -33411 -33429 0
-33431 -33411 0
-33431 -33429 0
33431 33411 33429 0
-33432 -33430 0
-33432 -33431 0
33432 33430 33431 0
-33433 81 0
-33433 27678 0
33433 -81 -27678 0
-33434 -81 0
-33434 -27678 0
33434 81 27678 0
-33435 -33433 0
-33435 -33434 0
33435 33433 33434 0
-33490 113 0
-33490 33435 0
33490 -113 -33435 0
-33491 -113 0
-33491 -33435 0
33491 113 33435 0
-33492 -33490 0
-33492 -33491 0
33492 33490 33491 0
-33493 33432 0
-33493 33492 0
33493 -33432 -33492 0
-33494 -33432 0
-33494 -33492 0
33494 33432 33492 0
-33495 -33493 0
-33495 -33494 0
33495 33493 33494 0
-33505 11958 0
-33505 16227 0
33505 -11958 -16227 0
-33506 -11958 0
-33506 -16227 0
33506 11958 16227 0
-33507 -33505 0
-33507 -33506 0
33507 33505 33506 0
-33508 11798 0
-33508 33507 0
33508 -11798 -33507 0
-33509 -11798 0
-33509 -33507 0
33509 11798 33507 0
-33510 -33508 0
-33510 -33509 0
33510 33508 33509 0
-33547 63 0
-33547 23892 0
33547 -63 -23892 0
-33548 -63 0
-33548 -23892 0
33548 63 23892 0
-33549 -33547 0
-33549 -33548 0
33549 33547 33548 0
-33589 27879 0
-33589 33549 0
33589 -27879 -33549 0
-33590 -27879 0
-33590 -33549 0
33590 27879 33549 0
-33591 -33589 0
-33591 -33590 0
33591 33589 33590 0
-33592 33510 0
-33592 33591 0
33592 -33510 -33591 0
-33593 -33510 0
-33593 -33591 0
33593 33510 33591 0
-33594 -33592 0
-33594 -33593 0
33594 33592 33593 0
-33595 28002 0
-33595 32907 0
33595 -28002 -32907 0
-33596 -28002 0
-33596 -32907 0
33596 28002 32907 0
-33597 -33595 0
-33597 -33596 0
33597 33595 33596 0
-33742 112 0
-33742 33597 0
33742 -112 -33597 0
-33743 -112 0
-33743 -33597 0
33743 112 33597 0
-33744 -33742 0
-33744 -33743 0
33744 33742 33743 0
-33745 33594 0
-33745 33744 0
33745 -33594 -33744 0
-33746 -33594 0
-33746 -33744 0
33746 33594 33744 0
-33747 -33745 0
-33747 -33746 0
33747 33745 33746 0
-33769 12471 0
-33769 12561 0
33769 -12471 -12561 0
-33770 -12471 0
-33770 -12561 0
33770 12471 12561 0
-33771 -33769 0
-33771 -33770 0
33771 33769 33770 0
-33772 24228 0
-33772 33771 0
33772 -24228 -33771 0
-33773 -24228 0
-33773 -33771 0
33773 24228 33771 0
-33774 -33772 0
-33774 -33773 0
33774 33772 33773 0
-33763 59 0
-33763 12519 0
33763 -59 -12519 0
-33764 -59 0
-33764 -12519 0
33764 59 12519 0
-33765 -33763 0
-33765 -33764 0
33765 33763 33764 0
-33814 24264 0
-33814 33765 0
33814 -24264 -33765 0
-33815 -24264 0
-33815 -33765 0
33815 24264 33765 0
-33816 -33814 0
-33816 -33815 0
33816 33814 33815 0
-33871 28236 0
-33871 33816 0
33871 -28236 -33816 0
-33872 -28236 0
-33872 -33816 0
33872 28236 33816 0
-33873 -33871 0
-33873 -33872 0
33873 33871 33872 0
-33874 33774 0
-33874 33873 0
33874 -33774 -33873 0
-33875 -33774 0
-33875 -33873 0
33875 33774 33873 0
-33876 -33874 0
-33876 -33875 0
33876 33874 33875 0
-33853 12675 0
-33853 30669 0
33853 -12675 -30669 0
-33854 -12675 0
-33854 -30669 0
33854 12675 30669 0
-33855 -33853 0
-33855 -33854 0
33855 33853 33854 0
-33877 28395 0
-33877 33855 0
33877 -28395 -33855 0
-33878 -28395 0
-33878 -33855 0
33878 28395 33855 0
-33879 -33877 0
-33879 -33878 0
33879 33877 33878 0
-34027 111 0
-34027 33879 0
34027 -111 -33879 0
-34028 -111 0
-34028 -33879 0
34028 111 33879 0
-34029 -34027 0
-34029 -34028 0
34029 34027 34028 0
-34030 33876 0
-34030 34029 0
34030 -33876 -34029 0
-34031 -33876 0
-34031 -34029 0
34031 33876 34029 0
-34032 -34030 0
-34032 -34031 0
34032 34030 34031 0
-34060 13239 0
-34060 24561 0
34060 -13239 -24561 0
-34061 -13239 0
-34061 -24561 0
34061 13239 24561 0
-34062 -34060 0
-34062 -34061 0
34062 34060 34061 0
-24598 58 0
-24598 24555 0
24598 -58 -24555 0
-24599 -58 0
-24599 -24555 0
24599 58 24555 0
-24600 -24598 0
-24600 -24599 0
24600 24598 24599 0
-34165 24600 0
-34165 28596 0
34165 -24600 -28596 0
-34166 -24600 0
-34166 -28596 0
34166 24600 28596 0
-34167 -34165 0
-34167 -34166 0
34167 34165 34166 0
-34168 34062 0
-34168 34167 0
34168 -34062 -34167 0
-34169 -34062 0
-34169 -34167 0
34169 34062 34167 0
-34170 -34168 0
-34170 -34169 0
34170 34168 34169 0
-34171 28758 0
-34171 32907 0
34171 -28758 -32907 0
-34172 -28758 0
-34172 -32907 0
34172 28758 32907 0
-34173 -34171 0
-34173 -34172 0
34173 34171 34172 0
-34312 110 0
-34312 34173 0
34312 -110 -34173 0
-34313 -110 0
-34313 -34173 0
34313 110 34173 0
-34314 -34312 0
-34314 -34313 0
34314 34312 34313 0
-34315 34170 0
-34315 34314 0
34315 -34170 -34314 0
-34316 -34170 0
-34316 -34314 0
34316 34170 34314 0
-34317 -34315 0
-34317 -34316 0
34317 34315 34316 0
-34318 13560 0
-34318 22881 0
34318 -13560 -22881 0
-34319 -13560 0
-34319 -22881 0
34319 13560 22881 0
-34320 -34318 0
-34320 -34319 0
34320 34318 34319 0
-34321 24873 0
-34321 34320 0
34321 -24873 -34320 0
-34322 -24873 0
-34322 -34320 0
34322 24873 34320 0
-34323 -34321 0
-34323 -34322 0
34323 34321 34322 0
-11902 28 0
-11902 31 0
11902 -28 -31 0
-11903 -28 0
-11903 -31 0
11903 28 31 0
-11904 -11902 0
-11904 -11903 0
11904 11902 11903 0
-34336 11904 0
-34336 12561 0
34336 -11904 -12561 0
-34337 -11904 0
-34337 -12561 0
34337 11904 12561 0
-34338 -34336 0
-34338 -34337 0
34338 34336 34337 0
-34339 34323 0
-34339 34338 0
34339 -34323 -34338 0
-34340 -34323 0
-34340 -34338 0
34340 34323 34338 0
-34341 -34339 0
-34341 -34340 0
34341 34339 34340 0
-34405 23283 0
-34405 24927 0
34405 -23283 -24927 0
-34406 -23283 0
-34406 -24927 0
34406 23283 24927 0
-34407 -34405 0
-34407 -34406 0
34407 34405 34406 0
-34435 28902 0
-34435 34407 0
34435 -28902 -34407 0
-34436 -28902 0
-34436 -34407 0
34436 28902 34407 0
-34437 -34435 0
-34437 -34436 0
34437 34435 34436 0
-34438 34341 0
-34438 34437 0
34438 -34341 -34437 0
-34439 -34341 0
-34439 -34437 0
34439 34341 34437 0
-34440 -34438 0
-34440 -34439 0
34440 34438 34439 0
-34441 20298 0
-34441 28998 0
34441 -20298 -28998 0
-34442 -20298 0
-34442 -28998 0
34442 20298 28998 0
-34443 -34441 0
-34443 -34442 0
34443 34441 34442 0
-34600 109 0
-34600 34443 0
34600 -109 -34443 0
-34601 -109 0
-34601 -34443 0
34601 109 34443 0
-34602 -34600 0
-34602 -34601 0
34602 34600 34601 0
-34603 34440 0
-34603 34602 0
34603 -34440 -34602 0
-34604 -34440 0
-34604 -34602 0
34604 34440 34602 0
-34605 -34603 0
-34605 -34604 0
34605 34603 34604 0
-34606 24897 0
-34606 25170 0
34606 -24897 -25170 0
-34607 -24897 0
-34607 -25170 0
34607 24897 25170 0
-34608 -34606 0
-34608 -34607 0
34608 34606 34607 0
-34633 14208 0
-34633 24573 0
34633 -14208 -24573 0
-34634 -14208 0
-34634 -24573 0
34634 14208 24573 0
-34635 -34633 0
-34635 -34634 0
34635 34633 34634 0
-34636 34608 0
-34636 34635 0
34636 -34608 -34635 0
-34637 -34608 0
-34637 -34635 0
34637 34608 34635 0
-34638 -34636 0
-34638 -34637 0
34638 34636 34637 0
-34678 24615 0
-34678 25218 0
34678 -24615 -25218 0
-34679 -24615 0
-34679 -25218 0
34679 24615 25218 0
-34680 -34678 0
-34680 -34679 0
34680 34678 34679 0
-34723 22893 0
-34723 34680 0
34723 -22893 -34680 0
-34724 -22893 0
-34724 -34680 0
34724 22893 34680 0
-34725 -34723 0
-34725 -34724 0
34725 34723 34724 0
-34726 34638 0
-34726 34725 0
34726 -34638 -34725 0
-34727 -34638 0
-34727 -34725 0
34727 34638 34725 0
-34728 -34726 0
-34728 -34727 0
34728 34726 34727 0
-34717 74 0
-34717 14295 0
34717 -74 -14295 0
-34718 -74 0
-34718 -14295 0
34718 74 14295 0
-34719 -34717 0
-34719 -34718 0
34719 34717 34718 0
-34729 93 0
-34729 34719 0
34729 -93 -34719 0
-34730 -93 0
-34730 -34719 0
34730 93 34719 0
-34731 -34729 0
-34731 -34730 0
34731 34729 34730 0
-34834 108 0
-34834 34731 0
34834 -108 -34731 0
-34835 -108 0
-34835 -34731 0
34835 108 34731 0
-34836 -34834 0
-34836 -34835 0
34836 34834 34835 0
-34837 34728 0
-34837 34836 0
34837 -34728 -34836 0
-34838 -34728 0
-34838 -34836 0
34838 34728 34836 0
-34839 -34837 0
-34839 -34838 0
34839 34837 34838 0
-34861 14856 0
-34861 25437 0
34861 -14856 -25437 0
-34862 -14856 0
-34862 -25437 0
34862 14856 25437 0
-34863 -34861 0
-34863 -34862 0
34863 34861 34862 0
-11833 47 0
-11833 48 0
11833 -47 -48 0
-11834 -47 0
-11834 -48 0
11834 47 48 0
-11835 -11833 0
-11835 -11834 0
11835 11833 11834 0
-34903 16257 0
-34903 25458 0
34903 -16257 -25458 0
-34904 -16257 0
-34904 -25458 0
34904 16257 25458 0
-34905 -34903 0
-34905 -34904 0
34905 34903 34904 0
-34951 11835 0
-34951 34905 0
34951 -11835 -34905 0
-34952 -11835 0
-34952 -34905 0
34952 11835 34905 0
-34953 -34951 0
-34953 -34952 0
34953 34951 34952 0
-34954 34863 0
-34954 34953 0
34954 -34863 -34953 0
-34955 -34863 0
-34955 -34953 0
34955 34863 34953 0
-34956 -34954 0
-34956 -34955 0
34956 34954 34955 0
-34945 74 0
-34945 14790 0
34945 -74 -14790 0
-34946 -74 0
-34946 -14790 0
34946 74 14790 0
-34947 -34945 0
-34947 -34946 0
34947 34945 34946 0
-34957 92 0
-34957 34947 0
34957 -92 -34947 0
-34958 -92 0
-34958 -34947 0
34958 92 34947 0
-34959 -34957 0
-34959 -34958 0
34959 34957 34958 0
-35065 107 0
-35065 34959 0
35065 -107 -34959 0
-35066 -107 0
-35066 -34959 0
35066 107 34959 0
-35067 -35065 0
-35067 -35066 0
35067 35065 35066 0
-35068 34956 0
-35068 35067 0
35068 -34956 -35067 0
-35069 -34956 0
-35069 -35067 0
35069 34956 35067 0
-35070 -35068 0
-35070 -35069 0
35070 35068 35069 0
-35074 13062 0
-35074 21828 0
35074 -13062 -21828 0
-35075 -13062 0
-35075 -21828 0
35075 13062 21828 0
-35076 -35074 0
-35076 -35075 0
35076 35074 35075 0
-13537 31 0
-13537 32 0
13537 -31 -32 0
-13538 -31 0
-13538 -32 0
13538 31 32 0
-13539 -13537 0
-13539 -13538 0
13539 13537 13538 0
-35092 11901 0
-35092 13539 0
35092 -11901 -13539 0
-35093 -11901 0
-35093 -13539 0
35093 11901 13539 0
-35094 -35092 0
-35094 -35093 0
35094 35092 35093 0
-35107 11958 0
-35107 35094 0
35107 -11958 -35094 0
-35108 -11958 0
-35108 -35094 0
35108 11958 35094 0
-35109 -35107 0
-35109 -35108 0
35109 35107 35108 0
-35110 35076 0
-35110 35109 0
35110 -35076 -35109 0
-35111 -35076 0
-35111 -35109 0
35111 35076 35109 0
-35112 -35110 0
-35112 -35111 0
35112 35110 35111 0
-35155 26523 0
-35155 35112 0
35155 -26523 -35112 0
-35156 -26523 0
-35156 -35112 0
35156 26523 35112 0
-35157 -35155 0
-35157 -35156 0
35157 35155 35156 0
-35158 26496 0
-35158 28005 0
35158 -26496 -28005 0
-35159 -26496 0
-35159 -28005 0
35159 26496 28005 0
-35160 -35158 0
-35160 -35159 0
35160 35158 35159 0
-35233 106 0
-35233 35160 0
35233 -106 -35160 0
-35234 -106 0
-35234 -35160 0
35234 106 35160 0
-35235 -35233 0
-35235 -35234 0
35235 35233 35234 0
-35236 35157 0
-35236 35235 0
35236 -35157 -35235 0
-35237 -35157 0
-35237 -35235 0
35237 35157 35235 0
-35238 -35236 0
-35238 -35237 0
35238 35236 35237 0
-35257 12720 0
-35257 20544 0
35257 -12720 -20544 0
-35258 -12720 0
-35258 -20544 0
35258 12720 20544 0
-35259 -35257 0
-35259 -35258 0
35259 35257 35258 0
-35260 14661 0
-35260 26115 0
35260 -14661 -26115 0
-35261 -14661 0
-35261 -26115 0
35261 14661 26115 0
-35262 -35260 0
-35262 -35261 0
35262 35260 35261 0
-35323 13725 0
-35323 21078 0
35323 -13725 -21078 0
-35324 -13725 0
-35324 -21078 0
35324 13725 21078 0
-35325 -35323 0
-35325 -35324 0
35325 35323 35324 0
-35386 35262 0
-35386 35325 0
35386 -35262 -35325 0
-35387 -35262 0
-35387 -35325 0
35387 35262 35325 0
-35388 -35386 0
-35388 -35387 0
35388 35386 35387 0
-35389 35259 0
-35389 35388 0
35389 -35259 -35388 0
-35390 -35259 0
-35390 -35388 0
35390 35259 35388 0
-35391 -35389 0
-35391 -35390 0
35391 35389 35390 0
-35254 13104 0
-35254 27789 0
35254 -13104 -27789 0
-35255 -13104 0
-35255 -27789 0
35255 13104 27789 0
-35256 -35254 0
-35256 -35255 0
35256 35254 35255 0
-35356 12675 0
-35356 35256 0
35356 -12675 -35256 0
-35357 -12675 0
-35357 -35256 0
35357 12675 35256 0
-35358 -35356 0
-35358 -35357 0
35358 35356 35357 0
-35392 28395 0
-35392 35358 0
35392 -28395 -35358 0
-35393 -28395 0
-35393 -35358 0
35393 28395 35358 0
-35394 -35392 0
-35394 -35393 0
35394 35392 35393 0
-35554 105 0
-35554 35394 0
35554 -105 -35394 0
-35555 -105 0
-35555 -35394 0
35555 105 35394 0
-35556 -35554 0
-35556 -35555 0
35556 35554 35555 0
-35557 35391 0
-35557 35556 0
35557 -35391 -35556 0
-35558 -35391 0
-35558 -35556 0
35558 35391 35556 0
-35559 -35557 0
-35559 -35558 0
35559 35557 35558 0
-35575 11901 0
-35575 11958 0
35575 -11901 -11958 0
-35576 -11901 0
-35576 -11958 0
35576 11901 11958 0
-35577 -35575 0
-35577 -35576 0
35577 35575 35576 0
-35578 15903 0
-35578 35577 0
35578 -15903 -35577 0
-35579 -15903 0
-35579 -35577 0
35579 15903 35577 0
-35580 -35578 0
-35580 -35579 0
35580 35578 35579 0
-35569 48 0
-35569 12432 0
35569 -48 -12432 0
-35570 -48 0
-35570 -12432 0
35570 48 12432 0
-35571 -35569 0
-35571 -35570 0
35571 35569 35570 0
-35581 15537 0
-35581 35571 0
35581 -15537 -35571 0
-35582 -15537 0
-35582 -35571 0
35582 15537 35571 0
-35583 -35581 0
-35583 -35582 0
35583 35581 35582 0
-35683 16029 0
-35683 35583 0
35683 -16029 -35583 0
-35684 -16029 0
-35684 -35583 0
35684 16029 35583 0
-35685 -35683 0
-35685 -35684 0
35685 35683 35684 0
-35686 35580 0
-35686 35685 0
35686 -35580 -35685 0
-35687 -35580 0
-35687 -35685 0
35687 35580 35685 0
-35688 -35686 0
-35688 -35687 0
35688 35686 35687 0
-35689 12213 0
-35689 28758 0
35689 -12213 -28758 0
-35690 -12213 0
-35690 -28758 0
35690 12213 28758 0
-35691 -35689 0
-35691 -35690 0
35691 35689 35690 0
-35824 104 0
-35824 35691 0
35824 -104 -35691 0
-35825 -104 0
-35825 -35691 0
35825 104 35691 0
-35826 -35824 0
-35826 -35825 0
35826 35824 35825 0
-35827 35688 0
-35827 35826 0
35827 -35688 -35826 0
-35828 -35688 0
-35828 -35826 0
35828 35688 35826 0
-35829 -35827 0
-35829 -35828 0
35829 35827 35828 0
-35839 13800 0
-35839 16206 0
35839 -13800 -16206 0
-35840 -13800 0
-35840 -16206 0
35840 13800 16206 0
-35841 -35839 0
-35841 -35840 0
35841 35839 35840 0
-35836 43 0
-35836 13596 0
35836 -43 -13596 0
-35837 -43 0
-35837 -13596 0
35837 43 13596 0
-35838 -35836 0
-35838 -35837 0
35838 35836 35837 0
-35842 14661 0
-35842 35838 0
35842 -14661 -35838 0
-35843 -14661 0
-35843 -35838 0
35843 14661 35838 0
-35844 -35842 0
-35844 -35843 0
35844 35842 35843 0
-35956 16377 0
-35956 35844 0
35956 -16377 -35844 0
-35957 -16377 0
-35957 -35844 0
35957 16377 35844 0
-35958 -35956 0
-35958 -35957 0
35958 35956 35957 0
-35959 35841 0
-35959 35958 0
35959 -35841 -35958 0
-35960 -35841 0
-35960 -35958 0
35960 35841 35958 0
-35961 -35959 0
-35961 -35960 0
35961 35959 35960 0
-35920 12675 0
-35920 28575 0
35920 -12675 -28575 0
-35921 -12675 0
-35921 -28575 0
35921 12675 28575 0
-35922 -35920 0
-35922 -35921 0
35922 35920 35921 0
-35962 28998 0
-35962 35922 0
35962 -28998 -35922 0
-35963 -28998 0
-35963 -35922 0
35963 28998 35922 0
-35964 -35962 0
-35964 -35963 0
35964 35962 35963 0
-36118 103 0
-36118 35964 0
36118 -103 -35964 0
-36119 -103 0
-36119 -35964 0
36119 103 35964 0
-36120 -36118 0
-36120 -36119 0
36120 36118 36119 0
-36121 35961 0
-36121 36120 0
36121 -35961 -36120 0
-36122 -35961 0
-36122 -36120 0
36122 35961 36120 0
-36123 -36121 0
-36123 -36122 0
36123 36121 36122 0
-36130 12462 0
-36130 34635 0
36130 -12462 -34635 0
-36131 -12462 0
-36131 -34635 0
36131 12462 34635 0
-36132 -36130 0
-36132 -36131 0
36132 36130 36131 0
-36133 14664 0
-36133 30633 0
36133 -14664 -30633 0
-36134 -14664 0
-36134 -30633 0
36134 14664 30633 0
-36135 -36133 0
-36135 -36134 0
36135 36133 36134 0
-36232 16680 0
-36232 36135 0
36232 -16680 -36135 0
-36233 -16680 0
-36233 -36135 0
36233 16680 36135 0
-36234 -36232 0
-36234 -36233 0
36234 36232 36233 0
-36235 36132 0
-36235 36234 0
36235 -36132 -36234 0
-36236 -36132 0
-36236 -36234 0
36236 36132 36234 0
-36237 -36235 0
-36237 -36236 0
36237 36235 36236 0
-36202 14295 0
-36202 30669 0
36202 -14295 -30669 0
-36203 -14295 0
-36203 -30669 0
36203 14295 30669 0
-36204 -36202 0
-36204 -36203 0
36204 36202 36203 0
-36238 30873 0
-36238 36204 0
36238 -30873 -36204 0
-36239 -30873 0
-36239 -36204 0
36239 30873 36204 0
-36240 -36238 0
-36240 -36239 0
36240 36238 36239 0
-36394 102 0
-36394 36240 0
36394 -102 -36240 0
-36395 -102 0
-36395 -36240 0
36395 102 36240 0
-36396 -36394 0
-36396 -36395 0
36396 36394 36395 0
-36397 36237 0
-36397 36396 0
36397 -36237 -36396 0
-36398 -36237 0
-36398 -36396 0
36398 36237 36396 0
-36399 -36397 0
-36399 -36398 0
36399 36397 36398 0
-36409 14715 0
-36409 16227 0
36409 -14715 -16227 0
-36410 -14715 0
-36410 -16227 0
36410 14715 16227 0
-36411 -36409 0
-36411 -36410 0
36411 36409 36410 0
-36412 16914 0
-36412 36411 0
36412 -16914 -36411 0
-36413 -16914 0
-36413 -36411 0
36413 16914 36411 0
-36414 -36412 0
-36414 -36413 0
36414 36412 36413 0
-36415 27837 0
-36415 31071 0
36415 -27837 -31071 0
-36416 -27837 0
-36416 -31071 0
36416 27837 31071 0
-36417 -36415 0
-36417 -36416 0
36417 36415 36416 0
-36520 17076 0
-36520 36417 0
36520 -17076 -36417 0
-36521 -17076 0
-36521 -36417 0
36521 17076 36417 0
-36522 -36520 0
-36522 -36521 0
36522 36520 36521 0
-36523 36414 0
-36523 36522 0
36523 -36414 -36522 0
-36524 -36414 0
-36524 -36522 0
36524 36414 36522 0
-36525 -36523 0
-36525 -36524 0
36525 36523 36524 0
-36490 14790 0
-36490 28575 0
36490 -14790 -28575 0
-36491 -14790 0
-36491 -28575 0
36491 14790 28575 0
-36492 -36490 0
-36492 -36491 0
36492 36490 36491 0
-36526 31299 0
-36526 36492 0
36526 -31299 -36492 0
-36527 -31299 0
-36527 -36492 0
36527 31299 36492 0
-36528 -36526 0
-36528 -36527 0
36528 36526 36527 0
-36679 101 0
-36679 36528 0
36679 -101 -36528 0
-36680 -101 0
-36680 -36528 0
36680 101 36528 0
-36681 -36679 0
-36681 -36680 0
36681 36679 36680 0
-36682 36525 0
-36682 36681 0
36682 -36525 -36681 0
-36683 -36525 0
-36683 -36681 0
36683 36525 36681 0
-36684 -36682 0
-36684 -36683 0
36684 36682 36683 0
-36688 15237 0
-36688 17316 0
36688 -15237 -17316 0
-36689 -15237 0
-36689 -17316 0
36689 15237 17316 0
-36690 -36688 0
-36690 -36689 0
36690 36688 36689 0
-36691 18195 0
-36691 26868 0
36691 -18195 -26868 0
-36692 -18195 0
-36692 -26868 0
36692 18195 26868 0
-36693 -36691 0
-36693 -36692 0
36693 36691 36692 0
-36790 17514 0
-36790 36693 0
36790 -17514 -36693 0
-36791 -17514 0
-36791 -36693 0
36791 17514 36693 0
-36792 -36790 0
-36792 -36791 0
36792 36790 36791 0
-36793 36690 0
-36793 36792 0
36793 -36690 -36792 0
-36794 -36690 0
-36794 -36792 0
36794 36690 36792 0
-36795 -36793 0
-36795 -36794 0
36795 36793 36794 0
-36757 14814 0
-36757 15222 0
36757 -14814 -15222 0
-36758 -14814 0
-36758 -15222 0
36758 14814 15222 0
-36759 -36757 0
-36759 -36758 0
36759 36757 36758 0
-36796 27144 0
-36796 36759 0
36796 -27144 -36759 0
-36797 -27144 0
-36797 -36759 0
36797 27144 36759 0
-36798 -36796 0
-36798 -36797 0
36798 36796 36797 0
-36946 100 0
-36946 36798 0
36946 -100 -36798 0
-36947 -100 0
-36947 -36798 0
36947 100 36798 0
-36948 -36946 0
-36948 -36947 0
36948 36946 36947 0
-36949 36795 0
-36949 36948 0
36949 -36795 -36948 0
-36950 -36795 0
-36950 -36948 0
36950 36795 36948 0
-36951 -36949 0
-36951 -36950 0
36951 36949 36950 0
-36961 15462 0
-36961 17787 0
36961 -15462 -17787 0
-36962 -15462 0
-36962 -17787 0
36962 15462 17787 0
-36963 -36961 0
-36963 -36962 0
36963 36961 36962 0
-36964 11913 0
-36964 27327 0
36964 -11913 -27327 0
-36965 -11913 0
-36965 -27327 0
36965 11913 27327 0
-36966 -36964 0
-36966 -36965 0
36966 36964 36965 0
-37036 17943 0
-37036 36966 0
37036 -17943 -36966 0
-37037 -17943 0
-37037 -36966 0
37037 17943 36966 0
-37038 -37036 0
-37038 -37037 0
37038 37036 37037 0
-37039 36963 0
-37039 37038 0
37039 -36963 -37038 0
-37040 -36963 0
-37040 -37038 0
37040 36963 37038 0
-37041 -37039 0
-37041 -37040 0
37041 37039 37040 0
-37042 15489 0
-37042 27432 0
37042 -15489 -27432 0
-37043 -15489 0
-37043 -27432 0
37043 15489 27432 0
-37044 -37042 0
-37044 -37043 0
37044 37042 37043 0
-37138 99 0
-37138 37044 0
37138 -99 -37044 0
-37139 -99 0
-37139 -37044 0
37139 99 37044 0
-37140 -37138 0
-37140 -37139 0
37140 37138 37139 0
-37141 37041 0
-37141 37140 0
37141 -37041 -37140 0
-37142 -37041 0
-37142 -37140 0
37142 37041 37140 0
-37143 -37141 0
-37143 -37142 0
37143 37141 37142 0
-37147 15906 0
-37147 18177 0
37147 -15906 -18177 0
-37148 -15906 0
-37148 -18177 0
37148 15906 18177 0
-37149 -37147 0
-37149 -37148 0
37149 37147 37148 0
-37150 48 0
-37150 15468 0
37150 -48 -15468 0
-37151 -48 0
-37151 -15468 0
37151 48 15468 0
-37152 -37150 0
-37152 -37151 0
37152 37150 37151 0
-37192 18327 0
-37192 37152 0
37192 -18327 -37152 0
-37193 -18327 0
-37193 -37152 0
37193 18327 37152 0
-37194 -37192 0
-37194 -37193 0
37194 37192 37193 0
-37195 37149 0
-37195 37194 0
37195 -37149 -37194 0
-37196 -37149 0
-37196 -37194 0
37196 37149 37194 0
-37197 -37195 0
-37197 -37196 0
37197 37195 37196 0
-37198 27678 0
-37198 32085 0
37198 -27678 -32085 0
-37199 -27678 0
-37199 -32085 0
37199 27678 32085 0
-37200 -37198 0
-37200 -37199 0
37200 37198 37199 0
-37294 98 0
-37294 37200 0
37294 -98 -37200 0
-37295 -98 0
-37295 -37200 0
37295 98 37200 0
-37296 -37294 0
-37296 -37295 0
37296 37294 37295 0
-37297 37197 0
-37297 37296 0
37297 -37197 -37296 0
-37298 -37197 0
-37298 -37296 0
37298 37197 37296 0
-37299 -37297 0
-37299 -37298 0
37299 37297 37298 0
-37312 11955 0
-37312 16287 0
37312 -11955 -16287 0
-37313 -11955 0
-37313 -16287 0
37313 11955 16287 0
-37314 -37312 0
-37314 -37313 0
37314 37312 37313 0
-37315 15558 0
-37315 27828 0
37315 -15558 -27828 0
-37316 -15558 0
-37316 -27828 0
37316 15558 27828 0
-37317 -37315 0
-37317 -37316 0
37317 37315 37316 0
-37357 11925 0
-37357 16257 0
37357 -11925 -16257 0
-37358 -11925 0
-37358 -16257 0
37358 11925 16257 0
-37359 -37357 0
-37359 -37358 0
37359 37357 37358 0
-37387 37317 0
-37387 37359 0
37387 -37317 -37359 0
-37388 -37317 0
-37388 -37359 0
37388 37317 37359 0
-37389 -37387 0
-37389 -37388 0
37389 37387 37388 0
-37390 37314 0
-37390 37389 0
37390 -37314 -37389 0
-37391 -37314 0
-37391 -37389 0
37391 37314 37389 0
-37392 -37390 0
-37392 -37391 0
37392 37390 37391 0
-37306 97 0
-37306 11757 0
37306 -97 -11757 0
-37307 -97 0
-37307 -11757 0
37307 97 11757 0
-37308 -37306 0
-37308 -37307 0
37308 37306 37307 0
-37366 27864 0
-37366 37308 0
37366 -27864 -37308 0
-37367 -27864 0
-37367 -37308 0
37367 27864 37308 0
-37368 -37366 0
-37368 -37367 0
37368 37366 37367 0
-37393 32298 0
-37393 37368 0
37393 -32298 -37368 0
-37394 -32298 0
-37394 -37368 0
37394 32298 37368 0
-37395 -37393 0
-37395 -37394 0
37395 37393 37394 0
-37534 37392 0
-37534 37395 0
37534 -37392 -37395 0
-37535 -37392 0
-37535 -37395 0
37535 37392 37395 0
-37536 -37534 0
-37536 -37535 0
37536 37534 37535 0
-37540 12405 0
-37540 12456 0
37540 -12405 -12456 0
-37541 -12405 0
-37541 -12456 0
37541 12405 12456 0
-37542 -37540 0
-37542 -37541 0
37542 37540 37541 0
-37552 32499 0
-37552 37542 0
37552 -32499 -37542 0
-37553 -32499 0
-37553 -37542 0
37553 32499 37542 0
-37554 -37552 0
-37554 -37553 0
37554 37552 37553 0
-37543 49 0
-37543 14664 0
37543 -49 -14664 0
-37544 -49 0
-37544 -14664 0
37544 49 14664 0
-37545 -37543 0
-37545 -37544 0
37545 37543 37544 0
-37555 28185 0
-37555 37545 0
37555 -28185 -37545 0
-37556 -28185 0
-37556 -37545 0
37556 28185 37545 0
-37557 -37555 0
-37557 -37556 0
37557 37555 37556 0
-37579 12645 0
-37579 14181 0
37579 -12645 -14181 0
-37580 -12645 0
-37580 -14181 0
37580 12645 14181 0
-37581 -37579 0
-37581 -37580 0
37581 37579 37580 0
-37609 37557 0
-37609 37581 0
37609 -37557 -37581 0
-37610 -37557 0
-37610 -37581 0
37610 37557 37581 0
-37611 -37609 0
-37611 -37610 0
37611 37609 37610 0
-37612 37554 0
-37612 37611 0
37612 -37554 -37611 0
-37613 -37554 0
-37613 -37611 0
37613 37554 37611 0
-37614 -37612 0
-37614 -37613 0
37614 37612 37613 0
-37537 93 0
-37537 96 0
37537 -93 -96 0
-37538 -93 0
-37538 -96 0
37538 93 96 0
-37539 -37537 0
-37539 -37538 0
37539 37537 37538 0
-37588 14838 0
-37588 37539 0
37588 -14838 -37539 0
-37589 -14838 0
-37589 -37539 0
37589 14838 37539 0
-37590 -37588 0
-37590 -37589 0
37590 37588 37589 0
-37615 32610 0
-37615 37590 0
37615 -32610 -37590 0
-37616 -32610 0
-37616 -37590 0
37616 32610 37590 0
-37617 -37615 0
-37617 -37616 0
37617 37615 37616 0
-37753 37614 0
-37753 37617 0
37753 -37614 -37617 0
-37754 -37614 0
-37754 -37617 0
37754 37614 37617 0
-37755 -37753 0
-37755 -37754 0
37755 37753 37754 0
-37780 16983 0
-37780 19179 0
37780 -16983 -19179 0
-37781 -16983 0
-37781 -19179 0
37781 16983 19179 0
-37782 -37780 0
-37782 -37781 0
37782 37780 37781 0
-37783 26382 0
-37783 28569 0
37783 -26382 -28569 0
-37784 -26382 0
-37784 -28569 0
37784 26382 28569 0
-37785 -37783 0
-37785 -37784 0
37785 37783 37784 0
-37831 13200 0
-37831 13620 0
37831 -13200 -13620 0
-37832 -13200 0
-37832 -13620 0
37832 13200 13620 0
-37833 -37831 0
-37833 -37832 0
37833 37831 37832 0
-37852 37785 0
-37852 37833 0
37852 -37785 -37833 0
-37853 -37785 0
-37853 -37833 0
37853 37785 37833 0
-37854 -37852 0
-37854 -37853 0
37854 37852 37853 0
-37855 37782 0
-37855 37854 0
37855 -37782 -37854 0
-37856 -37782 0
-37856 -37854 0
37856 37782 37854 0
-37857 -37855 0
-37857 -37856 0
37857 37855 37856 0
-37756 92 0
-37756 95 0
37756 -92 -95 0
-37757 -92 0
-37757 -95 0
37757 92 95 0
-37758 -37756 0
-37758 -37757 0
37758 37756 37757 0
-37840 15594 0
-37840 37758 0
37840 -15594 -37758 0
-37841 -15594 0
-37841 -37758 0
37841 15594 37758 0
-37842 -37840 0
-37842 -37841 0
37842 37840 37841 0
-37858 32907 0
-37858 37842 0
37858 -32907 -37842 0
-37859 -32907 0
-37859 -37842 0
37859 32907 37842 0
-37860 -37858 0
-37860 -37859 0
37860 37858 37859 0
-37993 37857 0
-37993 37860 0
37993 -37857 -37860 0
-37994 -37857 0
-37994 -37860 0
37994 37857 37860 0
-37995 -37993 0
-37995 -37994 0
37995 37993 37994 0
-38002 15 0
-38002 13557 0
38002 -15 -13557 0
-38003 -15 0
-38003 -13557 0
38003 15 13557 0
-38004 -38002 0
-38004 -38003 0
38004 38002 38003 0
-38005 13554 0
-38005 38004 0
38005 -13554 -38004 0
-38006 -13554 0
-38006 -38004 0
38006 13554 38004 0
-38007 -38005 0
-38007 -38006 0
38007 38005 38006 0
-38023 33087 0
-38023 38007 0
38023 -33087 -38007 0
-38024 -33087 0
-38024 -38007 0
38024 33087 38007 0
-38025 -38023 0
-38025 -38024 0
38025 38023 38024 0
-38077 17514 0
-38077 35262 0
38077 -17514 -35262 0
-38078 -17514 0
-38078 -35262 0
38078 17514 35262 0
-38079 -38077 0
-38079 -38078 0
38079 38077 38078 0
-38080 38025 0
-38080 38079 0
38080 -38025 -38079 0
-38081 -38025 0
-38081 -38079 0
38081 38025 38079 0
-38082 -38080 0
-38082 -38081 0
38082 38080 38081 0
-37999 94 0
-37999 11757 0
37999 -94 -11757 0
-38000 -94 0
-38000 -11757 0
38000 94 11757 0
-38001 -37999 0
-38001 -38000 0
38001 37999 38000 0
-38062 14838 0
-38062 38001 0
38062 -14838 -38001 0
-38063 -14838 0
-38063 -38001 0
38063 14838 38001 0
-38064 -38062 0
-38064 -38063 0
38064 38062 38063 0
-38083 20298 0
-38083 38064 0
38083 -20298 -38064 0
-38084 -20298 0
-38084 -38064 0
38084 20298 38064 0
-38085 -38083 0
-38085 -38084 0
38085 38083 38084 0
-38137 38082 0
-38137 38085 0
38137 -38082 -38085 0
-38138 -38082 0
-38138 -38085 0
38138 38082 38085 0
-38139 -38137 0
-38139 -38138 0
38139 38137 38138 0
-38140 43 0
-38140 44 0
38140 -43 -44 0
-38141 -43 0
-38141 -44 0
38141 43 44 0
-38142 -38140 0
-38142 -38141 0
38142 38140 38141 0
-38146 46 0
-38146 38142 0
38146 -46 -38142 0
-38147 -46 0
-38147 -38142 0
38147 46 38142 0
-38148 -38146 0
-38148 -38147 0
38148 38146 38147 0
-38206 30633 0
-38206 38148 0
38206 -30633 -38148 0
-38207 -30633 0
-38207 -38148 0
38207 30633 38148 0
-38208 -38206 0
-38208 -38207 0
38208 38206 38207 0
-38290 32 0
-38290 38208 0
38290 -32 -38208 0
-38291 -32 0
-38291 -38208 0
38291 32 38208 0
-38292 -38290 0
-38292 -38291 0
38292 38290 38291 0
-14620 79 0
-14620 80 0
14620 -79 -80 0
-14621 -79 0
-14621 -80 0
14621 79 80 0
-14622 -14620 0
-14622 -14621 0
14622 14620 14621 0
-38152 77 0
-38152 14622 0
38152 -77 -14622 0
-38153 -77 0
-38153 -14622 0
38153 77 14622 0
-38154 -38152 0
-38154 -38153 0
38154 38152 38153 0
-38284 91 0
-38284 30684 0
38284 -91 -30684 0
-38285 -91 0
-38285 -30684 0
38285 91 30684 0
-38286 -38284 0
-38286 -38285 0
38286 38284 38285 0
-38293 38154 0
-38293 38286 0
38293 -38154 -38286 0
-38294 -38154 0
-38294 -38286 0
38294 38154 38286 0
-38295 -38293 0
-38295 -38294 0
38295 38293 38294 0
-38332 38292 0
-38332 38295 0
38332 -38292 -38295 0
-38333 -38292 0
-38333 -38295 0
38333 38292 38295 0
-38334 -38332 0
-38334 -38333 0
38334 38332 38333 0
-38341 42 0
-38341 16893 0
38341 -42 -16893 0
-38342 -42 0
-38342 -16893 0
38342 42 16893 0
-38343 -38341 0
-38343 -38342 0
38343 38341 38342 0
-38392 31071 0
-38392 38343 0
38392 -31071 -38343 0
-38393 -31071 0
-38393 -38343 0
38393 31071 38343 0
-38394 -38392 0
-38394 -38393 0
38394 38392 38393 0
-38470 12411 0
-38470 38394 0
38470 -12411 -38394 0
-38471 -12411 0
-38471 -38394 0
38471 12411 38394 0
-38472 -38470 0
-38472 -38471 0
38472 38470 38471 0
-38467 90 0
-38467 31125 0
38467 -90 -31125 0
-38468 -90 0
-38468 -31125 0
38468 90 31125 0
-38469 -38467 0
-38469 -38468 0
38469 38467 38468 0
-38473 29748 0
-38473 38469 0
38473 -29748 -38469 0
-38474 -29748 0
-38474 -38469 0
38474 29748 38469 0
-38475 -38473 0
-38475 -38474 0
38475 38473 38474 0
-38503 38472 0
-38503 38475 0
38503 -38472 -38475 0
-38504 -38472 0
-38504 -38475 0
38504 38472 38475 0
-38505 -38503 0
-38505 -38504 0
38505 38503 38504 0
-38524 74 0
-38524 76 0
38524 -74 -76 0
-38525 -74 0
-38525 -76 0
38525 74 76 0
-38526 -38524 0
-38526 -38525 0
38526 38524 38525 0
-38626 14295 0
-38626 38526 0
38626 -14295 -38526 0
-38627 -14295 0
-38627 -38526 0
38627 14295 38526 0
-38628 -38626 0
-38628 -38627 0
38628 38626 38627 0
-38518 62 0
-38518 14148 0
38518 -62 -14148 0
-38519 -62 0
-38519 -14148 0
38519 62 14148 0
-38520 -38518 0
-38520 -38519 0
38520 38518 38519 0
-38506 28 0
-38506 29 0
38506 -28 -29 0
-38507 -28 0
-38507 -29 0
38507 28 29 0
-38508 -38506 0
-38508 -38507 0
38508 38506 38507 0
-38509 26 0
-38509 38508 0
38509 -26 -38508 0
-38510 -26 0
-38510 -38508 0
38510 26 38508 0
-38511 -38509 0
-38511 -38510 0
38511 38509 38510 0
-38548 31 0
-38548 38511 0
38548 -31 -38511 0
-38549 -31 0
-38549 -38511 0
38549 31 38511 0
-38550 -38548 0
-38550 -38549 0
38550 38548 38549 0
-38572 14208 0
-38572 38550 0
38572 -14208 -38550 0
-38573 -14208 0
-38573 -38550 0
38573 14208 38550 0
-38574 -38572 0
-38574 -38573 0
38574 38572 38573 0
-38575 17 0
-38575 38574 0
38575 -17 -38574 0
-38576 -17 0
-38576 -38574 0
38576 17 38574 0
-38577 -38575 0
-38577 -38576 0
38577 38575 38576 0
-38635 38520 0
-38635 38577 0
38635 -38520 -38577 0
-38636 -38520 0
-38636 -38577 0
38636 38520 38577 0
-38637 -38635 0
-38637 -38636 0
38637 38635 38636 0
-38674 38628 0
-38674 38637 0
38674 -38628 -38637 0
-38675 -38628 0
-38675 -38637 0
38675 38628 38637 0
-38676 -38674 0
-38676 -38675 0
38676 38674 38675 0
-38677 74 0
-38677 75 0
38677 -74 -75 0
-38678 -74 0
-38678 -75 0
38678 74 75 0
-38679 -38677 0
-38679 -38678 0
38679 38677 38678 0
-38779 14790 0
-38779 38679 0
38779 -14790 -38679 0
-38780 -14790 0
-38780 -38679 0
38780 14790 38679 0
-38781 -38779 0
-38781 -38780 0
38781 38779 38780 0
-38680 29 0
-38680 11829 0
38680 -29 -11829 0
-38681 -29 0
-38681 -11829 0
38681 29 11829 0
-38682 -38680 0
-38682 -38681 0
38682 38680 38681 0
-38704 30 0
-38704 38682 0
38704 -30 -38682 0
-38705 -30 0
-38705 -38682 0
38705 30 38682 0
-38706 -38704 0
-38706 -38705 0
38706 38704 38705 0
-38728 14715 0
-38728 38706 0
38728 -14715 -38706 0
-38729 -14715 0
-38729 -38706 0
38729 14715 38706 0
-38730 -38728 0
-38730 -38729 0
38730 38728 38729 0
-38731 17 0
-38731 38730 0
38731 -17 -38730 0
-38732 -17 0
-38732 -38730 0
38732 17 38730 0
-38733 -38731 0
-38733 -38732 0
38733 38731 38732 0
-38785 12519 0
-38785 38733 0
38785 -12519 -38733 0
-38786 -12519 0
-38786 -38733 0
38786 12519 38733 0
-38787 -38785 0
-38787 -38786 0
38787 38785 38786 0
-38818 38781 0
-38818 38787 0
38818 -38781 -38787 0
-38819 -38781 0
-38819 -38787 0
38819 38781 38787 0
-38820 -38818 0
-38820 -38819 0
38820 38818 38819 0
-38821 2 0
-38821 12393 0
38821 -2 -12393 0
-38822 -2 0
-38822 -12393 0
38822 2 12393 0
-38823 -38821 0
-38823 -38822 0
38823 38821 38822 0
-38824 13050 0
-38824 38823 0
38824 -13050 -38823 0
-38825 -13050 0
-38825 -38823 0
38825 13050 38823 0
-38826 -38824 0
-38826 -38825 0
38826 38824 38825 0
-38833 14 0
-38833 16 0
38833 -14 -16 0
-38834 -14 0
-38834 -16 0
38834 14 16 0
-38835 -38833 0
-38835 -38834 0
38835 38833 38834 0
-38842 15456 0
-38842 38835 0
38842 -15456 -38835 0
-38843 -15456 0
-38843 -38835 0
38843 15456 38835 0
-38844 -38842 0
-38844 -38843 0
38844 38842 38843 0
-38845 38826 0
-38845 38844 0
38845 -38826 -38844 0
-38846 -38826 0
-38846 -38844 0
38846 38826 38844 0
-38847 -38845 0
-38847 -38846 0
38847 38845 38846 0
-38836 61 0
-38836 11850 0
38836 -61 -11850 0
-38837 -61 0
-38837 -11850 0
38837 61 11850 0
-38838 -38836 0
-38838 -38837 0
38838 38836 38837 0
-38902 17829 0
-38902 38838 0
38902 -17829 -38838 0
-38903 -17829 0
-38903 -38838 0
38903 17829 38838 0
-38904 -38902 0
-38904 -38903 0
38904 38902 38903 0
-38914 22893 0
-38914 38904 0
38914 -22893 -38904 0
-38915 -22893 0
-38915 -38904 0
38915 22893 38904 0
-38916 -38914 0
-38916 -38915 0
38916 38914 38915 0
-38917 38847 0
-38917 38916 0
38917 -38847 -38916 0
-38918 -38847 0
-38918 -38916 0
38918 38847 38916 0
-38919 -38917 0
-38919 -38918 0
38919 38917 38918 0
-38962 15867 0
-38962 26076 0
38962 -15867 -26076 0
-38963 -15867 0
-38963 -26076 0
38963 15867 26076 0
-38964 -38962 0
-38964 -38963 0
38964 38962 38963 0
-38965 18141 0
-38965 38964 0
38965 -18141 -38964 0
-38966 -18141 0
-38966 -38964 0
38966 18141 38964 0
-38967 -38965 0
-38967 -38966 0
38967 38965 38966 0
-38947 59 0
-38947 60 0
38947 -59 -60 0
-38948 -59 0
-38948 -60 0
38948 59 60 0
-38949 -38947 0
-38949 -38948 0
38949 38947 38948 0
-39025 18219 0
-39025 38949 0
39025 -18219 -38949 0
-39026 -18219 0
-39026 -38949 0
39026 18219 38949 0
-39027 -39025 0
-39027 -39026 0
39027 39025 39026 0
-39034 11835 0
-39034 39027 0
39034 -11835 -39027 0
-39035 -11835 0
-39035 -39027 0
39035 11835 39027 0
-39036 -39034 0
-39036 -39035 0
39036 39034 39035 0
-39037 38967 0
-39037 39036 0
39037 -38967 -39036 0
-39038 -38967 0
-39038 -39036 0
39038 38967 39036 0
-39039 -39037 0
-39039 -39038 0
39039 39037 39038 0
-39061 -38919 0
-39061 -39039 0
39061 38919 39039 0
-39062 -38820 0
-39062 39061 0
39062 38820 -39061 0
-39063 -38676 0
-39063 39062 0
39063 38676 -39062 0
-39064 -38505 0
-39064 39063 0
39064 38505 -39063 0
-39065 -38334 0
-39065 39064 0
39065 38334 -39064 0
-39066 -38139 0
-39066 39065 0
39066 38139 -39065 0
-39067 -37995 0
-39067 39066 0
39067 37995 -39066 0
-39068 -37755 0
-39068 39067 0
39068 37755 -39067 0
-39069 -37536 0
-39069 39068 0
39069 37536 -39068 0
-39070 -37299 0
-39070 39069 0
39070 37299 -39069 0
-39071 -37143 0
-39071 39070 0
39071 37143 -39070 0
-39072 -36951 0
-39072 39071 0
39072 36951 -39071 0
-39073 -36684 0
-39073 39072 0
39073 36684 -39072 0
-39074 -36399 0
-39074 39073 0
39074 36399 -39073 0
-39075 -36123 0
-39075 39074 0
39075 36123 -39074 0
-39076 -35829 0
-39076 39075 0
39076 35829 -39075 0
-39077 -35559 0
-39077 39076 0
39077 35559 -39076 0
-39078 -35238 0
-39078 39077 0
39078 35238 -39077 0
-39079 -35070 0
-39079 39078 0
39079 35070 -39078 0
-39080 -34839 0
-39080 39079 0
39080 34839 -39079 0
-39081 -34605 0
-39081 39080 0
39081 34605 -39080 0
-39082 -34317 0
-39082 39081 0
39082 34317 -39081 0
-39083 -34032 0
-39083 39082 0
39083 34032 -39082 0
-39084 -33747 0
-39084 39083 0
39084 33747 -39083 0
-39085 -33495 0
-39085 39084 0
39085 33495 -39084 0
-39086 -33405 0
-39086 39085 0
39086 33405 -39085 0
-39087 -33330 0
-39087 39086 0
39087 33330 -39086 0
-39088 -33078 0
-39088 39087 0
39088 33078 -39087 0
-39089 -32772 0
-39089 39088 0
39089 32772 -39088 0
-39090 -32466 0
-39090 39089 0
39090 32466 -39089 0
-39091 -32205 0
-39091 39090 0
39091 32205 -39090 0
-39092 -31971 0
-39092 39091 0
39092 31971 -39091 0
-39093 -31770 0
-39093 39092 0
39093 31770 -39092 0
-39094 -31446 0
-39094 39093 0
39094 31446 -39093 0
-39095 -31026 0
-39095 39094 0
39095 31026 -39094 0
-39096 -30585 0
-39096 39095 0
39096 30585 -39095 0
-39097 -30357 0
-39097 39096 0
39097 30357 -39096 0
-39098 -30036 0
-39098 39097 0
39098 30036 -39097 0
-39099 -29739 0
-39099 39098 0
39099 29739 -39098 0
-39100 -29451 0
-39100 39099 0
39100 29451 -39099 0
-39101 -29298 0
-39101 39100 0
39101 29298 -39100 0
-39102 29145 0
-39102 39101 0
39102 -29145 -39101 0
-39103 28896 0
-39103 39102 0
39103 -28896 -39102 0
-39104 28542 0
-39104 39103 0
39104 -28542 -39103 0
-39105 28149 0
-39105 39104 0
39105 -28149 -39104 0
-39106 27786 0
-39106 39105 0
39106 -27786 -39105 0
-39107 27522 0
-39107 39106 0
39107 -27522 -39106 0
-39108 27294 0
-39108 39107 0
39108 -27294 -39107 0
-39109 26865 0
-39109 39108 0
39109 -26865 -39108 0
-39110 26649 0
-39110 39109 0
39110 -26649 -39109 0
-39111 26355 0
-39111 39110 0
39111 -26355 -39110 0
-39112 26352 0
-39112 39111 0
39112 -26352 -39111 0
-39113 26070 0
-39113 39112 0
39113 -26070 -39112 0
-39114 25896 0
-39114 39113 0
39114 -25896 -39113 0
-39115 25656 0
-39115 39114 0
39115 -25656 -39114 0
-39116 25413 0
-39116 39115 0
39116 -25413 -39115 0
-39117 25164 0
-39117 39116 0
39117 -25164 -39116 0
-39118 24864 0
-39118 39117 0
39118 -24864 -39117 0
-39119 24540 0
-39119 39118 0
39119 -24540 -39118 0
-39120 24219 0
-39120 39119 0
39120 -24219 -39119 0
-39121 23886 0
-39121 39120 0
39121 -23886 -39120 0
-39122 23508 0
-39122 39121 0
39122 -23508 -39121 0
-39123 23247 0
-39123 39122 0
39123 -23247 -39122 0
-39124 22857 0
-39124 39123 0
39124 -22857 -39123 0
-39125 22488 0
-39125 39124 0
39125 -22488 -39124 0
-39126 22113 0
-39126 39125 0
39126 -22113 -39125 0
-39127 21798 0
-39127 39126 0
39127 -21798 -39126 0
-39128 21492 0
-39128 39127 0
39128 -21492 -39127 0
-39129 21306 0
-39129 39128 0
39129 -21306 -39128 0
-39130 21066 0
-39130 39129 0
39130 -21066 -39129 0
-39131 20787 0
-39131 39130 0
39131 -20787 -39130 0
-39132 20538 0
-39132 39131 0
39132 -20538 -39131 0
-39133 20451 0
-39133 39132 0
39133 -20451 -39132 0
-39134 20208 0
-39134 39133 0
39134 -20208 -39133 0
-39135 19923 0
-39135 39134 0
39135 -19923 -39134 0
-39136 19521 0
-39136 39135 0
39136 -19521 -39135 0
-39137 19128 0
-39137 39136 0
39137 -19128 -39136 0
-39138 18807 0
-39138 39137 0
39138 -18807 -39137 0
-39139 18498 0
-39139 39138 0
39139 -18498 -39138 0
-39140 18123 0
-39140 39139 0
39140 -18123 -39139 0
-39141 17748 0
-39141 39140 0
39141 -17748 -39140 0
-39142 17283 0
-39142 39141 0
39142 -17283 -39141 0
-39143 16890 0
-39143 39142 0
39143 -16890 -39142 0
-39144 16593 0
-39144 39143 0
39144 -16593 -39143 0
-39145 16194 0
-39145 39144 0
39145 -16194 -39144 0
-39146 15864 0
-39146 39145 0
39146 -15864 -39145 0
-39147 15453 0
-39147 39146 0
39147 -15453 -39146 0
-39148 15120 0
-39148 39147 0
39148 -15120 -39147 0
-39149 14607 0
-39149 39148 0
39149 -14607 -39148 0
-39150 14139 0
-39150 39149 0
39150 -14139 -39149 0
-39151 13533 0
-39151 39150 0
39151 -13533 -39150 0
-39152 13044 0
-39152 39151 0
39152 -13044 -39151 0
-39153 12387 0
-39153 39152 0
39153 -12387 -39152 0
-39154 11811 0
-39154 -39153 0
39154 -11811 39153 0
-39189 -293 0
-39189 301 0
39189 293 -301 0
-39184 -292 0
-39184 300 0
39184 292 -300 0
-39179 -291 0
-39179 299 0
39179 291 -299 0
-39174 -290 0
-39174 298 0
39174 290 -298 0
-39169 -289 0
-39169 297 0
39169 289 -297 0
-39164 -288 0
-39164 296 0
39164 288 -296 0
-39159 -287 0
-39159 295 0
39159 287 -295 0
-39155 -286 0
-39155 294 0
39155 286 -294 0
-39156 286 0
-39156 -294 0
39156 -286 294 0
-39157 -39155 0
-39157 -39156 0
39157 39155 39156 0
-39158 -39155 0
-39158 -39157 0
39158 39155 39157 0
-39160 287 0
-39160 -295 0
39160 -287 295 0
-39161 -39159 0
-39161 -39160 0
39161 39159 39160 0
-39162 -39158 0
-39162 39161 0
39162 39158 -39161 0
-39163 -39159 0
-39163 -39162 0
39163 39159 39162 0
-39165 288 0
-39165 -296 0
39165 -288 296 0
-39166 -39164 0
-39166 -39165 0
39166 39164 39165 0
-39167 -39163 0
-39167 39166 0
39167 39163 -39166 0
-39168 -39164 0
-39168 -39167 0
39168 39164 39167 0
-39170 289 0
-39170 -297 0
39170 -289 297 0
-39171 -39169 0
-39171 -39170 0
39171 39169 39170 0
-39172 -39168 0
-39172 39171 0
39172 39168 -39171 0
-39173 -39169 0
-39173 -39172 0
39173 39169 39172 0
-39175 290 0
-39175 -298 0
39175 -290 298 0
-39176 -39174 0
-39176 -39175 0
39176 39174 39175 0
-39177 -39173 0
-39177 39176 0
39177 39173 -39176 0
-39178 -39174 0
-39178 -39177 0
39178 39174 39177 0
-39180 291 0
-39180 -299 0
39180 -291 299 0
-39181 -39179 0
-39181 -39180 0
39181 39179 39180 0
-39182 -39178 0
-39182 39181 0
39182 39178 -39181 0
-39183 -39179 0
-39183 -39182 0
39183 39179 39182 0
-39185 292 0
-39185 -300 0
39185 -292 300 0
-39186 -39184 0
-39186 -39185 0
39186 39184 39185 0
-39187 -39183 0
-39187 39186 0
39187 39183 -39186 0
-39188 -39184 0
-39188 -39187 0
39188 39184 39187 0
-39190 293 0
-39190 -301 0
39190 -293 301 0
-39191 -39189 0
-39191 -39190 0
39191 39189 39190 0
-39192 -39188 0
-39192 39191 0
39192 39188 -39191 0
-39193 -39189 0
-39193 -39192 0
39193 39189 39192 0
-39194 39154 0
-39194 -39193 0
39194 -39154 39193 0
-39229 -285 0
-39229 293 0
39229 285 -293 0
-39224 -284 0
-39224 292 0
39224 284 -292 0
-39219 -283 0
-39219 291 0
39219 283 -291 0
-39214 -282 0
-39214 290 0
39214 282 -290 0
-39209 -281 0
-39209 289 0
39209 281 -289 0
-39204 -280 0
-39204 288 0
39204 280 -288 0
-39199 -279 0
-39199 287 0
39199 279 -287 0
-39195 -278 0
-39195 286 0
39195 278 -286 0
-39196 278 0
-39196 -286 0
39196 -278 286 0
-39197 -39195 0
-39197 -39196 0
39197 39195 39196 0
-39198 -39195 0
-39198 -39197 0
39198 39195 39197 0
-39200 279 0
-39200 -287 0
39200 -279 287 0
-39201 -39199 0
-39201 -39200 0
39201 39199 39200 0
-39202 -39198 0
-39202 39201 0
39202 39198 -39201 0
-39203 -39199 0
-39203 -39202 0
39203 39199 39202 0
-39205 280 0
-39205 -288 0
39205 -280 288 0
-39206 -39204 0
-39206 -39205 0
39206 39204 39205 0
-39207 -39203 0
-39207 39206 0
39207 39203 -39206 0
-39208 -39204 0
-39208 -39207 0
39208 39204 39207 0
-39210 281 0
-39210 -289 0
39210 -281 289 0
-39211 -39209 0
-39211 -39210 0
39211 39209 39210 0
-39212 -39208 0
-39212 39211 0
39212 39208 -39211 0
-39213 -39209 0
-39213 -39212 0
39213 39209 39212 0
-39215 282 0
-39215 -290 0
39215 -282 290 0
-39216 -39214 0
-39216 -39215 0
39216 39214 39215 0
-39217 -39213 0
-39217 39216 0
39217 39213 -39216 0
-39218 -39214 0
-39218 -39217 0
39218 39214 39217 0
-39220 283 0
-39220 -291 0
39220 -283 291 0
-39221 -39219 0
-39221 -39220 0
39221 39219 39220 0
-39222 -39218 0
-39222 39221 0
39222 39218 -39221 0
-39223 -39219 0
-39223 -39222 0
39223 39219 39222 0
-39225 284 0
-39225 -292 0
39225 -284 292 0
-39226 -39224 0
-39226 -39225 0
39226 39224 39225 0
-39227 -39223 0
-39227 39226 0
39227 39223 -39226 0
-39228 -39224 0
-39228 -39227 0
39228 39224 39227 0
-39230 285 0
-39230 -293 0
39230 -285 293 0
-39231 -39229 0
-39231 -39230 0
39231 39229 39230 0
-39232 -39228 0
-39232 39231 0
39232 39228 -39231 0
-39233 -39229 0
-39233 -39232 0
39233 39229 39232 0
-39234 39194 0
-39234 -39233 0
39234 -39194 39233 0
-39269 -277 0
-39269 285 0
39269 277 -285 0
-39264 -276 0
-39264 284 0
39264 276 -284 0
-39259 -275 0
-39259 283 0
39259 275 -283 0
-39254 -274 0
-39254 282 0
39254 274 -282 0
-39249 -273 0
-39249 281 0
39249 273 -281 0
-39244 -272 0
-39244 280 0
39244 272 -280 0
-39239 -271 0
-39239 279 0
39239 271 -279 0
-39235 -270 0
-39235 278 0
39235 270 -278 0
-39236 270 0
-39236 -278 0
39236 -270 278 0
-39237 -39235 0
-39237 -39236 0
39237 39235 39236 0
-39238 -39235 0
-39238 -39237 0
39238 39235 39237 0
-39240 271 0
-39240 -279 0
39240 -271 279 0
-39241 -39239 0
-39241 -39240 0
39241 39239 39240 0
-39242 -39238 0
-39242 39241 0
39242 39238 -39241 0
-39243 -39239 0
-39243 -39242 0
39243 39239 39242 0
-39245 272 0
-39245 -280 0
39245 -272 280 0
-39246 -39244 0
-39246 -39245 0
39246 39244 39245 0
-39247 -39243 0
-39247 39246 0
39247 39243 -39246 0
-39248 -39244 0
-39248 -39247 0
39248 39244 39247 0
-39250 273 0
-39250 -281 0
39250 -273 281 0
-39251 -39249 0
-39251 -39250 0
39251 39249 39250 0
-39252 -39248 0
-39252 39251 0
39252 39248 -39251 0
-39253 -39249 0
-39253 -39252 0
39253 39249 39252 0
-39255 274 0
-39255 -282 0
39255 -274 282 0
-39256 -39254 0
-39256 -39255 0
39256 39254 39255 0
-39257 -39253 0
-39257 39256 0
39257 39253 -39256 0
-39258 -39254 0
-39258 -39257 0
39258 39254 39257 0
-39260 275 0
-39260 -283 0
39260 -275 283 0
-39261 -39259 0
-39261 -39260 0
39261 39259 39260 0
-39262 -39258 0
-39262 39261 0
39262 39258 -39261 0
-39263 -39259 0
-39263 -39262 0
39263 39259 39262 0
-39265 276 0
-39265 -284 0
39265 -276 284 0
-39266 -39264 0
-39266 -39265 0
39266 39264 39265 0
-39267 -39263 0
-39267 39266 0
39267 39263 -39266 0
-39268 -39264 0
-39268 -39267 0
39268 39264 39267 0
-39270 277 0
-39270 -285 0
39270 -277 285 0
-39271 -39269 0
-39271 -39270 0
39271 39269 39270 0
-39272 -39268 0
-39272 39271 0
39272 39268 -39271 0
-39273 -39269 0
-39273 -39272 0
39273 39269 39272 0
-39274 39234 0
-39274 -39273 0
39274 -39234 39273 0
-39309 -269 0
-39309 277 0
39309 269 -277 0
-39304 -268 0
-39304 276 0
39304 268 -276 0
-39299 -267 0
-39299 275 0
39299 267 -275 0
-39294 -266 0
-39294 274 0
39294 266 -274 0
-39289 -265 0
-39289 273 0
39289 265 -273 0
-39284 -264 0
-39284 272 0
39284 264 -272 0
-39279 -263 0
-39279 271 0
39279 263 -271 0
-39275 -262 0
-39275 270 0
39275 262 -270 0
-39276 262 0
-39276 -270 0
39276 -262 270 0
-39277 -39275 0
-39277 -39276 0
39277 39275 39276 0
-39278 -39275 0
-39278 -39277 0
39278 39275 39277 0
-39280 263 0
-39280 -271 0
39280 -263 271 0
-39281 -39279 0
-39281 -39280 0
39281 39279 39280 0
-39282 -39278 0
-39282 39281 0
39282 39278 -39281 0
-39283 -39279 0
-39283 -39282 0
39283 39279 39282 0
-39285 264 0
-39285 -272 0
39285 -264 272 0
-39286 -39284 0
-39286 -39285 0
39286 39284 39285 0
-39287 -39283 0
-39287 39286 0
39287 39283 -39286 0
-39288 -39284 0
-39288 -39287 0
39288 39284 39287 0
-39290 265 0
-39290 -273 0
39290 -265 273 0
-39291 -39289 0
-39291 -39290 0
39291 39289 39290 0
-39292 -39288 0
-39292 39291 0
39292 39288 -39291 0
-39293 -39289 0
-39293 -39292 0
39293 39289 39292 0
-39295 266 0
-39295 -274 0
39295 -266 274 0
-39296 -39294 0
-39296 -39295 0
39296 39294 39295 0
-39297 -39293 0
-39297 39296 0
39297 39293 -39296 0
-39298 -39294 0
-39298 -39297 0
39298 39294 39297 0
-39300 267 0
-39300 -275 0
39300 -267 275 0
-39301 -39299 0
-39301 -39300 0
39301 39299 39300 0
-39302 -39298 0
-39302 39301 0
39302 39298 -39301 0
-39303 -39299 0
-39303 -39302 0
39303 39299 39302 0
-39305 268 0
-39305 -276 0
39305 -268 276 0
-39306 -39304 0
-39306 -39305 0
39306 39304 39305 0
-39307 -39303 0
-39307 39306 0
39307 39303 -39306 0
-39308 -39304 0
-39308 -39307 0
39308 39304 39307 0
-39310 269 0
-39310 -277 0
39310 -269 277 0
-39311 -39309 0
-39311 -39310 0
39311 39309 39310 0
-39312 -39308 0
-39312 39311 0
39312 39308 -39311 0
-39313 -39309 0
-39313 -39312 0
39313 39309 39312 0
-39314 39274 0
-39314 -39313 0
39314 -39274 39313 0
-39349 -261 0
-39349 269 0
39349 261 -269 0
-39344 -260 0
-39344 268 0
39344 260 -268 0
-39339 -259 0
-39339 267 0
39339 259 -267 0
-39334 -258 0
-39334 266 0
39334 258 -266 0
-39329 -257 0
-39329 265 0
39329 257 -265 0
-39324 -256 0
-39324 264 0
39324 256 -264 0
-39319 -255 0
-39319 263 0
39319 255 -263 0
-39315 -254 0
-39315 262 0
39315 254 -262 0
-39316 254 0
-39316 -262 0
39316 -254 262 0
-39317 -39315 0
-39317 -39316 0
39317 39315 39316 0
-39318 -39315 0
-39318 -39317 0
39318 39315 39317 0
-39320 255 0
-39320 -263 0
39320 -255 263 0
-39321 -39319 0
-39321 -39320 0
39321 39319 39320 0
-39322 -39318 0
-39322 39321 0
39322 39318 -39321 0
-39323 -39319 0
-39323 -39322 0
39323 39319 39322 0
-39325 256 0
-39325 -264 0
39325 -256 264 0
-39326 -39324 0
-39326 -39325 0
39326 39324 39325 0
-39327 -39323 0
-39327 39326 0
39327 39323 -39326 0
-39328 -39324 0
-39328 -39327 0
39328 39324 39327 0
-39330 257 0
-39330 -265 0
39330 -257 265 0
-39331 -39329 0
-39331 -39330 0
39331 39329 39330 0
-39332 -39328 0
-39332 39331 0
39332 39328 -39331 0
-39333 -39329 0
-39333 -39332 0
39333 39329 39332 0
-39335 258 0
-39335 -266 0
39335 -258 266 0
-39336 -39334 0
-39336 -39335 0
39336 39334 39335 0
-39337 -39333 0
-39337 39336 0
39337 39333 -39336 0
-39338 -39334 0
-39338 -39337 0
39338 39334 39337 0
-39340 259 0
-39340 -267 0
39340 -259 267 0
-39341 -39339 0
-39341 -39340 0
39341 39339 39340 0
-39342 -39338 0
-39342 39341 0
39342 39338 -39341 0
-39343 -39339 0
-39343 -39342 0
39343 39339 39342 0
-39345 260 0
-39345 -268 0
39345 -260 268 0
-39346 -39344 0
-39346 -39345 0
39346 39344 39345 0
-39347 -39343 0
-39347 39346 0
39347 39343 -39346 0
-39348 -39344 0
-39348 -39347 0
39348 39344 39347 0
-39350 261 0
-39350 -269 0
39350 -261 269 0
-39351 -39349 0
-39351 -39350 0
39351 39349 39350 0
-39352 -39348 0
-39352 39351 0
39352 39348 -39351 0
-39353 -39349 0
-39353 -39352 0
39353 39349 39352 0
-39354 39314 0
-39354 -39353 0
39354 -39314 39353 0
-39389 -253 0
-39389 261 0
39389 253 -261 0
-39384 -252 0
-39384 260 0
39384 252 -260 0
-39379 -251 0
-39379 259 0
39379 251 -259 0
-39374 -250 0
-39374 258 0
39374 250 -258 0
-39369 -249 0
-39369 257 0
39369 249 -257 0
-39364 -248 0
-39364 256 0
39364 248 -256 0
-39359 -247 0
-39359 255 0
39359 247 -255 0
-39355 -246 0
-39355 254 0
39355 246 -254 0
-39356 246 0
-39356 -254 0
39356 -246 254 0
-39357 -39355 0
-39357 -39356 0
39357 39355 39356 0
-39358 -39355 0
-39358 -39357 0
39358 39355 39357 0
-39360 247 0
-39360 -255 0
39360 -247 255 0
-39361 -39359 0
-39361 -39360 0
39361 39359 39360 0
-39362 -39358 0
-39362 39361 0
39362 39358 -39361 0
-39363 -39359 0
-39363 -39362 0
39363 39359 39362 0
-39365 248 0
-39365 -256 0
39365 -248 256 0
-39366 -39364 0
-39366 -39365 0
39366 39364 39365 0
-39367 -39363 0
-39367 39366 0
39367 39363 -39366 0
-39368 -39364 0
-39368 -39367 0
39368 39364 39367 0
-39370 249 0
-39370 -257 0
39370 -249 257 0
-39371 -39369 0
-39371 -39370 0
39371 39369 39370 0
-39372 -39368 0
-39372 39371 0
39372 39368 -39371 0
-39373 -39369 0
-39373 -39372 0
39373 39369 39372 0
-39375 250 0
-39375 -258 0
39375 -250 258 0
-39376 -39374 0
-39376 -39375 0
39376 39374 39375 0
-39377 -39373 0
-39377 39376 0
39377 39373 -39376 0
-39378 -39374 0
-39378 -39377 0
39378 39374 39377 0
-39380 251 0
-39380 -259 0
39380 -251 259 0
-39381 -39379 0
-39381 -39380 0
39381 39379 39380 0
-39382 -39378 0
-39382 39381 0
39382 39378 -39381 0
-39383 -39379 0
-39383 -39382 0
39383 39379 39382 0
-39385 252 0
-39385 -260 0
39385 -252 260 0
-39386 -39384 0
-39386 -39385 0
39386 39384 39385 0
-39387 -39383 0
-39387 39386 0
39387 39383 -39386 0
-39388 -39384 0
-39388 -39387 0
39388 39384 39387 0
-39390 253 0
-39390 -261 0
39390 -253 261 0
-39391 -39389 0
-39391 -39390 0
39391 39389 39390 0
-39392 -39388 0
-39392 39391 0
39392 39388 -39391 0
-39393 -39389 0
-39393 -39392 0
39393 39389 39392 0
-39394 39354 0
-39394 -39393 0
39394 -39354 39393 0
-39429 -245 0
-39429 253 0
39429 245 -253 0
-39424 -244 0
-39424 252 0
39424 244 -252 0
-39419 -243 0
-39419 251 0
39419 243 -251 0
-39414 -242 0
-39414 250 0
39414 242 -250 0
-39409 -241 0
-39409 249 0
39409 241 -249 0
-39404 -240 0
-39404 248 0
39404 240 -248 0
-39399 -239 0
-39399 247 0
39399 239 -247 0
-39395 -238 0
-39395 246 0
39395 238 -246 0
-39396 238 0
-39396 -246 0
39396 -238 246 0
-39397 -39395 0
-39397 -39396 0
39397 39395 39396 0
-39398 -39395 0
-39398 -39397 0
39398 39395 39397 0
-39400 239 0
-39400 -247 0
39400 -239 247 0
-39401 -39399 0
-39401 -39400 0
39401 39399 39400 0
-39402 -39398 0
-39402 39401 0
39402 39398 -39401 0
-39403 -39399 0
-39403 -39402 0
39403 39399 39402 0
-39405 240 0
-39405 -248 0
39405 -240 248 0
-39406 -39404 0
-39406 -39405 0
39406 39404 39405 0
-39407 -39403 0
-39407 39406 0
39407 39403 -39406 0
-39408 -39404 0
-39408 -39407 0
39408 39404 39407 0
-39410 241 0
-39410 -249 0
39410 -241 249 0
-39411 -39409 0
-39411 -39410 0
39411 39409 39410 0
-39412 -39408 0
-39412 39411 0
39412 39408 -39411 0
-39413 -39409 0
-39413 -39412 0
39413 39409 39412 0
-39415 242 0
-39415 -250 0
39415 -242 250 0
-39416 -39414 0
-39416 -39415 0
39416 39414 39415 0
-39417 -39413 0
-39417 39416 0
39417 39413 -39416 0
-39418 -39414 0
-39418 -39417 0
39418 39414 39417 0
-39420 243 0
-39420 -251 0
39420 -243 251 0
-39421 -39419 0
-39421 -39420 0
39421 39419 39420 0
-39422 -39418 0
-39422 39421 0
39422 39418 -39421 0
-39423 -39419 0
-39423 -39422 0
39423 39419 39422 0
-39425 244 0
-39425 -252 0
39425 -244 252 0
-39426 -39424 0
-39426 -39425 0
39426 39424 39425 0
-39427 -39423 0
-39427 39426 0
39427 39423 -39426 0
-39428 -39424 0
-39428 -39427 0
39428 39424 39427 0
-39430 245 0
-39430 -253 0
39430 -245 253 0
-39431 -39429 0
-39431 -39430 0
39431 39429 39430 0
-39432 -39428 0
-39432 39431 0
39432 39428 -39431 0
-39433 -39429 0
-39433 -39432 0
39433 39429 39432 0
-39434 39394 0
-39434 -39433 0
39434 -39394 39433 0
-39469 -237 0
-39469 245 0
39469 237 -245 0
-39464 -236 0
-39464 244 0
39464 236 -244 0
-39459 -235 0
-39459 243 0
39459 235 -243 0
-39454 -234 0
-39454 242 0
39454 234 -242 0
-39449 -233 0
-39449 241 0
39449 233 -241 0
-39444 -232 0
-39444 240 0
39444 232 -240 0
-39439 -231 0
-39439 239 0
39439 231 -239 0
-39435 -230 0
-39435 238 0
39435 230 -238 0
-39436 230 0
-39436 -238 0
39436 -230 238 0
-39437 -39435 0
-39437 -39436 0
39437 39435 39436 0
-39438 -39435 0
-39438 -39437 0
39438 39435 39437 0
-39440 231 0
-39440 -239 0
39440 -231 239 0
-39441 -39439 0
-39441 -39440 0
39441 39439 39440 0
-39442 -39438 0
-39442 39441 0
39442 39438 -39441 0
-39443 -39439 0
-39443 -39442 0
39443 39439 39442 0
-39445 232 0
-39445 -240 0
39445 -232 240 0
-39446 -39444 0
-39446 -39445 0
39446 39444 39445 0
-39447 -39443 0
-39447 39446 0
39447 39443 -39446 0
-39448 -39444 0
-39448 -39447 0
39448 39444 39447 0
-39450 233 0
-39450 -241 0
39450 -233 241 0
-39451 -39449 0
-39451 -39450 0
39451 39449 39450 0
-39452 -39448 0
-39452 39451 0
39452 39448 -39451 0
-39453 -39449 0
-39453 -39452 0
39453 39449 39452 0
-39455 234 0
-39455 -242 0
39455 -234 242 0
-39456 -39454 0
-39456 -39455 0
39456 39454 39455 0
-39457 -39453 0
-39457 39456 0
39457 39453 -39456 0
-39458 -39454 0
-39458 -39457 0
39458 39454 39457 0
-39460 235 0
-39460 -243 0
39460 -235 243 0
-39461 -39459 0
-39461 -39460 0
39461 39459 39460 0
-39462 -39458 0
-39462 39461 0
39462 39458 -39461 0
-39463 -39459 0
-39463 -39462 0
39463 39459 39462 0
-39465 236 0
-39465 -244 0
39465 -236 244 0
-39466 -39464 0
-39466 -39465 0
39466 39464 39465 0
-39467 -39463 0
-39467 39466 0
39467 39463 -39466 0
-39468 -39464 0
-39468 -39467 0
39468 39464 39467 0
-39470 237 0
-39470 -245 0
39470 -237 245 0
-39471 -39469 0
-39471 -39470 0
39471 39469 39470 0
-39472 -39468 0
-39472 39471 0
39472 39468 -39471 0
-39473 -39469 0
-39473 -39472 0
39473 39469 39472 0
-39474 39434 0
-39474 -39473 0
39474 -39434 39473 0
-39509 -229 0
-39509 237 0
39509 229 -237 0
-39504 -228 0
-39504 236 0
39504 228 -236 0
-39499 -227 0
-39499 235 0
39499 227 -235 0
-39494 -226 0
-39494 234 0
39494 226 -234 0
-39489 -225 0
-39489 233 0
39489 225 -233 0
-39484 -224 0
-39484 232 0
39484 224 -232 0
-39479 -223 0
-39479 231 0
39479 223 -231 0
-39475 -222 0
-39475 230 0
39475 222 -230 0
-39476 222 0
-39476 -230 0
39476 -222 230 0
-39477 -39475 0
-39477 -39476 0
39477 39475 39476 0
-39478 -39475 0
-39478 -39477 0
39478 39475 39477 0
-39480 223 0
-39480 -231 0
39480 -223 231 0
-39481 -39479 0
-39481 -39480 0
39481 39479 39480 0
-39482 -39478 0
-39482 39481 0
39482 39478 -39481 0
-39483 -39479 0
-39483 -39482 0
39483 39479 39482 0
-39485 224 0
-39485 -232 0
39485 -224 232 0
-39486 -39484 0
-39486 -39485 0
39486 39484 39485 0
-39487 -39483 0
-39487 39486 0
39487 39483 -39486 0
-39488 -39484 0
-39488 -39487 0
39488 39484 39487 0
-39490 225 0
-39490 -233 0
39490 -225 233 0
-39491 -39489 0
-39491 -39490 0
39491 39489 39490 0
-39492 -39488 0
-39492 39491 0
39492 39488 -39491 0
-39493 -39489 0
-39493 -39492 0
39493 39489 39492 0
-39495 226 0
-39495 -234 0
39495 -226 234 0
-39496 -39494 0
-39496 -39495 0
39496 39494 39495 0
-39497 -39493 0
-39497 39496 0
39497 39493 -39496 0
-39498 -39494 0
-39498 -39497 0
39498 39494 39497 0
-39500 227 0
-39500 -235 0
39500 -227 235 0
-39501 -39499 0
-39501 -39500 0
39501 39499 39500 0
-39502 -39498 0
-39502 39501 0
39502 39498 -39501 0
-39503 -39499 0
-39503 -39502 0
39503 39499 39502 0
-39505 228 0
-39505 -236 0
39505 -228 236 0
-39506 -39504 0
-39506 -39505 0
39506 39504 39505 0
-39507 -39503 0
-39507 39506 0
39507 39503 -39506 0
-39508 -39504 0
-39508 -39507 0
39508 39504 39507 0
-39510 229 0
-39510 -237 0
39510 -229 237 0
-39511 -39509 0
-39511 -39510 0
39511 39509 39510 0
-39512 -39508 0
-39512 39511 0
39512 39508 -39511 0
-39513 -39509 0
-39513 -39512 0
39513 39509 39512 0
-39514 39474 0
-39514 -39513 0
39514 -39474 39513 0
-39549 -221 0
-39549 229 0
39549 221 -229 0
-39544 -220 0
-39544 228 0
39544 220 -228 0
-39539 -219 0
-39539 227 0
39539 219 -227 0
-39534 -218 0
-39534 226 0
39534 218 -226 0
-39529 -217 0
-39529 225 0
39529 217 -225 0
-39524 -216 0
-39524 224 0
39524 216 -224 0
-39519 -215 0
-39519 223 0
39519 215 -223 0
-39515 -214 0
-39515 222 0
39515 214 -222 0
-39516 214 0
-39516 -222 0
39516 -214 222 0
-39517 -39515 0
-39517 -39516 0
39517 39515 39516 0
-39518 -39515 0
-39518 -39517 0
39518 39515 39517 0
-39520 215 0
-39520 -223 0
39520 -215 223 0
-39521 -39519 0
-39521 -39520 0
39521 39519 39520 0
-39522 -39518 0
-39522 39521 0
39522 39518 -39521 0
-39523 -39519 0
-39523 -39522 0
39523 39519 39522 0
-39525 216 0
-39525 -224 0
39525 -216 224 0
-39526 -39524 0
-39526 -39525 0
39526 39524 39525 0
-39527 -39523 0
-39527 39526 0
39527 39523 -39526 0
-39528 -39524 0
-39528 -39527 0
39528 39524 39527 0
-39530 217 0
-39530 -225 0
39530 -217 225 0
-39531 -39529 0
-39531 -39530 0
39531 39529 39530 0
-39532 -39528 0
-39532 39531 0
39532 39528 -39531 0
-39533 -39529 0
-39533 -39532 0
39533 39529 39532 0
-39535 218 0
-39535 -226 0
39535 -218 226 0
-39536 -39534 0
-39536 -39535 0
39536 39534 39535 0
-39537 -39533 0
-39537 39536 0
39537 39533 -39536 0
-39538 -39534 0
-39538 -39537 0
39538 39534 39537 0
-39540 219 0
-39540 -227 0
39540 -219 227 0
-39541 -39539 0
-39541 -39540 0
39541 39539 39540 0
-39542 -39538 0
-39542 39541 0
39542 39538 -39541 0
-39543 -39539 0
-39543 -39542 0
39543 39539 39542 0
-39545 220 0
-39545 -228 0
39545 -220 228 0
-39546 -39544 0
-39546 -39545 0
39546 39544 39545 0
-39547 -39543 0
-39547 39546 0
39547 39543 -39546 0
-39548 -39544 0
-39548 -39547 0
39548 39544 39547 0
-39550 221 0
-39550 -229 0
39550 -221 229 0
-39551 -39549 0
-39551 -39550 0
39551 39549 39550 0
-39552 -39548 0
-39552 39551 0
39552 39548 -39551 0
-39553 -39549 0
-39553 -39552 0
39553 39549 39552 0
-39554 39514 0
-39554 -39553 0
39554 -39514 39553 0
-39589 -213 0
-39589 221 0
39589 213 -221 0
-39584 -212 0
-39584 220 0
39584 212 -220 0
-39579 -211 0
-39579 219 0
39579 211 -219 0
-39574 -210 0
-39574 218 0
39574 210 -218 0
-39569 -209 0
-39569 217 0
39569 209 -217 0
-39564 -208 0
-39564 216 0
39564 208 -216 0
-39559 -207 0
-39559 215 0
39559 207 -215 0
-39555 -206 0
-39555 214 0
39555 206 -214 0
-39556 206 0
-39556 -214 0
39556 -206 214 0
-39557 -39555 0
-39557 -39556 0
39557 39555 39556 0
-39558 -39555 0
-39558 -39557 0
39558 39555 39557 0
-39560 207 0
-39560 -215 0
39560 -207 215 0
-39561 -39559 0
-39561 -39560 0
39561 39559 39560 0
-39562 -39558 0
-39562 39561 0
39562 39558 -39561 0
-39563 -39559 0
-39563 -39562 0
39563 39559 39562 0
-39565 208 0
-39565 -216 0
39565 -208 216 0
-39566 -39564 0
-39566 -39565 0
39566 39564 39565 0
-39567 -39563 0
-39567 39566 0
39567 39563 -39566 0
-39568 -39564 0
-39568 -39567 0
39568 39564 39567 0
-39570 209 0
-39570 -217 0
39570 -209 217 0
-39571 -39569 0
-39571 -39570 0
39571 39569 39570 0
-39572 -39568 0
-39572 39571 0
39572 39568 -39571 0
-39573 -39569 0
-39573 -39572 0
39573 39569 39572 0
-39575 210 0
-39575 -218 0
39575 -210 218 0
-39576 -39574 0
-39576 -39575 0
39576 39574 39575 0
-39577 -39573 0
-39577 39576 0
39577 39573 -39576 0
-39578 -39574 0
-39578 -39577 0
39578 39574 39577 0
-39580 211 0
-39580 -219 0
39580 -211 219 0
-39581 -39579 0
-39581 -39580 0
39581 39579 39580 0
-39582 -39578 0
-39582 39581 0
39582 39578 -39581 0
-39583 -39579 0
-39583 -39582 0
39583 39579 39582 0
-39585 212 0
-39585 -220 0
39585 -212 220 0
-39586 -39584 0
-39586 -39585 0
39586 39584 39585 0
-39587 -39583 0
-39587 39586 0
39587 39583 -39586 0
-39588 -39584 0
-39588 -39587 0
39588 39584 39587 0
-39590 213 0
-39590 -221 0
39590 -213 221 0
-39591 -39589 0
-39591 -39590 0
39591 39589 39590 0
-39592 -39588 0
-39592 39591 0
39592 39588 -39591 0
-39593 -39589 0
-39593 -39592 0
39593 39589 39592 0
-39594 39554 0
-39594 -39593 0
39594 -39554 39593 0
-39629 -205 0
-39629 213 0
39629 205 -213 0
-39624 -204 0
-39624 212 0
39624 204 -212 0
-39619 -203 0
-39619 211 0
39619 203 -211 0
-39614 -202 0
-39614 210 0
39614 202 -210 0
-39609 -201 0
-39609 209 0
39609 201 -209 0
-39604 -200 0
-39604 208 0
39604 200 -208 0
-39599 -199 0
-39599 207 0
39599 199 -207 0
-39595 -198 0
-39595 206 0
39595 198 -206 0
-39596 198 0
-39596 -206 0
39596 -198 206 0
-39597 -39595 0
-39597 -39596 0
39597 39595 39596 0
-39598 -39595 0
-39598 -39597 0
39598 39595 39597 0
-39600 199 0
-39600 -207 0
39600 -199 207 0
-39601 -39599 0
-39601 -39600 0
39601 39599 39600 0
-39602 -39598 0
-39602 39601 0
39602 39598 -39601 0
-39603 -39599 0
-39603 -39602 0
39603 39599 39602 0
-39605 200 0
-39605 -208 0
39605 -200 208 0
-39606 -39604 0
-39606 -39605 0
39606 39604 39605 0
-39607 -39603 0
-39607 39606 0
39607 39603 -39606 0
-39608 -39604 0
-39608 -39607 0
39608 39604 39607 0
-39610 201 0
-39610 -209 0
39610 -201 209 0
-39611 -39609 0
-39611 -39610 0
39611 39609 39610 0
-39612 -39608 0
-39612 39611 0
39612 39608 -39611 0
-39613 -39609 0
-39613 -39612 0
39613 39609 39612 0
-39615 202 0
-39615 -210 0
39615 -202 210 0
-39616 -39614 0
-39616 -39615 0
39616 39614 39615 0
-39617 -39613 0
-39617 39616 0
39617 39613 -39616 0
-39618 -39614 0
-39618 -39617 0
39618 39614 39617 0
-39620 203 0
-39620 -211 0
39620 -203 211 0
-39621 -39619 0
-39621 -39620 0
39621 39619 39620 0
-39622 -39618 0
-39622 39621 0
39622 39618 -39621 0
-39623 -39619 0
-39623 -39622 0
39623 39619 39622 0
-39625 204 0
-39625 -212 0
39625 -204 212 0
-39626 -39624 0
-39626 -39625 0
39626 39624 39625 0
-39627 -39623 0
-39627 39626 0
39627 39623 -39626 0
-39628 -39624 0
-39628 -39627 0
39628 39624 39627 0
-39630 205 0
-39630 -213 0
39630 -205 213 0
-39631 -39629 0
-39631 -39630 0
39631 39629 39630 0
-39632 -39628 0
-39632 39631 0
39632 39628 -39631 0
-39633 -39629 0
-39633 -39632 0
39633 39629 39632 0
-39634 39594 0
-39634 -39633 0
39634 -39594 39633 0
-39669 -197 0
-39669 205 0
39669 197 -205 0
-39664 -196 0
-39664 204 0
39664 196 -204 0
-39659 -195 0
-39659 203 0
39659 195 -203 0
-39654 -194 0
-39654 202 0
39654 194 -202 0
-39649 -193 0
-39649 201 0
39649 193 -201 0
-39644 -192 0
-39644 200 0
39644 192 -200 0
-39639 -191 0
-39639 199 0
39639 191 -199 0
-39635 -190 0
-39635 198 0
39635 190 -198 0
-39636 190 0
-39636 -198 0
39636 -190 198 0
-39637 -39635 0
-39637 -39636 0
39637 39635 39636 0
-39638 -39635 0
-39638 -39637 0
39638 39635 39637 0
-39640 191 0
-39640 -199 0
39640 -191 199 0
-39641 -39639 0
-39641 -39640 0
39641 39639 39640 0
-39642 -39638 0
-39642 39641 0
39642 39638 -39641 0
-39643 -39639 0
-39643 -39642 0
39643 39639 39642 0
-39645 192 0
-39645 -200 0
39645 -192 200 0
-39646 -39644 0
-39646 -39645 0
39646 39644 39645 0
-39647 -39643 0
-39647 39646 0
39647 39643 -39646 0
-39648 -39644 0
-39648 -39647 0
39648 39644 39647 0
-39650 193 0
-39650 -201 0
39650 -193 201 0
-39651 -39649 0
-39651 -39650 0
39651 39649 39650 0
-39652 -39648 0
-39652 39651 0
39652 39648 -39651 0
-39653 -39649 0
-39653 -39652 0
39653 39649 39652 0
-39655 194 0
-39655 -202 0
39655 -194 202 0
-39656 -39654 0
-39656 -39655 0
39656 39654 39655 0
-39657 -39653 0
-39657 39656 0
39657 39653 -39656 0
-39658 -39654 0
-39658 -39657 0
39658 39654 39657 0
-39660 195 0
-39660 -203 0
39660 -195 203 0
-39661 -39659 0
-39661 -39660 0
39661 39659 39660 0
-39662 -39658 0
-39662 39661 0
39662 39658 -39661 0
-39663 -39659 0
-39663 -39662 0
39663 39659 39662 0
-39665 196 0
-39665 -204 0
39665 -196 204 0
-39666 -39664 0
-39666 -39665 0
39666 39664 39665 0
-39667 -39663 0
-39667 39666 0
39667 39663 -39666 0
-39668 -39664 0
-39668 -39667 0
39668 39664 39667 0
-39670 197 0
-39670 -205 0
39670 -197 205 0
-39671 -39669 0
-39671 -39670 0
39671 39669 39670 0
-39672 -39668 0
-39672 39671 0
39672 39668 -39671 0
-39673 -39669 0
-39673 -39672 0
39673 39669 39672 0
-39674 39634 0
-39674 -39673 0
39674 -39634 39673 0
-39709 -189 0
-39709 197 0
39709 189 -197 0
-39704 -188 0
-39704 196 0
39704 188 -196 0
-39699 -187 0
-39699 195 0
39699 187 -195 0
-39694 -186 0
-39694 194 0
39694 186 -194 0
-39689 -185 0
-39689 193 0
39689 185 -193 0
-39684 -184 0
-39684 192 0
39684 184 -192 0
-39679 -183 0
-39679 191 0
39679 183 -191 0
-39675 -182 0
-39675 190 0
39675 182 -190 0
-39676 182 0
-39676 -190 0
39676 -182 190 0
-39677 -39675 0
-39677 -39676 0
39677 39675 39676 0
-39678 -39675 0
-39678 -39677 0
39678 39675 39677 0
-39680 183 0
-39680 -191 0
39680 -183 191 0
-39681 -39679 0
-39681 -39680 0
39681 39679 39680 0
-39682 -39678 0
-39682 39681 0
39682 39678 -39681 0
-39683 -39679 0
-39683 -39682 0
39683 39679 39682 0
-39685 184 0
-39685 -192 0
39685 -184 192 0
-39686 -39684 0
-39686 -39685 0
39686 39684 39685 0
-39687 -39683 0
-39687 39686 0
39687 39683 -39686 0
-39688 -39684 0
-39688 -39687 0
39688 39684 39687 0
-39690 185 0
-39690 -193 0
39690 -185 193 0
-39691 -39689 0
-39691 -39690 0
39691 39689 39690 0
-39692 -39688 0
-39692 39691 0
39692 39688 -39691 0
-39693 -39689 0
-39693 -39692 0
39693 39689 39692 0
-39695 186 0
-39695 -194 0
39695 -186 194 0
-39696 -39694 0
-39696 -39695 0
39696 39694 39695 0
-39697 -39693 0
-39697 39696 0
39697 39693 -39696 0
-39698 -39694 0
-39698 -39697 0
39698 39694 39697 0
-39700 187 0
-39700 -195 0
39700 -187 195 0
-39701 -39699 0
-39701 -39700 0
39701 39699 39700 0
-39702 -39698 0
-39702 39701 0
39702 39698 -39701 0
-39703 -39699 0
-39703 -39702 0
39703 39699 39702 0
-39705 188 0
-39705 -196 0
39705 -188 196 0
-39706 -39704 0
-39706 -39705 0
39706 39704 39705 0
-39707 -39703 0
-39707 39706 0
39707 39703 -39706 0
-39708 -39704 0
-39708 -39707 0
39708 39704 39707 0
-39710 189 0
-39710 -197 0
39710 -189 197 0
-39711 -39709 0
-39711 -39710 0
39711 39709 39710 0
-39712 -39708 0
-39712 39711 0
39712 39708 -39711 0
-39713 -39709 0
-39713 -39712 0
39713 39709 39712 0
-39714 39674 0
-39714 -39713 0
39714 -39674 39713 0
39714 0
