p cnf 176 454
5 -162 0
-5 162 0
6 -163 0
-6 163 0
2 -159 0
-2 159 0
56 -170 0
-56 170 0
-61 2 0
-61 -56 0
61 -2 56 0
-62 -2 0
-62 56 0
62 2 -56 0
-63 -61 0
-63 -62 0
63 61 62 0
64 -171 0
-64 171 0
-67 -63 0
-67 -64 0
67 63 64 0
-65 63 0
-65 64 0
65 -63 -64 0
4 -161 0
-4 161 0
-59 -4 0
-59 56 0
59 4 -56 0
-57 4 0
-57 -56 0
57 -4 56 0
100 -173 0
-100 173 0
-103 -5 0
-103 100 0
103 5 -100 0
-101 5 0
-101 -100 0
101 -5 100 0
39 -168 0
-39 168 0
-42 -6 0
-42 39 0
42 6 -39 0
-40 6 0
-40 -39 0
40 -6 39 0
8 -165 0
-8 165 0
9 -166 0
-9 166 0
-11 -8 0
-11 9 0
11 8 -9 0
-10 8 0
-10 -9 0
10 -8 9 0
7 -164 0
-7 164 0
24 -167 0
-24 167 0
-27 -7 0
-27 24 0
27 7 -24 0
-25 7 0
-25 -24 0
25 -7 24 0
3 -160 0
-3 160 0
-12 -10 0
-12 -11 0
12 10 11 0
-13 4 0
-13 -9 0
13 -4 9 0
-14 -4 0
-14 9 0
14 4 -9 0
-15 -13 0
-15 -14 0
15 13 14 0
-16 12 0
-16 15 0
16 -12 -15 0
-17 -3 0
-17 16 0
17 3 -16 0
-18 -10 0
-18 17 0
18 10 -17 0
-19 -11 0
-19 18 0
19 11 -18 0
-20 2 0
-20 -9 0
20 -2 9 0
-21 -2 0
-21 9 0
21 2 -9 0
-22 -20 0
-22 -21 0
22 20 21 0
-23 19 0
-23 22 0
23 -19 -22 0
-26 23 0
-26 -25 0
26 -23 25 0
-28 26 0
-28 -27 0
28 -26 27 0
-29 5 0
-29 -24 0
29 -5 24 0
-30 -5 0
-30 24 0
30 5 -24 0
-31 -29 0
-31 -30 0
31 29 30 0
-32 28 0
-32 31 0
32 -28 -31 0
-33 -25 0
-33 32 0
33 25 -32 0
-34 -27 0
-34 33 0
34 27 -33 0
-35 6 0
-35 -24 0
35 -6 24 0
-36 -6 0
-36 24 0
36 6 -24 0
-37 -35 0
-37 -36 0
37 35 36 0
-38 34 0
-38 37 0
38 -34 -37 0
-41 38 0
-41 -40 0
41 -38 40 0
-43 41 0
-43 -42 0
43 -41 42 0
-44 5 0
-44 -39 0
44 -5 39 0
-45 -5 0
-45 39 0
45 5 -39 0
-46 -44 0
-46 -45 0
46 44 45 0
47 -169 0
-47 169 0
-48 46 0
-48 47 0
48 -46 -47 0
-49 43 0
-49 -48 0
49 -43 48 0
-50 -46 0
-50 -47 0
50 46 47 0
-51 49 0
-51 -50 0
51 -49 50 0
-52 8 0
-52 -47 0
52 -8 47 0
-53 -8 0
-53 47 0
53 8 -47 0
-54 -52 0
-54 -53 0
54 52 53 0
-55 51 0
-55 54 0
55 -51 -54 0
-58 55 0
-58 -57 0
58 -55 57 0
-60 58 0
-60 -59 0
60 -58 59 0
-66 60 0
-66 -65 0
66 -60 65 0
-68 66 0
-68 -67 0
68 -66 67 0
-69 7 0
-69 -64 0
69 -7 64 0
-70 -7 0
-70 64 0
70 7 -64 0
-71 -69 0
-71 -70 0
71 69 70 0
-72 68 0
-72 71 0
72 -68 -71 0
-73 -7 0
-73 72 0
73 7 -72 0
-74 -10 0
-74 73 0
74 10 -73 0
-75 -11 0
-75 74 0
75 11 -74 0
-76 6 0
-76 -9 0
76 -6 9 0
-77 -6 0
-77 9 0
77 6 -9 0
-78 -76 0
-78 -77 0
78 76 77 0
-79 75 0
-79 78 0
79 -75 -78 0
-80 -10 0
-80 79 0
80 10 -79 0
-81 -11 0
-81 80 0
81 11 -80 0
-82 5 0
-82 -9 0
82 -5 9 0
-83 -5 0
-83 9 0
83 5 -9 0
-84 -82 0
-84 -83 0
84 82 83 0
-85 81 0
-85 84 0
85 -81 -84 0
-86 -40 0
-86 85 0
86 40 -85 0
-87 -42 0
-87 86 0
87 42 -86 0
-88 4 0
-88 -39 0
88 -4 39 0
-89 -4 0
-89 39 0
89 4 -39 0
-90 -88 0
-90 -89 0
90 88 89 0
91 -172 0
-91 172 0
-92 90 0
-92 91 0
92 -90 -91 0
-93 87 0
-93 -92 0
93 -87 92 0
-94 -90 0
-94 -91 0
94 90 91 0
-95 93 0
-95 -94 0
95 -93 94 0
-96 7 0
-96 -91 0
96 -7 91 0
-97 -7 0
-97 91 0
97 7 -91 0
-98 -96 0
-98 -97 0
98 96 97 0
-99 95 0
-99 98 0
99 -95 -98 0
-102 99 0
-102 -101 0
102 -99 101 0
-104 102 0
-104 -103 0
104 -102 103 0
-105 3 0
-105 -100 0
105 -3 100 0
-106 -3 0
-106 100 0
106 3 -100 0
-107 -105 0
-107 -106 0
107 105 106 0
108 -174 0
-108 174 0
-109 107 0
-109 108 0
109 -107 -108 0
-110 104 0
-110 -109 0
110 -104 109 0
-111 -107 0
-111 -108 0
111 107 108 0
-112 110 0
-112 -111 0
112 -110 111 0
-113 6 0
-113 -108 0
113 -6 108 0
-114 -6 0
-114 108 0
114 6 -108 0
-115 -113 0
-115 -114 0
115 113 114 0
-116 112 0
-116 115 0
116 -112 -115 0
-117 -101 0
-117 116 0
117 101 -116 0
-118 -103 0
-118 117 0
118 103 -117 0
-119 2 0
-119 -100 0
119 -2 100 0
-120 -2 0
-120 100 0
120 2 -100 0
-121 -119 0
-121 -120 0
121 119 120 0
122 -175 0
-122 175 0
-123 121 0
-123 122 0
123 -121 -122 0
-124 118 0
-124 -123 0
124 -118 123 0
-125 -121 0
-125 -122 0
125 121 122 0
-126 124 0
-126 -125 0
126 -124 125 0
-127 7 0
-127 -122 0
127 -7 122 0
-128 -7 0
-128 122 0
128 7 -122 0
-129 -127 0
-129 -128 0
129 127 128 0
-130 126 0
-130 129 0
130 -126 -129 0
-131 -57 0
-131 130 0
131 57 -130 0
-132 -59 0
-132 131 0
132 59 -131 0
-133 3 0
-133 -56 0
133 -3 56 0
-134 -3 0
-134 56 0
134 3 -56 0
-135 -133 0
-135 -134 0
135 133 134 0
-136 132 0
-136 135 0
136 -132 -135 0
137 -176 0
-137 176 0
-138 3 0
-138 -137 0
138 -3 137 0
-139 136 0
-139 -138 0
139 -136 138 0
-140 -3 0
-140 137 0
140 3 -137 0
-141 139 0
-141 -140 0
141 -139 140 0
-142 2 0
-142 -137 0
142 -2 137 0
-143 -2 0
-143 137 0
143 2 -137 0
-144 -142 0
-144 -143 0
144 142 143 0
-145 141 0
-145 144 0
145 -141 -144 0
-146 -57 0
-146 145 0
146 57 -145 0
-147 -59 0
-147 146 0
147 59 -146 0
-148 -65 0
-148 147 0
148 65 -147 0
-149 -67 0
-149 148 0
149 67 -148 0
-150 8 0
-150 -64 0
150 -8 64 0
-151 -8 0
-151 64 0
151 8 -64 0
-152 -150 0
-152 -151 0
152 150 151 0
-153 149 0
-153 152 0
153 -149 -152 0
-154 -6 0
-154 153 0
154 6 -153 0
-155 -5 0
-155 154 0
155 5 -154 0
-156 -2 0
-156 -4 0
156 2 4 0
-157 -8 0
-157 156 0
157 8 -156 0
-158 155 0
-158 -157 0
158 -155 157 0
158 0
