p cnf 3094 6091
55 -3064 0
-55 3064 0
85 -3094 0
-85 3094 0
84 -3093 0
-84 3093 0
83 -3092 0
-83 3092 0
82 -3091 0
-82 3091 0
80 -3089 0
-80 3089 0
81 -3090 0
-81 3090 0
-87 80 0
-87 -81 0
87 -80 81 0
-95 82 0
-95 87 0
95 -82 -87 0
-103 -83 0
-103 95 0
103 83 -95 0
-135 84 0
-135 103 0
135 -84 -103 0
-199 85 0
-199 135 0
199 -85 -135 0
79 -3088 0
-79 3088 0
78 -3087 0
-78 3087 0
77 -3086 0
-77 3086 0
76 -3085 0
-76 3085 0
74 -3083 0
-74 3083 0
75 -3084 0
-75 3084 0
-201 74 0
-201 -75 0
201 -74 75 0
-209 76 0
-209 201 0
209 -76 -201 0
-217 -77 0
-217 209 0
217 77 -209 0
-249 78 0
-249 217 0
249 -78 -217 0
-313 79 0
-313 249 0
313 -79 -249 0
73 -3082 0
-73 3082 0
72 -3081 0
-72 3081 0
71 -3080 0
-71 3080 0
70 -3079 0
-70 3079 0
68 -3077 0
-68 3077 0
69 -3078 0
-69 3078 0
-315 68 0
-315 -69 0
315 -68 69 0
-323 70 0
-323 315 0
323 -70 -315 0
-331 -71 0
-331 323 0
331 71 -323 0
-363 72 0
-363 331 0
363 -72 -331 0
-427 73 0
-427 363 0
427 -73 -363 0
67 -3076 0
-67 3076 0
66 -3075 0
-66 3075 0
65 -3074 0
-65 3074 0
64 -3073 0
-64 3073 0
62 -3071 0
-62 3071 0
63 -3072 0
-63 3072 0
-429 62 0
-429 -63 0
429 -62 63 0
-437 64 0
-437 429 0
437 -64 -429 0
-445 -65 0
-445 437 0
445 65 -437 0
-477 66 0
-477 445 0
477 -66 -445 0
-541 67 0
-541 477 0
541 -67 -477 0
61 -3070 0
-61 3070 0
60 -3069 0
-60 3069 0
59 -3068 0
-59 3068 0
58 -3067 0
-58 3067 0
56 -3065 0
-56 3065 0
57 -3066 0
-57 3066 0
-543 56 0
-543 -57 0
543 -56 57 0
-551 58 0
-551 543 0
551 -58 -543 0
-559 -59 0
-559 551 0
559 59 -551 0
-591 60 0
-591 559 0
591 -60 -559 0
-655 61 0
-655 591 0
655 -61 -591 0
-709 -541 0
-709 -655 0
709 541 655 0
-763 -427 0
-763 709 0
763 427 -709 0
-817 -313 0
-817 763 0
817 313 -763 0
-871 -199 0
-871 817 0
871 199 -817 0
-1031 55 0
-1031 871 0
1031 -55 -871 0
-1032 -55 0
-1032 -871 0
1032 55 871 0
-1033 -1031 0
-1033 -1032 0
1033 1031 1032 0
54 -3063 0
-54 3063 0
-86 -80 0
-86 -81 0
86 80 81 0
-94 82 0
-94 86 0
94 -82 -86 0
-102 -83 0
-102 94 0
102 83 -94 0
-134 84 0
-134 102 0
134 -84 -102 0
-198 85 0
-198 134 0
198 -85 -134 0
-200 -74 0
-200 -75 0
200 74 75 0
-208 76 0
-208 200 0
208 -76 -200 0
-216 -77 0
-216 208 0
216 77 -208 0
-248 78 0
-248 216 0
248 -78 -216 0
-312 79 0
-312 248 0
312 -79 -248 0
-314 -68 0
-314 -69 0
314 68 69 0
-322 70 0
-322 314 0
322 -70 -314 0
-330 -71 0
-330 322 0
330 71 -322 0
-362 72 0
-362 330 0
362 -72 -330 0
-426 73 0
-426 362 0
426 -73 -362 0
-428 -62 0
-428 -63 0
428 62 63 0
-436 64 0
-436 428 0
436 -64 -428 0
-444 -65 0
-444 436 0
444 65 -436 0
-476 66 0
-476 444 0
476 -66 -444 0
-540 67 0
-540 476 0
540 -67 -476 0
-542 -56 0
-542 -57 0
542 56 57 0
-550 58 0
-550 542 0
550 -58 -542 0
-558 -59 0
-558 550 0
558 59 -550 0
-590 60 0
-590 558 0
590 -60 -558 0
-654 61 0
-654 590 0
654 -61 -590 0
-708 -540 0
-708 -654 0
708 540 654 0
-762 -426 0
-762 708 0
762 426 -708 0
-816 -312 0
-816 762 0
816 312 -762 0
-870 -198 0
-870 816 0
870 198 -816 0
-1028 54 0
-1028 870 0
1028 -54 -870 0
-1029 -54 0
-1029 -870 0
1029 54 870 0
-1030 -1028 0
-1030 -1029 0
1030 1028 1029 0
53 -3062 0
-53 3062 0
-89 80 0
-89 81 0
89 -80 -81 0
-93 -82 0
-93 89 0
93 82 -89 0
-101 -83 0
-101 93 0
101 83 -93 0
-133 84 0
-133 101 0
133 -84 -101 0
-197 85 0
-197 133 0
197 -85 -133 0
-203 74 0
-203 75 0
203 -74 -75 0
-207 -76 0
-207 203 0
207 76 -203 0
-215 -77 0
-215 207 0
215 77 -207 0
-247 78 0
-247 215 0
247 -78 -215 0
-311 79 0
-311 247 0
311 -79 -247 0
-317 68 0
-317 69 0
317 -68 -69 0
-321 -70 0
-321 317 0
321 70 -317 0
-329 -71 0
-329 321 0
329 71 -321 0
-361 72 0
-361 329 0
361 -72 -329 0
-425 73 0
-425 361 0
425 -73 -361 0
-431 62 0
-431 63 0
431 -62 -63 0
-435 -64 0
-435 431 0
435 64 -431 0
-443 -65 0
-443 435 0
443 65 -435 0
-475 66 0
-475 443 0
475 -66 -443 0
-539 67 0
-539 475 0
539 -67 -475 0
-545 56 0
-545 57 0
545 -56 -57 0
-549 -58 0
-549 545 0
549 58 -545 0
-557 -59 0
-557 549 0
557 59 -549 0
-589 60 0
-589 557 0
589 -60 -557 0
-653 61 0
-653 589 0
653 -61 -589 0
-707 -539 0
-707 -653 0
707 539 653 0
-761 -425 0
-761 707 0
761 425 -707 0
-815 -311 0
-815 761 0
815 311 -761 0
-869 -197 0
-869 815 0
869 197 -815 0
-1025 53 0
-1025 869 0
1025 -53 -869 0
-1026 -53 0
-1026 -869 0
1026 53 869 0
-1027 -1025 0
-1027 -1026 0
1027 1025 1026 0
52 -3061 0
-52 3061 0
-88 -80 0
-88 81 0
88 80 -81 0
-92 -82 0
-92 88 0
92 82 -88 0
-100 -83 0
-100 92 0
100 83 -92 0
-132 84 0
-132 100 0
132 -84 -100 0
-196 85 0
-196 132 0
196 -85 -132 0
-202 -74 0
-202 75 0
202 74 -75 0
-206 -76 0
-206 202 0
206 76 -202 0
-214 -77 0
-214 206 0
214 77 -206 0
-246 78 0
-246 214 0
246 -78 -214 0
-310 79 0
-310 246 0
310 -79 -246 0
-316 -68 0
-316 69 0
316 68 -69 0
-320 -70 0
-320 316 0
320 70 -316 0
-328 -71 0
-328 320 0
328 71 -320 0
-360 72 0
-360 328 0
360 -72 -328 0
-424 73 0
-424 360 0
424 -73 -360 0
-430 -62 0
-430 63 0
430 62 -63 0
-434 -64 0
-434 430 0
434 64 -430 0
-442 -65 0
-442 434 0
442 65 -434 0
-474 66 0
-474 442 0
474 -66 -442 0
-538 67 0
-538 474 0
538 -67 -474 0
-544 -56 0
-544 57 0
544 56 -57 0
-548 -58 0
-548 544 0
548 58 -544 0
-556 -59 0
-556 548 0
556 59 -548 0
-588 60 0
-588 556 0
588 -60 -556 0
-652 61 0
-652 588 0
652 -61 -588 0
-706 -538 0
-706 -652 0
706 538 652 0
-760 -424 0
-760 706 0
760 424 -706 0
-814 -310 0
-814 760 0
814 310 -760 0
-868 -196 0
-868 814 0
868 196 -814 0
-1022 52 0
-1022 868 0
1022 -52 -868 0
-1023 -52 0
-1023 -868 0
1023 52 868 0
-1024 -1022 0
-1024 -1023 0
1024 1022 1023 0
51 -3060 0
-51 3060 0
-91 -82 0
-91 87 0
91 82 -87 0
-99 -83 0
-99 91 0
99 83 -91 0
-131 84 0
-131 99 0
131 -84 -99 0
-195 85 0
-195 131 0
195 -85 -131 0
-205 -76 0
-205 201 0
205 76 -201 0
-213 -77 0
-213 205 0
213 77 -205 0
-245 78 0
-245 213 0
245 -78 -213 0
-309 79 0
-309 245 0
309 -79 -245 0
-319 -70 0
-319 315 0
319 70 -315 0
-327 -71 0
-327 319 0
327 71 -319 0
-359 72 0
-359 327 0
359 -72 -327 0
-423 73 0
-423 359 0
423 -73 -359 0
-433 -64 0
-433 429 0
433 64 -429 0
-441 -65 0
-441 433 0
441 65 -433 0
-473 66 0
-473 441 0
473 -66 -441 0
-537 67 0
-537 473 0
537 -67 -473 0
-547 -58 0
-547 543 0
547 58 -543 0
-555 -59 0
-555 547 0
555 59 -547 0
-587 60 0
-587 555 0
587 -60 -555 0
-651 61 0
-651 587 0
651 -61 -587 0
-705 -537 0
-705 -651 0
705 537 651 0
-759 -423 0
-759 705 0
759 423 -705 0
-813 -309 0
-813 759 0
813 309 -759 0
-867 -195 0
-867 813 0
867 195 -813 0
-1019 51 0
-1019 867 0
1019 -51 -867 0
-1020 -51 0
-1020 -867 0
1020 51 867 0
-1021 -1019 0
-1021 -1020 0
1021 1019 1020 0
50 -3059 0
-50 3059 0
-90 -82 0
-90 86 0
90 82 -86 0
-98 -83 0
-98 90 0
98 83 -90 0
-130 84 0
-130 98 0
130 -84 -98 0
-194 85 0
-194 130 0
194 -85 -130 0
-204 -76 0
-204 200 0
204 76 -200 0
-212 -77 0
-212 204 0
212 77 -204 0
-244 78 0
-244 212 0
244 -78 -212 0
-308 79 0
-308 244 0
308 -79 -244 0
-318 -70 0
-318 314 0
318 70 -314 0
-326 -71 0
-326 318 0
326 71 -318 0
-358 72 0
-358 326 0
358 -72 -326 0
-422 73 0
-422 358 0
422 -73 -358 0
-432 -64 0
-432 428 0
432 64 -428 0
-440 -65 0
-440 432 0
440 65 -432 0
-472 66 0
-472 440 0
472 -66 -440 0
-536 67 0
-536 472 0
536 -67 -472 0
-546 -58 0
-546 542 0
546 58 -542 0
-554 -59 0
-554 546 0
554 59 -546 0
-586 60 0
-586 554 0
586 -60 -554 0
-650 61 0
-650 586 0
650 -61 -586 0
-704 -536 0
-704 -650 0
704 536 650 0
-758 -422 0
-758 704 0
758 422 -704 0
-812 -308 0
-812 758 0
812 308 -758 0
-866 -194 0
-866 812 0
866 194 -812 0
-1016 50 0
-1016 866 0
1016 -50 -866 0
-1017 -50 0
-1017 -866 0
1017 50 866 0
-1018 -1016 0
-1018 -1017 0
1018 1016 1017 0
49 -3058 0
-49 3058 0
-97 82 0
-97 89 0
97 -82 -89 0
-113 83 0
-113 97 0
113 -83 -97 0
-129 -84 0
-129 113 0
129 84 -113 0
-193 85 0
-193 129 0
193 -85 -129 0
-211 76 0
-211 203 0
211 -76 -203 0
-227 77 0
-227 211 0
227 -77 -211 0
-243 -78 0
-243 227 0
243 78 -227 0
-307 79 0
-307 243 0
307 -79 -243 0
-325 70 0
-325 317 0
325 -70 -317 0
-341 71 0
-341 325 0
341 -71 -325 0
-357 -72 0
-357 341 0
357 72 -341 0
-421 73 0
-421 357 0
421 -73 -357 0
-439 64 0
-439 431 0
439 -64 -431 0
-455 65 0
-455 439 0
455 -65 -439 0
-471 -66 0
-471 455 0
471 66 -455 0
-535 67 0
-535 471 0
535 -67 -471 0
-553 58 0
-553 545 0
553 -58 -545 0
-569 59 0
-569 553 0
569 -59 -553 0
-585 -60 0
-585 569 0
585 60 -569 0
-649 61 0
-649 585 0
649 -61 -585 0
-703 -535 0
-703 -649 0
703 535 649 0
-757 -421 0
-757 703 0
757 421 -703 0
-811 -307 0
-811 757 0
811 307 -757 0
-865 -193 0
-865 811 0
865 193 -811 0
-1013 49 0
-1013 865 0
1013 -49 -865 0
-1014 -49 0
-1014 -865 0
1014 49 865 0
-1015 -1013 0
-1015 -1014 0
1015 1013 1014 0
48 -3057 0
-48 3057 0
-96 82 0
-96 88 0
96 -82 -88 0
-112 83 0
-112 96 0
112 -83 -96 0
-128 -84 0
-128 112 0
128 84 -112 0
-192 85 0
-192 128 0
192 -85 -128 0
-210 76 0
-210 202 0
210 -76 -202 0
-226 77 0
-226 210 0
226 -77 -210 0
-242 -78 0
-242 226 0
242 78 -226 0
-306 79 0
-306 242 0
306 -79 -242 0
-324 70 0
-324 316 0
324 -70 -316 0
-340 71 0
-340 324 0
340 -71 -324 0
-356 -72 0
-356 340 0
356 72 -340 0
-420 73 0
-420 356 0
420 -73 -356 0
-438 64 0
-438 430 0
438 -64 -430 0
-454 65 0
-454 438 0
454 -65 -438 0
-470 -66 0
-470 454 0
470 66 -454 0
-534 67 0
-534 470 0
534 -67 -470 0
-552 58 0
-552 544 0
552 -58 -544 0
-568 59 0
-568 552 0
568 -59 -552 0
-584 -60 0
-584 568 0
584 60 -568 0
-648 61 0
-648 584 0
648 -61 -584 0
-702 -534 0
-702 -648 0
702 534 648 0
-756 -420 0
-756 702 0
756 420 -702 0
-810 -306 0
-810 756 0
810 306 -756 0
-864 -192 0
-864 810 0
864 192 -810 0
-1010 48 0
-1010 864 0
1010 -48 -864 0
-1011 -48 0
-1011 -864 0
1011 48 864 0
-1012 -1010 0
-1012 -1011 0
1012 1010 1011 0
47 -3056 0
-47 3056 0
-111 83 0
-111 95 0
111 -83 -95 0
-127 -84 0
-127 111 0
127 84 -111 0
-191 85 0
-191 127 0
191 -85 -127 0
-225 77 0
-225 209 0
225 -77 -209 0
-241 -78 0
-241 225 0
241 78 -225 0
-305 79 0
-305 241 0
305 -79 -241 0
-339 71 0
-339 323 0
339 -71 -323 0
-355 -72 0
-355 339 0
355 72 -339 0
-419 73 0
-419 355 0
419 -73 -355 0
-453 65 0
-453 437 0
453 -65 -437 0
-469 -66 0
-469 453 0
469 66 -453 0
-533 67 0
-533 469 0
533 -67 -469 0
-567 59 0
-567 551 0
567 -59 -551 0
-583 -60 0
-583 567 0
583 60 -567 0
-647 61 0
-647 583 0
647 -61 -583 0
-701 -533 0
-701 -647 0
701 533 647 0
-755 -419 0
-755 701 0
755 419 -701 0
-809 -305 0
-809 755 0
809 305 -755 0
-863 -191 0
-863 809 0
863 191 -809 0
-1007 47 0
-1007 863 0
1007 -47 -863 0
-1008 -47 0
-1008 -863 0
1008 47 863 0
-1009 -1007 0
-1009 -1008 0
1009 1007 1008 0
46 -3055 0
-46 3055 0
-110 83 0
-110 94 0
110 -83 -94 0
-126 -84 0
-126 110 0
126 84 -110 0
-190 85 0
-190 126 0
190 -85 -126 0
-224 77 0
-224 208 0
224 -77 -208 0
-240 -78 0
-240 224 0
240 78 -224 0
-304 79 0
-304 240 0
304 -79 -240 0
-338 71 0
-338 322 0
338 -71 -322 0
-354 -72 0
-354 338 0
354 72 -338 0
-418 73 0
-418 354 0
418 -73 -354 0
-452 65 0
-452 436 0
452 -65 -436 0
-468 -66 0
-468 452 0
468 66 -452 0
-532 67 0
-532 468 0
532 -67 -468 0
-566 59 0
-566 550 0
566 -59 -550 0
-582 -60 0
-582 566 0
582 60 -566 0
-646 61 0
-646 582 0
646 -61 -582 0
-700 -532 0
-700 -646 0
700 532 646 0
-754 -418 0
-754 700 0
754 418 -700 0
-808 -304 0
-808 754 0
808 304 -754 0
-862 -190 0
-862 808 0
862 190 -808 0
-1004 46 0
-1004 862 0
1004 -46 -862 0
-1005 -46 0
-1005 -862 0
1005 46 862 0
-1006 -1004 0
-1006 -1005 0
1006 1004 1005 0
45 -3054 0
-45 3054 0
-109 83 0
-109 93 0
109 -83 -93 0
-125 -84 0
-125 109 0
125 84 -109 0
-189 85 0
-189 125 0
189 -85 -125 0
-223 77 0
-223 207 0
223 -77 -207 0
-239 -78 0
-239 223 0
239 78 -223 0
-303 79 0
-303 239 0
303 -79 -239 0
-337 71 0
-337 321 0
337 -71 -321 0
-353 -72 0
-353 337 0
353 72 -337 0
-417 73 0
-417 353 0
417 -73 -353 0
-451 65 0
-451 435 0
451 -65 -435 0
-467 -66 0
-467 451 0
467 66 -451 0
-531 67 0
-531 467 0
531 -67 -467 0
-565 59 0
-565 549 0
565 -59 -549 0
-581 -60 0
-581 565 0
581 60 -565 0
-645 61 0
-645 581 0
645 -61 -581 0
-699 -531 0
-699 -645 0
699 531 645 0
-753 -417 0
-753 699 0
753 417 -699 0
-807 -303 0
-807 753 0
807 303 -753 0
-861 -189 0
-861 807 0
861 189 -807 0
-1001 45 0
-1001 861 0
1001 -45 -861 0
-1002 -45 0
-1002 -861 0
1002 45 861 0
-1003 -1001 0
-1003 -1002 0
1003 1001 1002 0
44 -3053 0
-44 3053 0
-108 83 0
-108 92 0
108 -83 -92 0
-124 -84 0
-124 108 0
124 84 -108 0
-188 85 0
-188 124 0
188 -85 -124 0
-222 77 0
-222 206 0
222 -77 -206 0
-238 -78 0
-238 222 0
238 78 -222 0
-302 79 0
-302 238 0
302 -79 -238 0
-336 71 0
-336 320 0
336 -71 -320 0
-352 -72 0
-352 336 0
352 72 -336 0
-416 73 0
-416 352 0
416 -73 -352 0
-450 65 0
-450 434 0
450 -65 -434 0
-466 -66 0
-466 450 0
466 66 -450 0
-530 67 0
-530 466 0
530 -67 -466 0
-564 59 0
-564 548 0
564 -59 -548 0
-580 -60 0
-580 564 0
580 60 -564 0
-644 61 0
-644 580 0
644 -61 -580 0
-698 -530 0
-698 -644 0
698 530 644 0
-752 -416 0
-752 698 0
752 416 -698 0
-806 -302 0
-806 752 0
806 302 -752 0
-860 -188 0
-860 806 0
860 188 -806 0
-998 44 0
-998 860 0
998 -44 -860 0
-999 -44 0
-999 -860 0
999 44 860 0
-1000 -998 0
-1000 -999 0
1000 998 999 0
43 -3052 0
-43 3052 0
-107 83 0
-107 91 0
107 -83 -91 0
-123 -84 0
-123 107 0
123 84 -107 0
-187 85 0
-187 123 0
187 -85 -123 0
-221 77 0
-221 205 0
221 -77 -205 0
-237 -78 0
-237 221 0
237 78 -221 0
-301 79 0
-301 237 0
301 -79 -237 0
-335 71 0
-335 319 0
335 -71 -319 0
-351 -72 0
-351 335 0
351 72 -335 0
-415 73 0
-415 351 0
415 -73 -351 0
-449 65 0
-449 433 0
449 -65 -433 0
-465 -66 0
-465 449 0
465 66 -449 0
-529 67 0
-529 465 0
529 -67 -465 0
-563 59 0
-563 547 0
563 -59 -547 0
-579 -60 0
-579 563 0
579 60 -563 0
-643 61 0
-643 579 0
643 -61 -579 0
-697 -529 0
-697 -643 0
697 529 643 0
-751 -415 0
-751 697 0
751 415 -697 0
-805 -301 0
-805 751 0
805 301 -751 0
-859 -187 0
-859 805 0
859 187 -805 0
-995 43 0
-995 859 0
995 -43 -859 0
-996 -43 0
-996 -859 0
996 43 859 0
-997 -995 0
-997 -996 0
997 995 996 0
42 -3051 0
-42 3051 0
-106 83 0
-106 90 0
106 -83 -90 0
-122 -84 0
-122 106 0
122 84 -106 0
-186 85 0
-186 122 0
186 -85 -122 0
-220 77 0
-220 204 0
220 -77 -204 0
-236 -78 0
-236 220 0
236 78 -220 0
-300 79 0
-300 236 0
300 -79 -236 0
-334 71 0
-334 318 0
334 -71 -318 0
-350 -72 0
-350 334 0
350 72 -334 0
-414 73 0
-414 350 0
414 -73 -350 0
-448 65 0
-448 432 0
448 -65 -432 0
-464 -66 0
-464 448 0
464 66 -448 0
-528 67 0
-528 464 0
528 -67 -464 0
-562 59 0
-562 546 0
562 -59 -546 0
-578 -60 0
-578 562 0
578 60 -562 0
-642 61 0
-642 578 0
642 -61 -578 0
-696 -528 0
-696 -642 0
696 528 642 0
-750 -414 0
-750 696 0
750 414 -696 0
-804 -300 0
-804 750 0
804 300 -750 0
-858 -186 0
-858 804 0
858 186 -804 0
-992 42 0
-992 858 0
992 -42 -858 0
-993 -42 0
-993 -858 0
993 42 858 0
-994 -992 0
-994 -993 0
994 992 993 0
41 -3050 0
-41 3050 0
-105 -83 0
-105 97 0
105 83 -97 0
-121 -84 0
-121 105 0
121 84 -105 0
-185 85 0
-185 121 0
185 -85 -121 0
-219 -77 0
-219 211 0
219 77 -211 0
-235 -78 0
-235 219 0
235 78 -219 0
-299 79 0
-299 235 0
299 -79 -235 0
-333 -71 0
-333 325 0
333 71 -325 0
-349 -72 0
-349 333 0
349 72 -333 0
-413 73 0
-413 349 0
413 -73 -349 0
-447 -65 0
-447 439 0
447 65 -439 0
-463 -66 0
-463 447 0
463 66 -447 0
-527 67 0
-527 463 0
527 -67 -463 0
-561 -59 0
-561 553 0
561 59 -553 0
-577 -60 0
-577 561 0
577 60 -561 0
-641 61 0
-641 577 0
641 -61 -577 0
-695 -527 0
-695 -641 0
695 527 641 0
-749 -413 0
-749 695 0
749 413 -695 0
-803 -299 0
-803 749 0
803 299 -749 0
-857 -185 0
-857 803 0
857 185 -803 0
-989 41 0
-989 857 0
989 -41 -857 0
-990 -41 0
-990 -857 0
990 41 857 0
-991 -989 0
-991 -990 0
991 989 990 0
40 -3049 0
-40 3049 0
-104 -83 0
-104 96 0
104 83 -96 0
-120 -84 0
-120 104 0
120 84 -104 0
-184 85 0
-184 120 0
184 -85 -120 0
-218 -77 0
-218 210 0
218 77 -210 0
-234 -78 0
-234 218 0
234 78 -218 0
-298 79 0
-298 234 0
298 -79 -234 0
-332 -71 0
-332 324 0
332 71 -324 0
-348 -72 0
-348 332 0
348 72 -332 0
-412 73 0
-412 348 0
412 -73 -348 0
-446 -65 0
-446 438 0
446 65 -438 0
-462 -66 0
-462 446 0
462 66 -446 0
-526 67 0
-526 462 0
526 -67 -462 0
-560 -59 0
-560 552 0
560 59 -552 0
-576 -60 0
-576 560 0
576 60 -560 0
-640 61 0
-640 576 0
640 -61 -576 0
-694 -526 0
-694 -640 0
694 526 640 0
-748 -412 0
-748 694 0
748 412 -694 0
-802 -298 0
-802 748 0
802 298 -748 0
-856 -184 0
-856 802 0
856 184 -802 0
-986 40 0
-986 856 0
986 -40 -856 0
-987 -40 0
-987 -856 0
987 40 856 0
-988 -986 0
-988 -987 0
988 986 987 0
39 -3048 0
-39 3048 0
-119 -84 0
-119 103 0
119 84 -103 0
-183 85 0
-183 119 0
183 -85 -119 0
-233 -78 0
-233 217 0
233 78 -217 0
-297 79 0
-297 233 0
297 -79 -233 0
-347 -72 0
-347 331 0
347 72 -331 0
-411 73 0
-411 347 0
411 -73 -347 0
-461 -66 0
-461 445 0
461 66 -445 0
-525 67 0
-525 461 0
525 -67 -461 0
-575 -60 0
-575 559 0
575 60 -559 0
-639 61 0
-639 575 0
639 -61 -575 0
-693 -525 0
-693 -639 0
693 525 639 0
-747 -411 0
-747 693 0
747 411 -693 0
-801 -297 0
-801 747 0
801 297 -747 0
-855 -183 0
-855 801 0
855 183 -801 0
-983 39 0
-983 855 0
983 -39 -855 0
-984 -39 0
-984 -855 0
984 39 855 0
-985 -983 0
-985 -984 0
985 983 984 0
38 -3047 0
-38 3047 0
-118 -84 0
-118 102 0
118 84 -102 0
-182 85 0
-182 118 0
182 -85 -118 0
-232 -78 0
-232 216 0
232 78 -216 0
-296 79 0
-296 232 0
296 -79 -232 0
-346 -72 0
-346 330 0
346 72 -330 0
-410 73 0
-410 346 0
410 -73 -346 0
-460 -66 0
-460 444 0
460 66 -444 0
-524 67 0
-524 460 0
524 -67 -460 0
-574 -60 0
-574 558 0
574 60 -558 0
-638 61 0
-638 574 0
638 -61 -574 0
-692 -524 0
-692 -638 0
692 524 638 0
-746 -410 0
-746 692 0
746 410 -692 0
-800 -296 0
-800 746 0
800 296 -746 0
-854 -182 0
-854 800 0
854 182 -800 0
-980 38 0
-980 854 0
980 -38 -854 0
-981 -38 0
-981 -854 0
981 38 854 0
-982 -980 0
-982 -981 0
982 980 981 0
37 -3046 0
-37 3046 0
-117 -84 0
-117 101 0
117 84 -101 0
-181 85 0
-181 117 0
181 -85 -117 0
-231 -78 0
-231 215 0
231 78 -215 0
-295 79 0
-295 231 0
295 -79 -231 0
-345 -72 0
-345 329 0
345 72 -329 0
-409 73 0
-409 345 0
409 -73 -345 0
-459 -66 0
-459 443 0
459 66 -443 0
-523 67 0
-523 459 0
523 -67 -459 0
-573 -60 0
-573 557 0
573 60 -557 0
-637 61 0
-637 573 0
637 -61 -573 0
-691 -523 0
-691 -637 0
691 523 637 0
-745 -409 0
-745 691 0
745 409 -691 0
-799 -295 0
-799 745 0
799 295 -745 0
-853 -181 0
-853 799 0
853 181 -799 0
-977 37 0
-977 853 0
977 -37 -853 0
-978 -37 0
-978 -853 0
978 37 853 0
-979 -977 0
-979 -978 0
979 977 978 0
36 -3045 0
-36 3045 0
-116 -84 0
-116 100 0
116 84 -100 0
-180 85 0
-180 116 0
180 -85 -116 0
-230 -78 0
-230 214 0
230 78 -214 0
-294 79 0
-294 230 0
294 -79 -230 0
-344 -72 0
-344 328 0
344 72 -328 0
-408 73 0
-408 344 0
408 -73 -344 0
-458 -66 0
-458 442 0
458 66 -442 0
-522 67 0
-522 458 0
522 -67 -458 0
-572 -60 0
-572 556 0
572 60 -556 0
-636 61 0
-636 572 0
636 -61 -572 0
-690 -522 0
-690 -636 0
690 522 636 0
-744 -408 0
-744 690 0
744 408 -690 0
-798 -294 0
-798 744 0
798 294 -744 0
-852 -180 0
-852 798 0
852 180 -798 0
-974 36 0
-974 852 0
974 -36 -852 0
-975 -36 0
-975 -852 0
975 36 852 0
-976 -974 0
-976 -975 0
976 974 975 0
35 -3044 0
-35 3044 0
-115 -84 0
-115 99 0
115 84 -99 0
-179 85 0
-179 115 0
179 -85 -115 0
-229 -78 0
-229 213 0
229 78 -213 0
-293 79 0
-293 229 0
293 -79 -229 0
-343 -72 0
-343 327 0
343 72 -327 0
-407 73 0
-407 343 0
407 -73 -343 0
-457 -66 0
-457 441 0
457 66 -441 0
-521 67 0
-521 457 0
521 -67 -457 0
-571 -60 0
-571 555 0
571 60 -555 0
-635 61 0
-635 571 0
635 -61 -571 0
-689 -521 0
-689 -635 0
689 521 635 0
-743 -407 0
-743 689 0
743 407 -689 0
-797 -293 0
-797 743 0
797 293 -743 0
-851 -179 0
-851 797 0
851 179 -797 0
-971 35 0
-971 851 0
971 -35 -851 0
-972 -35 0
-972 -851 0
972 35 851 0
-973 -971 0
-973 -972 0
973 971 972 0
34 -3043 0
-34 3043 0
-114 -84 0
-114 98 0
114 84 -98 0
-178 85 0
-178 114 0
178 -85 -114 0
-228 -78 0
-228 212 0
228 78 -212 0
-292 79 0
-292 228 0
292 -79 -228 0
-342 -72 0
-342 326 0
342 72 -326 0
-406 73 0
-406 342 0
406 -73 -342 0
-456 -66 0
-456 440 0
456 66 -440 0
-520 67 0
-520 456 0
520 -67 -456 0
-570 -60 0
-570 554 0
570 60 -554 0
-634 61 0
-634 570 0
634 -61 -570 0
-688 -520 0
-688 -634 0
688 520 634 0
-742 -406 0
-742 688 0
742 406 -688 0
-796 -292 0
-796 742 0
796 292 -742 0
-850 -178 0
-850 796 0
850 178 -796 0
-968 34 0
-968 850 0
968 -34 -850 0
-969 -34 0
-969 -850 0
969 34 850 0
-970 -968 0
-970 -969 0
970 968 969 0
33 -3042 0
-33 3042 0
-145 84 0
-145 113 0
145 -84 -113 0
-177 -85 0
-177 145 0
177 85 -145 0
-259 78 0
-259 227 0
259 -78 -227 0
-291 -79 0
-291 259 0
291 79 -259 0
-373 72 0
-373 341 0
373 -72 -341 0
-405 -73 0
-405 373 0
405 73 -373 0
-487 66 0
-487 455 0
487 -66 -455 0
-519 -67 0
-519 487 0
519 67 -487 0
-601 60 0
-601 569 0
601 -60 -569 0
-633 -61 0
-633 601 0
633 61 -601 0
-687 -519 0
-687 -633 0
687 519 633 0
-741 -405 0
-741 687 0
741 405 -687 0
-795 -291 0
-795 741 0
795 291 -741 0
-849 -177 0
-849 795 0
849 177 -795 0
-965 33 0
-965 849 0
965 -33 -849 0
-966 -33 0
-966 -849 0
966 33 849 0
-967 -965 0
-967 -966 0
967 965 966 0
32 -3041 0
-32 3041 0
-144 84 0
-144 112 0
144 -84 -112 0
-176 -85 0
-176 144 0
176 85 -144 0
-258 78 0
-258 226 0
258 -78 -226 0
-290 -79 0
-290 258 0
290 79 -258 0
-372 72 0
-372 340 0
372 -72 -340 0
-404 -73 0
-404 372 0
404 73 -372 0
-486 66 0
-486 454 0
486 -66 -454 0
-518 -67 0
-518 486 0
518 67 -486 0
-600 60 0
-600 568 0
600 -60 -568 0
-632 -61 0
-632 600 0
632 61 -600 0
-686 -518 0
-686 -632 0
686 518 632 0
-740 -404 0
-740 686 0
740 404 -686 0
-794 -290 0
-794 740 0
794 290 -740 0
-848 -176 0
-848 794 0
848 176 -794 0
-962 32 0
-962 848 0
962 -32 -848 0
-963 -32 0
-963 -848 0
963 32 848 0
-964 -962 0
-964 -963 0
964 962 963 0
31 -3040 0
-31 3040 0
-143 84 0
-143 111 0
143 -84 -111 0
-175 -85 0
-175 143 0
175 85 -143 0
-257 78 0
-257 225 0
257 -78 -225 0
-289 -79 0
-289 257 0
289 79 -257 0
-371 72 0
-371 339 0
371 -72 -339 0
-403 -73 0
-403 371 0
403 73 -371 0
-485 66 0
-485 453 0
485 -66 -453 0
-517 -67 0
-517 485 0
517 67 -485 0
-599 60 0
-599 567 0
599 -60 -567 0
-631 -61 0
-631 599 0
631 61 -599 0
-685 -517 0
-685 -631 0
685 517 631 0
-739 -403 0
-739 685 0
739 403 -685 0
-793 -289 0
-793 739 0
793 289 -739 0
-847 -175 0
-847 793 0
847 175 -793 0
-959 31 0
-959 847 0
959 -31 -847 0
-960 -31 0
-960 -847 0
960 31 847 0
-961 -959 0
-961 -960 0
961 959 960 0
30 -3039 0
-30 3039 0
-142 84 0
-142 110 0
142 -84 -110 0
-174 -85 0
-174 142 0
174 85 -142 0
-256 78 0
-256 224 0
256 -78 -224 0
-288 -79 0
-288 256 0
288 79 -256 0
-370 72 0
-370 338 0
370 -72 -338 0
-402 -73 0
-402 370 0
402 73 -370 0
-484 66 0
-484 452 0
484 -66 -452 0
-516 -67 0
-516 484 0
516 67 -484 0
-598 60 0
-598 566 0
598 -60 -566 0
-630 -61 0
-630 598 0
630 61 -598 0
-684 -516 0
-684 -630 0
684 516 630 0
-738 -402 0
-738 684 0
738 402 -684 0
-792 -288 0
-792 738 0
792 288 -738 0
-846 -174 0
-846 792 0
846 174 -792 0
-956 30 0
-956 846 0
956 -30 -846 0
-957 -30 0
-957 -846 0
957 30 846 0
-958 -956 0
-958 -957 0
958 956 957 0
29 -3038 0
-29 3038 0
-141 84 0
-141 109 0
141 -84 -109 0
-173 -85 0
-173 141 0
173 85 -141 0
-255 78 0
-255 223 0
255 -78 -223 0
-287 -79 0
-287 255 0
287 79 -255 0
-369 72 0
-369 337 0
369 -72 -337 0
-401 -73 0
-401 369 0
401 73 -369 0
-483 66 0
-483 451 0
483 -66 -451 0
-515 -67 0
-515 483 0
515 67 -483 0
-597 60 0
-597 565 0
597 -60 -565 0
-629 -61 0
-629 597 0
629 61 -597 0
-683 -515 0
-683 -629 0
683 515 629 0
-737 -401 0
-737 683 0
737 401 -683 0
-791 -287 0
-791 737 0
791 287 -737 0
-845 -173 0
-845 791 0
845 173 -791 0
-953 29 0
-953 845 0
953 -29 -845 0
-954 -29 0
-954 -845 0
954 29 845 0
-955 -953 0
-955 -954 0
955 953 954 0
28 -3037 0
-28 3037 0
-140 84 0
-140 108 0
140 -84 -108 0
-172 -85 0
-172 140 0
172 85 -140 0
-254 78 0
-254 222 0
254 -78 -222 0
-286 -79 0
-286 254 0
286 79 -254 0
-368 72 0
-368 336 0
368 -72 -336 0
-400 -73 0
-400 368 0
400 73 -368 0
-482 66 0
-482 450 0
482 -66 -450 0
-514 -67 0
-514 482 0
514 67 -482 0
-596 60 0
-596 564 0
596 -60 -564 0
-628 -61 0
-628 596 0
628 61 -596 0
-682 -514 0
-682 -628 0
682 514 628 0
-736 -400 0
-736 682 0
736 400 -682 0
-790 -286 0
-790 736 0
790 286 -736 0
-844 -172 0
-844 790 0
844 172 -790 0
-950 28 0
-950 844 0
950 -28 -844 0
-951 -28 0
-951 -844 0
951 28 844 0
-952 -950 0
-952 -951 0
952 950 951 0
27 -3036 0
-27 3036 0
-139 84 0
-139 107 0
139 -84 -107 0
-171 -85 0
-171 139 0
171 85 -139 0
-253 78 0
-253 221 0
253 -78 -221 0
-285 -79 0
-285 253 0
285 79 -253 0
-367 72 0
-367 335 0
367 -72 -335 0
-399 -73 0
-399 367 0
399 73 -367 0
-481 66 0
-481 449 0
481 -66 -449 0
-513 -67 0
-513 481 0
513 67 -481 0
-595 60 0
-595 563 0
595 -60 -563 0
-627 -61 0
-627 595 0
627 61 -595 0
-681 -513 0
-681 -627 0
681 513 627 0
-735 -399 0
-735 681 0
735 399 -681 0
-789 -285 0
-789 735 0
789 285 -735 0
-843 -171 0
-843 789 0
843 171 -789 0
-947 27 0
-947 843 0
947 -27 -843 0
-948 -27 0
-948 -843 0
948 27 843 0
-949 -947 0
-949 -948 0
949 947 948 0
26 -3035 0
-26 3035 0
-138 84 0
-138 106 0
138 -84 -106 0
-170 -85 0
-170 138 0
170 85 -138 0
-252 78 0
-252 220 0
252 -78 -220 0
-284 -79 0
-284 252 0
284 79 -252 0
-366 72 0
-366 334 0
366 -72 -334 0
-398 -73 0
-398 366 0
398 73 -366 0
-480 66 0
-480 448 0
480 -66 -448 0
-512 -67 0
-512 480 0
512 67 -480 0
-594 60 0
-594 562 0
594 -60 -562 0
-626 -61 0
-626 594 0
626 61 -594 0
-680 -512 0
-680 -626 0
680 512 626 0
-734 -398 0
-734 680 0
734 398 -680 0
-788 -284 0
-788 734 0
788 284 -734 0
-842 -170 0
-842 788 0
842 170 -788 0
-944 26 0
-944 842 0
944 -26 -842 0
-945 -26 0
-945 -842 0
945 26 842 0
-946 -944 0
-946 -945 0
946 944 945 0
25 -3034 0
-25 3034 0
-137 84 0
-137 105 0
137 -84 -105 0
-169 -85 0
-169 137 0
169 85 -137 0
-251 78 0
-251 219 0
251 -78 -219 0
-283 -79 0
-283 251 0
283 79 -251 0
-365 72 0
-365 333 0
365 -72 -333 0
-397 -73 0
-397 365 0
397 73 -365 0
-479 66 0
-479 447 0
479 -66 -447 0
-511 -67 0
-511 479 0
511 67 -479 0
-593 60 0
-593 561 0
593 -60 -561 0
-625 -61 0
-625 593 0
625 61 -593 0
-679 -511 0
-679 -625 0
679 511 625 0
-733 -397 0
-733 679 0
733 397 -679 0
-787 -283 0
-787 733 0
787 283 -733 0
-841 -169 0
-841 787 0
841 169 -787 0
-941 25 0
-941 841 0
941 -25 -841 0
-942 -25 0
-942 -841 0
942 25 841 0
-943 -941 0
-943 -942 0
943 941 942 0
24 -3033 0
-24 3033 0
-136 84 0
-136 104 0
136 -84 -104 0
-168 -85 0
-168 136 0
168 85 -136 0
-250 78 0
-250 218 0
250 -78 -218 0
-282 -79 0
-282 250 0
282 79 -250 0
-364 72 0
-364 332 0
364 -72 -332 0
-396 -73 0
-396 364 0
396 73 -364 0
-478 66 0
-478 446 0
478 -66 -446 0
-510 -67 0
-510 478 0
510 67 -478 0
-592 60 0
-592 560 0
592 -60 -560 0
-624 -61 0
-624 592 0
624 61 -592 0
-678 -510 0
-678 -624 0
678 510 624 0
-732 -396 0
-732 678 0
732 396 -678 0
-786 -282 0
-786 732 0
786 282 -732 0
-840 -168 0
-840 786 0
840 168 -786 0
-938 24 0
-938 840 0
938 -24 -840 0
-939 -24 0
-939 -840 0
939 24 840 0
-940 -938 0
-940 -939 0
940 938 939 0
23 -3032 0
-23 3032 0
-167 -85 0
-167 135 0
167 85 -135 0
-281 -79 0
-281 249 0
281 79 -249 0
-395 -73 0
-395 363 0
395 73 -363 0
-509 -67 0
-509 477 0
509 67 -477 0
-623 -61 0
-623 591 0
623 61 -591 0
-677 -509 0
-677 -623 0
677 509 623 0
-731 -395 0
-731 677 0
731 395 -677 0
-785 -281 0
-785 731 0
785 281 -731 0
-839 -167 0
-839 785 0
839 167 -785 0
-935 23 0
-935 839 0
935 -23 -839 0
-936 -23 0
-936 -839 0
936 23 839 0
-937 -935 0
-937 -936 0
937 935 936 0
22 -3031 0
-22 3031 0
-166 -85 0
-166 134 0
166 85 -134 0
-280 -79 0
-280 248 0
280 79 -248 0
-394 -73 0
-394 362 0
394 73 -362 0
-508 -67 0
-508 476 0
508 67 -476 0
-622 -61 0
-622 590 0
622 61 -590 0
-676 -508 0
-676 -622 0
676 508 622 0
-730 -394 0
-730 676 0
730 394 -676 0
-784 -280 0
-784 730 0
784 280 -730 0
-838 -166 0
-838 784 0
838 166 -784 0
-932 22 0
-932 838 0
932 -22 -838 0
-933 -22 0
-933 -838 0
933 22 838 0
-934 -932 0
-934 -933 0
934 932 933 0
21 -3030 0
-21 3030 0
-165 -85 0
-165 133 0
165 85 -133 0
-279 -79 0
-279 247 0
279 79 -247 0
-393 -73 0
-393 361 0
393 73 -361 0
-507 -67 0
-507 475 0
507 67 -475 0
-621 -61 0
-621 589 0
621 61 -589 0
-675 -507 0
-675 -621 0
675 507 621 0
-729 -393 0
-729 675 0
729 393 -675 0
-783 -279 0
-783 729 0
783 279 -729 0
-837 -165 0
-837 783 0
837 165 -783 0
-929 21 0
-929 837 0
929 -21 -837 0
-930 -21 0
-930 -837 0
930 21 837 0
-931 -929 0
-931 -930 0
931 929 930 0
20 -3029 0
-20 3029 0
-164 -85 0
-164 132 0
164 85 -132 0
-278 -79 0
-278 246 0
278 79 -246 0
-392 -73 0
-392 360 0
392 73 -360 0
-506 -67 0
-506 474 0
506 67 -474 0
-620 -61 0
-620 588 0
620 61 -588 0
-674 -506 0
-674 -620 0
674 506 620 0
-728 -392 0
-728 674 0
728 392 -674 0
-782 -278 0
-782 728 0
782 278 -728 0
-836 -164 0
-836 782 0
836 164 -782 0
-926 20 0
-926 836 0
926 -20 -836 0
-927 -20 0
-927 -836 0
927 20 836 0
-928 -926 0
-928 -927 0
928 926 927 0
19 -3028 0
-19 3028 0
-163 -85 0
-163 131 0
163 85 -131 0
-277 -79 0
-277 245 0
277 79 -245 0
-391 -73 0
-391 359 0
391 73 -359 0
-505 -67 0
-505 473 0
505 67 -473 0
-619 -61 0
-619 587 0
619 61 -587 0
-673 -505 0
-673 -619 0
673 505 619 0
-727 -391 0
-727 673 0
727 391 -673 0
-781 -277 0
-781 727 0
781 277 -727 0
-835 -163 0
-835 781 0
835 163 -781 0
-923 19 0
-923 835 0
923 -19 -835 0
-924 -19 0
-924 -835 0
924 19 835 0
-925 -923 0
-925 -924 0
925 923 924 0
18 -3027 0
-18 3027 0
-162 -85 0
-162 130 0
162 85 -130 0
-276 -79 0
-276 244 0
276 79 -244 0
-390 -73 0
-390 358 0
390 73 -358 0
-504 -67 0
-504 472 0
504 67 -472 0
-618 -61 0
-618 586 0
618 61 -586 0
-672 -504 0
-672 -618 0
672 504 618 0
-726 -390 0
-726 672 0
726 390 -672 0
-780 -276 0
-780 726 0
780 276 -726 0
-834 -162 0
-834 780 0
834 162 -780 0
-920 18 0
-920 834 0
920 -18 -834 0
-921 -18 0
-921 -834 0
921 18 834 0
-922 -920 0
-922 -921 0
922 920 921 0
17 -3026 0
-17 3026 0
-161 -85 0
-161 129 0
161 85 -129 0
-275 -79 0
-275 243 0
275 79 -243 0
-389 -73 0
-389 357 0
389 73 -357 0
-503 -67 0
-503 471 0
503 67 -471 0
-617 -61 0
-617 585 0
617 61 -585 0
-671 -503 0
-671 -617 0
671 503 617 0
-725 -389 0
-725 671 0
725 389 -671 0
-779 -275 0
-779 725 0
779 275 -725 0
-833 -161 0
-833 779 0
833 161 -779 0
-917 17 0
-917 833 0
917 -17 -833 0
-918 -17 0
-918 -833 0
918 17 833 0
-919 -917 0
-919 -918 0
919 917 918 0
16 -3025 0
-16 3025 0
-160 -85 0
-160 128 0
160 85 -128 0
-274 -79 0
-274 242 0
274 79 -242 0
-388 -73 0
-388 356 0
388 73 -356 0
-502 -67 0
-502 470 0
502 67 -470 0
-616 -61 0
-616 584 0
616 61 -584 0
-670 -502 0
-670 -616 0
670 502 616 0
-724 -388 0
-724 670 0
724 388 -670 0
-778 -274 0
-778 724 0
778 274 -724 0
-832 -160 0
-832 778 0
832 160 -778 0
-914 16 0
-914 832 0
914 -16 -832 0
-915 -16 0
-915 -832 0
915 16 832 0
-916 -914 0
-916 -915 0
916 914 915 0
15 -3024 0
-15 3024 0
-159 -85 0
-159 127 0
159 85 -127 0
-273 -79 0
-273 241 0
273 79 -241 0
-387 -73 0
-387 355 0
387 73 -355 0
-501 -67 0
-501 469 0
501 67 -469 0
-615 -61 0
-615 583 0
615 61 -583 0
-669 -501 0
-669 -615 0
669 501 615 0
-723 -387 0
-723 669 0
723 387 -669 0
-777 -273 0
-777 723 0
777 273 -723 0
-831 -159 0
-831 777 0
831 159 -777 0
-911 15 0
-911 831 0
911 -15 -831 0
-912 -15 0
-912 -831 0
912 15 831 0
-913 -911 0
-913 -912 0
913 911 912 0
14 -3023 0
-14 3023 0
-158 -85 0
-158 126 0
158 85 -126 0
-272 -79 0
-272 240 0
272 79 -240 0
-386 -73 0
-386 354 0
386 73 -354 0
-500 -67 0
-500 468 0
500 67 -468 0
-614 -61 0
-614 582 0
614 61 -582 0
-668 -500 0
-668 -614 0
668 500 614 0
-722 -386 0
-722 668 0
722 386 -668 0
-776 -272 0
-776 722 0
776 272 -722 0
-830 -158 0
-830 776 0
830 158 -776 0
-908 14 0
-908 830 0
908 -14 -830 0
-909 -14 0
-909 -830 0
909 14 830 0
-910 -908 0
-910 -909 0
910 908 909 0
13 -3022 0
-13 3022 0
-157 -85 0
-157 125 0
157 85 -125 0
-271 -79 0
-271 239 0
271 79 -239 0
-385 -73 0
-385 353 0
385 73 -353 0
-499 -67 0
-499 467 0
499 67 -467 0
-613 -61 0
-613 581 0
613 61 -581 0
-667 -499 0
-667 -613 0
667 499 613 0
-721 -385 0
-721 667 0
721 385 -667 0
-775 -271 0
-775 721 0
775 271 -721 0
-829 -157 0
-829 775 0
829 157 -775 0
-905 13 0
-905 829 0
905 -13 -829 0
-906 -13 0
-906 -829 0
906 13 829 0
-907 -905 0
-907 -906 0
907 905 906 0
12 -3021 0
-12 3021 0
-156 -85 0
-156 124 0
156 85 -124 0
-270 -79 0
-270 238 0
270 79 -238 0
-384 -73 0
-384 352 0
384 73 -352 0
-498 -67 0
-498 466 0
498 67 -466 0
-612 -61 0
-612 580 0
612 61 -580 0
-666 -498 0
-666 -612 0
666 498 612 0
-720 -384 0
-720 666 0
720 384 -666 0
-774 -270 0
-774 720 0
774 270 -720 0
-828 -156 0
-828 774 0
828 156 -774 0
-902 12 0
-902 828 0
902 -12 -828 0
-903 -12 0
-903 -828 0
903 12 828 0
-904 -902 0
-904 -903 0
904 902 903 0
11 -3020 0
-11 3020 0
-155 -85 0
-155 123 0
155 85 -123 0
-269 -79 0
-269 237 0
269 79 -237 0
-383 -73 0
-383 351 0
383 73 -351 0
-497 -67 0
-497 465 0
497 67 -465 0
-611 -61 0
-611 579 0
611 61 -579 0
-665 -497 0
-665 -611 0
665 497 611 0
-719 -383 0
-719 665 0
719 383 -665 0
-773 -269 0
-773 719 0
773 269 -719 0
-827 -155 0
-827 773 0
827 155 -773 0
-899 11 0
-899 827 0
899 -11 -827 0
-900 -11 0
-900 -827 0
900 11 827 0
-901 -899 0
-901 -900 0
901 899 900 0
10 -3019 0
-10 3019 0
-154 -85 0
-154 122 0
154 85 -122 0
-268 -79 0
-268 236 0
268 79 -236 0
-382 -73 0
-382 350 0
382 73 -350 0
-496 -67 0
-496 464 0
496 67 -464 0
-610 -61 0
-610 578 0
610 61 -578 0
-664 -496 0
-664 -610 0
664 496 610 0
-718 -382 0
-718 664 0
718 382 -664 0
-772 -268 0
-772 718 0
772 268 -718 0
-826 -154 0
-826 772 0
826 154 -772 0
-896 10 0
-896 826 0
896 -10 -826 0
-897 -10 0
-897 -826 0
897 10 826 0
-898 -896 0
-898 -897 0
898 896 897 0
9 -3018 0
-9 3018 0
-153 -85 0
-153 121 0
153 85 -121 0
-267 -79 0
-267 235 0
267 79 -235 0
-381 -73 0
-381 349 0
381 73 -349 0
-495 -67 0
-495 463 0
495 67 -463 0
-609 -61 0
-609 577 0
609 61 -577 0
-663 -495 0
-663 -609 0
663 495 609 0
-717 -381 0
-717 663 0
717 381 -663 0
-771 -267 0
-771 717 0
771 267 -717 0
-825 -153 0
-825 771 0
825 153 -771 0
-893 9 0
-893 825 0
893 -9 -825 0
-894 -9 0
-894 -825 0
894 9 825 0
-895 -893 0
-895 -894 0
895 893 894 0
8 -3017 0
-8 3017 0
-152 -85 0
-152 120 0
152 85 -120 0
-266 -79 0
-266 234 0
266 79 -234 0
-380 -73 0
-380 348 0
380 73 -348 0
-494 -67 0
-494 462 0
494 67 -462 0
-608 -61 0
-608 576 0
608 61 -576 0
-662 -494 0
-662 -608 0
662 494 608 0
-716 -380 0
-716 662 0
716 380 -662 0
-770 -266 0
-770 716 0
770 266 -716 0
-824 -152 0
-824 770 0
824 152 -770 0
-890 8 0
-890 824 0
890 -8 -824 0
-891 -8 0
-891 -824 0
891 8 824 0
-892 -890 0
-892 -891 0
892 890 891 0
7 -3016 0
-7 3016 0
-151 -85 0
-151 119 0
151 85 -119 0
-265 -79 0
-265 233 0
265 79 -233 0
-379 -73 0
-379 347 0
379 73 -347 0
-493 -67 0
-493 461 0
493 67 -461 0
-607 -61 0
-607 575 0
607 61 -575 0
-661 -493 0
-661 -607 0
661 493 607 0
-715 -379 0
-715 661 0
715 379 -661 0
-769 -265 0
-769 715 0
769 265 -715 0
-823 -151 0
-823 769 0
823 151 -769 0
-887 7 0
-887 823 0
887 -7 -823 0
-888 -7 0
-888 -823 0
888 7 823 0
-889 -887 0
-889 -888 0
889 887 888 0
6 -3015 0
-6 3015 0
-150 -85 0
-150 118 0
150 85 -118 0
-264 -79 0
-264 232 0
264 79 -232 0
-378 -73 0
-378 346 0
378 73 -346 0
-492 -67 0
-492 460 0
492 67 -460 0
-606 -61 0
-606 574 0
606 61 -574 0
-660 -492 0
-660 -606 0
660 492 606 0
-714 -378 0
-714 660 0
714 378 -660 0
-768 -264 0
-768 714 0
768 264 -714 0
-822 -150 0
-822 768 0
822 150 -768 0
-884 6 0
-884 822 0
884 -6 -822 0
-885 -6 0
-885 -822 0
885 6 822 0
-886 -884 0
-886 -885 0
886 884 885 0
5 -3014 0
-5 3014 0
-149 -85 0
-149 117 0
149 85 -117 0
-263 -79 0
-263 231 0
263 79 -231 0
-377 -73 0
-377 345 0
377 73 -345 0
-491 -67 0
-491 459 0
491 67 -459 0
-605 -61 0
-605 573 0
605 61 -573 0
-659 -491 0
-659 -605 0
659 491 605 0
-713 -377 0
-713 659 0
713 377 -659 0
-767 -263 0
-767 713 0
767 263 -713 0
-821 -149 0
-821 767 0
821 149 -767 0
-881 5 0
-881 821 0
881 -5 -821 0
-882 -5 0
-882 -821 0
882 5 821 0
-883 -881 0
-883 -882 0
883 881 882 0
4 -3013 0
-4 3013 0
-148 -85 0
-148 116 0
148 85 -116 0
-262 -79 0
-262 230 0
262 79 -230 0
-376 -73 0
-376 344 0
376 73 -344 0
-490 -67 0
-490 458 0
490 67 -458 0
-604 -61 0
-604 572 0
604 61 -572 0
-658 -490 0
-658 -604 0
658 490 604 0
-712 -376 0
-712 658 0
712 376 -658 0
-766 -262 0
-766 712 0
766 262 -712 0
-820 -148 0
-820 766 0
820 148 -766 0
-878 4 0
-878 820 0
878 -4 -820 0
-879 -4 0
-879 -820 0
879 4 820 0
-880 -878 0
-880 -879 0
880 878 879 0
2 -3011 0
-2 3011 0
-146 -85 0
-146 114 0
146 85 -114 0
-260 -79 0
-260 228 0
260 79 -228 0
-374 -73 0
-374 342 0
374 73 -342 0
-488 -67 0
-488 456 0
488 67 -456 0
-602 -61 0
-602 570 0
602 61 -570 0
-656 -488 0
-656 -602 0
656 488 602 0
-710 -374 0
-710 656 0
710 374 -656 0
-764 -260 0
-764 710 0
764 260 -710 0
-818 -146 0
-818 764 0
818 146 -764 0
-872 2 0
-872 818 0
872 -2 -818 0
-873 -2 0
-873 -818 0
873 2 818 0
-874 -872 0
-874 -873 0
874 872 873 0
3 -3012 0
-3 3012 0
-147 -85 0
-147 115 0
147 85 -115 0
-261 -79 0
-261 229 0
261 79 -229 0
-375 -73 0
-375 343 0
375 73 -343 0
-489 -67 0
-489 457 0
489 67 -457 0
-603 -61 0
-603 571 0
603 61 -571 0
-657 -489 0
-657 -603 0
657 489 603 0
-711 -375 0
-711 657 0
711 375 -657 0
-765 -261 0
-765 711 0
765 261 -711 0
-819 -147 0
-819 765 0
819 147 -765 0
-875 3 0
-875 819 0
875 -3 -819 0
-876 -3 0
-876 -819 0
876 3 819 0
-877 -875 0
-877 -876 0
877 875 876 0
-1034 874 0
-1034 877 0
1034 -874 -877 0
-1035 880 0
-1035 1034 0
1035 -880 -1034 0
-1036 883 0
-1036 1035 0
1036 -883 -1035 0
-1037 886 0
-1037 1036 0
1037 -886 -1036 0
-1038 889 0
-1038 1037 0
1038 -889 -1037 0
-1039 892 0
-1039 1038 0
1039 -892 -1038 0
-1040 895 0
-1040 1039 0
1040 -895 -1039 0
-1041 898 0
-1041 1040 0
1041 -898 -1040 0
-1042 901 0
-1042 1041 0
1042 -901 -1041 0
-1043 904 0
-1043 1042 0
1043 -904 -1042 0
-1044 907 0
-1044 1043 0
1044 -907 -1043 0
-1045 910 0
-1045 1044 0
1045 -910 -1044 0
-1046 913 0
-1046 1045 0
1046 -913 -1045 0
-1047 916 0
-1047 1046 0
1047 -916 -1046 0
-1048 919 0
-1048 1047 0
1048 -919 -1047 0
-1049 922 0
-1049 1048 0
1049 -922 -1048 0
-1050 925 0
-1050 1049 0
1050 -925 -1049 0
-1051 928 0
-1051 1050 0
1051 -928 -1050 0
-1052 931 0
-1052 1051 0
1052 -931 -1051 0
-1053 934 0
-1053 1052 0
1053 -934 -1052 0
-1054 937 0
-1054 1053 0
1054 -937 -1053 0
-1055 940 0
-1055 1054 0
1055 -940 -1054 0
-1056 943 0
-1056 1055 0
1056 -943 -1055 0
-1057 946 0
-1057 1056 0
1057 -946 -1056 0
-1058 949 0
-1058 1057 0
1058 -949 -1057 0
-1059 952 0
-1059 1058 0
1059 -952 -1058 0
-1060 955 0
-1060 1059 0
1060 -955 -1059 0
-1061 958 0
-1061 1060 0
1061 -958 -1060 0
-1062 961 0
-1062 1061 0
1062 -961 -1061 0
-1063 964 0
-1063 1062 0
1063 -964 -1062 0
-1064 967 0
-1064 1063 0
1064 -967 -1063 0
-1065 970 0
-1065 1064 0
1065 -970 -1064 0
-1066 973 0
-1066 1065 0
1066 -973 -1065 0
-1067 976 0
-1067 1066 0
1067 -976 -1066 0
-1068 979 0
-1068 1067 0
1068 -979 -1067 0
-1069 982 0
-1069 1068 0
1069 -982 -1068 0
-1070 985 0
-1070 1069 0
1070 -985 -1069 0
-1071 988 0
-1071 1070 0
1071 -988 -1070 0
-1072 991 0
-1072 1071 0
1072 -991 -1071 0
-1073 994 0
-1073 1072 0
1073 -994 -1072 0
-1074 997 0
-1074 1073 0
1074 -997 -1073 0
-1075 1000 0
-1075 1074 0
1075 -1000 -1074 0
-1076 1003 0
-1076 1075 0
1076 -1003 -1075 0
-1077 1006 0
-1077 1076 0
1077 -1006 -1076 0
-1078 1009 0
-1078 1077 0
1078 -1009 -1077 0
-1079 1012 0
-1079 1078 0
1079 -1012 -1078 0
-1080 1015 0
-1080 1079 0
1080 -1015 -1079 0
-1081 1018 0
-1081 1080 0
1081 -1018 -1080 0
-1082 1021 0
-1082 1081 0
1082 -1021 -1081 0
-1083 1024 0
-1083 1082 0
1083 -1024 -1082 0
-1084 1027 0
-1084 1083 0
1084 -1027 -1083 0
-1085 1030 0
-1085 1084 0
1085 -1030 -1084 0
-1086 1033 0
-1086 1085 0
1086 -1033 -1085 0
-1087 51 0
-1087 53 0
1087 -51 -53 0
-1088 -51 0
-1088 -53 0
1088 51 53 0
-1089 -1087 0
-1089 -1088 0
1089 1087 1088 0
-1099 55 0
-1099 1089 0
1099 -55 -1089 0
-1100 -55 0
-1100 -1089 0
1100 55 1089 0
-1101 -1099 0
-1101 -1100 0
1101 1099 1100 0
-1093 19 0
-1093 25 0
1093 -19 -25 0
-1094 -19 0
-1094 -25 0
1094 19 25 0
-1095 -1093 0
-1095 -1094 0
1095 1093 1094 0
-1102 10 0
-1102 1095 0
1102 -10 -1095 0
-1103 -10 0
-1103 -1095 0
1103 10 1095 0
-1104 -1102 0
-1104 -1103 0
1104 1102 1103 0
-1105 1101 0
-1105 1104 0
1105 -1101 -1104 0
-1106 -1101 0
-1106 -1104 0
1106 1101 1104 0
-1107 -1105 0
-1107 -1106 0
1107 1105 1106 0
-1108 1086 0
-1108 -1107 0
1108 -1086 1107 0
-1109 50 0
-1109 52 0
1109 -50 -52 0
-1110 -50 0
-1110 -52 0
1110 50 52 0
-1111 -1109 0
-1111 -1110 0
1111 1109 1110 0
-1121 54 0
-1121 1111 0
1121 -54 -1111 0
-1122 -54 0
-1122 -1111 0
1122 54 1111 0
-1123 -1121 0
-1123 -1122 0
1123 1121 1122 0
-1115 18 0
-1115 24 0
1115 -18 -24 0
-1116 -18 0
-1116 -24 0
1116 18 24 0
-1117 -1115 0
-1117 -1116 0
1117 1115 1116 0
-1124 9 0
-1124 1117 0
1124 -9 -1117 0
-1125 -9 0
-1125 -1117 0
1125 9 1117 0
-1126 -1124 0
-1126 -1125 0
1126 1124 1125 0
-1127 1123 0
-1127 1126 0
1127 -1123 -1126 0
-1128 -1123 0
-1128 -1126 0
1128 1123 1126 0
-1129 -1127 0
-1129 -1128 0
1129 1127 1128 0
-1130 1108 0
-1130 -1129 0
1130 -1108 1129 0
-1140 49 0
-1140 1089 0
1140 -49 -1089 0
-1141 -49 0
-1141 -1089 0
1141 49 1089 0
-1142 -1140 0
-1142 -1141 0
1142 1140 1141 0
-1134 8 0
-1134 17 0
1134 -8 -17 0
-1135 -8 0
-1135 -17 0
1135 8 17 0
-1136 -1134 0
-1136 -1135 0
1136 1134 1135 0
-1146 23 0
-1146 1136 0
1146 -23 -1136 0
-1147 -23 0
-1147 -1136 0
1147 23 1136 0
-1148 -1146 0
-1148 -1147 0
1148 1146 1147 0
-1149 1142 0
-1149 1148 0
1149 -1142 -1148 0
-1150 -1142 0
-1150 -1148 0
1150 1142 1148 0
-1151 -1149 0
-1151 -1150 0
1151 1149 1150 0
-1152 1130 0
-1152 -1151 0
1152 -1130 1151 0
-1162 48 0
-1162 1111 0
1162 -48 -1111 0
-1163 -48 0
-1163 -1111 0
1163 48 1111 0
-1164 -1162 0
-1164 -1163 0
1164 1162 1163 0
-1156 7 0
-1156 16 0
1156 -7 -16 0
-1157 -7 0
-1157 -16 0
1157 7 16 0
-1158 -1156 0
-1158 -1157 0
1158 1156 1157 0
-1168 22 0
-1168 1158 0
1168 -22 -1158 0
-1169 -22 0
-1169 -1158 0
1169 22 1158 0
-1170 -1168 0
-1170 -1169 0
1170 1168 1169 0
-1171 1164 0
-1171 1170 0
1171 -1164 -1170 0
-1172 -1164 0
-1172 -1170 0
1172 1164 1170 0
-1173 -1171 0
-1173 -1172 0
1173 1171 1172 0
-1174 1152 0
-1174 -1173 0
1174 -1152 1173 0
-1175 47 0
-1175 49 0
1175 -47 -49 0
-1176 -47 0
-1176 -49 0
1176 47 49 0
-1177 -1175 0
-1177 -1176 0
1177 1175 1176 0
-1187 51 0
-1187 1177 0
1187 -51 -1177 0
-1188 -51 0
-1188 -1177 0
1188 51 1177 0
-1189 -1187 0
-1189 -1188 0
1189 1187 1188 0
-1178 6 0
-1178 15 0
1178 -6 -15 0
-1179 -6 0
-1179 -15 0
1179 6 15 0
-1180 -1178 0
-1180 -1179 0
1180 1178 1179 0
-1190 21 0
-1190 1180 0
1190 -21 -1180 0
-1191 -21 0
-1191 -1180 0
1191 21 1180 0
-1192 -1190 0
-1192 -1191 0
1192 1190 1191 0
-1193 1189 0
-1193 1192 0
1193 -1189 -1192 0
-1194 -1189 0
-1194 -1192 0
1194 1189 1192 0
-1195 -1193 0
-1195 -1194 0
1195 1193 1194 0
-1196 1174 0
-1196 -1195 0
1196 -1174 1195 0
-1197 5 0
-1197 14 0
1197 -5 -14 0
-1198 -5 0
-1198 -14 0
1198 5 14 0
-1199 -1197 0
-1199 -1198 0
1199 1197 1198 0
-1209 20 0
-1209 1199 0
1209 -20 -1199 0
-1210 -20 0
-1210 -1199 0
1210 20 1199 0
-1211 -1209 0
-1211 -1210 0
1211 1209 1210 0
-1206 50 0
-1206 55 0
1206 -50 -55 0
-1207 -50 0
-1207 -55 0
1207 50 55 0
-1208 -1206 0
-1208 -1207 0
1208 1206 1207 0
-1212 48 0
-1212 1208 0
1212 -48 -1208 0
-1213 -48 0
-1213 -1208 0
1213 48 1208 0
-1214 -1212 0
-1214 -1213 0
1214 1212 1213 0
-1215 1211 0
-1215 1214 0
1215 -1211 -1214 0
-1216 -1211 0
-1216 -1214 0
1216 1211 1214 0
-1217 -1215 0
-1217 -1216 0
1217 1215 1216 0
-1218 1196 0
-1218 -1217 0
1218 -1196 1217 0
-1222 54 0
-1222 1177 0
1222 -54 -1177 0
-1223 -54 0
-1223 -1177 0
1223 54 1177 0
-1224 -1222 0
-1224 -1223 0
1224 1222 1223 0
-1219 4 0
-1219 13 0
1219 -4 -13 0
-1220 -4 0
-1220 -13 0
1220 4 13 0
-1221 -1219 0
-1221 -1220 0
1221 1219 1220 0
-1228 28 0
-1228 1221 0
1228 -28 -1221 0
-1229 -28 0
-1229 -1221 0
1229 28 1221 0
-1230 -1228 0
-1230 -1229 0
1230 1228 1229 0
-1234 1224 0
-1234 1230 0
1234 -1224 -1230 0
-1235 -1224 0
-1235 -1230 0
1235 1224 1230 0
-1236 -1234 0
-1236 -1235 0
1236 1234 1235 0
-1237 1218 0
-1237 -1236 0
1237 -1218 1236 0
-1090 53 0
-1090 55 0
1090 -53 -55 0
-1091 -53 0
-1091 -55 0
1091 53 55 0
-1092 -1090 0
-1092 -1091 0
1092 1090 1091 0
-1244 48 0
-1244 1092 0
1244 -48 -1092 0
-1245 -48 0
-1245 -1092 0
1245 48 1092 0
-1246 -1244 0
-1246 -1245 0
1246 1244 1245 0
-1238 3 0
-1238 12 0
1238 -3 -12 0
-1239 -3 0
-1239 -12 0
1239 3 12 0
-1240 -1238 0
-1240 -1239 0
1240 1238 1239 0
-1247 27 0
-1247 1240 0
1247 -27 -1240 0
-1248 -27 0
-1248 -1240 0
1248 27 1240 0
-1249 -1247 0
-1249 -1248 0
1249 1247 1248 0
-1253 1246 0
-1253 1249 0
1253 -1246 -1249 0
-1254 -1246 0
-1254 -1249 0
1254 1246 1249 0
-1255 -1253 0
-1255 -1254 0
1255 1253 1254 0
-1256 1237 0
-1256 -1255 0
1256 -1237 1255 0
-1112 52 0
-1112 54 0
1112 -52 -54 0
-1113 -52 0
-1113 -54 0
1113 52 54 0
-1114 -1112 0
-1114 -1113 0
1114 1112 1113 0
-1263 47 0
-1263 1114 0
1263 -47 -1114 0
-1264 -47 0
-1264 -1114 0
1264 47 1114 0
-1265 -1263 0
-1265 -1264 0
1265 1263 1264 0
-1257 2 0
-1257 11 0
1257 -2 -11 0
-1258 -2 0
-1258 -11 0
1258 2 11 0
-1259 -1257 0
-1259 -1258 0
1259 1257 1258 0
-1266 26 0
-1266 1259 0
1266 -26 -1259 0
-1267 -26 0
-1267 -1259 0
1267 26 1259 0
-1268 -1266 0
-1268 -1267 0
1268 1266 1267 0
-1272 1265 0
-1272 1268 0
1272 -1265 -1268 0
-1273 -1265 0
-1273 -1268 0
1273 1265 1268 0
-1274 -1272 0
-1274 -1273 0
1274 1272 1273 0
-1275 1256 0
-1275 -1274 0
1275 -1256 1274 0
-1276 42 0
-1276 44 0
1276 -42 -44 0
-1277 -42 0
-1277 -44 0
1277 42 44 0
-1278 -1276 0
-1278 -1277 0
1278 1276 1277 0
-1288 46 0
-1288 1278 0
1288 -46 -1278 0
-1289 -46 0
-1289 -1278 0
1289 46 1278 0
-1290 -1288 0
-1290 -1289 0
1290 1288 1289 0
-1282 10 0
-1282 16 0
1282 -10 -16 0
-1283 -10 0
-1283 -16 0
1283 10 16 0
-1284 -1282 0
-1284 -1283 0
1284 1282 1283 0
-1291 28 0
-1291 1284 0
1291 -28 -1284 0
-1292 -28 0
-1292 -1284 0
1292 28 1284 0
-1293 -1291 0
-1293 -1292 0
1293 1291 1292 0
-1297 1290 0
-1297 1293 0
1297 -1290 -1293 0
-1298 -1290 0
-1298 -1293 0
1298 1290 1293 0
-1299 -1297 0
-1299 -1298 0
1299 1297 1298 0
-1300 1275 0
-1300 -1299 0
1300 -1275 1299 0
-1304 43 0
-1304 45 0
1304 -43 -45 0
-1305 -43 0
-1305 -45 0
1305 43 45 0
-1306 -1304 0
-1306 -1305 0
1306 1304 1305 0
-1310 41 0
-1310 1306 0
1310 -41 -1306 0
-1311 -41 0
-1311 -1306 0
1311 41 1306 0
-1312 -1310 0
-1312 -1311 0
1312 1310 1311 0
-1307 9 0
-1307 15 0
1307 -9 -15 0
-1308 -9 0
-1308 -15 0
1308 9 15 0
-1309 -1307 0
-1309 -1308 0
1309 1307 1308 0
-1316 27 0
-1316 1309 0
1316 -27 -1309 0
-1317 -27 0
-1317 -1309 0
1317 27 1309 0
-1318 -1316 0
-1318 -1317 0
1318 1316 1317 0
-1322 1312 0
-1322 1318 0
1322 -1312 -1318 0
-1323 -1312 0
-1323 -1318 0
1323 1312 1318 0
-1324 -1322 0
-1324 -1323 0
1324 1322 1323 0
-1325 1300 0
-1325 -1324 0
1325 -1300 1324 0
-1332 40 0
-1332 1278 0
1332 -40 -1278 0
-1333 -40 0
-1333 -1278 0
1333 40 1278 0
-1334 -1332 0
-1334 -1333 0
1334 1332 1333 0
-1329 8 0
-1329 14 0
1329 -8 -14 0
-1330 -8 0
-1330 -14 0
1330 8 14 0
-1331 -1329 0
-1331 -1330 0
1331 1329 1330 0
-1338 26 0
-1338 1331 0
1338 -26 -1331 0
-1339 -26 0
-1339 -1331 0
1339 26 1331 0
-1340 -1338 0
-1340 -1339 0
1340 1338 1339 0
-1344 1334 0
-1344 1340 0
1344 -1334 -1340 0
-1345 -1334 0
-1345 -1340 0
1345 1334 1340 0
-1346 -1344 0
-1346 -1345 0
1346 1344 1345 0
-1347 1325 0
-1347 -1346 0
1347 -1325 1346 0
-1348 39 0
-1348 41 0
1348 -39 -41 0
-1349 -39 0
-1349 -41 0
1349 39 41 0
-1350 -1348 0
-1350 -1349 0
1350 1348 1349 0
-1357 43 0
-1357 1350 0
1357 -43 -1350 0
-1358 -43 0
-1358 -1350 0
1358 43 1350 0
-1359 -1357 0
-1359 -1358 0
1359 1357 1358 0
-1351 7 0
-1351 13 0
1351 -7 -13 0
-1352 -7 0
-1352 -13 0
1352 7 13 0
-1353 -1351 0
-1353 -1352 0
1353 1351 1352 0
-1360 25 0
-1360 1353 0
1360 -25 -1353 0
-1361 -25 0
-1361 -1353 0
1361 25 1353 0
-1362 -1360 0
-1362 -1361 0
1362 1360 1361 0
-1366 1359 0
-1366 1362 0
1366 -1359 -1362 0
-1367 -1359 0
-1367 -1362 0
1367 1359 1362 0
-1368 -1366 0
-1368 -1367 0
1368 1366 1367 0
-1369 1347 0
-1369 -1368 0
1369 -1347 1368 0
-1370 38 0
-1370 40 0
1370 -38 -40 0
-1371 -38 0
-1371 -40 0
1371 38 40 0
-1372 -1370 0
-1372 -1371 0
1372 1370 1371 0
-1379 42 0
-1379 1372 0
1379 -42 -1372 0
-1380 -42 0
-1380 -1372 0
1380 42 1372 0
-1381 -1379 0
-1381 -1380 0
1381 1379 1380 0
-1373 6 0
-1373 12 0
1373 -6 -12 0
-1374 -6 0
-1374 -12 0
1374 6 12 0
-1375 -1373 0
-1375 -1374 0
1375 1373 1374 0
-1382 24 0
-1382 1375 0
1382 -24 -1375 0
-1383 -24 0
-1383 -1375 0
1383 24 1375 0
-1384 -1382 0
-1384 -1383 0
1384 1382 1383 0
-1388 1381 0
-1388 1384 0
1388 -1381 -1384 0
-1389 -1381 0
-1389 -1384 0
1389 1381 1384 0
-1390 -1388 0
-1390 -1389 0
1390 1388 1389 0
-1391 1369 0
-1391 -1390 0
1391 -1369 1390 0
-1395 46 0
-1395 1350 0
1395 -46 -1350 0
-1396 -46 0
-1396 -1350 0
1396 46 1350 0
-1397 -1395 0
-1397 -1396 0
1397 1395 1396 0
-1392 5 0
-1392 11 0
1392 -5 -11 0
-1393 -5 0
-1393 -11 0
1393 5 11 0
-1394 -1392 0
-1394 -1393 0
1394 1392 1393 0
-1401 23 0
-1401 1394 0
1401 -23 -1394 0
-1402 -23 0
-1402 -1394 0
1402 23 1394 0
-1403 -1401 0
-1403 -1402 0
1403 1401 1402 0
-1407 1397 0
-1407 1403 0
1407 -1397 -1403 0
-1408 -1397 0
-1408 -1403 0
1408 1397 1403 0
-1409 -1407 0
-1409 -1408 0
1409 1407 1408 0
-1410 1391 0
-1410 -1409 0
1410 -1391 1409 0
-1414 45 0
-1414 1372 0
1414 -45 -1372 0
-1415 -45 0
-1415 -1372 0
1415 45 1372 0
-1416 -1414 0
-1416 -1415 0
1416 1414 1415 0
-1411 19 0
-1411 22 0
1411 -19 -22 0
-1412 -19 0
-1412 -22 0
1412 19 22 0
-1413 -1411 0
-1413 -1412 0
1413 1411 1412 0
-1420 4 0
-1420 1413 0
1420 -4 -1413 0
-1421 -4 0
-1421 -1413 0
1421 4 1413 0
-1422 -1420 0
-1422 -1421 0
1422 1420 1421 0
-1426 1416 0
-1426 1422 0
1426 -1416 -1422 0
-1427 -1416 0
-1427 -1422 0
1427 1416 1422 0
-1428 -1426 0
-1428 -1427 0
1428 1426 1427 0
-1429 1410 0
-1429 -1428 0
1429 -1410 1428 0
-1279 44 0
-1279 46 0
1279 -44 -46 0
-1280 -44 0
-1280 -46 0
1280 44 46 0
-1281 -1279 0
-1281 -1280 0
1281 1279 1280 0
-1436 39 0
-1436 1281 0
1436 -39 -1281 0
-1437 -39 0
-1437 -1281 0
1437 39 1281 0
-1438 -1436 0
-1438 -1437 0
1438 1436 1437 0
-1430 18 0
-1430 21 0
1430 -18 -21 0
-1431 -18 0
-1431 -21 0
1431 18 21 0
-1432 -1430 0
-1432 -1431 0
1432 1430 1431 0
-1439 3 0
-1439 1432 0
1439 -3 -1432 0
-1440 -3 0
-1440 -1432 0
1440 3 1432 0
-1441 -1439 0
-1441 -1440 0
1441 1439 1440 0
-1445 1438 0
-1445 1441 0
1445 -1438 -1441 0
-1446 -1438 0
-1446 -1441 0
1446 1438 1441 0
-1447 -1445 0
-1447 -1446 0
1447 1445 1446 0
-1448 1429 0
-1448 -1447 0
1448 -1429 1447 0
-1458 38 0
-1458 1306 0
1458 -38 -1306 0
-1459 -38 0
-1459 -1306 0
1459 38 1306 0
-1460 -1458 0
-1460 -1459 0
1460 1458 1459 0
-1452 2 0
-1452 17 0
1452 -2 -17 0
-1453 -2 0
-1453 -17 0
1453 2 17 0
-1454 -1452 0
-1454 -1453 0
1454 1452 1453 0
-1461 20 0
-1461 1454 0
1461 -20 -1454 0
-1462 -20 0
-1462 -1454 0
1462 20 1454 0
-1463 -1461 0
-1463 -1462 0
1463 1461 1462 0
-1467 1460 0
-1467 1463 0
1467 -1460 -1463 0
-1468 -1460 0
-1468 -1463 0
1468 1460 1463 0
-1469 -1467 0
-1469 -1468 0
1469 1467 1468 0
-1470 1448 0
-1470 -1469 0
1470 -1448 1469 0
-1474 35 0
-1474 37 0
1474 -35 -37 0
-1475 -35 0
-1475 -37 0
1475 35 37 0
-1476 -1474 0
-1476 -1475 0
1476 1474 1475 0
-1477 28 0
-1477 33 0
1477 -28 -33 0
-1478 -28 0
-1478 -33 0
1478 28 33 0
-1479 -1477 0
-1479 -1478 0
1479 1477 1478 0
-1489 19 0
-1489 1479 0
1489 -19 -1479 0
-1490 -19 0
-1490 -1479 0
1490 19 1479 0
-1491 -1489 0
-1491 -1490 0
1491 1489 1490 0
-1492 7 0
-1492 1491 0
1492 -7 -1491 0
-1493 -7 0
-1493 -1491 0
1493 7 1491 0
-1494 -1492 0
-1494 -1493 0
1494 1492 1493 0
-1507 1476 0
-1507 1494 0
1507 -1476 -1494 0
-1508 -1476 0
-1508 -1494 0
1508 1476 1494 0
-1509 -1507 0
-1509 -1508 0
1509 1507 1508 0
-1510 1470 0
-1510 -1509 0
1510 -1470 1509 0
-1514 34 0
-1514 36 0
1514 -34 -36 0
-1515 -34 0
-1515 -36 0
1515 34 36 0
-1516 -1514 0
-1516 -1515 0
1516 1514 1515 0
-1517 27 0
-1517 32 0
1517 -27 -32 0
-1518 -27 0
-1518 -32 0
1518 27 32 0
-1519 -1517 0
-1519 -1518 0
1519 1517 1518 0
-1529 18 0
-1529 1519 0
1529 -18 -1519 0
-1530 -18 0
-1530 -1519 0
1530 18 1519 0
-1531 -1529 0
-1531 -1530 0
1531 1529 1530 0
-1532 6 0
-1532 1531 0
1532 -6 -1531 0
-1533 -6 0
-1533 -1531 0
1533 6 1531 0
-1534 -1532 0
-1534 -1533 0
1534 1532 1533 0
-1547 1516 0
-1547 1534 0
1547 -1516 -1534 0
-1548 -1516 0
-1548 -1534 0
1548 1516 1534 0
-1549 -1547 0
-1549 -1548 0
1549 1547 1548 0
-1550 1510 0
-1550 -1549 0
1550 -1510 1549 0
-1554 5 0
-1554 17 0
1554 -5 -17 0
-1555 -5 0
-1555 -17 0
1555 5 17 0
-1556 -1554 0
-1556 -1555 0
1556 1554 1555 0
-1551 31 0
-1551 33 0
1551 -31 -33 0
-1552 -31 0
-1552 -33 0
1552 31 33 0
-1553 -1551 0
-1553 -1552 0
1553 1551 1552 0
-1560 26 0
-1560 1553 0
1560 -26 -1553 0
-1561 -26 0
-1561 -1553 0
1561 26 1553 0
-1562 -1560 0
-1562 -1561 0
1562 1560 1561 0
-1569 1556 0
-1569 1562 0
1569 -1556 -1562 0
-1570 -1556 0
-1570 -1562 0
1570 1556 1562 0
-1571 -1569 0
-1571 -1570 0
1571 1569 1570 0
-1584 35 0
-1584 1571 0
1584 -35 -1571 0
-1585 -35 0
-1585 -1571 0
1585 35 1571 0
-1586 -1584 0
-1586 -1585 0
1586 1584 1585 0
-1587 1550 0
-1587 -1586 0
1587 -1550 1586 0
-1591 4 0
-1591 16 0
1591 -4 -16 0
-1592 -4 0
-1592 -16 0
1592 4 16 0
-1593 -1591 0
-1593 -1592 0
1593 1591 1592 0
-1588 30 0
-1588 32 0
1588 -30 -32 0
-1589 -30 0
-1589 -32 0
1589 30 32 0
-1590 -1588 0
-1590 -1589 0
1590 1588 1589 0
-1597 25 0
-1597 1590 0
1597 -25 -1590 0
-1598 -25 0
-1598 -1590 0
1598 25 1590 0
-1599 -1597 0
-1599 -1598 0
1599 1597 1598 0
-1606 1593 0
-1606 1599 0
1606 -1593 -1599 0
-1607 -1593 0
-1607 -1599 0
1607 1593 1599 0
-1608 -1606 0
-1608 -1607 0
1608 1606 1607 0
-1621 34 0
-1621 1608 0
1621 -34 -1608 0
-1622 -34 0
-1622 -1608 0
1622 34 1608 0
-1623 -1621 0
-1623 -1622 0
1623 1621 1622 0
-1624 1587 0
-1624 -1623 0
1624 -1587 1623 0
-1628 3 0
-1628 15 0
1628 -3 -15 0
-1629 -3 0
-1629 -15 0
1629 3 15 0
-1630 -1628 0
-1630 -1629 0
1630 1628 1629 0
-1637 29 0
-1637 1553 0
1637 -29 -1553 0
-1638 -29 0
-1638 -1553 0
1638 29 1553 0
-1639 -1637 0
-1639 -1638 0
1639 1637 1638 0
-1643 24 0
-1643 1639 0
1643 -24 -1639 0
-1644 -24 0
-1644 -1639 0
1644 24 1639 0
-1645 -1643 0
-1645 -1644 0
1645 1643 1644 0
-1646 1630 0
-1646 1645 0
1646 -1630 -1645 0
-1647 -1630 0
-1647 -1645 0
1647 1630 1645 0
-1648 -1646 0
-1648 -1647 0
1648 1646 1647 0
-1658 1624 0
-1658 -1648 0
1658 -1624 1648 0
-1659 2 0
-1659 14 0
1659 -2 -14 0
-1660 -2 0
-1660 -14 0
1660 2 14 0
-1661 -1659 0
-1661 -1660 0
1661 1659 1660 0
-1671 23 0
-1671 1590 0
1671 -23 -1590 0
-1672 -23 0
-1672 -1590 0
1672 23 1590 0
-1673 -1671 0
-1673 -1672 0
1673 1671 1672 0
-1674 1661 0
-1674 1673 0
1674 -1661 -1673 0
-1675 -1661 0
-1675 -1673 0
1675 1661 1673 0
-1676 -1674 0
-1676 -1675 0
1676 1674 1675 0
-1686 37 0
-1686 1676 0
1686 -37 -1676 0
-1687 -37 0
-1687 -1676 0
1687 37 1676 0
-1688 -1686 0
-1688 -1687 0
1688 1686 1687 0
-1689 1658 0
-1689 -1688 0
1689 -1658 1688 0
-1690 10 0
-1690 13 0
1690 -10 -13 0
-1691 -10 0
-1691 -13 0
1691 10 13 0
-1692 -1690 0
-1692 -1691 0
1692 1690 1691 0
-1625 29 0
-1625 31 0
1625 -29 -31 0
-1626 -29 0
-1626 -31 0
1626 29 31 0
-1627 -1625 0
-1627 -1626 0
1627 1625 1626 0
-1702 22 0
-1702 1627 0
1702 -22 -1627 0
-1703 -22 0
-1703 -1627 0
1703 22 1627 0
-1704 -1702 0
-1704 -1703 0
1704 1702 1703 0
-1705 1692 0
-1705 1704 0
1705 -1692 -1704 0
-1706 -1692 0
-1706 -1704 0
1706 1692 1704 0
-1707 -1705 0
-1707 -1706 0
1707 1705 1706 0
-1717 36 0
-1717 1707 0
1717 -36 -1707 0
-1718 -36 0
-1718 -1707 0
1718 36 1707 0
-1719 -1717 0
-1719 -1718 0
1719 1717 1718 0
-1720 1689 0
-1720 -1719 0
1720 -1689 1719 0
-1721 9 0
-1721 12 0
1721 -9 -12 0
-1722 -9 0
-1722 -12 0
1722 9 12 0
-1723 -1721 0
-1723 -1722 0
1723 1721 1722 0
-1730 21 0
-1730 30 0
1730 -21 -30 0
-1731 -21 0
-1731 -30 0
1731 21 30 0
-1732 -1730 0
-1732 -1731 0
1732 1730 1731 0
-1733 1723 0
-1733 1732 0
1733 -1723 -1732 0
-1734 -1723 0
-1734 -1732 0
1734 1723 1732 0
-1735 -1733 0
-1735 -1734 0
1735 1733 1734 0
-1742 1476 0
-1742 1735 0
1742 -1476 -1735 0
-1743 -1476 0
-1743 -1735 0
1743 1476 1735 0
-1744 -1742 0
-1744 -1743 0
1744 1742 1743 0
-1745 1720 0
-1745 -1744 0
1745 -1720 1744 0
-1746 8 0
-1746 11 0
1746 -8 -11 0
-1747 -8 0
-1747 -11 0
1747 8 11 0
-1748 -1746 0
-1748 -1747 0
1748 1746 1747 0
-1755 20 0
-1755 29 0
1755 -20 -29 0
-1756 -20 0
-1756 -29 0
1756 20 29 0
-1757 -1755 0
-1757 -1756 0
1757 1755 1756 0
-1758 1748 0
-1758 1757 0
1758 -1748 -1757 0
-1759 -1748 0
-1759 -1757 0
1759 1748 1757 0
-1760 -1758 0
-1760 -1759 0
1760 1758 1759 0
-1767 1516 0
-1767 1760 0
1767 -1516 -1760 0
-1768 -1516 0
-1768 -1760 0
1768 1516 1760 0
-1769 -1767 0
-1769 -1768 0
1769 1767 1768 0
-1770 1745 0
-1770 -1769 0
1770 -1745 1769 0
-1771 2 0
-1771 5 0
1771 -2 -5 0
-1772 -2 0
-1772 -5 0
1772 2 5 0
-1773 -1771 0
-1773 -1772 0
1773 1771 1772 0
-1774 6 0
-1774 7 0
1774 -6 -7 0
-1775 -6 0
-1775 -7 0
1775 6 7 0
-1776 -1774 0
-1776 -1775 0
1776 1774 1775 0
-1795 8 0
-1795 1776 0
1795 -8 -1776 0
-1796 -8 0
-1796 -1776 0
1796 8 1776 0
-1797 -1795 0
-1797 -1796 0
1797 1795 1796 0
-1798 1773 0
-1798 1797 0
1798 -1773 -1797 0
-1799 -1773 0
-1799 -1797 0
1799 1773 1797 0
-1800 -1798 0
-1800 -1799 0
1800 1798 1799 0
-1804 15 0
-1804 17 0
1804 -15 -17 0
-1805 -15 0
-1805 -17 0
1805 15 17 0
-1806 -1804 0
-1806 -1805 0
1806 1804 1805 0
-1825 12 0
-1825 1806 0
1825 -12 -1806 0
-1826 -12 0
-1826 -1806 0
1826 12 1806 0
-1827 -1825 0
-1827 -1826 0
1827 1825 1826 0
-1828 1800 0
-1828 1827 0
1828 -1800 -1827 0
-1829 -1800 0
-1829 -1827 0
1829 1800 1827 0
-1830 -1828 0
-1830 -1829 0
1830 1828 1829 0
-1786 24 0
-1786 25 0
1786 -24 -25 0
-1787 -24 0
-1787 -25 0
1787 24 25 0
-1788 -1786 0
-1788 -1787 0
1788 1786 1787 0
-1813 23 0
-1813 1788 0
1813 -23 -1788 0
-1814 -23 0
-1814 -1788 0
1814 23 1788 0
-1815 -1813 0
-1815 -1814 0
1815 1813 1814 0
-1831 21 0
-1831 1815 0
1831 -21 -1815 0
-1832 -21 0
-1832 -1815 0
1832 21 1815 0
-1833 -1831 0
-1833 -1832 0
1833 1831 1832 0
-1822 26 0
-1822 29 0
1822 -26 -29 0
-1823 -26 0
-1823 -29 0
1823 26 29 0
-1824 -1822 0
-1824 -1823 0
1824 1822 1823 0
-1867 30 0
-1867 1824 0
1867 -30 -1824 0
-1868 -30 0
-1868 -1824 0
1868 30 1824 0
-1869 -1867 0
-1869 -1868 0
1869 1867 1868 0
-1870 1833 0
-1870 1869 0
1870 -1833 -1869 0
-1871 -1833 0
-1871 -1869 0
1871 1833 1869 0
-1872 -1870 0
-1872 -1871 0
1872 1870 1871 0
-1873 1830 0
-1873 1872 0
1873 -1830 -1872 0
-1874 -1830 0
-1874 -1872 0
1874 1830 1872 0
-1875 -1873 0
-1875 -1874 0
1875 1873 1874 0
-1888 -55 0
-1888 1875 0
1888 55 -1875 0
-1889 55 0
-1889 -1875 0
1889 -55 1875 0
-1890 -1888 0
-1890 -1889 0
1890 1888 1889 0
-1891 11 0
-1891 12 0
1891 -11 -12 0
-1892 -11 0
-1892 -12 0
1892 11 12 0
-1893 -1891 0
-1893 -1892 0
1893 1891 1892 0
-1894 14 0
-1894 15 0
1894 -14 -15 0
-1895 -14 0
-1895 -15 0
1895 14 15 0
-1896 -1894 0
-1896 -1895 0
1896 1894 1895 0
-1900 16 0
-1900 17 0
1900 -16 -17 0
-1901 -16 0
-1901 -17 0
1901 16 17 0
-1902 -1900 0
-1902 -1901 0
1902 1900 1901 0
-1921 1896 0
-1921 1902 0
1921 -1896 -1902 0
-1922 -1896 0
-1922 -1902 0
1922 1896 1902 0
-1923 -1921 0
-1923 -1922 0
1923 1921 1922 0
-1942 1893 0
-1942 1923 0
1942 -1893 -1923 0
-1943 -1893 0
-1943 -1923 0
1943 1893 1923 0
-1944 -1942 0
-1944 -1943 0
1944 1942 1943 0
-1903 20 0
-1903 21 0
1903 -20 -21 0
-1904 -20 0
-1904 -21 0
1904 20 21 0
-1905 -1903 0
-1905 -1904 0
1905 1903 1904 0
-1909 22 0
-1909 23 0
1909 -22 -23 0
-1910 -22 0
-1910 -23 0
1910 22 23 0
-1911 -1909 0
-1911 -1910 0
1911 1909 1910 0
-1936 25 0
-1936 1911 0
1936 -25 -1911 0
-1937 -25 0
-1937 -1911 0
1937 25 1911 0
-1938 -1936 0
-1938 -1937 0
1938 1936 1937 0
-1945 1905 0
-1945 1938 0
1945 -1905 -1938 0
-1946 -1905 0
-1946 -1938 0
1946 1905 1938 0
-1947 -1945 0
-1947 -1946 0
1947 1945 1946 0
-1987 26 0
-1987 30 0
1987 -26 -30 0
-1988 -26 0
-1988 -30 0
1988 26 30 0
-1989 -1987 0
-1989 -1988 0
1989 1987 1988 0
-1990 1947 0
-1990 1989 0
1990 -1947 -1989 0
-1991 -1947 0
-1991 -1989 0
1991 1947 1989 0
-1992 -1990 0
-1992 -1991 0
1992 1990 1991 0
-1993 1944 0
-1993 1992 0
1993 -1944 -1992 0
-1994 -1944 0
-1994 -1992 0
1994 1944 1992 0
-1995 -1993 0
-1995 -1994 0
1995 1993 1994 0
-2008 -54 0
-2008 1995 0
2008 54 -1995 0
-2009 54 0
-2009 -1995 0
2009 -54 1995 0
-2010 -2008 0
-2010 -2009 0
2010 2008 2009 0
-1783 23 0
-1783 24 0
1783 -23 -24 0
-1784 -23 0
-1784 -24 0
1784 23 24 0
-1785 -1783 0
-1785 -1784 0
1785 1783 1784 0
-1810 21 0
-1810 1785 0
1810 -21 -1785 0
-1811 -21 0
-1811 -1785 0
1811 21 1785 0
-1812 -1810 0
-1812 -1811 0
1812 1810 1811 0
-2035 1812 0
-2035 1824 0
2035 -1812 -1824 0
-2036 -1812 0
-2036 -1824 0
2036 1812 1824 0
-2037 -2035 0
-2037 -2036 0
2037 2035 2036 0
-2038 1806 0
-2038 2037 0
2038 -1806 -2037 0
-2039 -1806 0
-2039 -2037 0
2039 1806 2037 0
-2040 -2038 0
-2040 -2039 0
2040 2038 2039 0
-2050 -53 0
-2050 2040 0
2050 53 -2040 0
-2051 53 0
-2051 -2040 0
2051 -53 2040 0
-2052 -2050 0
-2052 -2051 0
2052 2050 2051 0
-2053 6 0
-2053 8 0
2053 -6 -8 0
-2054 -6 0
-2054 -8 0
2054 6 8 0
-2055 -2053 0
-2055 -2054 0
2055 2053 2054 0
-2056 2 0
-2056 2055 0
2056 -2 -2055 0
-2057 -2 0
-2057 -2055 0
2057 2 2055 0
-2058 -2056 0
-2058 -2057 0
2058 2056 2057 0
-2068 12 0
-2068 1923 0
2068 -12 -1923 0
-2069 -12 0
-2069 -1923 0
2069 12 1923 0
-2070 -2068 0
-2070 -2069 0
2070 2068 2069 0
-2071 2058 0
-2071 2070 0
2071 -2058 -2070 0
-2072 -2058 0
-2072 -2070 0
2072 2058 2070 0
-2073 -2071 0
-2073 -2072 0
2073 2071 2072 0
-2065 1788 0
-2065 1911 0
2065 -1788 -1911 0
-2066 -1788 0
-2066 -1911 0
2066 1788 1911 0
-2067 -2065 0
-2067 -2066 0
2067 2065 2066 0
-2074 1905 0
-2074 2067 0
2074 -1905 -2067 0
-2075 -1905 0
-2075 -2067 0
2075 1905 2067 0
-2076 -2074 0
-2076 -2075 0
2076 2074 2075 0
-2095 1869 0
-2095 2076 0
2095 -1869 -2076 0
-2096 -1869 0
-2096 -2076 0
2096 1869 2076 0
-2097 -2095 0
-2097 -2096 0
2097 2095 2096 0
-2098 2073 0
-2098 2097 0
2098 -2073 -2097 0
-2099 -2073 0
-2099 -2097 0
2099 2073 2097 0
-2100 -2098 0
-2100 -2099 0
2100 2098 2099 0
-2113 -52 0
-2113 2100 0
2113 52 -2100 0
-2114 52 0
-2114 -2100 0
2114 -52 2100 0
-2115 -2113 0
-2115 -2114 0
2115 2113 2114 0
-2122 4 0
-2122 6 0
2122 -4 -6 0
-2123 -4 0
-2123 -6 0
2123 4 6 0
-2124 -2122 0
-2124 -2123 0
2124 2122 2123 0
-2116 12 0
-2116 13 0
2116 -12 -13 0
-2117 -12 0
-2117 -13 0
2117 12 13 0
-2118 -2116 0
-2118 -2117 0
2118 2116 2117 0
-2125 11 0
-2125 2118 0
2125 -11 -2118 0
-2126 -11 0
-2126 -2118 0
2126 11 2118 0
-2127 -2125 0
-2127 -2126 0
2127 2125 2126 0
-2137 14 0
-2137 1902 0
2137 -14 -1902 0
-2138 -14 0
-2138 -1902 0
2138 14 1902 0
-2139 -2137 0
-2139 -2138 0
2139 2137 2138 0
-2140 2127 0
-2140 2139 0
2140 -2127 -2139 0
-2141 -2127 0
-2141 -2139 0
2141 2127 2139 0
-2142 -2140 0
-2142 -2141 0
2142 2140 2141 0
-2143 2124 0
-2143 2142 0
2143 -2124 -2142 0
-2144 -2124 0
-2144 -2142 0
2144 2124 2142 0
-2145 -2143 0
-2145 -2144 0
2145 2143 2144 0
-2155 30 0
-2155 2145 0
2155 -30 -2145 0
-2156 -30 0
-2156 -2145 0
2156 30 2145 0
-2157 -2155 0
-2157 -2156 0
2157 2155 2156 0
-2158 -51 0
-2158 2157 0
2158 51 -2157 0
-2159 51 0
-2159 -2157 0
2159 -51 2157 0
-2160 -2158 0
-2160 -2159 0
2160 2158 2159 0
-2161 3 0
-2161 5 0
2161 -3 -5 0
-2162 -3 0
-2162 -5 0
2162 3 5 0
-2163 -2161 0
-2163 -2162 0
2163 2161 2162 0
-2164 17 0
-2164 1896 0
2164 -17 -1896 0
-2165 -17 0
-2165 -1896 0
2165 17 1896 0
-2166 -2164 0
-2166 -2165 0
2166 2164 2165 0
-2167 12 0
-2167 2166 0
2167 -12 -2166 0
-2168 -12 0
-2168 -2166 0
2168 12 2166 0
-2169 -2167 0
-2169 -2168 0
2169 2167 2168 0
-2170 2163 0
-2170 2169 0
2170 -2163 -2169 0
-2171 -2163 0
-2171 -2169 0
2171 2163 2169 0
-2172 -2170 0
-2172 -2171 0
2172 2170 2171 0
-2179 29 0
-2179 2172 0
2179 -29 -2172 0
-2180 -29 0
-2180 -2172 0
2180 29 2172 0
-2181 -2179 0
-2181 -2180 0
2181 2179 2180 0
-2182 -50 0
-2182 2181 0
2182 50 -2181 0
-2183 50 0
-2183 -2181 0
2183 -50 2181 0
-2184 -2182 0
-2184 -2183 0
2184 2182 2183 0
-2185 4 0
-2185 2055 0
2185 -4 -2055 0
-2186 -4 0
-2186 -2055 0
2186 4 2055 0
-2187 -2185 0
-2187 -2186 0
2187 2185 2186 0
-2197 1923 0
-2197 2127 0
2197 -1923 -2127 0
-2198 -1923 0
-2198 -2127 0
2198 1923 2127 0
-2199 -2197 0
-2199 -2198 0
2199 2197 2198 0
-2200 2187 0
-2200 2199 0
2200 -2187 -2199 0
-2201 -2187 0
-2201 -2199 0
2201 2187 2199 0
-2202 -2200 0
-2202 -2201 0
2202 2200 2201 0
-2194 21 0
-2194 24 0
2194 -21 -24 0
-2195 -21 0
-2195 -24 0
2195 21 24 0
-2196 -2194 0
-2196 -2195 0
2196 2194 2195 0
-2239 1869 0
-2239 2196 0
2239 -1869 -2196 0
-2240 -1869 0
-2240 -2196 0
2240 1869 2196 0
-2241 -2239 0
-2241 -2240 0
2241 2239 2240 0
-2242 2202 0
-2242 2241 0
2242 -2202 -2241 0
-2243 -2202 0
-2243 -2241 0
2243 2202 2241 0
-2244 -2242 0
-2244 -2243 0
2244 2242 2243 0
-2254 -49 0
-2254 2244 0
2254 49 -2244 0
-2255 49 0
-2255 -2244 0
2255 -49 2244 0
-2256 -2254 0
-2256 -2255 0
2256 2254 2255 0
-2257 2 0
-2257 3 0
2257 -2 -3 0
-2258 -2 0
-2258 -3 0
2258 2 3 0
-2259 -2257 0
-2259 -2258 0
2259 2257 2258 0
-2260 5 0
-2260 2259 0
2260 -5 -2259 0
-2261 -5 0
-2261 -2259 0
2261 5 2259 0
-2262 -2260 0
-2262 -2261 0
2262 2260 2261 0
-2263 1797 0
-2263 2262 0
2263 -1797 -2262 0
-2264 -1797 0
-2264 -2262 0
2264 1797 2262 0
-2265 -2263 0
-2265 -2264 0
2265 2263 2264 0
-2269 1815 0
-2269 1905 0
2269 -1815 -1905 0
-2270 -1815 0
-2270 -1905 0
2270 1815 1905 0
-2271 -2269 0
-2271 -2270 0
2271 2269 2270 0
-2290 1989 0
-2290 2271 0
2290 -1989 -2271 0
-2291 -1989 0
-2291 -2271 0
2291 1989 2271 0
-2292 -2290 0
-2292 -2291 0
2292 2290 2291 0
-2293 2265 0
-2293 2292 0
2293 -2265 -2292 0
-2294 -2265 0
-2294 -2292 0
2294 2265 2292 0
-2295 -2293 0
-2295 -2294 0
2295 2293 2294 0
-2308 -48 0
-2308 2295 0
2308 48 -2295 0
-2309 48 0
-2309 -2295 0
2309 -48 2295 0
-2310 -2308 0
-2310 -2309 0
2310 2308 2309 0
-2230 24 0
-2230 1824 0
2230 -24 -1824 0
-2231 -24 0
-2231 -1824 0
2231 24 1824 0
-2232 -2230 0
-2232 -2231 0
2232 2230 2231 0
-2311 2055 0
-2311 2232 0
2311 -2055 -2232 0
-2312 -2055 0
-2312 -2232 0
2312 2055 2232 0
-2313 -2311 0
-2313 -2312 0
2313 2311 2312 0
-2314 -47 0
-2314 2313 0
2314 47 -2313 0
-2315 47 0
-2315 -2313 0
2315 -47 2313 0
-2316 -2314 0
-2316 -2315 0
2316 2314 2315 0
-2317 1800 0
-2317 2070 0
2317 -1800 -2070 0
-2318 -1800 0
-2318 -2070 0
2318 1800 2070 0
-2319 -2317 0
-2319 -2318 0
2319 2317 2318 0
-2323 2241 0
-2323 2319 0
2323 -2241 -2319 0
-2324 -2241 0
-2324 -2319 0
2324 2241 2319 0
-2325 -2323 0
-2325 -2324 0
2325 2323 2324 0
-2326 -46 0
-2326 2325 0
2326 46 -2325 0
-2327 46 0
-2327 -2325 0
2327 -46 2325 0
-2328 -2326 0
-2328 -2327 0
2328 2326 2327 0
-2344 2142 0
-2344 2292 0
2344 -2142 -2292 0
-2345 -2142 0
-2345 -2292 0
2345 2142 2292 0
-2346 -2344 0
-2346 -2345 0
2346 2344 2345 0
-2350 -45 0
-2350 2346 0
2350 45 -2346 0
-2351 45 0
-2351 -2346 0
2351 -45 2346 0
-2352 -2350 0
-2352 -2351 0
2352 2350 2351 0
-2356 2169 0
-2356 2232 0
2356 -2169 -2232 0
-2357 -2169 0
-2357 -2232 0
2357 2169 2232 0
-2358 -2356 0
-2358 -2357 0
2358 2356 2357 0
-2362 -44 0
-2362 2358 0
2362 44 -2358 0
-2363 44 0
-2363 -2358 0
2363 -44 2358 0
-2364 -2362 0
-2364 -2363 0
2364 2362 2363 0
-2365 2058 0
-2365 2199 0
2365 -2058 -2199 0
-2366 -2058 0
-2366 -2199 0
2366 2058 2199 0
-2367 -2365 0
-2367 -2366 0
2367 2365 2366 0
-2371 1872 0
-2371 2367 0
2371 -1872 -2367 0
-2372 -1872 0
-2372 -2367 0
2372 1872 2367 0
-2373 -2371 0
-2373 -2372 0
2373 2371 2372 0
-2380 -43 0
-2380 2373 0
2380 43 -2373 0
-2381 43 0
-2381 -2373 0
2381 -43 2373 0
-2382 -2380 0
-2382 -2381 0
2382 2380 2381 0
-2386 1992 0
-2386 2124 0
2386 -1992 -2124 0
-2387 -1992 0
-2387 -2124 0
2387 1992 2124 0
-2388 -2386 0
-2388 -2387 0
2388 2386 2387 0
-2392 -42 0
-2392 2388 0
2392 42 -2388 0
-2393 42 0
-2393 -2388 0
2393 -42 2388 0
-2394 -2392 0
-2394 -2393 0
2394 2392 2393 0
-2395 2037 0
-2395 2163 0
2395 -2037 -2163 0
-2396 -2037 0
-2396 -2163 0
2396 2037 2163 0
-2397 -2395 0
-2397 -2396 0
2397 2395 2396 0
-2404 -41 0
-2404 2397 0
2404 41 -2397 0
-2405 41 0
-2405 -2397 0
2405 -41 2397 0
-2406 -2404 0
-2406 -2405 0
2406 2404 2405 0
-2407 1827 0
-2407 2187 0
2407 -1827 -2187 0
-2408 -1827 0
-2408 -2187 0
2408 1827 2187 0
-2409 -2407 0
-2409 -2408 0
2409 2407 2408 0
-2422 2097 0
-2422 2409 0
2422 -2097 -2409 0
-2423 -2097 0
-2423 -2409 0
2423 2097 2409 0
-2424 -2422 0
-2424 -2423 0
2424 2422 2423 0
-2437 -40 0
-2437 2424 0
2437 40 -2424 0
-2438 40 0
-2438 -2424 0
2438 -40 2424 0
-2439 -2437 0
-2439 -2438 0
2439 2437 2438 0
-2440 1944 0
-2440 2265 0
2440 -1944 -2265 0
-2441 -1944 0
-2441 -2265 0
2441 1944 2265 0
-2442 -2440 0
-2442 -2441 0
2442 2440 2441 0
-2443 30 0
-2443 2442 0
2443 -30 -2442 0
-2444 -30 0
-2444 -2442 0
2444 30 2442 0
-2445 -2443 0
-2445 -2444 0
2445 2443 2444 0
-2449 -39 0
-2449 2445 0
2449 39 -2445 0
-2450 39 0
-2450 -2445 0
2450 -39 2445 0
-2451 -2449 0
-2451 -2450 0
2451 2449 2450 0
-2452 1806 0
-2452 2055 0
2452 -1806 -2055 0
-2453 -1806 0
-2453 -2055 0
2453 1806 2055 0
-2454 -2452 0
-2454 -2453 0
2454 2452 2453 0
-2455 29 0
-2455 2454 0
2455 -29 -2454 0
-2456 -29 0
-2456 -2454 0
2456 29 2454 0
-2457 -2455 0
-2457 -2456 0
2457 2455 2456 0
-2461 -38 0
-2461 2457 0
2461 38 -2457 0
-2462 38 0
-2462 -2457 0
2462 -38 2457 0
-2463 -2461 0
-2463 -2462 0
2463 2461 2462 0
-2464 1827 0
-2464 2058 0
2464 -1827 -2058 0
-2465 -1827 0
-2465 -2058 0
2465 1827 2058 0
-2466 -2464 0
-2466 -2465 0
2466 2464 2465 0
-2473 2241 0
-2473 2466 0
2473 -2241 -2466 0
-2474 -2241 0
-2474 -2466 0
2474 2241 2466 0
-2475 -2473 0
-2475 -2474 0
2475 2473 2474 0
-2491 -37 0
-2491 2475 0
2491 37 -2475 0
-2492 37 0
-2492 -2475 0
2492 -37 2475 0
-2493 -2491 0
-2493 -2492 0
2493 2491 2492 0
-2494 1944 0
-2494 2124 0
2494 -1944 -2124 0
-2495 -1944 0
-2495 -2124 0
2495 1944 2124 0
-2496 -2494 0
-2496 -2495 0
2496 2494 2495 0
-2503 2292 0
-2503 2496 0
2503 -2292 -2496 0
-2504 -2292 0
-2504 -2496 0
2504 2292 2496 0
-2505 -2503 0
-2505 -2504 0
2505 2503 2504 0
-2524 -36 0
-2524 2505 0
2524 36 -2505 0
-2525 36 0
-2525 -2505 0
2525 -36 2505 0
-2526 -2524 0
-2526 -2525 0
2526 2524 2525 0
-2527 1806 0
-2527 2163 0
2527 -1806 -2163 0
-2528 -1806 0
-2528 -2163 0
2528 1806 2163 0
-2529 -2527 0
-2529 -2528 0
2529 2527 2528 0
-2533 2232 0
-2533 2529 0
2533 -2232 -2529 0
-2534 -2232 0
-2534 -2529 0
2534 2232 2529 0
-2535 -2533 0
-2535 -2534 0
2535 2533 2534 0
-2548 -35 0
-2548 2535 0
2548 35 -2535 0
-2549 35 0
-2549 -2535 0
2549 -35 2535 0
-2550 -2548 0
-2550 -2549 0
2550 2548 2549 0
-2551 2070 0
-2551 2187 0
2551 -2070 -2187 0
-2552 -2070 0
-2552 -2187 0
2552 2070 2187 0
-2553 -2551 0
-2553 -2552 0
2553 2551 2552 0
-2560 1872 0
-2560 2553 0
2560 -1872 -2553 0
-2561 -1872 0
-2561 -2553 0
2561 1872 2553 0
-2562 -2560 0
-2562 -2561 0
2562 2560 2561 0
-2587 -34 0
-2587 2562 0
2587 34 -2562 0
-2588 34 0
-2588 -2562 0
2588 -34 2562 0
-2589 -2587 0
-2589 -2588 0
2589 2587 2588 0
-2593 2142 0
-2593 2265 0
2593 -2142 -2265 0
-2594 -2142 0
-2594 -2265 0
2594 2142 2265 0
-2595 -2593 0
-2595 -2594 0
2595 2593 2594 0
-2590 30 0
-2590 33 0
2590 -30 -33 0
-2591 -30 0
-2591 -33 0
2591 30 33 0
-2592 -2590 0
-2592 -2591 0
2592 2590 2591 0
-2599 26 0
-2599 2592 0
2599 -26 -2592 0
-2600 -26 0
-2600 -2592 0
2600 26 2592 0
-2601 -2599 0
-2601 -2600 0
2601 2599 2600 0
-2602 1947 0
-2602 2601 0
2602 -1947 -2601 0
-2603 -1947 0
-2603 -2601 0
2603 1947 2601 0
-2604 -2602 0
-2604 -2603 0
2604 2602 2603 0
-2605 2595 0
-2605 2604 0
2605 -2595 -2604 0
-2606 -2595 0
-2606 -2604 0
2606 2595 2604 0
-2607 -2605 0
-2607 -2606 0
2607 2605 2606 0
-2629 2055 0
-2629 2169 0
2629 -2055 -2169 0
-2630 -2055 0
-2630 -2169 0
2630 2055 2169 0
-2631 -2629 0
-2631 -2630 0
2631 2629 2630 0
-2638 32 0
-2638 1824 0
2638 -32 -1824 0
-2639 -32 0
-2639 -1824 0
2639 32 1824 0
-2640 -2638 0
-2640 -2639 0
2640 2638 2639 0
-2641 1812 0
-2641 2640 0
2641 -1812 -2640 0
-2642 -1812 0
-2642 -2640 0
2642 1812 2640 0
-2643 -2641 0
-2643 -2642 0
2643 2641 2642 0
-2644 2631 0
-2644 2643 0
2644 -2631 -2643 0
-2645 -2631 0
-2645 -2643 0
2645 2631 2643 0
-2646 -2644 0
-2646 -2645 0
2646 2644 2645 0
-2674 1800 0
-2674 2199 0
2674 -1800 -2199 0
-2675 -1800 0
-2675 -2199 0
2675 1800 2199 0
-2676 -2674 0
-2676 -2675 0
2676 2674 2675 0
-2665 30 0
-2665 31 0
2665 -30 -31 0
-2666 -30 0
-2666 -31 0
2666 30 31 0
-2667 -2665 0
-2667 -2666 0
2667 2665 2666 0
-2686 1824 0
-2686 2667 0
2686 -1824 -2667 0
-2687 -1824 0
-2687 -2667 0
2687 1824 2667 0
-2688 -2686 0
-2688 -2687 0
2688 2686 2687 0
-2689 2076 0
-2689 2688 0
2689 -2076 -2688 0
-2690 -2076 0
-2690 -2688 0
2690 2076 2688 0
-2691 -2689 0
-2691 -2690 0
2691 2689 2690 0
-2692 2676 0
-2692 2691 0
2692 -2676 -2691 0
-2693 -2676 0
-2693 -2691 0
2693 2676 2691 0
-2694 -2692 0
-2694 -2693 0
2694 2692 2693 0
-2719 26 0
-2719 28 0
2719 -26 -28 0
-2720 -26 0
-2720 -28 0
2720 26 28 0
-2721 -2719 0
-2721 -2720 0
2721 2719 2720 0
-2722 20 0
-2722 1938 0
2722 -20 -1938 0
-2723 -20 0
-2723 -1938 0
2723 20 1938 0
-2724 -2722 0
-2724 -2723 0
2724 2722 2723 0
-2740 2721 0
-2740 2724 0
2740 -2721 -2724 0
-2741 -2721 0
-2741 -2724 0
2741 2721 2724 0
-2742 -2740 0
-2742 -2741 0
2742 2740 2741 0
-2749 26 0
-2749 27 0
2749 -26 -27 0
-2750 -26 0
-2750 -27 0
2750 26 27 0
-2751 -2749 0
-2751 -2750 0
2751 2749 2750 0
-2755 1785 0
-2755 1905 0
2755 -1785 -1905 0
-2756 -1785 0
-2756 -1905 0
2756 1785 1905 0
-2757 -2755 0
-2757 -2756 0
2757 2755 2756 0
-2773 2751 0
-2773 2757 0
2773 -2751 -2757 0
-2774 -2751 0
-2774 -2757 0
2774 2751 2757 0
-2775 -2773 0
-2775 -2774 0
2775 2773 2774 0
-2779 11 0
-2779 13 0
2779 -11 -13 0
-2780 -11 0
-2780 -13 0
2780 11 13 0
-2781 -2779 0
-2781 -2780 0
2781 2779 2780 0
-2791 2139 0
-2791 2781 0
2791 -2139 -2781 0
-2792 -2139 0
-2792 -2781 0
2792 2139 2781 0
-2793 -2791 0
-2793 -2792 0
2793 2791 2792 0
-2806 19 0
-2806 2793 0
2806 -19 -2793 0
-2807 -19 0
-2807 -2793 0
2807 19 2793 0
-2808 -2806 0
-2808 -2807 0
2808 2806 2807 0
-2815 1893 0
-2815 2166 0
2815 -1893 -2166 0
-2816 -1893 0
-2816 -2166 0
2816 1893 2166 0
-2817 -2815 0
-2817 -2816 0
2817 2815 2816 0
-2830 18 0
-2830 2817 0
2830 -18 -2817 0
-2831 -18 0
-2831 -2817 0
2831 18 2817 0
-2832 -2830 0
-2832 -2831 0
2832 2830 2831 0
-1780 7 0
-1780 8 0
1780 -7 -8 0
-1781 -7 0
-1781 -8 0
1781 7 8 0
-1782 -1780 0
-1782 -1781 0
1782 1780 1781 0
-2833 4 0
-2833 5 0
2833 -4 -5 0
-2834 -4 0
-2834 -5 0
2834 4 5 0
-2835 -2833 0
-2835 -2834 0
2835 2833 2834 0
-2836 2 0
-2836 2835 0
2836 -2 -2835 0
-2837 -2 0
-2837 -2835 0
2837 2 2835 0
-2838 -2836 0
-2838 -2837 0
2838 2836 2837 0
-2839 1782 0
-2839 2838 0
2839 -1782 -2838 0
-2840 -1782 0
-2840 -2838 0
2840 1782 2838 0
-2841 -2839 0
-2841 -2840 0
2841 2839 2840 0
-2848 10 0
-2848 2841 0
2848 -10 -2841 0
-2849 -10 0
-2849 -2841 0
2849 10 2841 0
-2850 -2848 0
-2850 -2849 0
2850 2848 2849 0
-2851 8 0
-2851 9 0
2851 -8 -9 0
-2852 -8 0
-2852 -9 0
2852 8 9 0
-2853 -2851 0
-2853 -2852 0
2853 2851 2852 0
-2854 6 0
-2854 2853 0
2854 -6 -2853 0
-2855 -6 0
-2855 -2853 0
2855 6 2853 0
-2856 -2854 0
-2856 -2855 0
2856 2854 2855 0
-2857 2262 0
-2857 2856 0
2857 -2262 -2856 0
-2858 -2262 0
-2858 -2856 0
2858 2262 2856 0
-2859 -2857 0
-2859 -2858 0
2859 2857 2858 0
-2860 -2850 0
-2860 -2859 0
2860 2850 2859 0
-2861 -2832 0
-2861 2860 0
2861 2832 -2860 0
-2862 -2808 0
-2862 2861 0
2862 2808 -2861 0
-2863 -2775 0
-2863 2862 0
2863 2775 -2862 0
-2864 -2742 0
-2864 2863 0
2864 2742 -2863 0
-2865 -2694 0
-2865 2864 0
2865 2694 -2864 0
-2866 -2646 0
-2866 2865 0
2866 2646 -2865 0
-2867 -2607 0
-2867 2866 0
2867 2607 -2866 0
-2868 2589 0
-2868 2867 0
2868 -2589 -2867 0
-2869 2550 0
-2869 2868 0
2869 -2550 -2868 0
-2870 2526 0
-2870 2869 0
2870 -2526 -2869 0
-2871 2493 0
-2871 2870 0
2871 -2493 -2870 0
-2872 2463 0
-2872 2871 0
2872 -2463 -2871 0
-2873 2451 0
-2873 2872 0
2873 -2451 -2872 0
-2874 2439 0
-2874 2873 0
2874 -2439 -2873 0
-2875 2406 0
-2875 2874 0
2875 -2406 -2874 0
-2876 2394 0
-2876 2875 0
2876 -2394 -2875 0
-2877 2382 0
-2877 2876 0
2877 -2382 -2876 0
-2878 2364 0
-2878 2877 0
2878 -2364 -2877 0
-2879 2352 0
-2879 2878 0
2879 -2352 -2878 0
-2880 2328 0
-2880 2879 0
2880 -2328 -2879 0
-2881 2316 0
-2881 2880 0
2881 -2316 -2880 0
-2882 2310 0
-2882 2881 0
2882 -2310 -2881 0
-2883 2256 0
-2883 2882 0
2883 -2256 -2882 0
-2884 2184 0
-2884 2883 0
2884 -2184 -2883 0
-2885 2160 0
-2885 2884 0
2885 -2160 -2884 0
-2886 2115 0
-2886 2885 0
2886 -2115 -2885 0
-2887 2052 0
-2887 2886 0
2887 -2052 -2886 0
-2888 2010 0
-2888 2887 0
2888 -2010 -2887 0
-2889 1890 0
-2889 2888 0
2889 -1890 -2888 0
-2890 1770 0
-2890 -2889 0
2890 -1770 2889 0
-2915 -79 0
-2915 85 0
2915 79 -85 0
-2910 -78 0
-2910 84 0
2910 78 -84 0
-2905 -77 0
-2905 83 0
2905 77 -83 0
-2900 -76 0
-2900 82 0
2900 76 -82 0
-2895 -75 0
-2895 81 0
2895 75 -81 0
-2891 -74 0
-2891 80 0
2891 74 -80 0
-2892 74 0
-2892 -80 0
2892 -74 80 0
-2893 -2891 0
-2893 -2892 0
2893 2891 2892 0
-2894 -2891 0
-2894 -2893 0
2894 2891 2893 0
-2896 75 0
-2896 -81 0
2896 -75 81 0
-2897 -2895 0
-2897 -2896 0
2897 2895 2896 0
-2898 -2894 0
-2898 2897 0
2898 2894 -2897 0
-2899 -2895 0
-2899 -2898 0
2899 2895 2898 0
-2901 76 0
-2901 -82 0
2901 -76 82 0
-2902 -2900 0
-2902 -2901 0
2902 2900 2901 0
-2903 -2899 0
-2903 2902 0
2903 2899 -2902 0
-2904 -2900 0
-2904 -2903 0
2904 2900 2903 0
-2906 77 0
-2906 -83 0
2906 -77 83 0
-2907 -2905 0
-2907 -2906 0
2907 2905 2906 0
-2908 -2904 0
-2908 2907 0
2908 2904 -2907 0
-2909 -2905 0
-2909 -2908 0
2909 2905 2908 0
-2911 78 0
-2911 -84 0
2911 -78 84 0
-2912 -2910 0
-2912 -2911 0
2912 2910 2911 0
-2913 -2909 0
-2913 2912 0
2913 2909 -2912 0
-2914 -2910 0
-2914 -2913 0
2914 2910 2913 0
-2916 79 0
-2916 -85 0
2916 -79 85 0
-2917 -2915 0
-2917 -2916 0
2917 2915 2916 0
-2918 -2914 0
-2918 2917 0
2918 2914 -2917 0
-2919 -2915 0
-2919 -2918 0
2919 2915 2918 0
-2920 2890 0
-2920 -2919 0
2920 -2890 2919 0
-2945 -73 0
-2945 79 0
2945 73 -79 0
-2940 -72 0
-2940 78 0
2940 72 -78 0
-2935 -71 0
-2935 77 0
2935 71 -77 0
-2930 -70 0
-2930 76 0
2930 70 -76 0
-2925 -69 0
-2925 75 0
2925 69 -75 0
-2921 -68 0
-2921 74 0
2921 68 -74 0
-2922 68 0
-2922 -74 0
2922 -68 74 0
-2923 -2921 0
-2923 -2922 0
2923 2921 2922 0
-2924 -2921 0
-2924 -2923 0
2924 2921 2923 0
-2926 69 0
-2926 -75 0
2926 -69 75 0
-2927 -2925 0
-2927 -2926 0
2927 2925 2926 0
-2928 -2924 0
-2928 2927 0
2928 2924 -2927 0
-2929 -2925 0
-2929 -2928 0
2929 2925 2928 0
-2931 70 0
-2931 -76 0
2931 -70 76 0
-2932 -2930 0
-2932 -2931 0
2932 2930 2931 0
-2933 -2929 0
-2933 2932 0
2933 2929 -2932 0
-2934 -2930 0
-2934 -2933 0
2934 2930 2933 0
-2936 71 0
-2936 -77 0
2936 -71 77 0
-2937 -2935 0
-2937 -2936 0
2937 2935 2936 0
-2938 -2934 0
-2938 2937 0
2938 2934 -2937 0
-2939 -2935 0
-2939 -2938 0
2939 2935 2938 0
-2941 72 0
-2941 -78 0
2941 -72 78 0
-2942 -2940 0
-2942 -2941 0
2942 2940 2941 0
-2943 -2939 0
-2943 2942 0
2943 2939 -2942 0
-2944 -2940 0
-2944 -2943 0
2944 2940 2943 0
-2946 73 0
-2946 -79 0
2946 -73 79 0
-2947 -2945 0
-2947 -2946 0
2947 2945 2946 0
-2948 -2944 0
-2948 2947 0
2948 2944 -2947 0
-2949 -2945 0
-2949 -2948 0
2949 2945 2948 0
-2950 2920 0
-2950 -2949 0
2950 -2920 2949 0
-2975 -67 0
-2975 73 0
2975 67 -73 0
-2970 -66 0
-2970 72 0
2970 66 -72 0
-2965 -65 0
-2965 71 0
2965 65 -71 0
-2960 -64 0
-2960 70 0
2960 64 -70 0
-2955 -63 0
-2955 69 0
2955 63 -69 0
-2951 -62 0
-2951 68 0
2951 62 -68 0
-2952 62 0
-2952 -68 0
2952 -62 68 0
-2953 -2951 0
-2953 -2952 0
2953 2951 2952 0
-2954 -2951 0
-2954 -2953 0
2954 2951 2953 0
-2956 63 0
-2956 -69 0
2956 -63 69 0
-2957 -2955 0
-2957 -2956 0
2957 2955 2956 0
-2958 -2954 0
-2958 2957 0
2958 2954 -2957 0
-2959 -2955 0
-2959 -2958 0
2959 2955 2958 0
-2961 64 0
-2961 -70 0
2961 -64 70 0
-2962 -2960 0
-2962 -2961 0
2962 2960 2961 0
-2963 -2959 0
-2963 2962 0
2963 2959 -2962 0
-2964 -2960 0
-2964 -2963 0
2964 2960 2963 0
-2966 65 0
-2966 -71 0
2966 -65 71 0
-2967 -2965 0
-2967 -2966 0
2967 2965 2966 0
-2968 -2964 0
-2968 2967 0
2968 2964 -2967 0
-2969 -2965 0
-2969 -2968 0
2969 2965 2968 0
-2971 66 0
-2971 -72 0
2971 -66 72 0
-2972 -2970 0
-2972 -2971 0
2972 2970 2971 0
-2973 -2969 0
-2973 2972 0
2973 2969 -2972 0
-2974 -2970 0
-2974 -2973 0
2974 2970 2973 0
-2976 67 0
-2976 -73 0
2976 -67 73 0
-2977 -2975 0
-2977 -2976 0
2977 2975 2976 0
-2978 -2974 0
-2978 2977 0
2978 2974 -2977 0
-2979 -2975 0
-2979 -2978 0
2979 2975 2978 0
-2980 2950 0
-2980 -2979 0
2980 -2950 2979 0
-3005 -61 0
-3005 67 0
3005 61 -67 0
-3000 -60 0
-3000 66 0
3000 60 -66 0
-2995 -59 0
-2995 65 0
2995 59 -65 0
-2990 -58 0
-2990 64 0
2990 58 -64 0
-2985 -57 0
-2985 63 0
2985 57 -63 0
-2981 -56 0
-2981 62 0
2981 56 -62 0
-2982 56 0
-2982 -62 0
2982 -56 62 0
-2983 -2981 0
-2983 -2982 0
2983 2981 2982 0
-2984 -2981 0
-2984 -2983 0
2984 2981 2983 0
-2986 57 0
-2986 -63 0
2986 -57 63 0
-2987 -2985 0
-2987 -2986 0
2987 2985 2986 0
-2988 -2984 0
-2988 2987 0
2988 2984 -2987 0
-2989 -2985 0
-2989 -2988 0
2989 2985 2988 0
-2991 58 0
-2991 -64 0
2991 -58 64 0
-2992 -2990 0
-2992 -2991 0
2992 2990 2991 0
-2993 -2989 0
-2993 2992 0
2993 2989 -2992 0
-2994 -2990 0
-2994 -2993 0
2994 2990 2993 0
-2996 59 0
-2996 -65 0
2996 -59 65 0
-2997 -2995 0
-2997 -2996 0
2997 2995 2996 0
-2998 -2994 0
-2998 2997 0
2998 2994 -2997 0
-2999 -2995 0
-2999 -2998 0
2999 2995 2998 0
-3001 60 0
-3001 -66 0
3001 -60 66 0
-3002 -3000 0
-3002 -3001 0
3002 3000 3001 0
-3003 -2999 0
-3003 3002 0
3003 2999 -3002 0
-3004 -3000 0
-3004 -3003 0
3004 3000 3003 0
-3006 61 0
-3006 -67 0
3006 -61 67 0
-3007 -3005 0
-3007 -3006 0
3007 3005 3006 0
-3008 -3004 0
-3008 3007 0
3008 3004 -3007 0
-3009 -3005 0
-3009 -3008 0
3009 3005 3008 0
-3010 2980 0
-3010 -3009 0
3010 -2980 3009 0
3010 0
