p cnf 667 1731
15 -614 0
-15 614 0
16 -615 0
-16 615 0
22 -621 0
-22 621 0
23 -622 0
-23 622 0
7 -606 0
-7 606 0
468 -658 0
-468 658 0
-471 -7 0
-471 468 0
471 7 -468 0
-469 7 0
-469 -468 0
469 -7 468 0
8 -607 0
-8 607 0
451 -656 0
-451 656 0
-454 -8 0
-454 451 0
454 8 -451 0
-452 8 0
-452 -451 0
452 -8 451 0
2 -601 0
-2 601 0
519 -664 0
-519 664 0
-524 2 0
-524 -519 0
524 -2 519 0
-525 -2 0
-525 519 0
525 2 -519 0
-526 -524 0
-526 -525 0
526 524 525 0
527 -665 0
-527 665 0
-530 -526 0
-530 -527 0
530 526 527 0
-528 526 0
-528 527 0
528 -526 -527 0
4 -603 0
-4 603 0
-522 -4 0
-522 519 0
522 4 -519 0
-520 4 0
-520 -519 0
520 -4 519 0
3 -602 0
-3 602 0
502 -662 0
-502 662 0
-507 3 0
-507 -502 0
507 -3 502 0
-508 -3 0
-508 502 0
508 3 -502 0
-509 -507 0
-509 -508 0
509 507 508 0
510 -663 0
-510 663 0
-513 -509 0
-513 -510 0
513 509 510 0
-511 509 0
-511 510 0
511 -509 -510 0
5 -604 0
-5 604 0
-505 -5 0
-505 502 0
505 5 -502 0
-503 5 0
-503 -502 0
503 -5 502 0
59 -628 0
-59 628 0
-62 -16 0
-62 59 0
62 16 -59 0
-60 16 0
-60 -59 0
60 -16 59 0
17 -616 0
-17 616 0
42 -626 0
-42 626 0
-45 -17 0
-45 42 0
45 17 -42 0
-43 17 0
-43 -42 0
43 -17 42 0
13 -612 0
-13 612 0
110 -634 0
-110 634 0
-113 -13 0
-113 110 0
113 13 -110 0
-111 13 0
-111 -110 0
111 -13 110 0
14 -613 0
-14 613 0
93 -632 0
-93 632 0
-96 -14 0
-96 93 0
96 14 -93 0
-94 14 0
-94 -93 0
94 -14 93 0
76 -630 0
-76 630 0
-79 -15 0
-79 76 0
79 15 -76 0
-77 15 0
-77 -76 0
77 -15 76 0
25 -624 0
-25 624 0
-27 -23 0
-27 25 0
27 23 -25 0
-26 23 0
-26 -25 0
26 -23 25 0
24 -623 0
-24 623 0
345 -652 0
-345 652 0
-348 -24 0
-348 345 0
348 24 -345 0
-346 24 0
-346 -345 0
346 -24 345 0
20 -619 0
-20 619 0
213 -642 0
-213 642 0
-216 -20 0
-216 213 0
216 20 -213 0
-214 20 0
-214 -213 0
214 -20 213 0
33 -625 0
-33 625 0
-36 -22 0
-36 33 0
36 22 -33 0
-34 22 0
-34 -33 0
34 -22 33 0
11 -610 0
-11 610 0
128 -636 0
-128 636 0
-131 -11 0
-131 128 0
131 11 -128 0
-129 11 0
-129 -128 0
129 -11 128 0
12 -611 0
-12 611 0
119 -635 0
-119 635 0
-122 -12 0
-122 119 0
122 12 -119 0
-120 12 0
-120 -119 0
120 -12 119 0
6 -605 0
-6 605 0
-28 -26 0
-28 -27 0
28 26 27 0
10 -609 0
-10 609 0
-29 10 0
-29 -25 0
29 -10 25 0
-30 -10 0
-30 25 0
30 10 -25 0
-31 -29 0
-31 -30 0
31 29 30 0
-32 28 0
-32 31 0
32 -28 -31 0
-35 32 0
-35 -34 0
35 -32 34 0
-37 35 0
-37 -36 0
37 -35 36 0
9 -608 0
-9 608 0
-38 9 0
-38 -33 0
38 -9 33 0
-39 -9 0
-39 33 0
39 9 -33 0
-40 -38 0
-40 -39 0
40 38 39 0
-41 37 0
-41 40 0
41 -37 -40 0
-44 41 0
-44 -43 0
44 -41 43 0
-46 44 0
-46 -45 0
46 -44 45 0
-47 8 0
-47 -42 0
47 -8 42 0
-48 -8 0
-48 42 0
48 8 -42 0
-49 -47 0
-49 -48 0
49 47 48 0
50 -627 0
-50 627 0
-51 49 0
-51 50 0
51 -49 -50 0
-52 46 0
-52 -51 0
52 -46 51 0
-53 -49 0
-53 -50 0
53 49 50 0
-54 52 0
-54 -53 0
54 -52 53 0
21 -620 0
-21 620 0
-55 21 0
-55 -50 0
55 -21 50 0
-56 -21 0
-56 50 0
56 21 -50 0
-57 -55 0
-57 -56 0
57 55 56 0
-58 54 0
-58 57 0
58 -54 -57 0
-61 58 0
-61 -60 0
61 -58 60 0
-63 61 0
-63 -62 0
63 -61 62 0
-64 7 0
-64 -59 0
64 -7 59 0
-65 -7 0
-65 59 0
65 7 -59 0
-66 -64 0
-66 -65 0
66 64 65 0
67 -629 0
-67 629 0
-68 66 0
-68 67 0
68 -66 -67 0
-69 63 0
-69 -68 0
69 -63 68 0
-70 -66 0
-70 -67 0
70 66 67 0
-71 69 0
-71 -70 0
71 -69 70 0
-72 20 0
-72 -67 0
72 -20 67 0
-73 -20 0
-73 67 0
73 20 -67 0
-74 -72 0
-74 -73 0
74 72 73 0
-75 71 0
-75 74 0
75 -71 -74 0
-78 75 0
-78 -77 0
78 -75 77 0
-80 78 0
-80 -79 0
80 -78 79 0
-81 6 0
-81 -76 0
81 -6 76 0
-82 -6 0
-82 76 0
82 6 -76 0
-83 -81 0
-83 -82 0
83 81 82 0
84 -631 0
-84 631 0
-85 83 0
-85 84 0
85 -83 -84 0
-86 80 0
-86 -85 0
86 -80 85 0
-87 -83 0
-87 -84 0
87 83 84 0
-88 86 0
-88 -87 0
88 -86 87 0
19 -618 0
-19 618 0
-89 19 0
-89 -84 0
89 -19 84 0
-90 -19 0
-90 84 0
90 19 -84 0
-91 -89 0
-91 -90 0
91 89 90 0
-92 88 0
-92 91 0
92 -88 -91 0
-95 92 0
-95 -94 0
95 -92 94 0
-97 95 0
-97 -96 0
97 -95 96 0
-98 5 0
-98 -93 0
98 -5 93 0
-99 -5 0
-99 93 0
99 5 -93 0
-100 -98 0
-100 -99 0
100 98 99 0
101 -633 0
-101 633 0
-102 100 0
-102 101 0
102 -100 -101 0
-103 97 0
-103 -102 0
103 -97 102 0
-104 -100 0
-104 -101 0
104 100 101 0
-105 103 0
-105 -104 0
105 -103 104 0
18 -617 0
-18 617 0
-106 18 0
-106 -101 0
106 -18 101 0
-107 -18 0
-107 101 0
107 18 -101 0
-108 -106 0
-108 -107 0
108 106 107 0
-109 105 0
-109 108 0
109 -105 -108 0
-112 109 0
-112 -111 0
112 -109 111 0
-114 112 0
-114 -113 0
114 -112 113 0
-115 4 0
-115 -110 0
115 -4 110 0
-116 -4 0
-116 110 0
116 4 -110 0
-117 -115 0
-117 -116 0
117 115 116 0
-118 114 0
-118 117 0
118 -114 -117 0
-121 118 0
-121 -120 0
121 -118 120 0
-123 121 0
-123 -122 0
123 -121 122 0
-124 3 0
-124 -119 0
124 -3 119 0
-125 -3 0
-125 119 0
125 3 -119 0
-126 -124 0
-126 -125 0
126 124 125 0
-127 123 0
-127 126 0
127 -123 -126 0
-130 127 0
-130 -129 0
130 -127 129 0
-132 130 0
-132 -131 0
132 -130 131 0
-133 2 0
-133 -128 0
133 -2 128 0
-134 -2 0
-134 128 0
134 2 -128 0
-135 -133 0
-135 -134 0
135 133 134 0
136 -637 0
-136 637 0
-137 135 0
-137 136 0
137 -135 -136 0
-138 132 0
-138 -137 0
138 -132 137 0
-139 -135 0
-139 -136 0
139 135 136 0
-140 138 0
-140 -139 0
140 -138 139 0
-141 24 0
-141 -136 0
141 -24 136 0
-142 -24 0
-142 136 0
142 24 -136 0
-143 -141 0
-143 -142 0
143 141 142 0
-144 140 0
-144 143 0
144 -140 -143 0
-145 -60 0
-145 144 0
145 60 -144 0
-146 -62 0
-146 145 0
146 62 -145 0
-147 10 0
-147 -59 0
147 -10 59 0
-148 -10 0
-148 59 0
148 10 -59 0
-149 -147 0
-149 -148 0
149 147 148 0
-150 146 0
-150 149 0
150 -146 -149 0
-151 -77 0
-151 150 0
151 77 -150 0
-152 -79 0
-152 151 0
152 79 -151 0
-153 9 0
-153 -76 0
153 -9 76 0
-154 -9 0
-154 76 0
154 9 -76 0
-155 -153 0
-155 -154 0
155 153 154 0
-156 152 0
-156 155 0
156 -152 -155 0
-157 -94 0
-157 156 0
157 94 -156 0
-158 -96 0
-158 157 0
158 96 -157 0
-159 8 0
-159 -93 0
159 -8 93 0
-160 -8 0
-160 93 0
160 8 -93 0
-161 -159 0
-161 -160 0
161 159 160 0
162 -638 0
-162 638 0
-163 161 0
-163 162 0
163 -161 -162 0
-164 158 0
-164 -163 0
164 -158 163 0
-165 -161 0
-165 -162 0
165 161 162 0
-166 164 0
-166 -165 0
166 -164 165 0
-167 24 0
-167 -162 0
167 -24 162 0
-168 -24 0
-168 162 0
168 24 -162 0
-169 -167 0
-169 -168 0
169 167 168 0
-170 166 0
-170 169 0
170 -166 -169 0
-171 -111 0
-171 170 0
171 111 -170 0
-172 -113 0
-172 171 0
172 113 -171 0
-173 7 0
-173 -110 0
173 -7 110 0
-174 -7 0
-174 110 0
174 7 -110 0
-175 -173 0
-175 -174 0
175 173 174 0
176 -639 0
-176 639 0
-177 175 0
-177 176 0
177 -175 -176 0
-178 172 0
-178 -177 0
178 -172 177 0
-179 -175 0
-179 -176 0
179 175 176 0
-180 178 0
-180 -179 0
180 -178 179 0
-181 23 0
-181 -176 0
181 -23 176 0
-182 -23 0
-182 176 0
182 23 -176 0
-183 -181 0
-183 -182 0
183 181 182 0
-184 180 0
-184 183 0
184 -180 -183 0
-185 -120 0
-185 184 0
185 120 -184 0
-186 -122 0
-186 185 0
186 122 -185 0
-187 6 0
-187 -119 0
187 -6 119 0
-188 -6 0
-188 119 0
188 6 -119 0
-189 -187 0
-189 -188 0
189 187 188 0
190 -640 0
-190 640 0
-191 189 0
-191 190 0
191 -189 -190 0
-192 186 0
-192 -191 0
192 -186 191 0
-193 -189 0
-193 -190 0
193 189 190 0
-194 192 0
-194 -193 0
194 -192 193 0
-195 22 0
-195 -190 0
195 -22 190 0
-196 -22 0
-196 190 0
196 22 -190 0
-197 -195 0
-197 -196 0
197 195 196 0
-198 194 0
-198 197 0
198 -194 -197 0
-199 -129 0
-199 198 0
199 129 -198 0
-200 -131 0
-200 199 0
200 131 -199 0
-201 5 0
-201 -128 0
201 -5 128 0
-202 -5 0
-202 128 0
202 5 -128 0
-203 -201 0
-203 -202 0
203 201 202 0
204 -641 0
-204 641 0
-205 203 0
-205 204 0
205 -203 -204 0
-206 200 0
-206 -205 0
206 -200 205 0
-207 -203 0
-207 -204 0
207 203 204 0
-208 206 0
-208 -207 0
208 -206 207 0
-209 21 0
-209 -204 0
209 -21 204 0
-210 -21 0
-210 204 0
210 21 -204 0
-211 -209 0
-211 -210 0
211 209 210 0
-212 208 0
-212 211 0
212 -208 -211 0
-215 212 0
-215 -214 0
215 -212 214 0
-217 215 0
-217 -216 0
217 -215 216 0
-218 4 0
-218 -213 0
218 -4 213 0
-219 -4 0
-219 213 0
219 4 -213 0
-220 -218 0
-220 -219 0
220 218 219 0
-221 217 0
-221 220 0
221 -217 -220 0
222 -643 0
-222 643 0
-223 19 0
-223 -222 0
223 -19 222 0
-224 221 0
-224 -223 0
224 -221 223 0
-225 -19 0
-225 222 0
225 19 -222 0
-226 224 0
-226 -225 0
226 -224 225 0
-227 3 0
-227 -222 0
227 -3 222 0
-228 -3 0
-228 222 0
228 3 -222 0
-229 -227 0
-229 -228 0
229 227 228 0
-230 226 0
-230 229 0
230 -226 -229 0
-231 -43 0
-231 230 0
231 43 -230 0
-232 -45 0
-232 231 0
232 45 -231 0
-233 2 0
-233 -42 0
233 -2 42 0
-234 -2 0
-234 42 0
234 2 -42 0
-235 -233 0
-235 -234 0
235 233 234 0
236 -644 0
-236 644 0
-237 235 0
-237 236 0
237 -235 -236 0
-238 232 0
-238 -237 0
238 -232 237 0
-239 -235 0
-239 -236 0
239 235 236 0
-240 238 0
-240 -239 0
240 -238 239 0
-241 18 0
-241 -236 0
241 -18 236 0
-242 -18 0
-242 236 0
242 18 -236 0
-243 -241 0
-243 -242 0
243 241 242 0
-244 240 0
-244 243 0
244 -240 -243 0
-245 -7 0
-245 244 0
245 7 -244 0
-246 -6 0
-246 245 0
246 6 -245 0
-247 -43 0
-247 246 0
247 43 -246 0
-248 -45 0
-248 247 0
248 45 -247 0
-249 5 0
-249 -42 0
249 -5 42 0
-250 -5 0
-250 42 0
250 5 -42 0
-251 -249 0
-251 -250 0
251 249 250 0
252 -645 0
-252 645 0
-253 251 0
-253 252 0
253 -251 -252 0
-254 248 0
-254 -253 0
254 -248 253 0
-255 -251 0
-255 -252 0
255 251 252 0
-256 254 0
-256 -255 0
256 -254 255 0
-257 24 0
-257 -252 0
257 -24 252 0
-258 -24 0
-258 252 0
258 24 -252 0
-259 -257 0
-259 -258 0
259 257 258 0
-260 256 0
-260 259 0
260 -256 -259 0
-261 -60 0
-261 260 0
261 60 -260 0
-262 -62 0
-262 261 0
262 62 -261 0
-263 4 0
-263 -59 0
263 -4 59 0
-264 -4 0
-264 59 0
264 4 -59 0
-265 -263 0
-265 -264 0
265 263 264 0
266 -646 0
-266 646 0
-267 265 0
-267 266 0
267 -265 -266 0
-268 262 0
-268 -267 0
268 -262 267 0
-269 -265 0
-269 -266 0
269 265 266 0
-270 268 0
-270 -269 0
270 -268 269 0
-271 23 0
-271 -266 0
271 -23 266 0
-272 -23 0
-272 266 0
272 23 -266 0
-273 -271 0
-273 -272 0
273 271 272 0
-274 270 0
-274 273 0
274 -270 -273 0
-275 -77 0
-275 274 0
275 77 -274 0
-276 -79 0
-276 275 0
276 79 -275 0
-277 3 0
-277 -76 0
277 -3 76 0
-278 -3 0
-278 76 0
278 3 -76 0
-279 -277 0
-279 -278 0
279 277 278 0
280 -647 0
-280 647 0
-281 279 0
-281 280 0
281 -279 -280 0
-282 276 0
-282 -281 0
282 -276 281 0
-283 -279 0
-283 -280 0
283 279 280 0
-284 282 0
-284 -283 0
284 -282 283 0
-285 22 0
-285 -280 0
285 -22 280 0
-286 -22 0
-286 280 0
286 22 -280 0
-287 -285 0
-287 -286 0
287 285 286 0
-288 284 0
-288 287 0
288 -284 -287 0
-289 -94 0
-289 288 0
289 94 -288 0
-290 -96 0
-290 289 0
290 96 -289 0
-291 2 0
-291 -93 0
291 -2 93 0
-292 -2 0
-292 93 0
292 2 -93 0
-293 -291 0
-293 -292 0
293 291 292 0
294 -648 0
-294 648 0
-295 293 0
-295 294 0
295 -293 -294 0
-296 290 0
-296 -295 0
296 -290 295 0
-297 -293 0
-297 -294 0
297 293 294 0
-298 296 0
-298 -297 0
298 -296 297 0
-299 21 0
-299 -294 0
299 -21 294 0
-300 -21 0
-300 294 0
300 21 -294 0
-301 -299 0
-301 -300 0
301 299 300 0
-302 298 0
-302 301 0
302 -298 -301 0
-303 -111 0
-303 302 0
303 111 -302 0
-304 -113 0
-304 303 0
304 113 -303 0
-305 10 0
-305 -110 0
305 -10 110 0
-306 -10 0
-306 110 0
306 10 -110 0
-307 -305 0
-307 -306 0
307 305 306 0
308 -649 0
-308 649 0
-309 307 0
-309 308 0
309 -307 -308 0
-310 304 0
-310 -309 0
310 -304 309 0
-311 -307 0
-311 -308 0
311 307 308 0
-312 310 0
-312 -311 0
312 -310 311 0
-313 20 0
-313 -308 0
313 -20 308 0
-314 -20 0
-314 308 0
314 20 -308 0
-315 -313 0
-315 -314 0
315 313 314 0
-316 312 0
-316 315 0
316 -312 -315 0
-317 -120 0
-317 316 0
317 120 -316 0
-318 -122 0
-318 317 0
318 122 -317 0
-319 9 0
-319 -119 0
319 -9 119 0
-320 -9 0
-320 119 0
320 9 -119 0
-321 -319 0
-321 -320 0
321 319 320 0
322 -650 0
-322 650 0
-323 321 0
-323 322 0
323 -321 -322 0
-324 318 0
-324 -323 0
324 -318 323 0
-325 -321 0
-325 -322 0
325 321 322 0
-326 324 0
-326 -325 0
326 -324 325 0
-327 19 0
-327 -322 0
327 -19 322 0
-328 -19 0
-328 322 0
328 19 -322 0
-329 -327 0
-329 -328 0
329 327 328 0
-330 326 0
-330 329 0
330 -326 -329 0
-331 -129 0
-331 330 0
331 129 -330 0
-332 -131 0
-332 331 0
332 131 -331 0
-333 8 0
-333 -128 0
333 -8 128 0
-334 -8 0
-334 128 0
334 8 -128 0
-335 -333 0
-335 -334 0
335 333 334 0
336 -651 0
-336 651 0
-337 335 0
-337 336 0
337 -335 -336 0
-338 332 0
-338 -337 0
338 -332 337 0
-339 -335 0
-339 -336 0
339 335 336 0
-340 338 0
-340 -339 0
340 -338 339 0
-341 18 0
-341 -336 0
341 -18 336 0
-342 -18 0
-342 336 0
342 18 -336 0
-343 -341 0
-343 -342 0
343 341 342 0
-344 340 0
-344 343 0
344 -340 -343 0
-347 344 0
-347 -346 0
347 -344 346 0
-349 347 0
-349 -348 0
349 -347 348 0
-350 22 0
-350 -345 0
350 -22 345 0
-351 -22 0
-351 345 0
351 22 -345 0
-352 -350 0
-352 -351 0
352 350 351 0
-353 349 0
-353 352 0
353 -349 -352 0
-354 -26 0
-354 353 0
354 26 -353 0
-355 -27 0
-355 354 0
355 27 -354 0
-356 21 0
-356 -25 0
356 -21 25 0
-357 -21 0
-357 25 0
357 21 -25 0
-358 -356 0
-358 -357 0
358 356 357 0
-359 355 0
-359 358 0
359 -355 -358 0
-360 -34 0
-360 359 0
360 34 -359 0
-361 -36 0
-361 360 0
361 36 -360 0
-362 20 0
-362 -33 0
362 -20 33 0
-363 -20 0
-363 33 0
363 20 -33 0
-364 -362 0
-364 -363 0
364 362 363 0
365 -653 0
-365 653 0
-366 364 0
-366 365 0
366 -364 -365 0
-367 361 0
-367 -366 0
367 -361 366 0
-368 -364 0
-368 -365 0
368 364 365 0
-369 367 0
-369 -368 0
369 -367 368 0
-370 24 0
-370 -365 0
370 -24 365 0
-371 -24 0
-371 365 0
371 24 -365 0
-372 -370 0
-372 -371 0
372 370 371 0
-373 369 0
-373 372 0
373 -369 -372 0
374 -654 0
-374 654 0
-375 21 0
-375 -374 0
375 -21 374 0
-376 373 0
-376 -375 0
376 -373 375 0
-377 -21 0
-377 374 0
377 21 -374 0
-378 376 0
-378 -377 0
378 -376 377 0
-379 19 0
-379 -374 0
379 -19 374 0
-380 -19 0
-380 374 0
380 19 -374 0
-381 -379 0
-381 -380 0
381 379 380 0
-382 378 0
-382 381 0
382 -378 -381 0
-383 -214 0
-383 382 0
383 214 -382 0
-384 -216 0
-384 383 0
384 216 -383 0
-385 18 0
-385 -213 0
385 -18 213 0
-386 -18 0
-386 213 0
386 18 -213 0
-387 -385 0
-387 -386 0
387 385 386 0
-388 384 0
-388 387 0
388 -384 -387 0
-389 -346 0
-389 388 0
389 346 -388 0
-390 -348 0
-390 389 0
390 348 -389 0
-391 19 0
-391 -345 0
391 -19 345 0
-392 -19 0
-392 345 0
392 19 -345 0
-393 -391 0
-393 -392 0
393 391 392 0
-394 390 0
-394 393 0
394 -390 -393 0
-395 -26 0
-395 394 0
395 26 -394 0
-396 -27 0
-396 395 0
396 27 -395 0
-397 18 0
-397 -25 0
397 -18 25 0
-398 -18 0
-398 25 0
398 18 -25 0
-399 -397 0
-399 -398 0
399 397 398 0
-400 396 0
-400 399 0
400 -396 -399 0
-401 -43 0
-401 400 0
401 43 -400 0
-402 -45 0
-402 401 0
402 45 -401 0
-403 15 0
-403 -42 0
403 -15 42 0
-404 -15 0
-404 42 0
404 15 -42 0
-405 -403 0
-405 -404 0
405 403 404 0
-406 402 0
-406 405 0
406 -402 -405 0
-407 -60 0
-407 406 0
407 60 -406 0
-408 -62 0
-408 407 0
408 62 -407 0
-409 14 0
-409 -59 0
409 -14 59 0
-410 -14 0
-410 59 0
410 14 -59 0
-411 -409 0
-411 -410 0
411 409 410 0
-412 408 0
-412 411 0
412 -408 -411 0
-413 -77 0
-413 412 0
413 77 -412 0
-414 -79 0
-414 413 0
414 79 -413 0
-415 13 0
-415 -76 0
415 -13 76 0
-416 -13 0
-416 76 0
416 13 -76 0
-417 -415 0
-417 -416 0
417 415 416 0
418 -655 0
-418 655 0
-419 417 0
-419 418 0
419 -417 -418 0
-420 414 0
-420 -419 0
420 -414 419 0
-421 -417 0
-421 -418 0
421 417 418 0
-422 420 0
-422 -421 0
422 -420 421 0
-423 17 0
-423 -418 0
423 -17 418 0
-424 -17 0
-424 418 0
424 17 -418 0
-425 -423 0
-425 -424 0
425 423 424 0
-426 422 0
-426 425 0
426 -422 -425 0
-427 -94 0
-427 426 0
427 94 -426 0
-428 -96 0
-428 427 0
428 96 -427 0
-429 12 0
-429 -93 0
429 -12 93 0
-430 -12 0
-430 93 0
430 12 -93 0
-431 -429 0
-431 -430 0
431 429 430 0
-432 428 0
-432 431 0
432 -428 -431 0
-433 -111 0
-433 432 0
433 111 -432 0
-434 -113 0
-434 433 0
434 113 -433 0
-435 11 0
-435 -110 0
435 -11 110 0
-436 -11 0
-436 110 0
436 11 -110 0
-437 -435 0
-437 -436 0
437 435 436 0
-438 434 0
-438 437 0
438 -434 -437 0
-439 -43 0
-439 438 0
439 43 -438 0
-440 -45 0
-440 439 0
440 45 -439 0
-441 12 0
-441 -42 0
441 -12 42 0
-442 -12 0
-442 42 0
442 12 -42 0
-443 -441 0
-443 -442 0
443 441 442 0
-444 440 0
-444 443 0
444 -440 -443 0
-445 -60 0
-445 444 0
445 60 -444 0
-446 -62 0
-446 445 0
446 62 -445 0
-447 11 0
-447 -59 0
447 -11 59 0
-448 -11 0
-448 59 0
448 11 -59 0
-449 -447 0
-449 -448 0
449 447 448 0
-450 446 0
-450 449 0
450 -446 -449 0
-453 450 0
-453 -452 0
453 -450 452 0
-455 453 0
-455 -454 0
455 -453 454 0
-456 6 0
-456 -451 0
456 -6 451 0
-457 -6 0
-457 451 0
457 6 -451 0
-458 -456 0
-458 -457 0
458 456 457 0
459 -657 0
-459 657 0
-460 458 0
-460 459 0
460 -458 -459 0
-461 455 0
-461 -460 0
461 -455 460 0
-462 -458 0
-462 -459 0
462 458 459 0
-463 461 0
-463 -462 0
463 -461 462 0
-464 10 0
-464 -459 0
464 -10 459 0
-465 -10 0
-465 459 0
465 10 -459 0
-466 -464 0
-466 -465 0
466 464 465 0
-467 463 0
-467 466 0
467 -463 -466 0
-470 467 0
-470 -469 0
470 -467 469 0
-472 470 0
-472 -471 0
472 -470 471 0
-473 5 0
-473 -468 0
473 -5 468 0
-474 -5 0
-474 468 0
474 5 -468 0
-475 -473 0
-475 -474 0
475 473 474 0
476 -659 0
-476 659 0
-477 475 0
-477 476 0
477 -475 -476 0
-478 472 0
-478 -477 0
478 -472 477 0
-479 -475 0
-479 -476 0
479 475 476 0
-480 478 0
-480 -479 0
480 -478 479 0
-481 9 0
-481 -476 0
481 -9 476 0
-482 -9 0
-482 476 0
482 9 -476 0
-483 -481 0
-483 -482 0
483 481 482 0
-484 480 0
-484 483 0
484 -480 -483 0
485 -660 0
-485 660 0
-486 6 0
-486 -485 0
486 -6 485 0
-487 484 0
-487 -486 0
487 -484 486 0
-488 -6 0
-488 485 0
488 6 -485 0
-489 487 0
-489 -488 0
489 -487 488 0
-490 4 0
-490 -485 0
490 -4 485 0
-491 -4 0
-491 485 0
491 4 -485 0
-492 -490 0
-492 -491 0
492 490 491 0
493 -661 0
-493 661 0
-494 492 0
-494 493 0
494 -492 -493 0
-495 489 0
-495 -494 0
495 -489 494 0
-496 -492 0
-496 -493 0
496 492 493 0
-497 495 0
-497 -496 0
497 -495 496 0
-498 8 0
-498 -493 0
498 -8 493 0
-499 -8 0
-499 493 0
499 8 -493 0
-500 -498 0
-500 -499 0
500 498 499 0
-501 497 0
-501 500 0
501 -497 -500 0
-504 501 0
-504 -503 0
504 -501 503 0
-506 504 0
-506 -505 0
506 -504 505 0
-512 506 0
-512 -511 0
512 -506 511 0
-514 512 0
-514 -513 0
514 -512 513 0
-515 7 0
-515 -510 0
515 -7 510 0
-516 -7 0
-516 510 0
516 7 -510 0
-517 -515 0
-517 -516 0
517 515 516 0
-518 514 0
-518 517 0
518 -514 -517 0
-521 518 0
-521 -520 0
521 -518 520 0
-523 521 0
-523 -522 0
523 -521 522 0
-529 523 0
-529 -528 0
529 -523 528 0
-531 529 0
-531 -530 0
531 -529 530 0
-532 6 0
-532 -527 0
532 -6 527 0
-533 -6 0
-533 527 0
533 6 -527 0
-534 -532 0
-534 -533 0
534 532 533 0
-535 531 0
-535 534 0
535 -531 -534 0
-536 -503 0
-536 535 0
536 503 -535 0
-537 -505 0
-537 536 0
537 505 -536 0
-538 -511 0
-538 537 0
538 511 -537 0
-539 -513 0
-539 538 0
539 513 -538 0
-540 10 0
-540 -510 0
540 -10 510 0
-541 -10 0
-541 510 0
541 10 -510 0
-542 -540 0
-542 -541 0
542 540 541 0
-543 539 0
-543 542 0
543 -539 -542 0
-544 -520 0
-544 543 0
544 520 -543 0
-545 -522 0
-545 544 0
545 522 -544 0
-546 -528 0
-546 545 0
546 528 -545 0
-547 -530 0
-547 546 0
547 530 -546 0
-548 9 0
-548 -527 0
548 -9 527 0
-549 -9 0
-549 527 0
549 9 -527 0
-550 -548 0
-550 -549 0
550 548 549 0
-551 547 0
-551 550 0
551 -547 -550 0
-552 -452 0
-552 551 0
552 452 -551 0
-553 -454 0
-553 552 0
553 454 -552 0
-554 3 0
-554 -451 0
554 -3 451 0
-555 -3 0
-555 451 0
555 3 -451 0
-556 -554 0
-556 -555 0
556 554 555 0
557 -666 0
-557 666 0
-558 556 0
-558 557 0
558 -556 -557 0
-559 553 0
-559 -558 0
559 -553 558 0
-560 -556 0
-560 -557 0
560 556 557 0
-561 559 0
-561 -560 0
561 -559 560 0
-562 10 0
-562 -557 0
562 -10 557 0
-563 -10 0
-563 557 0
563 10 -557 0
-564 -562 0
-564 -563 0
564 562 563 0
-565 561 0
-565 564 0
565 -561 -564 0
-566 -469 0
-566 565 0
566 469 -565 0
-567 -471 0
-567 566 0
567 471 -566 0
-568 2 0
-568 -468 0
568 -2 468 0
-569 -2 0
-569 468 0
569 2 -468 0
-570 -568 0
-570 -569 0
570 568 569 0
571 -667 0
-571 667 0
-572 570 0
-572 571 0
572 -570 -571 0
-573 567 0
-573 -572 0
573 -567 572 0
-574 -570 0
-574 -571 0
574 570 571 0
-575 573 0
-575 -574 0
575 -573 574 0
-576 9 0
-576 -571 0
576 -9 571 0
-577 -9 0
-577 571 0
577 9 -571 0
-578 -576 0
-578 -577 0
578 576 577 0
-579 575 0
-579 578 0
579 -575 -578 0
-580 -23 0
-580 579 0
580 23 -579 0
-581 -22 0
-581 580 0
581 22 -580 0
-582 -16 0
-582 581 0
582 16 -581 0
-583 -15 0
-583 582 0
583 15 -582 0
-584 -2 0
-584 -3 0
584 2 3 0
-585 -4 0
-585 584 0
585 4 -584 0
-586 -5 0
-586 585 0
586 5 -585 0
-587 -8 0
-587 586 0
587 8 -586 0
-588 -9 0
-588 587 0
588 9 -587 0
-589 -10 0
-589 588 0
589 10 -588 0
-590 -11 0
-590 589 0
590 11 -589 0
-591 -12 0
-591 590 0
591 12 -590 0
-592 -13 0
-592 591 0
592 13 -591 0
-593 -14 0
-593 592 0
593 14 -592 0
-594 -17 0
-594 593 0
594 17 -593 0
-595 -18 0
-595 594 0
595 18 -594 0
-596 -19 0
-596 595 0
596 19 -595 0
-597 -20 0
-597 596 0
597 20 -596 0
-598 -21 0
-598 597 0
598 21 -597 0
-599 -24 0
-599 598 0
599 24 -598 0
-600 583 0
-600 -599 0
600 -583 599 0
600 0
