p cnf 3178 6550
55 -3148 0
-55 3148 0
85 -3178 0
-85 3178 0
84 -3177 0
-84 3177 0
83 -3176 0
-83 3176 0
82 -3175 0
-82 3175 0
80 -3173 0
-80 3173 0
81 -3174 0
-81 3174 0
-87 80 0
-87 -81 0
87 -80 81 0
-95 82 0
-95 87 0
95 -82 -87 0
-103 -83 0
-103 95 0
103 83 -95 0
-135 84 0
-135 103 0
135 -84 -103 0
-199 85 0
-199 135 0
199 -85 -135 0
79 -3172 0
-79 3172 0
78 -3171 0
-78 3171 0
77 -3170 0
-77 3170 0
76 -3169 0
-76 3169 0
74 -3167 0
-74 3167 0
75 -3168 0
-75 3168 0
-201 74 0
-201 -75 0
201 -74 75 0
-209 76 0
-209 201 0
209 -76 -201 0
-217 -77 0
-217 209 0
217 77 -209 0
-249 78 0
-249 217 0
249 -78 -217 0
-313 79 0
-313 249 0
313 -79 -249 0
73 -3166 0
-73 3166 0
72 -3165 0
-72 3165 0
71 -3164 0
-71 3164 0
70 -3163 0
-70 3163 0
68 -3161 0
-68 3161 0
69 -3162 0
-69 3162 0
-315 68 0
-315 -69 0
315 -68 69 0
-323 70 0
-323 315 0
323 -70 -315 0
-331 -71 0
-331 323 0
331 71 -323 0
-363 72 0
-363 331 0
363 -72 -331 0
-427 73 0
-427 363 0
427 -73 -363 0
67 -3160 0
-67 3160 0
66 -3159 0
-66 3159 0
65 -3158 0
-65 3158 0
64 -3157 0
-64 3157 0
62 -3155 0
-62 3155 0
63 -3156 0
-63 3156 0
-429 62 0
-429 -63 0
429 -62 63 0
-437 64 0
-437 429 0
437 -64 -429 0
-445 -65 0
-445 437 0
445 65 -437 0
-477 66 0
-477 445 0
477 -66 -445 0
-541 67 0
-541 477 0
541 -67 -477 0
61 -3154 0
-61 3154 0
60 -3153 0
-60 3153 0
59 -3152 0
-59 3152 0
58 -3151 0
-58 3151 0
56 -3149 0
-56 3149 0
57 -3150 0
-57 3150 0
-543 56 0
-543 -57 0
543 -56 57 0
-551 58 0
-551 543 0
551 -58 -543 0
-559 -59 0
-559 551 0
559 59 -551 0
-591 60 0
-591 559 0
591 -60 -559 0
-655 61 0
-655 591 0
655 -61 -591 0
-709 -541 0
-709 -655 0
709 541 655 0
-763 -427 0
-763 709 0
763 427 -709 0
-817 -313 0
-817 763 0
817 313 -763 0
-871 -199 0
-871 817 0
871 199 -817 0
-1031 55 0
-1031 871 0
1031 -55 -871 0
-1032 -55 0
-1032 -871 0
1032 55 871 0
-1033 -1031 0
-1033 -1032 0
1033 1031 1032 0
54 -3147 0
-54 3147 0
-86 -80 0
-86 -81 0
86 80 81 0
-94 82 0
-94 86 0
94 -82 -86 0
-102 -83 0
-102 94 0
102 83 -94 0
-134 84 0
-134 102 0
134 -84 -102 0
-198 85 0
-198 134 0
198 -85 -134 0
-200 -74 0
-200 -75 0
200 74 75 0
-208 76 0
-208 200 0
208 -76 -200 0
-216 -77 0
-216 208 0
216 77 -208 0
-248 78 0
-248 216 0
248 -78 -216 0
-312 79 0
-312 248 0
312 -79 -248 0
-314 -68 0
-314 -69 0
314 68 69 0
-322 70 0
-322 314 0
322 -70 -314 0
-330 -71 0
-330 322 0
330 71 -322 0
-362 72 0
-362 330 0
362 -72 -330 0
-426 73 0
-426 362 0
426 -73 -362 0
-428 -62 0
-428 -63 0
428 62 63 0
-436 64 0
-436 428 0
436 -64 -428 0
-444 -65 0
-444 436 0
444 65 -436 0
-476 66 0
-476 444 0
476 -66 -444 0
-540 67 0
-540 476 0
540 -67 -476 0
-542 -56 0
-542 -57 0
542 56 57 0
-550 58 0
-550 542 0
550 -58 -542 0
-558 -59 0
-558 550 0
558 59 -550 0
-590 60 0
-590 558 0
590 -60 -558 0
-654 61 0
-654 590 0
654 -61 -590 0
-708 -540 0
-708 -654 0
708 540 654 0
-762 -426 0
-762 708 0
762 426 -708 0
-816 -312 0
-816 762 0
816 312 -762 0
-870 -198 0
-870 816 0
870 198 -816 0
-1028 54 0
-1028 870 0
1028 -54 -870 0
-1029 -54 0
-1029 -870 0
1029 54 870 0
-1030 -1028 0
-1030 -1029 0
1030 1028 1029 0
53 -3146 0
-53 3146 0
-89 80 0
-89 81 0
89 -80 -81 0
-93 -82 0
-93 89 0
93 82 -89 0
-101 -83 0
-101 93 0
101 83 -93 0
-133 84 0
-133 101 0
133 -84 -101 0
-197 85 0
-197 133 0
197 -85 -133 0
-203 74 0
-203 75 0
203 -74 -75 0
-207 -76 0
-207 203 0
207 76 -203 0
-215 -77 0
-215 207 0
215 77 -207 0
-247 78 0
-247 215 0
247 -78 -215 0
-311 79 0
-311 247 0
311 -79 -247 0
-317 68 0
-317 69 0
317 -68 -69 0
-321 -70 0
-321 317 0
321 70 -317 0
-329 -71 0
-329 321 0
329 71 -321 0
-361 72 0
-361 329 0
361 -72 -329 0
-425 73 0
-425 361 0
425 -73 -361 0
-431 62 0
-431 63 0
431 -62 -63 0
-435 -64 0
-435 431 0
435 64 -431 0
-443 -65 0
-443 435 0
443 65 -435 0
-475 66 0
-475 443 0
475 -66 -443 0
-539 67 0
-539 475 0
539 -67 -475 0
-545 56 0
-545 57 0
545 -56 -57 0
-549 -58 0
-549 545 0
549 58 -545 0
-557 -59 0
-557 549 0
557 59 -549 0
-589 60 0
-589 557 0
589 -60 -557 0
-653 61 0
-653 589 0
653 -61 -589 0
-707 -539 0
-707 -653 0
707 539 653 0
-761 -425 0
-761 707 0
761 425 -707 0
-815 -311 0
-815 761 0
815 311 -761 0
-869 -197 0
-869 815 0
869 197 -815 0
-1025 53 0
-1025 869 0
1025 -53 -869 0
-1026 -53 0
-1026 -869 0
1026 53 869 0
-1027 -1025 0
-1027 -1026 0
1027 1025 1026 0
52 -3145 0
-52 3145 0
-88 -80 0
-88 81 0
88 80 -81 0
-92 -82 0
-92 88 0
92 82 -88 0
-100 -83 0
-100 92 0
100 83 -92 0
-132 84 0
-132 100 0
132 -84 -100 0
-196 85 0
-196 132 0
196 -85 -132 0
-202 -74 0
-202 75 0
202 74 -75 0
-206 -76 0
-206 202 0
206 76 -202 0
-214 -77 0
-214 206 0
214 77 -206 0
-246 78 0
-246 214 0
246 -78 -214 0
-310 79 0
-310 246 0
310 -79 -246 0
-316 -68 0
-316 69 0
316 68 -69 0
-320 -70 0
-320 316 0
320 70 -316 0
-328 -71 0
-328 320 0
328 71 -320 0
-360 72 0
-360 328 0
360 -72 -328 0
-424 73 0
-424 360 0
424 -73 -360 0
-430 -62 0
-430 63 0
430 62 -63 0
-434 -64 0
-434 430 0
434 64 -430 0
-442 -65 0
-442 434 0
442 65 -434 0
-474 66 0
-474 442 0
474 -66 -442 0
-538 67 0
-538 474 0
538 -67 -474 0
-544 -56 0
-544 57 0
544 56 -57 0
-548 -58 0
-548 544 0
548 58 -544 0
-556 -59 0
-556 548 0
556 59 -548 0
-588 60 0
-588 556 0
588 -60 -556 0
-652 61 0
-652 588 0
652 -61 -588 0
-706 -538 0
-706 -652 0
706 538 652 0
-760 -424 0
-760 706 0
760 424 -706 0
-814 -310 0
-814 760 0
814 310 -760 0
-868 -196 0
-868 814 0
868 196 -814 0
-1022 52 0
-1022 868 0
1022 -52 -868 0
-1023 -52 0
-1023 -868 0
1023 52 868 0
-1024 -1022 0
-1024 -1023 0
1024 1022 1023 0
51 -3144 0
-51 3144 0
-91 -82 0
-91 87 0
91 82 -87 0
-99 -83 0
-99 91 0
99 83 -91 0
-131 84 0
-131 99 0
131 -84 -99 0
-195 85 0
-195 131 0
195 -85 -131 0
-205 -76 0
-205 201 0
205 76 -201 0
-213 -77 0
-213 205 0
213 77 -205 0
-245 78 0
-245 213 0
245 -78 -213 0
-309 79 0
-309 245 0
309 -79 -245 0
-319 -70 0
-319 315 0
319 70 -315 0
-327 -71 0
-327 319 0
327 71 -319 0
-359 72 0
-359 327 0
359 -72 -327 0
-423 73 0
-423 359 0
423 -73 -359 0
-433 -64 0
-433 429 0
433 64 -429 0
-441 -65 0
-441 433 0
441 65 -433 0
-473 66 0
-473 441 0
473 -66 -441 0
-537 67 0
-537 473 0
537 -67 -473 0
-547 -58 0
-547 543 0
547 58 -543 0
-555 -59 0
-555 547 0
555 59 -547 0
-587 60 0
-587 555 0
587 -60 -555 0
-651 61 0
-651 587 0
651 -61 -587 0
-705 -537 0
-705 -651 0
705 537 651 0
-759 -423 0
-759 705 0
759 423 -705 0
-813 -309 0
-813 759 0
813 309 -759 0
-867 -195 0
-867 813 0
867 195 -813 0
-1019 51 0
-1019 867 0
1019 -51 -867 0
-1020 -51 0
-1020 -867 0
1020 51 867 0
-1021 -1019 0
-1021 -1020 0
1021 1019 1020 0
50 -3143 0
-50 3143 0
-90 -82 0
-90 86 0
90 82 -86 0
-98 -83 0
-98 90 0
98 83 -90 0
-130 84 0
-130 98 0
130 -84 -98 0
-194 85 0
-194 130 0
194 -85 -130 0
-204 -76 0
-204 200 0
204 76 -200 0
-212 -77 0
-212 204 0
212 77 -204 0
-244 78 0
-244 212 0
244 -78 -212 0
-308 79 0
-308 244 0
308 -79 -244 0
-318 -70 0
-318 314 0
318 70 -314 0
-326 -71 0
-326 318 0
326 71 -318 0
-358 72 0
-358 326 0
358 -72 -326 0
-422 73 0
-422 358 0
422 -73 -358 0
-432 -64 0
-432 428 0
432 64 -428 0
-440 -65 0
-440 432 0
440 65 -432 0
-472 66 0
-472 440 0
472 -66 -440 0
-536 67 0
-536 472 0
536 -67 -472 0
-546 -58 0
-546 542 0
546 58 -542 0
-554 -59 0
-554 546 0
554 59 -546 0
-586 60 0
-586 554 0
586 -60 -554 0
-650 61 0
-650 586 0
650 -61 -586 0
-704 -536 0
-704 -650 0
704 536 650 0
-758 -422 0
-758 704 0
758 422 -704 0
-812 -308 0
-812 758 0
812 308 -758 0
-866 -194 0
-866 812 0
866 194 -812 0
-1016 50 0
-1016 866 0
1016 -50 -866 0
-1017 -50 0
-1017 -866 0
1017 50 866 0
-1018 -1016 0
-1018 -1017 0
1018 1016 1017 0
49 -3142 0
-49 3142 0
-97 82 0
-97 89 0
97 -82 -89 0
-113 83 0
-113 97 0
113 -83 -97 0
-129 -84 0
-129 113 0
129 84 -113 0
-193 85 0
-193 129 0
193 -85 -129 0
-211 76 0
-211 203 0
211 -76 -203 0
-227 77 0
-227 211 0
227 -77 -211 0
-243 -78 0
-243 227 0
243 78 -227 0
-307 79 0
-307 243 0
307 -79 -243 0
-325 70 0
-325 317 0
325 -70 -317 0
-341 71 0
-341 325 0
341 -71 -325 0
-357 -72 0
-357 341 0
357 72 -341 0
-421 73 0
-421 357 0
421 -73 -357 0
-439 64 0
-439 431 0
439 -64 -431 0
-455 65 0
-455 439 0
455 -65 -439 0
-471 -66 0
-471 455 0
471 66 -455 0
-535 67 0
-535 471 0
535 -67 -471 0
-553 58 0
-553 545 0
553 -58 -545 0
-569 59 0
-569 553 0
569 -59 -553 0
-585 -60 0
-585 569 0
585 60 -569 0
-649 61 0
-649 585 0
649 -61 -585 0
-703 -535 0
-703 -649 0
703 535 649 0
-757 -421 0
-757 703 0
757 421 -703 0
-811 -307 0
-811 757 0
811 307 -757 0
-865 -193 0
-865 811 0
865 193 -811 0
-1013 49 0
-1013 865 0
1013 -49 -865 0
-1014 -49 0
-1014 -865 0
1014 49 865 0
-1015 -1013 0
-1015 -1014 0
1015 1013 1014 0
48 -3141 0
-48 3141 0
-96 82 0
-96 88 0
96 -82 -88 0
-112 83 0
-112 96 0
112 -83 -96 0
-128 -84 0
-128 112 0
128 84 -112 0
-192 85 0
-192 128 0
192 -85 -128 0
-210 76 0
-210 202 0
210 -76 -202 0
-226 77 0
-226 210 0
226 -77 -210 0
-242 -78 0
-242 226 0
242 78 -226 0
-306 79 0
-306 242 0
306 -79 -242 0
-324 70 0
-324 316 0
324 -70 -316 0
-340 71 0
-340 324 0
340 -71 -324 0
-356 -72 0
-356 340 0
356 72 -340 0
-420 73 0
-420 356 0
420 -73 -356 0
-438 64 0
-438 430 0
438 -64 -430 0
-454 65 0
-454 438 0
454 -65 -438 0
-470 -66 0
-470 454 0
470 66 -454 0
-534 67 0
-534 470 0
534 -67 -470 0
-552 58 0
-552 544 0
552 -58 -544 0
-568 59 0
-568 552 0
568 -59 -552 0
-584 -60 0
-584 568 0
584 60 -568 0
-648 61 0
-648 584 0
648 -61 -584 0
-702 -534 0
-702 -648 0
702 534 648 0
-756 -420 0
-756 702 0
756 420 -702 0
-810 -306 0
-810 756 0
810 306 -756 0
-864 -192 0
-864 810 0
864 192 -810 0
-1010 48 0
-1010 864 0
1010 -48 -864 0
-1011 -48 0
-1011 -864 0
1011 48 864 0
-1012 -1010 0
-1012 -1011 0
1012 1010 1011 0
47 -3140 0
-47 3140 0
-111 83 0
-111 95 0
111 -83 -95 0
-127 -84 0
-127 111 0
127 84 -111 0
-191 85 0
-191 127 0
191 -85 -127 0
-225 77 0
-225 209 0
225 -77 -209 0
-241 -78 0
-241 225 0
241 78 -225 0
-305 79 0
-305 241 0
305 -79 -241 0
-339 71 0
-339 323 0
339 -71 -323 0
-355 -72 0
-355 339 0
355 72 -339 0
-419 73 0
-419 355 0
419 -73 -355 0
-453 65 0
-453 437 0
453 -65 -437 0
-469 -66 0
-469 453 0
469 66 -453 0
-533 67 0
-533 469 0
533 -67 -469 0
-567 59 0
-567 551 0
567 -59 -551 0
-583 -60 0
-583 567 0
583 60 -567 0
-647 61 0
-647 583 0
647 -61 -583 0
-701 -533 0
-701 -647 0
701 533 647 0
-755 -419 0
-755 701 0
755 419 -701 0
-809 -305 0
-809 755 0
809 305 -755 0
-863 -191 0
-863 809 0
863 191 -809 0
-1007 47 0
-1007 863 0
1007 -47 -863 0
-1008 -47 0
-1008 -863 0
1008 47 863 0
-1009 -1007 0
-1009 -1008 0
1009 1007 1008 0
46 -3139 0
-46 3139 0
-110 83 0
-110 94 0
110 -83 -94 0
-126 -84 0
-126 110 0
126 84 -110 0
-190 85 0
-190 126 0
190 -85 -126 0
-224 77 0
-224 208 0
224 -77 -208 0
-240 -78 0
-240 224 0
240 78 -224 0
-304 79 0
-304 240 0
304 -79 -240 0
-338 71 0
-338 322 0
338 -71 -322 0
-354 -72 0
-354 338 0
354 72 -338 0
-418 73 0
-418 354 0
418 -73 -354 0
-452 65 0
-452 436 0
452 -65 -436 0
-468 -66 0
-468 452 0
468 66 -452 0
-532 67 0
-532 468 0
532 -67 -468 0
-566 59 0
-566 550 0
566 -59 -550 0
-582 -60 0
-582 566 0
582 60 -566 0
-646 61 0
-646 582 0
646 -61 -582 0
-700 -532 0
-700 -646 0
700 532 646 0
-754 -418 0
-754 700 0
754 418 -700 0
-808 -304 0
-808 754 0
808 304 -754 0
-862 -190 0
-862 808 0
862 190 -808 0
-1004 46 0
-1004 862 0
1004 -46 -862 0
-1005 -46 0
-1005 -862 0
1005 46 862 0
-1006 -1004 0
-1006 -1005 0
1006 1004 1005 0
45 -3138 0
-45 3138 0
-109 83 0
-109 93 0
109 -83 -93 0
-125 -84 0
-125 109 0
125 84 -109 0
-189 85 0
-189 125 0
189 -85 -125 0
-223 77 0
-223 207 0
223 -77 -207 0
-239 -78 0
-239 223 0
239 78 -223 0
-303 79 0
-303 239 0
303 -79 -239 0
-337 71 0
-337 321 0
337 -71 -321 0
-353 -72 0
-353 337 0
353 72 -337 0
-417 73 0
-417 353 0
417 -73 -353 0
-451 65 0
-451 435 0
451 -65 -435 0
-467 -66 0
-467 451 0
467 66 -451 0
-531 67 0
-531 467 0
531 -67 -467 0
-565 59 0
-565 549 0
565 -59 -549 0
-581 -60 0
-581 565 0
581 60 -565 0
-645 61 0
-645 581 0
645 -61 -581 0
-699 -531 0
-699 -645 0
699 531 645 0
-753 -417 0
-753 699 0
753 417 -699 0
-807 -303 0
-807 753 0
807 303 -753 0
-861 -189 0
-861 807 0
861 189 -807 0
-1001 45 0
-1001 861 0
1001 -45 -861 0
-1002 -45 0
-1002 -861 0
1002 45 861 0
-1003 -1001 0
-1003 -1002 0
1003 1001 1002 0
44 -3137 0
-44 3137 0
-108 83 0
-108 92 0
108 -83 -92 0
-124 -84 0
-124 108 0
124 84 -108 0
-188 85 0
-188 124 0
188 -85 -124 0
-222 77 0
-222 206 0
222 -77 -206 0
-238 -78 0
-238 222 0
238 78 -222 0
-302 79 0
-302 238 0
302 -79 -238 0
-336 71 0
-336 320 0
336 -71 -320 0
-352 -72 0
-352 336 0
352 72 -336 0
-416 73 0
-416 352 0
416 -73 -352 0
-450 65 0
-450 434 0
450 -65 -434 0
-466 -66 0
-466 450 0
466 66 -450 0
-530 67 0
-530 466 0
530 -67 -466 0
-564 59 0
-564 548 0
564 -59 -548 0
-580 -60 0
-580 564 0
580 60 -564 0
-644 61 0
-644 580 0
644 -61 -580 0
-698 -530 0
-698 -644 0
698 530 644 0
-752 -416 0
-752 698 0
752 416 -698 0
-806 -302 0
-806 752 0
806 302 -752 0
-860 -188 0
-860 806 0
860 188 -806 0
-998 44 0
-998 860 0
998 -44 -860 0
-999 -44 0
-999 -860 0
999 44 860 0
-1000 -998 0
-1000 -999 0
1000 998 999 0
43 -3136 0
-43 3136 0
-107 83 0
-107 91 0
107 -83 -91 0
-123 -84 0
-123 107 0
123 84 -107 0
-187 85 0
-187 123 0
187 -85 -123 0
-221 77 0
-221 205 0
221 -77 -205 0
-237 -78 0
-237 221 0
237 78 -221 0
-301 79 0
-301 237 0
301 -79 -237 0
-335 71 0
-335 319 0
335 -71 -319 0
-351 -72 0
-351 335 0
351 72 -335 0
-415 73 0
-415 351 0
415 -73 -351 0
-449 65 0
-449 433 0
449 -65 -433 0
-465 -66 0
-465 449 0
465 66 -449 0
-529 67 0
-529 465 0
529 -67 -465 0
-563 59 0
-563 547 0
563 -59 -547 0
-579 -60 0
-579 563 0
579 60 -563 0
-643 61 0
-643 579 0
643 -61 -579 0
-697 -529 0
-697 -643 0
697 529 643 0
-751 -415 0
-751 697 0
751 415 -697 0
-805 -301 0
-805 751 0
805 301 -751 0
-859 -187 0
-859 805 0
859 187 -805 0
-995 43 0
-995 859 0
995 -43 -859 0
-996 -43 0
-996 -859 0
996 43 859 0
-997 -995 0
-997 -996 0
997 995 996 0
42 -3135 0
-42 3135 0
-106 83 0
-106 90 0
106 -83 -90 0
-122 -84 0
-122 106 0
122 84 -106 0
-186 85 0
-186 122 0
186 -85 -122 0
-220 77 0
-220 204 0
220 -77 -204 0
-236 -78 0
-236 220 0
236 78 -220 0
-300 79 0
-300 236 0
300 -79 -236 0
-334 71 0
-334 318 0
334 -71 -318 0
-350 -72 0
-350 334 0
350 72 -334 0
-414 73 0
-414 350 0
414 -73 -350 0
-448 65 0
-448 432 0
448 -65 -432 0
-464 -66 0
-464 448 0
464 66 -448 0
-528 67 0
-528 464 0
528 -67 -464 0
-562 59 0
-562 546 0
562 -59 -546 0
-578 -60 0
-578 562 0
578 60 -562 0
-642 61 0
-642 578 0
642 -61 -578 0
-696 -528 0
-696 -642 0
696 528 642 0
-750 -414 0
-750 696 0
750 414 -696 0
-804 -300 0
-804 750 0
804 300 -750 0
-858 -186 0
-858 804 0
858 186 -804 0
-992 42 0
-992 858 0
992 -42 -858 0
-993 -42 0
-993 -858 0
993 42 858 0
-994 -992 0
-994 -993 0
994 992 993 0
41 -3134 0
-41 3134 0
-105 -83 0
-105 97 0
105 83 -97 0
-121 -84 0
-121 105 0
121 84 -105 0
-185 85 0
-185 121 0
185 -85 -121 0
-219 -77 0
-219 211 0
219 77 -211 0
-235 -78 0
-235 219 0
235 78 -219 0
-299 79 0
-299 235 0
299 -79 -235 0
-333 -71 0
-333 325 0
333 71 -325 0
-349 -72 0
-349 333 0
349 72 -333 0
-413 73 0
-413 349 0
413 -73 -349 0
-447 -65 0
-447 439 0
447 65 -439 0
-463 -66 0
-463 447 0
463 66 -447 0
-527 67 0
-527 463 0
527 -67 -463 0
-561 -59 0
-561 553 0
561 59 -553 0
-577 -60 0
-577 561 0
577 60 -561 0
-641 61 0
-641 577 0
641 -61 -577 0
-695 -527 0
-695 -641 0
695 527 641 0
-749 -413 0
-749 695 0
749 413 -695 0
-803 -299 0
-803 749 0
803 299 -749 0
-857 -185 0
-857 803 0
857 185 -803 0
-989 41 0
-989 857 0
989 -41 -857 0
-990 -41 0
-990 -857 0
990 41 857 0
-991 -989 0
-991 -990 0
991 989 990 0
40 -3133 0
-40 3133 0
-104 -83 0
-104 96 0
104 83 -96 0
-120 -84 0
-120 104 0
120 84 -104 0
-184 85 0
-184 120 0
184 -85 -120 0
-218 -77 0
-218 210 0
218 77 -210 0
-234 -78 0
-234 218 0
234 78 -218 0
-298 79 0
-298 234 0
298 -79 -234 0
-332 -71 0
-332 324 0
332 71 -324 0
-348 -72 0
-348 332 0
348 72 -332 0
-412 73 0
-412 348 0
412 -73 -348 0
-446 -65 0
-446 438 0
446 65 -438 0
-462 -66 0
-462 446 0
462 66 -446 0
-526 67 0
-526 462 0
526 -67 -462 0
-560 -59 0
-560 552 0
560 59 -552 0
-576 -60 0
-576 560 0
576 60 -560 0
-640 61 0
-640 576 0
640 -61 -576 0
-694 -526 0
-694 -640 0
694 526 640 0
-748 -412 0
-748 694 0
748 412 -694 0
-802 -298 0
-802 748 0
802 298 -748 0
-856 -184 0
-856 802 0
856 184 -802 0
-986 40 0
-986 856 0
986 -40 -856 0
-987 -40 0
-987 -856 0
987 40 856 0
-988 -986 0
-988 -987 0
988 986 987 0
39 -3132 0
-39 3132 0
-119 -84 0
-119 103 0
119 84 -103 0
-183 85 0
-183 119 0
183 -85 -119 0
-233 -78 0
-233 217 0
233 78 -217 0
-297 79 0
-297 233 0
297 -79 -233 0
-347 -72 0
-347 331 0
347 72 -331 0
-411 73 0
-411 347 0
411 -73 -347 0
-461 -66 0
-461 445 0
461 66 -445 0
-525 67 0
-525 461 0
525 -67 -461 0
-575 -60 0
-575 559 0
575 60 -559 0
-639 61 0
-639 575 0
639 -61 -575 0
-693 -525 0
-693 -639 0
693 525 639 0
-747 -411 0
-747 693 0
747 411 -693 0
-801 -297 0
-801 747 0
801 297 -747 0
-855 -183 0
-855 801 0
855 183 -801 0
-983 39 0
-983 855 0
983 -39 -855 0
-984 -39 0
-984 -855 0
984 39 855 0
-985 -983 0
-985 -984 0
985 983 984 0
38 -3131 0
-38 3131 0
-118 -84 0
-118 102 0
118 84 -102 0
-182 85 0
-182 118 0
182 -85 -118 0
-232 -78 0
-232 216 0
232 78 -216 0
-296 79 0
-296 232 0
296 -79 -232 0
-346 -72 0
-346 330 0
346 72 -330 0
-410 73 0
-410 346 0
410 -73 -346 0
-460 -66 0
-460 444 0
460 66 -444 0
-524 67 0
-524 460 0
524 -67 -460 0
-574 -60 0
-574 558 0
574 60 -558 0
-638 61 0
-638 574 0
638 -61 -574 0
-692 -524 0
-692 -638 0
692 524 638 0
-746 -410 0
-746 692 0
746 410 -692 0
-800 -296 0
-800 746 0
800 296 -746 0
-854 -182 0
-854 800 0
854 182 -800 0
-980 38 0
-980 854 0
980 -38 -854 0
-981 -38 0
-981 -854 0
981 38 854 0
-982 -980 0
-982 -981 0
982 980 981 0
37 -3130 0
-37 3130 0
-117 -84 0
-117 101 0
117 84 -101 0
-181 85 0
-181 117 0
181 -85 -117 0
-231 -78 0
-231 215 0
231 78 -215 0
-295 79 0
-295 231 0
295 -79 -231 0
-345 -72 0
-345 329 0
345 72 -329 0
-409 73 0
-409 345 0
409 -73 -345 0
-459 -66 0
-459 443 0
459 66 -443 0
-523 67 0
-523 459 0
523 -67 -459 0
-573 -60 0
-573 557 0
573 60 -557 0
-637 61 0
-637 573 0
637 -61 -573 0
-691 -523 0
-691 -637 0
691 523 637 0
-745 -409 0
-745 691 0
745 409 -691 0
-799 -295 0
-799 745 0
799 295 -745 0
-853 -181 0
-853 799 0
853 181 -799 0
-977 37 0
-977 853 0
977 -37 -853 0
-978 -37 0
-978 -853 0
978 37 853 0
-979 -977 0
-979 -978 0
979 977 978 0
36 -3129 0
-36 3129 0
-116 -84 0
-116 100 0
116 84 -100 0
-180 85 0
-180 116 0
180 -85 -116 0
-230 -78 0
-230 214 0
230 78 -214 0
-294 79 0
-294 230 0
294 -79 -230 0
-344 -72 0
-344 328 0
344 72 -328 0
-408 73 0
-408 344 0
408 -73 -344 0
-458 -66 0
-458 442 0
458 66 -442 0
-522 67 0
-522 458 0
522 -67 -458 0
-572 -60 0
-572 556 0
572 60 -556 0
-636 61 0
-636 572 0
636 -61 -572 0
-690 -522 0
-690 -636 0
690 522 636 0
-744 -408 0
-744 690 0
744 408 -690 0
-798 -294 0
-798 744 0
798 294 -744 0
-852 -180 0
-852 798 0
852 180 -798 0
-974 36 0
-974 852 0
974 -36 -852 0
-975 -36 0
-975 -852 0
975 36 852 0
-976 -974 0
-976 -975 0
976 974 975 0
35 -3128 0
-35 3128 0
-115 -84 0
-115 99 0
115 84 -99 0
-179 85 0
-179 115 0
179 -85 -115 0
-229 -78 0
-229 213 0
229 78 -213 0
-293 79 0
-293 229 0
293 -79 -229 0
-343 -72 0
-343 327 0
343 72 -327 0
-407 73 0
-407 343 0
407 -73 -343 0
-457 -66 0
-457 441 0
457 66 -441 0
-521 67 0
-521 457 0
521 -67 -457 0
-571 -60 0
-571 555 0
571 60 -555 0
-635 61 0
-635 571 0
635 -61 -571 0
-689 -521 0
-689 -635 0
689 521 635 0
-743 -407 0
-743 689 0
743 407 -689 0
-797 -293 0
-797 743 0
797 293 -743 0
-851 -179 0
-851 797 0
851 179 -797 0
-971 35 0
-971 851 0
971 -35 -851 0
-972 -35 0
-972 -851 0
972 35 851 0
-973 -971 0
-973 -972 0
973 971 972 0
34 -3127 0
-34 3127 0
-114 -84 0
-114 98 0
114 84 -98 0
-178 85 0
-178 114 0
178 -85 -114 0
-228 -78 0
-228 212 0
228 78 -212 0
-292 79 0
-292 228 0
292 -79 -228 0
-342 -72 0
-342 326 0
342 72 -326 0
-406 73 0
-406 342 0
406 -73 -342 0
-456 -66 0
-456 440 0
456 66 -440 0
-520 67 0
-520 456 0
520 -67 -456 0
-570 -60 0
-570 554 0
570 60 -554 0
-634 61 0
-634 570 0
634 -61 -570 0
-688 -520 0
-688 -634 0
688 520 634 0
-742 -406 0
-742 688 0
742 406 -688 0
-796 -292 0
-796 742 0
796 292 -742 0
-850 -178 0
-850 796 0
850 178 -796 0
-968 34 0
-968 850 0
968 -34 -850 0
-969 -34 0
-969 -850 0
969 34 850 0
-970 -968 0
-970 -969 0
970 968 969 0
33 -3126 0
-33 3126 0
-145 84 0
-145 113 0
145 -84 -113 0
-177 -85 0
-177 145 0
177 85 -145 0
-259 78 0
-259 227 0
259 -78 -227 0
-291 -79 0
-291 259 0
291 79 -259 0
-373 72 0
-373 341 0
373 -72 -341 0
-405 -73 0
-405 373 0
405 73 -373 0
-487 66 0
-487 455 0
487 -66 -455 0
-519 -67 0
-519 487 0
519 67 -487 0
-601 60 0
-601 569 0
601 -60 -569 0
-633 -61 0
-633 601 0
633 61 -601 0
-687 -519 0
-687 -633 0
687 519 633 0
-741 -405 0
-741 687 0
741 405 -687 0
-795 -291 0
-795 741 0
795 291 -741 0
-849 -177 0
-849 795 0
849 177 -795 0
-965 33 0
-965 849 0
965 -33 -849 0
-966 -33 0
-966 -849 0
966 33 849 0
-967 -965 0
-967 -966 0
967 965 966 0
32 -3125 0
-32 3125 0
-144 84 0
-144 112 0
144 -84 -112 0
-176 -85 0
-176 144 0
176 85 -144 0
-258 78 0
-258 226 0
258 -78 -226 0
-290 -79 0
-290 258 0
290 79 -258 0
-372 72 0
-372 340 0
372 -72 -340 0
-404 -73 0
-404 372 0
404 73 -372 0
-486 66 0
-486 454 0
486 -66 -454 0
-518 -67 0
-518 486 0
518 67 -486 0
-600 60 0
-600 568 0
600 -60 -568 0
-632 -61 0
-632 600 0
632 61 -600 0
-686 -518 0
-686 -632 0
686 518 632 0
-740 -404 0
-740 686 0
740 404 -686 0
-794 -290 0
-794 740 0
794 290 -740 0
-848 -176 0
-848 794 0
848 176 -794 0
-962 32 0
-962 848 0
962 -32 -848 0
-963 -32 0
-963 -848 0
963 32 848 0
-964 -962 0
-964 -963 0
964 962 963 0
31 -3124 0
-31 3124 0
-143 84 0
-143 111 0
143 -84 -111 0
-175 -85 0
-175 143 0
175 85 -143 0
-257 78 0
-257 225 0
257 -78 -225 0
-289 -79 0
-289 257 0
289 79 -257 0
-371 72 0
-371 339 0
371 -72 -339 0
-403 -73 0
-403 371 0
403 73 -371 0
-485 66 0
-485 453 0
485 -66 -453 0
-517 -67 0
-517 485 0
517 67 -485 0
-599 60 0
-599 567 0
599 -60 -567 0
-631 -61 0
-631 599 0
631 61 -599 0
-685 -517 0
-685 -631 0
685 517 631 0
-739 -403 0
-739 685 0
739 403 -685 0
-793 -289 0
-793 739 0
793 289 -739 0
-847 -175 0
-847 793 0
847 175 -793 0
-959 31 0
-959 847 0
959 -31 -847 0
-960 -31 0
-960 -847 0
960 31 847 0
-961 -959 0
-961 -960 0
961 959 960 0
30 -3123 0
-30 3123 0
-142 84 0
-142 110 0
142 -84 -110 0
-174 -85 0
-174 142 0
174 85 -142 0
-256 78 0
-256 224 0
256 -78 -224 0
-288 -79 0
-288 256 0
288 79 -256 0
-370 72 0
-370 338 0
370 -72 -338 0
-402 -73 0
-402 370 0
402 73 -370 0
-484 66 0
-484 452 0
484 -66 -452 0
-516 -67 0
-516 484 0
516 67 -484 0
-598 60 0
-598 566 0
598 -60 -566 0
-630 -61 0
-630 598 0
630 61 -598 0
-684 -516 0
-684 -630 0
684 516 630 0
-738 -402 0
-738 684 0
738 402 -684 0
-792 -288 0
-792 738 0
792 288 -738 0
-846 -174 0
-846 792 0
846 174 -792 0
-956 30 0
-956 846 0
956 -30 -846 0
-957 -30 0
-957 -846 0
957 30 846 0
-958 -956 0
-958 -957 0
958 956 957 0
29 -3122 0
-29 3122 0
-141 84 0
-141 109 0
141 -84 -109 0
-173 -85 0
-173 141 0
173 85 -141 0
-255 78 0
-255 223 0
255 -78 -223 0
-287 -79 0
-287 255 0
287 79 -255 0
-369 72 0
-369 337 0
369 -72 -337 0
-401 -73 0
-401 369 0
401 73 -369 0
-483 66 0
-483 451 0
483 -66 -451 0
-515 -67 0
-515 483 0
515 67 -483 0
-597 60 0
-597 565 0
597 -60 -565 0
-629 -61 0
-629 597 0
629 61 -597 0
-683 -515 0
-683 -629 0
683 515 629 0
-737 -401 0
-737 683 0
737 401 -683 0
-791 -287 0
-791 737 0
791 287 -737 0
-845 -173 0
-845 791 0
845 173 -791 0
-953 29 0
-953 845 0
953 -29 -845 0
-954 -29 0
-954 -845 0
954 29 845 0
-955 -953 0
-955 -954 0
955 953 954 0
28 -3121 0
-28 3121 0
-140 84 0
-140 108 0
140 -84 -108 0
-172 -85 0
-172 140 0
172 85 -140 0
-254 78 0
-254 222 0
254 -78 -222 0
-286 -79 0
-286 254 0
286 79 -254 0
-368 72 0
-368 336 0
368 -72 -336 0
-400 -73 0
-400 368 0
400 73 -368 0
-482 66 0
-482 450 0
482 -66 -450 0
-514 -67 0
-514 482 0
514 67 -482 0
-596 60 0
-596 564 0
596 -60 -564 0
-628 -61 0
-628 596 0
628 61 -596 0
-682 -514 0
-682 -628 0
682 514 628 0
-736 -400 0
-736 682 0
736 400 -682 0
-790 -286 0
-790 736 0
790 286 -736 0
-844 -172 0
-844 790 0
844 172 -790 0
-950 28 0
-950 844 0
950 -28 -844 0
-951 -28 0
-951 -844 0
951 28 844 0
-952 -950 0
-952 -951 0
952 950 951 0
27 -3120 0
-27 3120 0
-139 84 0
-139 107 0
139 -84 -107 0
-171 -85 0
-171 139 0
171 85 -139 0
-253 78 0
-253 221 0
253 -78 -221 0
-285 -79 0
-285 253 0
285 79 -253 0
-367 72 0
-367 335 0
367 -72 -335 0
-399 -73 0
-399 367 0
399 73 -367 0
-481 66 0
-481 449 0
481 -66 -449 0
-513 -67 0
-513 481 0
513 67 -481 0
-595 60 0
-595 563 0
595 -60 -563 0
-627 -61 0
-627 595 0
627 61 -595 0
-681 -513 0
-681 -627 0
681 513 627 0
-735 -399 0
-735 681 0
735 399 -681 0
-789 -285 0
-789 735 0
789 285 -735 0
-843 -171 0
-843 789 0
843 171 -789 0
-947 27 0
-947 843 0
947 -27 -843 0
-948 -27 0
-948 -843 0
948 27 843 0
-949 -947 0
-949 -948 0
949 947 948 0
26 -3119 0
-26 3119 0
-138 84 0
-138 106 0
138 -84 -106 0
-170 -85 0
-170 138 0
170 85 -138 0
-252 78 0
-252 220 0
252 -78 -220 0
-284 -79 0
-284 252 0
284 79 -252 0
-366 72 0
-366 334 0
366 -72 -334 0
-398 -73 0
-398 366 0
398 73 -366 0
-480 66 0
-480 448 0
480 -66 -448 0
-512 -67 0
-512 480 0
512 67 -480 0
-594 60 0
-594 562 0
594 -60 -562 0
-626 -61 0
-626 594 0
626 61 -594 0
-680 -512 0
-680 -626 0
680 512 626 0
-734 -398 0
-734 680 0
734 398 -680 0
-788 -284 0
-788 734 0
788 284 -734 0
-842 -170 0
-842 788 0
842 170 -788 0
-944 26 0
-944 842 0
944 -26 -842 0
-945 -26 0
-945 -842 0
945 26 842 0
-946 -944 0
-946 -945 0
946 944 945 0
25 -3118 0
-25 3118 0
-137 84 0
-137 105 0
137 -84 -105 0
-169 -85 0
-169 137 0
169 85 -137 0
-251 78 0
-251 219 0
251 -78 -219 0
-283 -79 0
-283 251 0
283 79 -251 0
-365 72 0
-365 333 0
365 -72 -333 0
-397 -73 0
-397 365 0
397 73 -365 0
-479 66 0
-479 447 0
479 -66 -447 0
-511 -67 0
-511 479 0
511 67 -479 0
-593 60 0
-593 561 0
593 -60 -561 0
-625 -61 0
-625 593 0
625 61 -593 0
-679 -511 0
-679 -625 0
679 511 625 0
-733 -397 0
-733 679 0
733 397 -679 0
-787 -283 0
-787 733 0
787 283 -733 0
-841 -169 0
-841 787 0
841 169 -787 0
-941 25 0
-941 841 0
941 -25 -841 0
-942 -25 0
-942 -841 0
942 25 841 0
-943 -941 0
-943 -942 0
943 941 942 0
24 -3117 0
-24 3117 0
-136 84 0
-136 104 0
136 -84 -104 0
-168 -85 0
-168 136 0
168 85 -136 0
-250 78 0
-250 218 0
250 -78 -218 0
-282 -79 0
-282 250 0
282 79 -250 0
-364 72 0
-364 332 0
364 -72 -332 0
-396 -73 0
-396 364 0
396 73 -364 0
-478 66 0
-478 446 0
478 -66 -446 0
-510 -67 0
-510 478 0
510 67 -478 0
-592 60 0
-592 560 0
592 -60 -560 0
-624 -61 0
-624 592 0
624 61 -592 0
-678 -510 0
-678 -624 0
678 510 624 0
-732 -396 0
-732 678 0
732 396 -678 0
-786 -282 0
-786 732 0
786 282 -732 0
-840 -168 0
-840 786 0
840 168 -786 0
-938 24 0
-938 840 0
938 -24 -840 0
-939 -24 0
-939 -840 0
939 24 840 0
-940 -938 0
-940 -939 0
940 938 939 0
23 -3116 0
-23 3116 0
-167 -85 0
-167 135 0
167 85 -135 0
-281 -79 0
-281 249 0
281 79 -249 0
-395 -73 0
-395 363 0
395 73 -363 0
-509 -67 0
-509 477 0
509 67 -477 0
-623 -61 0
-623 591 0
623 61 -591 0
-677 -509 0
-677 -623 0
677 509 623 0
-731 -395 0
-731 677 0
731 395 -677 0
-785 -281 0
-785 731 0
785 281 -731 0
-839 -167 0
-839 785 0
839 167 -785 0
-935 23 0
-935 839 0
935 -23 -839 0
-936 -23 0
-936 -839 0
936 23 839 0
-937 -935 0
-937 -936 0
937 935 936 0
22 -3115 0
-22 3115 0
-166 -85 0
-166 134 0
166 85 -134 0
-280 -79 0
-280 248 0
280 79 -248 0
-394 -73 0
-394 362 0
394 73 -362 0
-508 -67 0
-508 476 0
508 67 -476 0
-622 -61 0
-622 590 0
622 61 -590 0
-676 -508 0
-676 -622 0
676 508 622 0
-730 -394 0
-730 676 0
730 394 -676 0
-784 -280 0
-784 730 0
784 280 -730 0
-838 -166 0
-838 784 0
838 166 -784 0
-932 22 0
-932 838 0
932 -22 -838 0
-933 -22 0
-933 -838 0
933 22 838 0
-934 -932 0
-934 -933 0
934 932 933 0
21 -3114 0
-21 3114 0
-165 -85 0
-165 133 0
165 85 -133 0
-279 -79 0
-279 247 0
279 79 -247 0
-393 -73 0
-393 361 0
393 73 -361 0
-507 -67 0
-507 475 0
507 67 -475 0
-621 -61 0
-621 589 0
621 61 -589 0
-675 -507 0
-675 -621 0
675 507 621 0
-729 -393 0
-729 675 0
729 393 -675 0
-783 -279 0
-783 729 0
783 279 -729 0
-837 -165 0
-837 783 0
837 165 -783 0
-929 21 0
-929 837 0
929 -21 -837 0
-930 -21 0
-930 -837 0
930 21 837 0
-931 -929 0
-931 -930 0
931 929 930 0
20 -3113 0
-20 3113 0
-164 -85 0
-164 132 0
164 85 -132 0
-278 -79 0
-278 246 0
278 79 -246 0
-392 -73 0
-392 360 0
392 73 -360 0
-506 -67 0
-506 474 0
506 67 -474 0
-620 -61 0
-620 588 0
620 61 -588 0
-674 -506 0
-674 -620 0
674 506 620 0
-728 -392 0
-728 674 0
728 392 -674 0
-782 -278 0
-782 728 0
782 278 -728 0
-836 -164 0
-836 782 0
836 164 -782 0
-926 20 0
-926 836 0
926 -20 -836 0
-927 -20 0
-927 -836 0
927 20 836 0
-928 -926 0
-928 -927 0
928 926 927 0
19 -3112 0
-19 3112 0
-163 -85 0
-163 131 0
163 85 -131 0
-277 -79 0
-277 245 0
277 79 -245 0
-391 -73 0
-391 359 0
391 73 -359 0
-505 -67 0
-505 473 0
505 67 -473 0
-619 -61 0
-619 587 0
619 61 -587 0
-673 -505 0
-673 -619 0
673 505 619 0
-727 -391 0
-727 673 0
727 391 -673 0
-781 -277 0
-781 727 0
781 277 -727 0
-835 -163 0
-835 781 0
835 163 -781 0
-923 19 0
-923 835 0
923 -19 -835 0
-924 -19 0
-924 -835 0
924 19 835 0
-925 -923 0
-925 -924 0
925 923 924 0
18 -3111 0
-18 3111 0
-162 -85 0
-162 130 0
162 85 -130 0
-276 -79 0
-276 244 0
276 79 -244 0
-390 -73 0
-390 358 0
390 73 -358 0
-504 -67 0
-504 472 0
504 67 -472 0
-618 -61 0
-618 586 0
618 61 -586 0
-672 -504 0
-672 -618 0
672 504 618 0
-726 -390 0
-726 672 0
726 390 -672 0
-780 -276 0
-780 726 0
780 276 -726 0
-834 -162 0
-834 780 0
834 162 -780 0
-920 18 0
-920 834 0
920 -18 -834 0
-921 -18 0
-921 -834 0
921 18 834 0
-922 -920 0
-922 -921 0
922 920 921 0
17 -3110 0
-17 3110 0
-161 -85 0
-161 129 0
161 85 -129 0
-275 -79 0
-275 243 0
275 79 -243 0
-389 -73 0
-389 357 0
389 73 -357 0
-503 -67 0
-503 471 0
503 67 -471 0
-617 -61 0
-617 585 0
617 61 -585 0
-671 -503 0
-671 -617 0
671 503 617 0
-725 -389 0
-725 671 0
725 389 -671 0
-779 -275 0
-779 725 0
779 275 -725 0
-833 -161 0
-833 779 0
833 161 -779 0
-917 17 0
-917 833 0
917 -17 -833 0
-918 -17 0
-918 -833 0
918 17 833 0
-919 -917 0
-919 -918 0
919 917 918 0
16 -3109 0
-16 3109 0
-160 -85 0
-160 128 0
160 85 -128 0
-274 -79 0
-274 242 0
274 79 -242 0
-388 -73 0
-388 356 0
388 73 -356 0
-502 -67 0
-502 470 0
502 67 -470 0
-616 -61 0
-616 584 0
616 61 -584 0
-670 -502 0
-670 -616 0
670 502 616 0
-724 -388 0
-724 670 0
724 388 -670 0
-778 -274 0
-778 724 0
778 274 -724 0
-832 -160 0
-832 778 0
832 160 -778 0
-914 16 0
-914 832 0
914 -16 -832 0
-915 -16 0
-915 -832 0
915 16 832 0
-916 -914 0
-916 -915 0
916 914 915 0
15 -3108 0
-15 3108 0
-159 -85 0
-159 127 0
159 85 -127 0
-273 -79 0
-273 241 0
273 79 -241 0
-387 -73 0
-387 355 0
387 73 -355 0
-501 -67 0
-501 469 0
501 67 -469 0
-615 -61 0
-615 583 0
615 61 -583 0
-669 -501 0
-669 -615 0
669 501 615 0
-723 -387 0
-723 669 0
723 387 -669 0
-777 -273 0
-777 723 0
777 273 -723 0
-831 -159 0
-831 777 0
831 159 -777 0
-911 15 0
-911 831 0
911 -15 -831 0
-912 -15 0
-912 -831 0
912 15 831 0
-913 -911 0
-913 -912 0
913 911 912 0
14 -3107 0
-14 3107 0
-158 -85 0
-158 126 0
158 85 -126 0
-272 -79 0
-272 240 0
272 79 -240 0
-386 -73 0
-386 354 0
386 73 -354 0
-500 -67 0
-500 468 0
500 67 -468 0
-614 -61 0
-614 582 0
614 61 -582 0
-668 -500 0
-668 -614 0
668 500 614 0
-722 -386 0
-722 668 0
722 386 -668 0
-776 -272 0
-776 722 0
776 272 -722 0
-830 -158 0
-830 776 0
830 158 -776 0
-908 14 0
-908 830 0
908 -14 -830 0
-909 -14 0
-909 -830 0
909 14 830 0
-910 -908 0
-910 -909 0
910 908 909 0
13 -3106 0
-13 3106 0
-157 -85 0
-157 125 0
157 85 -125 0
-271 -79 0
-271 239 0
271 79 -239 0
-385 -73 0
-385 353 0
385 73 -353 0
-499 -67 0
-499 467 0
499 67 -467 0
-613 -61 0
-613 581 0
613 61 -581 0
-667 -499 0
-667 -613 0
667 499 613 0
-721 -385 0
-721 667 0
721 385 -667 0
-775 -271 0
-775 721 0
775 271 -721 0
-829 -157 0
-829 775 0
829 157 -775 0
-905 13 0
-905 829 0
905 -13 -829 0
-906 -13 0
-906 -829 0
906 13 829 0
-907 -905 0
-907 -906 0
907 905 906 0
12 -3105 0
-12 3105 0
-156 -85 0
-156 124 0
156 85 -124 0
-270 -79 0
-270 238 0
270 79 -238 0
-384 -73 0
-384 352 0
384 73 -352 0
-498 -67 0
-498 466 0
498 67 -466 0
-612 -61 0
-612 580 0
612 61 -580 0
-666 -498 0
-666 -612 0
666 498 612 0
-720 -384 0
-720 666 0
720 384 -666 0
-774 -270 0
-774 720 0
774 270 -720 0
-828 -156 0
-828 774 0
828 156 -774 0
-902 12 0
-902 828 0
902 -12 -828 0
-903 -12 0
-903 -828 0
903 12 828 0
-904 -902 0
-904 -903 0
904 902 903 0
11 -3104 0
-11 3104 0
-155 -85 0
-155 123 0
155 85 -123 0
-269 -79 0
-269 237 0
269 79 -237 0
-383 -73 0
-383 351 0
383 73 -351 0
-497 -67 0
-497 465 0
497 67 -465 0
-611 -61 0
-611 579 0
611 61 -579 0
-665 -497 0
-665 -611 0
665 497 611 0
-719 -383 0
-719 665 0
719 383 -665 0
-773 -269 0
-773 719 0
773 269 -719 0
-827 -155 0
-827 773 0
827 155 -773 0
-899 11 0
-899 827 0
899 -11 -827 0
-900 -11 0
-900 -827 0
900 11 827 0
-901 -899 0
-901 -900 0
901 899 900 0
10 -3103 0
-10 3103 0
-154 -85 0
-154 122 0
154 85 -122 0
-268 -79 0
-268 236 0
268 79 -236 0
-382 -73 0
-382 350 0
382 73 -350 0
-496 -67 0
-496 464 0
496 67 -464 0
-610 -61 0
-610 578 0
610 61 -578 0
-664 -496 0
-664 -610 0
664 496 610 0
-718 -382 0
-718 664 0
718 382 -664 0
-772 -268 0
-772 718 0
772 268 -718 0
-826 -154 0
-826 772 0
826 154 -772 0
-896 10 0
-896 826 0
896 -10 -826 0
-897 -10 0
-897 -826 0
897 10 826 0
-898 -896 0
-898 -897 0
898 896 897 0
9 -3102 0
-9 3102 0
-153 -85 0
-153 121 0
153 85 -121 0
-267 -79 0
-267 235 0
267 79 -235 0
-381 -73 0
-381 349 0
381 73 -349 0
-495 -67 0
-495 463 0
495 67 -463 0
-609 -61 0
-609 577 0
609 61 -577 0
-663 -495 0
-663 -609 0
663 495 609 0
-717 -381 0
-717 663 0
717 381 -663 0
-771 -267 0
-771 717 0
771 267 -717 0
-825 -153 0
-825 771 0
825 153 -771 0
-893 9 0
-893 825 0
893 -9 -825 0
-894 -9 0
-894 -825 0
894 9 825 0
-895 -893 0
-895 -894 0
895 893 894 0
8 -3101 0
-8 3101 0
-152 -85 0
-152 120 0
152 85 -120 0
-266 -79 0
-266 234 0
266 79 -234 0
-380 -73 0
-380 348 0
380 73 -348 0
-494 -67 0
-494 462 0
494 67 -462 0
-608 -61 0
-608 576 0
608 61 -576 0
-662 -494 0
-662 -608 0
662 494 608 0
-716 -380 0
-716 662 0
716 380 -662 0
-770 -266 0
-770 716 0
770 266 -716 0
-824 -152 0
-824 770 0
824 152 -770 0
-890 8 0
-890 824 0
890 -8 -824 0
-891 -8 0
-891 -824 0
891 8 824 0
-892 -890 0
-892 -891 0
892 890 891 0
7 -3100 0
-7 3100 0
-151 -85 0
-151 119 0
151 85 -119 0
-265 -79 0
-265 233 0
265 79 -233 0
-379 -73 0
-379 347 0
379 73 -347 0
-493 -67 0
-493 461 0
493 67 -461 0
-607 -61 0
-607 575 0
607 61 -575 0
-661 -493 0
-661 -607 0
661 493 607 0
-715 -379 0
-715 661 0
715 379 -661 0
-769 -265 0
-769 715 0
769 265 -715 0
-823 -151 0
-823 769 0
823 151 -769 0
-887 7 0
-887 823 0
887 -7 -823 0
-888 -7 0
-888 -823 0
888 7 823 0
-889 -887 0
-889 -888 0
889 887 888 0
6 -3099 0
-6 3099 0
-150 -85 0
-150 118 0
150 85 -118 0
-264 -79 0
-264 232 0
264 79 -232 0
-378 -73 0
-378 346 0
378 73 -346 0
-492 -67 0
-492 460 0
492 67 -460 0
-606 -61 0
-606 574 0
606 61 -574 0
-660 -492 0
-660 -606 0
660 492 606 0
-714 -378 0
-714 660 0
714 378 -660 0
-768 -264 0
-768 714 0
768 264 -714 0
-822 -150 0
-822 768 0
822 150 -768 0
-884 6 0
-884 822 0
884 -6 -822 0
-885 -6 0
-885 -822 0
885 6 822 0
-886 -884 0
-886 -885 0
886 884 885 0
5 -3098 0
-5 3098 0
-149 -85 0
-149 117 0
149 85 -117 0
-263 -79 0
-263 231 0
263 79 -231 0
-377 -73 0
-377 345 0
377 73 -345 0
-491 -67 0
-491 459 0
491 67 -459 0
-605 -61 0
-605 573 0
605 61 -573 0
-659 -491 0
-659 -605 0
659 491 605 0
-713 -377 0
-713 659 0
713 377 -659 0
-767 -263 0
-767 713 0
767 263 -713 0
-821 -149 0
-821 767 0
821 149 -767 0
-881 5 0
-881 821 0
881 -5 -821 0
-882 -5 0
-882 -821 0
882 5 821 0
-883 -881 0
-883 -882 0
883 881 882 0
4 -3097 0
-4 3097 0
-148 -85 0
-148 116 0
148 85 -116 0
-262 -79 0
-262 230 0
262 79 -230 0
-376 -73 0
-376 344 0
376 73 -344 0
-490 -67 0
-490 458 0
490 67 -458 0
-604 -61 0
-604 572 0
604 61 -572 0
-658 -490 0
-658 -604 0
658 490 604 0
-712 -376 0
-712 658 0
712 376 -658 0
-766 -262 0
-766 712 0
766 262 -712 0
-820 -148 0
-820 766 0
820 148 -766 0
-878 4 0
-878 820 0
878 -4 -820 0
-879 -4 0
-879 -820 0
879 4 820 0
-880 -878 0
-880 -879 0
880 878 879 0
2 -3095 0
-2 3095 0
-146 -85 0
-146 114 0
146 85 -114 0
-260 -79 0
-260 228 0
260 79 -228 0
-374 -73 0
-374 342 0
374 73 -342 0
-488 -67 0
-488 456 0
488 67 -456 0
-602 -61 0
-602 570 0
602 61 -570 0
-656 -488 0
-656 -602 0
656 488 602 0
-710 -374 0
-710 656 0
710 374 -656 0
-764 -260 0
-764 710 0
764 260 -710 0
-818 -146 0
-818 764 0
818 146 -764 0
-872 2 0
-872 818 0
872 -2 -818 0
-873 -2 0
-873 -818 0
873 2 818 0
-874 -872 0
-874 -873 0
874 872 873 0
3 -3096 0
-3 3096 0
-147 -85 0
-147 115 0
147 85 -115 0
-261 -79 0
-261 229 0
261 79 -229 0
-375 -73 0
-375 343 0
375 73 -343 0
-489 -67 0
-489 457 0
489 67 -457 0
-603 -61 0
-603 571 0
603 61 -571 0
-657 -489 0
-657 -603 0
657 489 603 0
-711 -375 0
-711 657 0
711 375 -657 0
-765 -261 0
-765 711 0
765 261 -711 0
-819 -147 0
-819 765 0
819 147 -765 0
-875 3 0
-875 819 0
875 -3 -819 0
-876 -3 0
-876 -819 0
876 3 819 0
-877 -875 0
-877 -876 0
877 875 876 0
-1034 874 0
-1034 877 0
1034 -874 -877 0
-1035 880 0
-1035 1034 0
1035 -880 -1034 0
-1036 883 0
-1036 1035 0
1036 -883 -1035 0
-1037 886 0
-1037 1036 0
1037 -886 -1036 0
-1038 889 0
-1038 1037 0
1038 -889 -1037 0
-1039 892 0
-1039 1038 0
1039 -892 -1038 0
-1040 895 0
-1040 1039 0
1040 -895 -1039 0
-1041 898 0
-1041 1040 0
1041 -898 -1040 0
-1042 901 0
-1042 1041 0
1042 -901 -1041 0
-1043 904 0
-1043 1042 0
1043 -904 -1042 0
-1044 907 0
-1044 1043 0
1044 -907 -1043 0
-1045 910 0
-1045 1044 0
1045 -910 -1044 0
-1046 913 0
-1046 1045 0
1046 -913 -1045 0
-1047 916 0
-1047 1046 0
1047 -916 -1046 0
-1048 919 0
-1048 1047 0
1048 -919 -1047 0
-1049 922 0
-1049 1048 0
1049 -922 -1048 0
-1050 925 0
-1050 1049 0
1050 -925 -1049 0
-1051 928 0
-1051 1050 0
1051 -928 -1050 0
-1052 931 0
-1052 1051 0
1052 -931 -1051 0
-1053 934 0
-1053 1052 0
1053 -934 -1052 0
-1054 937 0
-1054 1053 0
1054 -937 -1053 0
-1055 940 0
-1055 1054 0
1055 -940 -1054 0
-1056 943 0
-1056 1055 0
1056 -943 -1055 0
-1057 946 0
-1057 1056 0
1057 -946 -1056 0
-1058 949 0
-1058 1057 0
1058 -949 -1057 0
-1059 952 0
-1059 1058 0
1059 -952 -1058 0
-1060 955 0
-1060 1059 0
1060 -955 -1059 0
-1061 958 0
-1061 1060 0
1061 -958 -1060 0
-1062 961 0
-1062 1061 0
1062 -961 -1061 0
-1063 964 0
-1063 1062 0
1063 -964 -1062 0
-1064 967 0
-1064 1063 0
1064 -967 -1063 0
-1065 970 0
-1065 1064 0
1065 -970 -1064 0
-1066 973 0
-1066 1065 0
1066 -973 -1065 0
-1067 976 0
-1067 1066 0
1067 -976 -1066 0
-1068 979 0
-1068 1067 0
1068 -979 -1067 0
-1069 982 0
-1069 1068 0
1069 -982 -1068 0
-1070 985 0
-1070 1069 0
1070 -985 -1069 0
-1071 988 0
-1071 1070 0
1071 -988 -1070 0
-1072 991 0
-1072 1071 0
1072 -991 -1071 0
-1073 994 0
-1073 1072 0
1073 -994 -1072 0
-1074 997 0
-1074 1073 0
1074 -997 -1073 0
-1075 1000 0
-1075 1074 0
1075 -1000 -1074 0
-1076 1003 0
-1076 1075 0
1076 -1003 -1075 0
-1077 1006 0
-1077 1076 0
1077 -1006 -1076 0
-1078 1009 0
-1078 1077 0
1078 -1009 -1077 0
-1079 1012 0
-1079 1078 0
1079 -1012 -1078 0
-1080 1015 0
-1080 1079 0
1080 -1015 -1079 0
-1081 1018 0
-1081 1080 0
1081 -1018 -1080 0
-1082 1021 0
-1082 1081 0
1082 -1021 -1081 0
-1083 1024 0
-1083 1082 0
1083 -1024 -1082 0
-1084 1027 0
-1084 1083 0
1084 -1027 -1083 0
-1085 1030 0
-1085 1084 0
1085 -1030 -1084 0
-1086 1033 0
-1086 1085 0
1086 -1033 -1085 0
-1087 21 0
-1087 23 0
1087 -21 -23 0
-1088 -21 0
-1088 -23 0
1088 21 23 0
-1089 -1087 0
-1089 -1088 0
1089 1087 1088 0
-1093 28 0
-1093 1089 0
1093 -28 -1089 0
-1094 -28 0
-1094 -1089 0
1094 28 1089 0
-1095 -1093 0
-1095 -1094 0
1095 1093 1094 0
-1090 46 0
-1090 49 0
1090 -46 -49 0
-1091 -46 0
-1091 -49 0
1091 46 49 0
-1092 -1090 0
-1092 -1091 0
1092 1090 1091 0
-1099 37 0
-1099 1092 0
1099 -37 -1092 0
-1100 -37 0
-1100 -1092 0
1100 37 1092 0
-1101 -1099 0
-1101 -1100 0
1101 1099 1100 0
-1111 1095 0
-1111 1101 0
1111 -1095 -1101 0
-1112 -1095 0
-1112 -1101 0
1112 1095 1101 0
-1113 -1111 0
-1113 -1112 0
1113 1111 1112 0
-1114 1086 0
-1114 -1113 0
1114 -1086 1113 0
-1115 20 0
-1115 22 0
1115 -20 -22 0
-1116 -20 0
-1116 -22 0
1116 20 22 0
-1117 -1115 0
-1117 -1116 0
1117 1115 1116 0
-1121 27 0
-1121 1117 0
1121 -27 -1117 0
-1122 -27 0
-1122 -1117 0
1122 27 1117 0
-1123 -1121 0
-1123 -1122 0
1123 1121 1122 0
-1118 45 0
-1118 48 0
1118 -45 -48 0
-1119 -45 0
-1119 -48 0
1119 45 48 0
-1120 -1118 0
-1120 -1119 0
1120 1118 1119 0
-1127 36 0
-1127 1120 0
1127 -36 -1120 0
-1128 -36 0
-1128 -1120 0
1128 36 1120 0
-1129 -1127 0
-1129 -1128 0
1129 1127 1128 0
-1139 1123 0
-1139 1129 0
1139 -1123 -1129 0
-1140 -1123 0
-1140 -1129 0
1140 1123 1129 0
-1141 -1139 0
-1141 -1140 0
1141 1139 1140 0
-1142 1114 0
-1142 -1141 0
1142 -1114 1141 0
-1143 26 0
-1143 28 0
1143 -26 -28 0
-1144 -26 0
-1144 -28 0
1144 26 28 0
-1145 -1143 0
-1145 -1144 0
1145 1143 1144 0
-1152 21 0
-1152 1145 0
1152 -21 -1145 0
-1153 -21 0
-1153 -1145 0
1153 21 1145 0
-1154 -1152 0
-1154 -1153 0
1154 1152 1153 0
-1146 44 0
-1146 47 0
1146 -44 -47 0
-1147 -44 0
-1147 -47 0
1147 44 47 0
-1148 -1146 0
-1148 -1147 0
1148 1146 1147 0
-1158 35 0
-1158 1148 0
1158 -35 -1148 0
-1159 -35 0
-1159 -1148 0
1159 35 1148 0
-1160 -1158 0
-1160 -1159 0
1160 1158 1159 0
-1176 1154 0
-1176 1160 0
1176 -1154 -1160 0
-1177 -1154 0
-1177 -1160 0
1177 1154 1160 0
-1178 -1176 0
-1178 -1177 0
1178 1176 1177 0
-1179 1142 0
-1179 -1178 0
1179 -1142 1178 0
-1183 20 0
-1183 25 0
1183 -20 -25 0
-1184 -20 0
-1184 -25 0
1184 20 25 0
-1185 -1183 0
-1185 -1184 0
1185 1183 1184 0
-1192 27 0
-1192 1185 0
1192 -27 -1185 0
-1193 -27 0
-1193 -1185 0
1193 27 1185 0
-1194 -1192 0
-1194 -1193 0
1194 1192 1193 0
-1195 34 0
-1195 43 0
1195 -34 -43 0
-1196 -34 0
-1196 -43 0
1196 34 43 0
-1197 -1195 0
-1197 -1196 0
1197 1195 1196 0
-1210 55 0
-1210 1197 0
1210 -55 -1197 0
-1211 -55 0
-1211 -1197 0
1211 55 1197 0
-1212 -1210 0
-1212 -1211 0
1212 1210 1211 0
-1213 1194 0
-1213 1212 0
1213 -1194 -1212 0
-1214 -1194 0
-1214 -1212 0
1214 1194 1212 0
-1215 -1213 0
-1215 -1214 0
1215 1213 1214 0
-1216 1179 0
-1216 -1215 0
1216 -1179 1215 0
-1226 33 0
-1226 1145 0
1226 -33 -1145 0
-1227 -33 0
-1227 -1145 0
1227 33 1145 0
-1228 -1226 0
-1228 -1227 0
1228 1226 1227 0
-1232 24 0
-1232 1228 0
1232 -24 -1228 0
-1233 -24 0
-1233 -1228 0
1233 24 1228 0
-1234 -1232 0
-1234 -1233 0
1234 1232 1233 0
-1250 42 0
-1250 54 0
1250 -42 -54 0
-1251 -42 0
-1251 -54 0
1251 42 54 0
-1252 -1250 0
-1252 -1251 0
1252 1250 1251 0
-1253 1234 0
-1253 1252 0
1253 -1234 -1252 0
-1254 -1234 0
-1254 -1252 0
1254 1234 1252 0
-1255 -1253 0
-1255 -1254 0
1255 1253 1254 0
-1256 1216 0
-1256 -1255 0
1256 -1216 1255 0
-1257 23 0
-1257 25 0
1257 -23 -25 0
-1258 -23 0
-1258 -25 0
1258 23 25 0
-1259 -1257 0
-1259 -1258 0
1259 1257 1258 0
-1269 27 0
-1269 32 0
1269 -27 -32 0
-1270 -27 0
-1270 -32 0
1270 27 32 0
-1271 -1269 0
-1271 -1270 0
1271 1269 1270 0
-1272 1259 0
-1272 1271 0
1272 -1259 -1271 0
-1273 -1259 0
-1273 -1271 0
1273 1259 1271 0
-1274 -1272 0
-1274 -1273 0
1274 1272 1273 0
-1287 41 0
-1287 53 0
1287 -41 -53 0
-1288 -41 0
-1288 -53 0
1288 41 53 0
-1289 -1287 0
-1289 -1288 0
1289 1287 1288 0
-1290 1274 0
-1290 1289 0
1290 -1274 -1289 0
-1291 -1274 0
-1291 -1289 0
1291 1274 1289 0
-1292 -1290 0
-1292 -1291 0
1292 1290 1291 0
-1293 1256 0
-1293 -1292 0
1293 -1256 1292 0
-1294 22 0
-1294 24 0
1294 -22 -24 0
-1295 -22 0
-1295 -24 0
1295 22 24 0
-1296 -1294 0
-1296 -1295 0
1296 1294 1295 0
-1306 26 0
-1306 31 0
1306 -26 -31 0
-1307 -26 0
-1307 -31 0
1307 26 31 0
-1308 -1306 0
-1308 -1307 0
1308 1306 1307 0
-1309 1296 0
-1309 1308 0
1309 -1296 -1308 0
-1310 -1296 0
-1310 -1308 0
1310 1296 1308 0
-1311 -1309 0
-1311 -1310 0
1311 1309 1310 0
-1324 40 0
-1324 52 0
1324 -40 -52 0
-1325 -40 0
-1325 -52 0
1325 40 52 0
-1326 -1324 0
-1326 -1325 0
1326 1324 1325 0
-1327 1311 0
-1327 1326 0
1327 -1311 -1326 0
-1328 -1311 0
-1328 -1326 0
1328 1311 1326 0
-1329 -1327 0
-1329 -1328 0
1329 1327 1328 0
-1330 1293 0
-1330 -1329 0
1330 -1293 1329 0
-1331 21 0
-1331 1259 0
1331 -21 -1259 0
-1332 -21 0
-1332 -1259 0
1332 21 1259 0
-1333 -1331 0
-1333 -1332 0
1333 1331 1332 0
-1343 30 0
-1343 1333 0
1343 -30 -1333 0
-1344 -30 0
-1344 -1333 0
1344 30 1333 0
-1345 -1343 0
-1345 -1344 0
1345 1343 1344 0
-1355 39 0
-1355 51 0
1355 -39 -51 0
-1356 -39 0
-1356 -51 0
1356 39 51 0
-1357 -1355 0
-1357 -1356 0
1357 1355 1356 0
-1358 1345 0
-1358 1357 0
1358 -1345 -1357 0
-1359 -1345 0
-1359 -1357 0
1359 1345 1357 0
-1360 -1358 0
-1360 -1359 0
1360 1358 1359 0
-1361 1330 0
-1361 -1360 0
1361 -1330 1360 0
-1362 20 0
-1362 1296 0
1362 -20 -1296 0
-1363 -20 0
-1363 -1296 0
1363 20 1296 0
-1364 -1362 0
-1364 -1363 0
1364 1362 1363 0
-1374 29 0
-1374 1364 0
1374 -29 -1364 0
-1375 -29 0
-1375 -1364 0
1375 29 1364 0
-1376 -1374 0
-1376 -1375 0
1376 1374 1375 0
-1386 38 0
-1386 50 0
1386 -38 -50 0
-1387 -38 0
-1387 -50 0
1387 38 50 0
-1388 -1386 0
-1388 -1387 0
1388 1386 1387 0
-1389 1376 0
-1389 1388 0
1389 -1376 -1388 0
-1390 -1376 0
-1390 -1388 0
1390 1376 1388 0
-1391 -1389 0
-1391 -1390 0
1391 1389 1390 0
-1392 1361 0
-1392 -1391 0
1392 -1361 1391 0
-1393 12 0
-1393 14 0
1393 -12 -14 0
-1394 -12 0
-1394 -14 0
1394 12 14 0
-1395 -1393 0
-1395 -1394 0
1395 1393 1394 0
-1399 19 0
-1399 1395 0
1399 -19 -1395 0
-1400 -19 0
-1400 -1395 0
1400 19 1395 0
-1401 -1399 0
-1401 -1400 0
1401 1399 1400 0
-1396 37 0
-1396 40 0
1396 -37 -40 0
-1397 -37 0
-1397 -40 0
1397 37 40 0
-1398 -1396 0
-1398 -1397 0
1398 1396 1397 0
-1408 55 0
-1408 1398 0
1408 -55 -1398 0
-1409 -55 0
-1409 -1398 0
1409 55 1398 0
-1410 -1408 0
-1410 -1409 0
1410 1408 1409 0
-1411 1401 0
-1411 1410 0
1411 -1401 -1410 0
-1412 -1401 0
-1412 -1410 0
1412 1401 1410 0
-1413 -1411 0
-1413 -1412 0
1413 1411 1412 0
-1414 1392 0
-1414 -1413 0
1414 -1392 1413 0
-1415 11 0
-1415 13 0
1415 -11 -13 0
-1416 -11 0
-1416 -13 0
1416 11 13 0
-1417 -1415 0
-1417 -1416 0
1417 1415 1416 0
-1421 18 0
-1421 1417 0
1421 -18 -1417 0
-1422 -18 0
-1422 -1417 0
1422 18 1417 0
-1423 -1421 0
-1423 -1422 0
1423 1421 1422 0
-1418 36 0
-1418 39 0
1418 -36 -39 0
-1419 -36 0
-1419 -39 0
1419 36 39 0
-1420 -1418 0
-1420 -1419 0
1420 1418 1419 0
-1430 54 0
-1430 1420 0
1430 -54 -1420 0
-1431 -54 0
-1431 -1420 0
1431 54 1420 0
-1432 -1430 0
-1432 -1431 0
1432 1430 1431 0
-1433 1423 0
-1433 1432 0
1433 -1423 -1432 0
-1434 -1423 0
-1434 -1432 0
1434 1423 1432 0
-1435 -1433 0
-1435 -1434 0
1435 1433 1434 0
-1436 1414 0
-1436 -1435 0
1436 -1414 1435 0
-1443 12 0
-1443 17 0
1443 -12 -17 0
-1444 -12 0
-1444 -17 0
1444 12 17 0
-1445 -1443 0
-1445 -1444 0
1445 1443 1444 0
-1449 19 0
-1449 1445 0
1449 -19 -1445 0
-1450 -19 0
-1450 -1445 0
1450 19 1445 0
-1451 -1449 0
-1451 -1450 0
1451 1449 1450 0
-1440 35 0
-1440 38 0
1440 -35 -38 0
-1441 -35 0
-1441 -38 0
1441 35 38 0
-1442 -1440 0
-1442 -1441 0
1442 1440 1441 0
-1455 53 0
-1455 1442 0
1455 -53 -1442 0
-1456 -53 0
-1456 -1442 0
1456 53 1442 0
-1457 -1455 0
-1457 -1456 0
1457 1455 1456 0
-1458 1451 0
-1458 1457 0
1458 -1451 -1457 0
-1459 -1451 0
-1459 -1457 0
1459 1451 1457 0
-1460 -1458 0
-1460 -1459 0
1460 1458 1459 0
-1461 1436 0
-1461 -1460 0
1461 -1436 1460 0
-1465 11 0
-1465 16 0
1465 -11 -16 0
-1466 -11 0
-1466 -16 0
1466 11 16 0
-1467 -1465 0
-1467 -1466 0
1467 1465 1466 0
-1474 18 0
-1474 1467 0
1474 -18 -1467 0
-1475 -18 0
-1475 -1467 0
1475 18 1467 0
-1476 -1474 0
-1476 -1475 0
1476 1474 1475 0
-1477 34 0
-1477 46 0
1477 -34 -46 0
-1478 -34 0
-1478 -46 0
1478 34 46 0
-1479 -1477 0
-1479 -1478 0
1479 1477 1478 0
-1480 52 0
-1480 1479 0
1480 -52 -1479 0
-1481 -52 0
-1481 -1479 0
1481 52 1479 0
-1482 -1480 0
-1482 -1481 0
1482 1480 1481 0
-1483 1476 0
-1483 1482 0
1483 -1476 -1482 0
-1484 -1476 0
-1484 -1482 0
1484 1476 1482 0
-1485 -1483 0
-1485 -1484 0
1485 1483 1484 0
-1486 1461 0
-1486 -1485 0
1486 -1461 1485 0
-1496 45 0
-1496 51 0
1496 -45 -51 0
-1497 -45 0
-1497 -51 0
1497 45 51 0
-1498 -1496 0
-1498 -1497 0
1498 1496 1497 0
-1487 15 0
-1487 17 0
1487 -15 -17 0
-1488 -15 0
-1488 -17 0
1488 15 17 0
-1489 -1487 0
-1489 -1488 0
1489 1487 1488 0
-1499 19 0
-1499 33 0
1499 -19 -33 0
-1500 -19 0
-1500 -33 0
1500 19 33 0
-1501 -1499 0
-1501 -1500 0
1501 1499 1500 0
-1502 1489 0
-1502 1501 0
1502 -1489 -1501 0
-1503 -1489 0
-1503 -1501 0
1503 1489 1501 0
-1504 -1502 0
-1504 -1503 0
1504 1502 1503 0
-1508 1498 0
-1508 1504 0
1508 -1498 -1504 0
-1509 -1498 0
-1509 -1504 0
1509 1498 1504 0
-1510 -1508 0
-1510 -1509 0
1510 1508 1509 0
-1511 1486 0
-1511 -1510 0
1511 -1486 1510 0
-1521 44 0
-1521 50 0
1521 -44 -50 0
-1522 -44 0
-1522 -50 0
1522 44 50 0
-1523 -1521 0
-1523 -1522 0
1523 1521 1522 0
-1512 14 0
-1512 16 0
1512 -14 -16 0
-1513 -14 0
-1513 -16 0
1513 14 16 0
-1514 -1512 0
-1514 -1513 0
1514 1512 1513 0
-1524 18 0
-1524 32 0
1524 -18 -32 0
-1525 -18 0
-1525 -32 0
1525 18 32 0
-1526 -1524 0
-1526 -1525 0
1526 1524 1525 0
-1527 1514 0
-1527 1526 0
1527 -1514 -1526 0
-1528 -1514 0
-1528 -1526 0
1528 1514 1526 0
-1529 -1527 0
-1529 -1528 0
1529 1527 1528 0
-1533 1523 0
-1533 1529 0
1533 -1523 -1529 0
-1534 -1523 0
-1534 -1529 0
1534 1523 1529 0
-1535 -1533 0
-1535 -1534 0
1535 1533 1534 0
-1536 1511 0
-1536 -1535 0
1536 -1511 1535 0
-1546 43 0
-1546 49 0
1546 -43 -49 0
-1547 -43 0
-1547 -49 0
1547 43 49 0
-1548 -1546 0
-1548 -1547 0
1548 1546 1547 0
-1540 13 0
-1540 1489 0
1540 -13 -1489 0
-1541 -13 0
-1541 -1489 0
1541 13 1489 0
-1542 -1540 0
-1542 -1541 0
1542 1540 1541 0
-1549 31 0
-1549 1542 0
1549 -31 -1542 0
-1550 -31 0
-1550 -1542 0
1550 31 1542 0
-1551 -1549 0
-1551 -1550 0
1551 1549 1550 0
-1555 1548 0
-1555 1551 0
1555 -1548 -1551 0
-1556 -1548 0
-1556 -1551 0
1556 1548 1551 0
-1557 -1555 0
-1557 -1556 0
1557 1555 1556 0
-1558 1536 0
-1558 -1557 0
1558 -1536 1557 0
-1565 42 0
-1565 48 0
1565 -42 -48 0
-1566 -42 0
-1566 -48 0
1566 42 48 0
-1567 -1565 0
-1567 -1566 0
1567 1565 1566 0
-1559 12 0
-1559 1514 0
1559 -12 -1514 0
-1560 -12 0
-1560 -1514 0
1560 12 1514 0
-1561 -1559 0
-1561 -1560 0
1561 1559 1560 0
-1568 30 0
-1568 1561 0
1568 -30 -1561 0
-1569 -30 0
-1569 -1561 0
1569 30 1561 0
-1570 -1568 0
-1570 -1569 0
1570 1568 1569 0
-1574 1567 0
-1574 1570 0
1574 -1567 -1570 0
-1575 -1567 0
-1575 -1570 0
1575 1567 1570 0
-1576 -1574 0
-1576 -1575 0
1576 1574 1575 0
-1577 1558 0
-1577 -1576 0
1577 -1558 1576 0
-1581 41 0
-1581 47 0
1581 -41 -47 0
-1582 -41 0
-1582 -47 0
1582 41 47 0
-1583 -1581 0
-1583 -1582 0
1583 1581 1582 0
-1578 15 0
-1578 1417 0
1578 -15 -1417 0
-1579 -15 0
-1579 -1417 0
1579 15 1417 0
-1580 -1578 0
-1580 -1579 0
1580 1578 1579 0
-1584 29 0
-1584 1580 0
1584 -29 -1580 0
-1585 -29 0
-1585 -1580 0
1585 29 1580 0
-1586 -1584 0
-1586 -1585 0
1586 1584 1585 0
-1590 1583 0
-1590 1586 0
1590 -1583 -1586 0
-1591 -1583 0
-1591 -1586 0
1591 1583 1586 0
-1592 -1590 0
-1592 -1591 0
1592 1590 1591 0
-1593 1577 0
-1593 -1592 0
1593 -1577 1592 0
-1594 3 0
-1594 5 0
1594 -3 -5 0
-1595 -3 0
-1595 -5 0
1595 3 5 0
-1596 -1594 0
-1596 -1595 0
1596 1594 1595 0
-1597 10 0
-1597 1596 0
1597 -10 -1596 0
-1598 -10 0
-1598 -1596 0
1598 10 1596 0
-1599 -1597 0
-1599 -1598 0
1599 1597 1598 0
-1600 31 0
-1600 1599 0
1600 -31 -1599 0
-1601 -31 0
-1601 -1599 0
1601 31 1599 0
-1602 -1600 0
-1602 -1601 0
1602 1600 1601 0
-1606 46 0
-1606 55 0
1606 -46 -55 0
-1607 -46 0
-1607 -55 0
1607 46 55 0
-1608 -1606 0
-1608 -1607 0
1608 1606 1607 0
-1609 1602 0
-1609 1608 0
1609 -1602 -1608 0
-1610 -1602 0
-1610 -1608 0
1610 1602 1608 0
-1611 -1609 0
-1611 -1610 0
1611 1609 1610 0
-1612 1593 0
-1612 -1611 0
1612 -1593 1611 0
-1613 2 0
-1613 4 0
1613 -2 -4 0
-1614 -2 0
-1614 -4 0
1614 2 4 0
-1615 -1613 0
-1615 -1614 0
1615 1613 1614 0
-1616 9 0
-1616 1615 0
1616 -9 -1615 0
-1617 -9 0
-1617 -1615 0
1617 9 1615 0
-1618 -1616 0
-1618 -1617 0
1618 1616 1617 0
-1619 30 0
-1619 1618 0
1619 -30 -1618 0
-1620 -30 0
-1620 -1618 0
1620 30 1618 0
-1621 -1619 0
-1621 -1620 0
1621 1619 1620 0
-1625 45 0
-1625 54 0
1625 -45 -54 0
-1626 -45 0
-1626 -54 0
1626 45 54 0
-1627 -1625 0
-1627 -1626 0
1627 1625 1626 0
-1628 1621 0
-1628 1627 0
1628 -1621 -1627 0
-1629 -1621 0
-1629 -1627 0
1629 1621 1627 0
-1630 -1628 0
-1630 -1629 0
1630 1628 1629 0
-1631 1612 0
-1631 -1630 0
1631 -1612 1630 0
-1632 3 0
-1632 8 0
1632 -3 -8 0
-1633 -3 0
-1633 -8 0
1633 3 8 0
-1634 -1632 0
-1634 -1633 0
1634 1632 1633 0
-1638 10 0
-1638 1634 0
1638 -10 -1634 0
-1639 -10 0
-1639 -1634 0
1639 10 1634 0
-1640 -1638 0
-1640 -1639 0
1640 1638 1639 0
-1641 29 0
-1641 1640 0
1641 -29 -1640 0
-1642 -29 0
-1642 -1640 0
1642 29 1640 0
-1643 -1641 0
-1643 -1642 0
1643 1641 1642 0
-1647 44 0
-1647 53 0
1647 -44 -53 0
-1648 -44 0
-1648 -53 0
1648 44 53 0
-1649 -1647 0
-1649 -1648 0
1649 1647 1648 0
-1650 1643 0
-1650 1649 0
1650 -1643 -1649 0
-1651 -1643 0
-1651 -1649 0
1651 1643 1649 0
-1652 -1650 0
-1652 -1651 0
1652 1650 1651 0
-1653 1631 0
-1653 -1652 0
1653 -1631 1652 0
-1654 7 0
-1654 9 0
1654 -7 -9 0
-1655 -7 0
-1655 -9 0
1655 7 9 0
-1656 -1654 0
-1656 -1655 0
1656 1654 1655 0
-1657 2 0
-1657 1656 0
1657 -2 -1656 0
-1658 -2 0
-1658 -1656 0
1658 2 1656 0
-1659 -1657 0
-1659 -1658 0
1659 1657 1658 0
-1660 37 0
-1660 43 0
1660 -37 -43 0
-1661 -37 0
-1661 -43 0
1661 37 43 0
-1662 -1660 0
-1662 -1661 0
1662 1660 1661 0
-1663 52 0
-1663 1662 0
1663 -52 -1662 0
-1664 -52 0
-1664 -1662 0
1664 52 1662 0
-1665 -1663 0
-1665 -1664 0
1665 1663 1664 0
-1669 1659 0
-1669 1665 0
1669 -1659 -1665 0
-1670 -1659 0
-1670 -1665 0
1670 1659 1665 0
-1671 -1669 0
-1671 -1670 0
1671 1669 1670 0
-1672 1653 0
-1672 -1671 0
1672 -1653 1671 0
-1673 6 0
-1673 8 0
1673 -6 -8 0
-1674 -6 0
-1674 -8 0
1674 6 8 0
-1675 -1673 0
-1675 -1674 0
1675 1673 1674 0
-1676 10 0
-1676 1675 0
1676 -10 -1675 0
-1677 -10 0
-1677 -1675 0
1677 10 1675 0
-1678 -1676 0
-1678 -1677 0
1678 1676 1677 0
-1679 36 0
-1679 42 0
1679 -36 -42 0
-1680 -36 0
-1680 -42 0
1680 36 42 0
-1681 -1679 0
-1681 -1680 0
1681 1679 1680 0
-1682 51 0
-1682 1681 0
1682 -51 -1681 0
-1683 -51 0
-1683 -1681 0
1683 51 1681 0
-1684 -1682 0
-1684 -1683 0
1684 1682 1683 0
-1688 1678 0
-1688 1684 0
1688 -1678 -1684 0
-1689 -1678 0
-1689 -1684 0
1689 1678 1684 0
-1690 -1688 0
-1690 -1689 0
1690 1688 1689 0
-1691 1672 0
-1691 -1690 0
1691 -1672 1690 0
-1692 5 0
-1692 1656 0
1692 -5 -1656 0
-1693 -5 0
-1693 -1656 0
1693 5 1656 0
-1694 -1692 0
-1694 -1693 0
1694 1692 1693 0
-1695 35 0
-1695 41 0
1695 -35 -41 0
-1696 -35 0
-1696 -41 0
1696 35 41 0
-1697 -1695 0
-1697 -1696 0
1697 1695 1696 0
-1698 50 0
-1698 1697 0
1698 -50 -1697 0
-1699 -50 0
-1699 -1697 0
1699 50 1697 0
-1700 -1698 0
-1700 -1699 0
1700 1698 1699 0
-1704 1694 0
-1704 1700 0
1704 -1694 -1700 0
-1705 -1694 0
-1705 -1700 0
1705 1694 1700 0
-1706 -1704 0
-1706 -1705 0
1706 1704 1705 0
-1707 1691 0
-1707 -1706 0
1707 -1691 1706 0
-1708 4 0
-1708 1675 0
1708 -4 -1675 0
-1709 -4 0
-1709 -1675 0
1709 4 1675 0
-1710 -1708 0
-1710 -1709 0
1710 1708 1709 0
-1711 34 0
-1711 40 0
1711 -34 -40 0
-1712 -34 0
-1712 -40 0
1712 34 40 0
-1713 -1711 0
-1713 -1712 0
1713 1711 1712 0
-1714 49 0
-1714 1713 0
1714 -49 -1713 0
-1715 -49 0
-1715 -1713 0
1715 49 1713 0
-1716 -1714 0
-1716 -1715 0
1716 1714 1715 0
-1720 1710 0
-1720 1716 0
1720 -1710 -1716 0
-1721 -1710 0
-1721 -1716 0
1721 1710 1716 0
-1722 -1720 0
-1722 -1721 0
1722 1720 1721 0
-1723 1707 0
-1723 -1722 0
1723 -1707 1722 0
-1724 7 0
-1724 1596 0
1724 -7 -1596 0
-1725 -7 0
-1725 -1596 0
1725 7 1596 0
-1726 -1724 0
-1726 -1725 0
1726 1724 1725 0
-1730 33 0
-1730 1726 0
1730 -33 -1726 0
-1731 -33 0
-1731 -1726 0
1731 33 1726 0
-1732 -1730 0
-1732 -1731 0
1732 1730 1731 0
-1733 39 0
-1733 48 0
1733 -39 -48 0
-1734 -39 0
-1734 -48 0
1734 39 48 0
-1735 -1733 0
-1735 -1734 0
1735 1733 1734 0
-1739 1732 0
-1739 1735 0
1739 -1732 -1735 0
-1740 -1732 0
-1740 -1735 0
1740 1732 1735 0
-1741 -1739 0
-1741 -1740 0
1741 1739 1740 0
-1742 1723 0
-1742 -1741 0
1742 -1723 1741 0
-1743 6 0
-1743 1615 0
1743 -6 -1615 0
-1744 -6 0
-1744 -1615 0
1744 6 1615 0
-1745 -1743 0
-1745 -1744 0
1745 1743 1744 0
-1749 32 0
-1749 1745 0
1749 -32 -1745 0
-1750 -32 0
-1750 -1745 0
1750 32 1745 0
-1751 -1749 0
-1751 -1750 0
1751 1749 1750 0
-1752 38 0
-1752 47 0
1752 -38 -47 0
-1753 -38 0
-1753 -47 0
1753 38 47 0
-1754 -1752 0
-1754 -1753 0
1754 1752 1753 0
-1758 1751 0
-1758 1754 0
1758 -1751 -1754 0
-1759 -1751 0
-1759 -1754 0
1759 1751 1754 0
-1760 -1758 0
-1760 -1759 0
1760 1758 1759 0
-1761 1742 0
-1761 -1760 0
1761 -1742 1760 0
-1537 13 0
-1537 15 0
1537 -13 -15 0
-1538 -13 0
-1538 -15 0
1538 13 15 0
-1539 -1537 0
-1539 -1538 0
1539 1537 1538 0
-1762 3 0
-1762 4 0
1762 -3 -4 0
-1763 -3 0
-1763 -4 0
1763 3 4 0
-1764 -1762 0
-1764 -1763 0
1764 1762 1763 0
-1771 9 0
-1771 1764 0
1771 -9 -1764 0
-1772 -9 0
-1772 -1764 0
1772 9 1764 0
-1773 -1771 0
-1773 -1772 0
1773 1771 1772 0
-1777 1539 0
-1777 1773 0
1777 -1539 -1773 0
-1778 -1539 0
-1778 -1773 0
1778 1539 1773 0
-1779 -1777 0
-1779 -1778 0
1779 1777 1778 0
-1765 20 0
-1765 21 0
1765 -20 -21 0
-1766 -20 0
-1766 -21 0
1766 20 21 0
-1767 -1765 0
-1767 -1766 0
1767 1765 1766 0
-1768 24 0
-1768 25 0
1768 -24 -25 0
-1769 -24 0
-1769 -25 0
1769 24 25 0
-1770 -1768 0
-1770 -1769 0
1770 1768 1769 0
-1780 1767 0
-1780 1770 0
1780 -1767 -1770 0
-1781 -1767 0
-1781 -1770 0
1781 1767 1770 0
-1782 -1780 0
-1782 -1781 0
1782 1780 1781 0
-1801 29 0
-1801 1782 0
1801 -29 -1782 0
-1802 -29 0
-1802 -1782 0
1802 29 1782 0
-1803 -1801 0
-1803 -1802 0
1803 1801 1802 0
-1804 1779 0
-1804 1803 0
1804 -1779 -1803 0
-1805 -1779 0
-1805 -1803 0
1805 1779 1803 0
-1806 -1804 0
-1806 -1805 0
1806 1804 1805 0
-1816 38 0
-1816 55 0
1816 -38 -55 0
-1817 -38 0
-1817 -55 0
1817 38 55 0
-1818 -1816 0
-1818 -1817 0
1818 1816 1817 0
-1819 1806 0
-1819 -1818 0
1819 -1806 1818 0
-1820 -1806 0
-1820 1818 0
1820 1806 -1818 0
-1821 -1819 0
-1821 -1820 0
1821 1819 1820 0
-1822 10 0
-1822 11 0
1822 -10 -11 0
-1823 -10 0
-1823 -11 0
1823 10 11 0
-1824 -1822 0
-1824 -1823 0
1824 1822 1823 0
-1834 13 0
-1834 1824 0
1834 -13 -1824 0
-1835 -13 0
-1835 -1824 0
1835 13 1824 0
-1836 -1834 0
-1836 -1835 0
1836 1834 1835 0
-1858 1514 0
-1858 1836 0
1858 -1514 -1836 0
-1859 -1514 0
-1859 -1836 0
1859 1514 1836 0
-1860 -1858 0
-1860 -1859 0
1860 1858 1859 0
-1861 8 0
-1861 1860 0
1861 -8 -1860 0
-1862 -8 0
-1862 -1860 0
1862 8 1860 0
-1863 -1861 0
-1863 -1862 0
1863 1861 1862 0
-1828 22 0
-1828 23 0
1828 -22 -23 0
-1829 -22 0
-1829 -23 0
1829 22 23 0
-1830 -1828 0
-1830 -1829 0
1830 1828 1829 0
-1852 1770 0
-1852 1830 0
1852 -1770 -1830 0
-1853 -1770 0
-1853 -1830 0
1853 1770 1830 0
-1854 -1852 0
-1854 -1853 0
1854 1852 1853 0
-1864 20 0
-1864 1854 0
1864 -20 -1854 0
-1865 -20 0
-1865 -1854 0
1865 20 1854 0
-1866 -1864 0
-1866 -1865 0
1866 1864 1865 0
-1900 29 0
-1900 1866 0
1900 -29 -1866 0
-1901 -29 0
-1901 -1866 0
1901 29 1866 0
-1902 -1900 0
-1902 -1901 0
1902 1900 1901 0
-1903 1863 0
-1903 1902 0
1903 -1863 -1902 0
-1904 -1863 0
-1904 -1902 0
1904 1863 1902 0
-1905 -1903 0
-1905 -1904 0
1905 1903 1904 0
-1918 38 0
-1918 54 0
1918 -38 -54 0
-1919 -38 0
-1919 -54 0
1919 38 54 0
-1920 -1918 0
-1920 -1919 0
1920 1918 1919 0
-1921 1905 0
-1921 -1920 0
1921 -1905 1920 0
-1922 -1905 0
-1922 1920 0
1922 1905 -1920 0
-1923 -1921 0
-1923 -1922 0
1923 1921 1922 0
-1452 38 0
-1452 53 0
1452 -38 -53 0
-1453 -38 0
-1453 -53 0
1453 38 53 0
-1454 -1452 0
-1454 -1453 0
1454 1452 1453 0
-1924 2 0
-1924 3 0
1924 -2 -3 0
-1925 -2 0
-1925 -3 0
1925 2 3 0
-1926 -1924 0
-1926 -1925 0
1926 1924 1925 0
-1927 4 0
-1927 1926 0
1927 -4 -1926 0
-1928 -4 0
-1928 -1926 0
1928 4 1926 0
-1929 -1927 0
-1929 -1928 0
1929 1927 1928 0
-1930 9 0
-1930 1929 0
1930 -9 -1929 0
-1931 -9 0
-1931 -1929 0
1931 9 1929 0
-1932 -1930 0
-1932 -1931 0
1932 1930 1931 0
-1942 1580 0
-1942 1932 0
1942 -1580 -1932 0
-1943 -1580 0
-1943 -1932 0
1943 1580 1932 0
-1944 -1942 0
-1944 -1943 0
1944 1942 1943 0
-1939 23 0
-1939 1770 0
1939 -23 -1770 0
-1940 -23 0
-1940 -1770 0
1940 23 1770 0
-1941 -1939 0
-1941 -1940 0
1941 1939 1940 0
-1945 21 0
-1945 1941 0
1945 -21 -1941 0
-1946 -21 0
-1946 -1941 0
1946 21 1941 0
-1947 -1945 0
-1947 -1946 0
1947 1945 1946 0
-1963 29 0
-1963 1947 0
1963 -29 -1947 0
-1964 -29 0
-1964 -1947 0
1964 29 1947 0
-1965 -1963 0
-1965 -1964 0
1965 1963 1964 0
-1966 1944 0
-1966 1965 0
1966 -1944 -1965 0
-1967 -1944 0
-1967 -1965 0
1967 1944 1965 0
-1968 -1966 0
-1968 -1967 0
1968 1966 1967 0
-1978 -1454 0
-1978 1968 0
1978 1454 -1968 0
-1979 1454 0
-1979 -1968 0
1979 -1454 1968 0
-1980 -1978 0
-1980 -1979 0
1980 1978 1979 0
-1984 11 0
-1984 14 0
1984 -11 -14 0
-1985 -11 0
-1985 -14 0
1985 11 14 0
-1986 -1984 0
-1986 -1985 0
1986 1984 1985 0
-1990 8 0
-1990 1986 0
1990 -8 -1986 0
-1991 -8 0
-1991 -1986 0
1991 8 1986 0
-1992 -1990 0
-1992 -1991 0
1992 1990 1991 0
-1987 24 0
-1987 1830 0
1987 -24 -1830 0
-1988 -24 0
-1988 -1830 0
1988 24 1830 0
-1989 -1987 0
-1989 -1988 0
1989 1987 1988 0
-1993 20 0
-1993 1989 0
1993 -20 -1989 0
-1994 -20 0
-1994 -1989 0
1994 20 1989 0
-1995 -1993 0
-1995 -1994 0
1995 1993 1994 0
-2011 29 0
-2011 1995 0
2011 -29 -1995 0
-2012 -29 0
-2012 -1995 0
2012 29 1995 0
-2013 -2011 0
-2013 -2012 0
2013 2011 2012 0
-2014 1992 0
-2014 2013 0
2014 -1992 -2013 0
-2015 -1992 0
-2015 -2013 0
2015 1992 2013 0
-2016 -2014 0
-2016 -2015 0
2016 2014 2015 0
-2029 38 0
-2029 52 0
2029 -38 -52 0
-2030 -38 0
-2030 -52 0
2030 38 52 0
-2031 -2029 0
-2031 -2030 0
2031 2029 2030 0
-2032 2016 0
-2032 -2031 0
2032 -2016 2031 0
-2033 -2016 0
-2033 2031 0
2033 2016 -2031 0
-2034 -2032 0
-2034 -2033 0
2034 2032 2033 0
-2038 12 0
-2038 13 0
2038 -12 -13 0
-2039 -12 0
-2039 -13 0
2039 12 13 0
-2040 -2038 0
-2040 -2039 0
2040 2038 2039 0
-2041 11 0
-2041 2040 0
2041 -11 -2040 0
-2042 -11 0
-2042 -2040 0
2042 11 2040 0
-2043 -2041 0
-2043 -2042 0
2043 2041 2042 0
-2047 1929 0
-2047 2043 0
2047 -1929 -2043 0
-2048 -1929 0
-2048 -2043 0
2048 1929 2043 0
-2049 -2047 0
-2049 -2048 0
2049 2047 2048 0
-2053 29 0
-2053 1333 0
2053 -29 -1333 0
-2054 -29 0
-2054 -1333 0
2054 29 1333 0
-2055 -2053 0
-2055 -2054 0
2055 2053 2054 0
-2056 2049 0
-2056 2055 0
2056 -2049 -2055 0
-2057 -2049 0
-2057 -2055 0
2057 2049 2055 0
-2058 -2056 0
-2058 -2057 0
2058 2056 2057 0
-2065 38 0
-2065 51 0
2065 -38 -51 0
-2066 -38 0
-2066 -51 0
2066 38 51 0
-2067 -2065 0
-2067 -2066 0
2067 2065 2066 0
-2068 2058 0
-2068 -2067 0
2068 -2058 2067 0
-2069 -2058 0
-2069 2067 0
2069 2058 -2067 0
-2070 -2068 0
-2070 -2069 0
2070 2068 2069 0
-2071 1376 0
-2071 -1388 0
2071 -1376 1388 0
-2072 -1376 0
-2072 1388 0
2072 1376 -1388 0
-2073 -2071 0
-2073 -2072 0
2073 2071 2072 0
-2077 1824 0
-2077 2040 0
2077 -1824 -2040 0
-2078 -1824 0
-2078 -2040 0
2078 1824 2040 0
-2079 -2077 0
-2079 -2078 0
2079 2077 2078 0
-2095 16 0
-2095 2079 0
2095 -16 -2079 0
-2096 -16 0
-2096 -2079 0
2096 16 2079 0
-2097 -2095 0
-2097 -2096 0
2097 2095 2096 0
-2098 1926 0
-2098 2097 0
2098 -1926 -2097 0
-2099 -1926 0
-2099 -2097 0
2099 1926 2097 0
-2100 -2098 0
-2100 -2099 0
2100 2098 2099 0
-2092 25 0
-2092 1830 0
2092 -25 -1830 0
-2093 -25 0
-2093 -1830 0
2093 25 1830 0
-2094 -2092 0
-2094 -2093 0
2094 2092 2093 0
-2101 21 0
-2101 2094 0
2101 -21 -2094 0
-2102 -21 0
-2102 -2094 0
2102 21 2094 0
-2103 -2101 0
-2103 -2102 0
2103 2101 2102 0
-2131 29 0
-2131 2103 0
2131 -29 -2103 0
-2132 -29 0
-2132 -2103 0
2132 29 2103 0
-2133 -2131 0
-2133 -2132 0
2133 2131 2132 0
-2134 2100 0
-2134 2133 0
2134 -2100 -2133 0
-2135 -2100 0
-2135 -2133 0
2135 2100 2133 0
-2136 -2134 0
-2136 -2135 0
2136 2134 2135 0
-2137 38 0
-2137 49 0
2137 -38 -49 0
-2138 -38 0
-2138 -49 0
2138 38 49 0
-2139 -2137 0
-2139 -2138 0
2139 2137 2138 0
-2149 2136 0
-2149 -2139 0
2149 -2136 2139 0
-2150 -2136 0
-2150 2139 0
2150 2136 -2139 0
-2151 -2149 0
-2151 -2150 0
2151 2149 2150 0
-2152 3 0
-2152 9 0
2152 -3 -9 0
-2153 -3 0
-2153 -9 0
2153 3 9 0
-2154 -2152 0
-2154 -2153 0
2154 2152 2153 0
-2164 15 0
-2164 2154 0
2164 -15 -2154 0
-2165 -15 0
-2165 -2154 0
2165 15 2154 0
-2166 -2164 0
-2166 -2165 0
2166 2164 2165 0
-2167 1296 0
-2167 1767 0
2167 -1296 -1767 0
-2168 -1296 0
-2168 -1767 0
2168 1296 1767 0
-2169 -2167 0
-2169 -2168 0
2169 2167 2168 0
-2185 29 0
-2185 2169 0
2185 -29 -2169 0
-2186 -29 0
-2186 -2169 0
2186 29 2169 0
-2187 -2185 0
-2187 -2186 0
2187 2185 2186 0
-2188 2166 0
-2188 2187 0
2188 -2166 -2187 0
-2189 -2166 0
-2189 -2187 0
2189 2166 2187 0
-2190 -2188 0
-2190 -2189 0
2190 2188 2189 0
-2191 38 0
-2191 48 0
2191 -38 -48 0
-2192 -38 0
-2192 -48 0
2192 38 48 0
-2193 -2191 0
-2193 -2192 0
2193 2191 2192 0
-2203 2190 0
-2203 -2193 0
2203 -2190 2193 0
-2204 -2190 0
-2204 2193 0
2204 2190 -2193 0
-2205 -2203 0
-2205 -2204 0
2205 2203 2204 0
-2215 1514 0
-2215 2079 0
2215 -1514 -2079 0
-2216 -1514 0
-2216 -2079 0
2216 1514 2079 0
-2217 -2215 0
-2217 -2216 0
2217 2215 2216 0
-2218 1634 0
-2218 2217 0
2218 -1634 -2217 0
-2219 -1634 0
-2219 -2217 0
2219 1634 2217 0
-2220 -2218 0
-2220 -2219 0
2220 2218 2219 0
-2221 1767 0
-2221 2094 0
2221 -1767 -2094 0
-2222 -1767 0
-2222 -2094 0
2222 1767 2094 0
-2223 -2221 0
-2223 -2222 0
2223 2221 2222 0
-2248 29 0
-2248 2223 0
2248 -29 -2223 0
-2249 -29 0
-2249 -2223 0
2249 29 2223 0
-2250 -2248 0
-2250 -2249 0
2250 2248 2249 0
-2251 2220 0
-2251 2250 0
2251 -2220 -2250 0
-2252 -2220 0
-2252 -2250 0
2252 2220 2250 0
-2253 -2251 0
-2253 -2252 0
2253 2251 2252 0
-2260 -1754 0
-2260 2253 0
2260 1754 -2253 0
-2261 1754 0
-2261 -2253 0
2261 -1754 2253 0
-2262 -2260 0
-2262 -2261 0
2262 2260 2261 0
-2263 8 0
-2263 9 0
2263 -8 -9 0
-2264 -8 0
-2264 -9 0
2264 8 9 0
-2265 -2263 0
-2265 -2264 0
2265 2263 2264 0
-2272 4 0
-2272 2265 0
2272 -4 -2265 0
-2273 -4 0
-2273 -2265 0
2273 4 2265 0
-2274 -2272 0
-2274 -2273 0
2274 2272 2273 0
-2269 14 0
-2269 15 0
2269 -14 -15 0
-2270 -14 0
-2270 -15 0
2270 14 15 0
-2271 -2269 0
-2271 -2270 0
2271 2269 2270 0
-2275 10 0
-2275 13 0
2275 -10 -13 0
-2276 -10 0
-2276 -13 0
2276 10 13 0
-2277 -2275 0
-2277 -2276 0
2277 2275 2276 0
-2293 2271 0
-2293 2277 0
2293 -2271 -2277 0
-2294 -2271 0
-2294 -2277 0
2294 2271 2277 0
-2295 -2293 0
-2295 -2294 0
2295 2293 2294 0
-2296 2274 0
-2296 2295 0
2296 -2274 -2295 0
-2297 -2274 0
-2297 -2295 0
2297 2274 2295 0
-2298 -2296 0
-2298 -2297 0
2298 2296 2297 0
-2299 1767 0
-2299 1941 0
2299 -1767 -1941 0
-2300 -1767 0
-2300 -1941 0
2300 1767 1941 0
-2301 -2299 0
-2301 -2300 0
2301 2299 2300 0
-2317 2298 0
-2317 2301 0
2317 -2298 -2301 0
-2318 -2298 0
-2318 -2301 0
2318 2298 2301 0
-2319 -2317 0
-2319 -2318 0
2319 2317 2318 0
-2320 38 0
-2320 46 0
2320 -38 -46 0
-2321 -38 0
-2321 -46 0
2321 38 46 0
-2322 -2320 0
-2322 -2321 0
2322 2320 2321 0
-2332 2319 0
-2332 -2322 0
2332 -2319 2322 0
-2333 -2319 0
-2333 2322 0
2333 2319 -2322 0
-2334 -2332 0
-2334 -2333 0
2334 2332 2333 0
-2341 38 0
-2341 45 0
2341 -38 -45 0
-2342 -38 0
-2342 -45 0
2342 38 45 0
-2343 -2341 0
-2343 -2342 0
2343 2341 2342 0
-2335 12 0
-2335 15 0
2335 -12 -15 0
-2336 -12 0
-2336 -15 0
2336 12 15 0
-2337 -2335 0
-2337 -2336 0
2337 2335 2336 0
-2338 3 0
-2338 2337 0
2338 -3 -2337 0
-2339 -3 0
-2339 -2337 0
2339 3 2337 0
-2340 -2338 0
-2340 -2339 0
2340 2338 2339 0
-2344 21 0
-2344 2340 0
2344 -21 -2340 0
-2345 -21 0
-2345 -2340 0
2345 21 2340 0
-2346 -2344 0
-2346 -2345 0
2346 2344 2345 0
-2347 -2343 0
-2347 2346 0
2347 2343 -2346 0
-2348 2343 0
-2348 -2346 0
2348 -2343 2346 0
-2349 -2347 0
-2349 -2348 0
2349 2347 2348 0
-2365 38 0
-2365 44 0
2365 -38 -44 0
-2366 -38 0
-2366 -44 0
2366 38 44 0
-2367 -2365 0
-2367 -2366 0
2367 2365 2366 0
-2350 1615 0
-2350 2265 0
2350 -1615 -2265 0
-2351 -1615 0
-2351 -2265 0
2351 1615 2265 0
-2352 -2350 0
-2352 -2351 0
2352 2350 2351 0
-2359 15 0
-2359 1836 0
2359 -15 -1836 0
-2360 -15 0
-2360 -1836 0
2360 15 1836 0
-2361 -2359 0
-2361 -2360 0
2361 2359 2360 0
-2362 2352 0
-2362 2361 0
2362 -2352 -2361 0
-2363 -2352 0
-2363 -2361 0
2363 2352 2361 0
-2364 -2362 0
-2364 -2363 0
2364 2362 2363 0
-2368 1947 0
-2368 2364 0
2368 -1947 -2364 0
-2369 -1947 0
-2369 -2364 0
2369 1947 2364 0
-2370 -2368 0
-2370 -2369 0
2370 2368 2369 0
-2371 -2367 0
-2371 2370 0
2371 2367 -2370 0
-2372 2367 0
-2372 -2370 0
2372 -2367 2370 0
-2373 -2371 0
-2373 -2372 0
2373 2371 2372 0
-2407 38 0
-2407 43 0
2407 -38 -43 0
-2408 -38 0
-2408 -43 0
2408 38 43 0
-2409 -2407 0
-2409 -2408 0
2409 2407 2408 0
-2374 15 0
-2374 16 0
2374 -15 -16 0
-2375 -15 0
-2375 -16 0
2375 15 16 0
-2376 -2374 0
-2376 -2375 0
2376 2374 2375 0
-2377 10 0
-2377 12 0
2377 -10 -12 0
-2378 -10 0
-2378 -12 0
2378 10 12 0
-2379 -2377 0
-2379 -2378 0
2379 2377 2378 0
-2383 2376 0
-2383 2379 0
2383 -2376 -2379 0
-2384 -2376 0
-2384 -2379 0
2384 2376 2379 0
-2385 -2383 0
-2385 -2384 0
2385 2383 2384 0
-2386 3 0
-2386 2385 0
2386 -3 -2385 0
-2387 -3 0
-2387 -2385 0
2387 3 2385 0
-2388 -2386 0
-2388 -2387 0
2388 2386 2387 0
-2380 22 0
-2380 25 0
2380 -22 -25 0
-2381 -22 0
-2381 -25 0
2381 22 25 0
-2382 -2380 0
-2382 -2381 0
2382 2380 2381 0
-2389 21 0
-2389 2382 0
2389 -21 -2382 0
-2390 -21 0
-2390 -2382 0
2390 21 2382 0
-2391 -2389 0
-2391 -2390 0
2391 2389 2390 0
-2410 2388 0
-2410 2391 0
2410 -2388 -2391 0
-2411 -2388 0
-2411 -2391 0
2411 2388 2391 0
-2412 -2410 0
-2412 -2411 0
2412 2410 2411 0
-2413 -2409 0
-2413 2412 0
2413 2409 -2412 0
-2414 2409 0
-2414 -2412 0
2414 -2409 2412 0
-2415 -2413 0
-2415 -2414 0
2415 2413 2414 0
-2422 38 0
-2422 42 0
2422 -38 -42 0
-2423 -38 0
-2423 -42 0
2423 38 42 0
-2424 -2422 0
-2424 -2423 0
2424 2422 2423 0
-2416 8 0
-2416 1615 0
2416 -8 -1615 0
-2417 -8 0
-2417 -1615 0
2417 8 1615 0
-2418 -2416 0
-2418 -2417 0
2418 2416 2417 0
-2419 1836 0
-2419 2418 0
2419 -1836 -2418 0
-2420 -1836 0
-2420 -2418 0
2420 1836 2418 0
-2421 -2419 0
-2421 -2420 0
2421 2419 2420 0
-2425 1259 0
-2425 2421 0
2425 -1259 -2421 0
-2426 -1259 0
-2426 -2421 0
2426 1259 2421 0
-2427 -2425 0
-2427 -2426 0
2427 2425 2426 0
-2431 -2424 0
-2431 2427 0
2431 2424 -2427 0
-2432 2424 0
-2432 -2427 0
2432 -2424 2427 0
-2433 -2431 0
-2433 -2432 0
2433 2431 2432 0
-2443 38 0
-2443 41 0
2443 -38 -41 0
-2444 -38 0
-2444 -41 0
2444 38 41 0
-2445 -2443 0
-2445 -2444 0
2445 2443 2444 0
-2440 16 0
-2440 2271 0
2440 -16 -2271 0
-2441 -16 0
-2441 -2271 0
2441 16 2271 0
-2442 -2440 0
-2442 -2441 0
2442 2440 2441 0
-2446 2379 0
-2446 2442 0
2446 -2379 -2442 0
-2447 -2379 0
-2447 -2442 0
2447 2379 2442 0
-2448 -2446 0
-2448 -2447 0
2448 2446 2447 0
-2449 1634 0
-2449 2448 0
2449 -1634 -2448 0
-2450 -1634 0
-2450 -2448 0
2450 1634 2448 0
-2451 -2449 0
-2451 -2450 0
2451 2449 2450 0
-2467 2223 0
-2467 2451 0
2467 -2223 -2451 0
-2468 -2223 0
-2468 -2451 0
2468 2223 2451 0
-2469 -2467 0
-2469 -2468 0
2469 2467 2468 0
-2470 -2445 0
-2470 2469 0
2470 2445 -2469 0
-2471 2445 0
-2471 -2469 0
2471 -2445 2469 0
-2472 -2470 0
-2472 -2471 0
2472 2470 2471 0
-2476 38 0
-2476 40 0
2476 -38 -40 0
-2477 -38 0
-2477 -40 0
2477 38 40 0
-2478 -2476 0
-2478 -2477 0
2478 2476 2477 0
-2473 2 0
-2473 8 0
2473 -2 -8 0
-2474 -2 0
-2474 -8 0
2474 2 8 0
-2475 -2473 0
-2475 -2474 0
2475 2473 2474 0
-2479 11 0
-2479 2475 0
2479 -11 -2475 0
-2480 -11 0
-2480 -2475 0
2480 11 2475 0
-2481 -2479 0
-2481 -2480 0
2481 2479 2480 0
-2482 23 0
-2482 2481 0
2482 -23 -2481 0
-2483 -23 0
-2483 -2481 0
2483 23 2481 0
-2484 -2482 0
-2484 -2483 0
2484 2482 2483 0
-2488 -2478 0
-2488 2484 0
2488 2478 -2484 0
-2489 2478 0
-2489 -2484 0
2489 -2478 2484 0
-2490 -2488 0
-2490 -2489 0
2490 2488 2489 0
-2491 38 0
-2491 39 0
2491 -38 -39 0
-2492 -38 0
-2492 -39 0
2492 38 39 0
-2493 -2491 0
-2493 -2492 0
2493 2491 2492 0
-2497 10 0
-2497 2442 0
2497 -10 -2442 0
-2498 -10 0
-2498 -2442 0
2498 10 2442 0
-2499 -2497 0
-2499 -2498 0
2499 2497 2498 0
-2500 2265 0
-2500 2499 0
2500 -2265 -2499 0
-2501 -2265 0
-2501 -2499 0
2501 2265 2499 0
-2502 -2500 0
-2502 -2501 0
2502 2500 2501 0
-2503 1767 0
-2503 1854 0
2503 -1767 -1854 0
-2504 -1767 0
-2504 -1854 0
2504 1767 1854 0
-2505 -2503 0
-2505 -2504 0
2505 2503 2504 0
-2518 2502 0
-2518 2505 0
2518 -2502 -2505 0
-2519 -2502 0
-2519 -2505 0
2519 2502 2505 0
-2520 -2518 0
-2520 -2519 0
2520 2518 2519 0
-2527 -2493 0
-2527 2520 0
2527 2493 -2520 0
-2528 2493 0
-2528 -2520 0
2528 -2493 2520 0
-2529 -2527 0
-2529 -2528 0
2529 2527 2528 0
-2533 7 0
-2533 2265 0
2533 -7 -2265 0
-2534 -7 0
-2534 -2265 0
2534 7 2265 0
-2535 -2533 0
-2535 -2534 0
2535 2533 2534 0
-2536 1926 0
-2536 2535 0
2536 -1926 -2535 0
-2537 -1926 0
-2537 -2535 0
2537 1926 2535 0
-2538 -2536 0
-2538 -2537 0
2538 2536 2537 0
-2539 12 0
-2539 1824 0
2539 -12 -1824 0
-2540 -12 0
-2540 -1824 0
2540 12 1824 0
-2541 -2539 0
-2541 -2540 0
2541 2539 2540 0
-2551 2442 0
-2551 2541 0
2551 -2442 -2541 0
-2552 -2442 0
-2552 -2541 0
2552 2442 2541 0
-2553 -2551 0
-2553 -2552 0
2553 2551 2552 0
-2554 2538 0
-2554 2553 0
2554 -2538 -2553 0
-2555 -2538 0
-2555 -2553 0
2555 2538 2553 0
-2556 -2554 0
-2556 -2555 0
2556 2554 2555 0
-2566 29 0
-2566 2301 0
2566 -29 -2301 0
-2567 -29 0
-2567 -2301 0
2567 29 2301 0
-2568 -2566 0
-2568 -2567 0
2568 2566 2567 0
-2569 2556 0
-2569 2568 0
2569 -2556 -2568 0
-2570 -2556 0
-2570 -2568 0
2570 2556 2568 0
-2571 -2569 0
-2571 -2570 0
2571 2569 2570 0
-2593 -37 0
-2593 2571 0
2593 37 -2571 0
-2594 37 0
-2594 -2571 0
2594 -37 2571 0
-2595 -2593 0
-2595 -2594 0
2595 2593 2594 0
-2596 3 0
-2596 6 0
2596 -3 -6 0
-2597 -3 0
-2597 -6 0
2597 3 6 0
-2598 -2596 0
-2598 -2597 0
2598 2596 2597 0
-2599 12 0
-2599 2598 0
2599 -12 -2598 0
-2600 -12 0
-2600 -2598 0
2600 12 2598 0
-2601 -2599 0
-2601 -2600 0
2601 2599 2600 0
-2605 21 0
-2605 29 0
2605 -21 -29 0
-2606 -21 0
-2606 -29 0
2606 21 29 0
-2607 -2605 0
-2607 -2606 0
2607 2605 2606 0
-2608 2601 0
-2608 2607 0
2608 -2601 -2607 0
-2609 -2601 0
-2609 -2607 0
2609 2601 2607 0
-2610 -2608 0
-2610 -2609 0
2610 2608 2609 0
-2614 -36 0
-2614 2610 0
2614 36 -2610 0
-2615 36 0
-2615 -2610 0
2615 -36 2610 0
-2616 -2614 0
-2616 -2615 0
2616 2614 2615 0
-2617 1596 0
-2617 2535 0
2617 -1596 -2535 0
-2618 -1596 0
-2618 -2535 0
2618 1596 2535 0
-2619 -2617 0
-2619 -2618 0
2619 2617 2618 0
-2623 2448 0
-2623 2619 0
2623 -2448 -2619 0
-2624 -2448 0
-2624 -2619 0
2624 2448 2619 0
-2625 -2623 0
-2625 -2624 0
2625 2623 2624 0
-2635 1965 0
-2635 2625 0
2635 -1965 -2625 0
-2636 -1965 0
-2636 -2625 0
2636 1965 2625 0
-2637 -2635 0
-2637 -2636 0
2637 2635 2636 0
-2656 -35 0
-2656 2637 0
2656 35 -2637 0
-2657 35 0
-2657 -2637 0
2657 -35 2637 0
-2658 -2656 0
-2658 -2657 0
2658 2656 2657 0
-2659 6 0
-2659 1764 0
2659 -6 -1764 0
-2660 -6 0
-2660 -1764 0
2660 6 1764 0
-2661 -2659 0
-2661 -2660 0
2661 2659 2660 0
-2662 10 0
-2662 2040 0
2662 -10 -2040 0
-2663 -10 0
-2663 -2040 0
2663 10 2040 0
-2664 -2662 0
-2664 -2663 0
2664 2662 2663 0
-2665 16 0
-2665 2664 0
2665 -16 -2664 0
-2666 -16 0
-2666 -2664 0
2666 16 2664 0
-2667 -2665 0
-2667 -2666 0
2667 2665 2666 0
-2668 2661 0
-2668 2667 0
2668 -2661 -2667 0
-2669 -2661 0
-2669 -2667 0
2669 2661 2667 0
-2670 -2668 0
-2670 -2669 0
2670 2668 2669 0
-2677 29 0
-2677 2391 0
2677 -29 -2391 0
-2678 -29 0
-2678 -2391 0
2678 29 2391 0
-2679 -2677 0
-2679 -2678 0
2679 2677 2678 0
-2680 2670 0
-2680 2679 0
2680 -2670 -2679 0
-2681 -2670 0
-2681 -2679 0
2681 2670 2679 0
-2682 -2680 0
-2682 -2681 0
2682 2680 2681 0
-2692 -34 0
-2692 2682 0
2692 34 -2682 0
-2693 34 0
-2693 -2682 0
2693 -34 2682 0
-2694 -2692 0
-2694 -2693 0
2694 2692 2693 0
-2530 7 0
-2530 8 0
2530 -7 -8 0
-2531 -7 0
-2531 -8 0
2531 7 8 0
-2532 -2530 0
-2532 -2531 0
2532 2530 2531 0
-2695 5 0
-2695 2532 0
2695 -5 -2532 0
-2696 -5 0
-2696 -2532 0
2696 5 2532 0
-2697 -2695 0
-2697 -2696 0
2697 2695 2696 0
-2701 10 0
-2701 1514 0
2701 -10 -1514 0
-2702 -10 0
-2702 -1514 0
2702 10 1514 0
-2703 -2701 0
-2703 -2702 0
2703 2701 2702 0
-2704 2697 0
-2704 2703 0
2704 -2697 -2703 0
-2705 -2697 0
-2705 -2703 0
2705 2697 2703 0
-2706 -2704 0
-2706 -2705 0
2706 2704 2705 0
-2710 29 0
-2710 33 0
2710 -29 -33 0
-2711 -29 0
-2711 -33 0
2711 29 33 0
-2712 -2710 0
-2712 -2711 0
2712 2710 2711 0
-2713 1259 0
-2713 2712 0
2713 -1259 -2712 0
-2714 -1259 0
-2714 -2712 0
2714 1259 2712 0
-2715 -2713 0
-2715 -2714 0
2715 2713 2714 0
-2716 2706 0
-2716 2715 0
2716 -2706 -2715 0
-2717 -2706 0
-2717 -2715 0
2717 2706 2715 0
-2718 -2716 0
-2718 -2717 0
2718 2716 2717 0
-2725 1675 0
-2725 1929 0
2725 -1675 -1929 0
-2726 -1675 0
-2726 -1929 0
2726 1675 1929 0
-2727 -2725 0
-2727 -2726 0
2727 2725 2726 0
-2731 2217 0
-2731 2727 0
2731 -2217 -2727 0
-2732 -2217 0
-2732 -2727 0
2732 2217 2727 0
-2733 -2731 0
-2733 -2732 0
2733 2731 2732 0
-2728 29 0
-2728 32 0
2728 -29 -32 0
-2729 -29 0
-2729 -32 0
2729 29 32 0
-2730 -2728 0
-2730 -2729 0
2730 2728 2729 0
-2737 2223 0
-2737 2730 0
2737 -2223 -2730 0
-2738 -2223 0
-2738 -2730 0
2738 2223 2730 0
-2739 -2737 0
-2739 -2738 0
2739 2737 2738 0
-2740 2733 0
-2740 2739 0
2740 -2733 -2739 0
-2741 -2733 0
-2741 -2739 0
2741 2733 2739 0
-2742 -2740 0
-2742 -2741 0
2742 2740 2741 0
-2761 5 0
-2761 8 0
2761 -5 -8 0
-2762 -5 0
-2762 -8 0
2762 5 8 0
-2763 -2761 0
-2763 -2762 0
2763 2761 2762 0
-2767 14 0
-2767 2763 0
2767 -14 -2763 0
-2768 -14 0
-2768 -2763 0
2768 14 2763 0
-2769 -2767 0
-2769 -2768 0
2769 2767 2768 0
-2764 29 0
-2764 31 0
2764 -29 -31 0
-2765 -29 0
-2765 -31 0
2765 29 31 0
-2766 -2764 0
-2766 -2765 0
2766 2764 2765 0
-2773 23 0
-2773 2766 0
2773 -23 -2766 0
-2774 -23 0
-2774 -2766 0
2774 23 2766 0
-2775 -2773 0
-2775 -2774 0
2775 2773 2774 0
-2776 2769 0
-2776 2775 0
2776 -2769 -2775 0
-2777 -2769 0
-2777 -2775 0
2777 2769 2775 0
-2778 -2776 0
-2778 -2777 0
2778 2776 2777 0
-2785 1929 0
-2785 2265 0
2785 -1929 -2265 0
-2786 -1929 0
-2786 -2265 0
2786 1929 2265 0
-2787 -2785 0
-2787 -2786 0
2787 2785 2786 0
-2794 2079 0
-2794 2442 0
2794 -2079 -2442 0
-2795 -2079 0
-2795 -2442 0
2795 2079 2442 0
-2796 -2794 0
-2796 -2795 0
2796 2794 2795 0
-2797 2787 0
-2797 2796 0
2797 -2787 -2796 0
-2798 -2787 0
-2798 -2796 0
2798 2787 2796 0
-2799 -2797 0
-2799 -2798 0
2799 2797 2798 0
-2782 29 0
-2782 30 0
2782 -29 -30 0
-2783 -29 0
-2783 -30 0
2783 29 30 0
-2784 -2782 0
-2784 -2783 0
2784 2782 2783 0
-2818 2505 0
-2818 2784 0
2818 -2505 -2784 0
-2819 -2505 0
-2819 -2784 0
2819 2505 2784 0
-2820 -2818 0
-2820 -2819 0
2820 2818 2819 0
-2821 2799 0
-2821 2820 0
2821 -2799 -2820 0
-2822 -2799 0
-2822 -2820 0
2822 2799 2820 0
-2823 -2821 0
-2823 -2822 0
2823 2821 2822 0
-2836 4 0
-2836 7 0
2836 -4 -7 0
-2837 -4 0
-2837 -7 0
2837 4 7 0
-2838 -2836 0
-2838 -2837 0
2838 2836 2837 0
-2845 10 0
-2845 2838 0
2845 -10 -2838 0
-2846 -10 0
-2846 -2838 0
2846 10 2838 0
-2847 -2845 0
-2847 -2846 0
2847 2845 2846 0
-2851 28 0
-2851 2382 0
2851 -28 -2382 0
-2852 -28 0
-2852 -2382 0
2852 28 2382 0
-2853 -2851 0
-2853 -2852 0
2853 2851 2852 0
-2854 2847 0
-2854 2853 0
2854 -2847 -2853 0
-2855 -2847 0
-2855 -2853 0
2855 2847 2853 0
-2856 -2854 0
-2856 -2855 0
2856 2854 2855 0
-2857 6 0
-2857 9 0
2857 -6 -9 0
-2858 -6 0
-2858 -9 0
2858 6 9 0
-2859 -2857 0
-2859 -2858 0
2859 2857 2858 0
-2860 3 0
-2860 2859 0
2860 -3 -2859 0
-2861 -3 0
-2861 -2859 0
2861 3 2859 0
-2862 -2860 0
-2862 -2861 0
2862 2860 2861 0
-1774 21 0
-1774 24 0
1774 -21 -24 0
-1775 -21 0
-1775 -24 0
1775 21 24 0
-1776 -1774 0
-1776 -1775 0
1776 1774 1775 0
-2869 27 0
-2869 1776 0
2869 -27 -1776 0
-2870 -27 0
-2870 -1776 0
2870 27 1776 0
-2871 -2869 0
-2871 -2870 0
2871 2869 2870 0
-2872 2862 0
-2872 2871 0
2872 -2862 -2871 0
-2873 -2862 0
-2873 -2871 0
2873 2862 2871 0
-2874 -2872 0
-2874 -2873 0
2874 2872 2873 0
-2875 2 0
-2875 5 0
2875 -2 -5 0
-2876 -2 0
-2876 -5 0
2876 2 5 0
-2877 -2875 0
-2877 -2876 0
2877 2875 2876 0
-2878 8 0
-2878 2877 0
2878 -8 -2877 0
-2879 -8 0
-2879 -2877 0
2879 8 2877 0
-2880 -2878 0
-2880 -2879 0
2880 2878 2879 0
-2881 20 0
-2881 23 0
2881 -20 -23 0
-2882 -20 0
-2882 -23 0
2882 20 23 0
-2883 -2881 0
-2883 -2882 0
2883 2881 2882 0
-2890 26 0
-2890 2883 0
2890 -26 -2883 0
-2891 -26 0
-2891 -2883 0
2891 26 2883 0
-2892 -2890 0
-2892 -2891 0
2892 2890 2891 0
-2893 2880 0
-2893 2892 0
2893 -2880 -2892 0
-2894 -2880 0
-2894 -2892 0
2894 2880 2892 0
-2895 -2893 0
-2895 -2894 0
2895 2893 2894 0
-2899 16 0
-2899 2277 0
2899 -16 -2277 0
-2900 -16 0
-2900 -2277 0
2900 16 2277 0
-2901 -2899 0
-2901 -2900 0
2901 2899 2900 0
-2902 2838 0
-2902 2901 0
2902 -2838 -2901 0
-2903 -2838 0
-2903 -2901 0
2903 2838 2901 0
-2904 -2902 0
-2904 -2903 0
2904 2902 2903 0
-2911 19 0
-2911 2904 0
2911 -19 -2904 0
-2912 -19 0
-2912 -2904 0
2912 19 2904 0
-2913 -2911 0
-2913 -2912 0
2913 2911 2912 0
-2920 2337 0
-2920 2862 0
2920 -2337 -2862 0
-2921 -2337 0
-2921 -2862 0
2921 2337 2862 0
-2922 -2920 0
-2922 -2921 0
2922 2920 2921 0
-2929 18 0
-2929 2922 0
2929 -18 -2922 0
-2930 -18 0
-2930 -2922 0
2930 18 2922 0
-2931 -2929 0
-2931 -2930 0
2931 2929 2930 0
-2932 14 0
-2932 17 0
2932 -14 -17 0
-2933 -14 0
-2933 -17 0
2933 14 17 0
-2934 -2932 0
-2934 -2933 0
2934 2932 2933 0
-2935 11 0
-2935 2934 0
2935 -11 -2934 0
-2936 -11 0
-2936 -2934 0
2936 11 2934 0
-2937 -2935 0
-2937 -2936 0
2937 2935 2936 0
-2938 2880 0
-2938 2937 0
2938 -2880 -2937 0
-2939 -2880 0
-2939 -2937 0
2939 2880 2937 0
-2940 -2938 0
-2940 -2939 0
2940 2938 2939 0
-2944 -2931 0
-2944 -2940 0
2944 2931 2940 0
-2945 -2913 0
-2945 2944 0
2945 2913 -2944 0
-2946 -2895 0
-2946 2945 0
2946 2895 -2945 0
-2947 -2874 0
-2947 2946 0
2947 2874 -2946 0
-2948 -2856 0
-2948 2947 0
2948 2856 -2947 0
-2949 -2823 0
-2949 2948 0
2949 2823 -2948 0
-2950 -2778 0
-2950 2949 0
2950 2778 -2949 0
-2951 -2742 0
-2951 2950 0
2951 2742 -2950 0
-2952 -2718 0
-2952 2951 0
2952 2718 -2951 0
-2953 2694 0
-2953 2952 0
2953 -2694 -2952 0
-2954 2658 0
-2954 2953 0
2954 -2658 -2953 0
-2955 2616 0
-2955 2954 0
2955 -2616 -2954 0
-2956 2595 0
-2956 2955 0
2956 -2595 -2955 0
-2957 2529 0
-2957 2956 0
2957 -2529 -2956 0
-2958 2490 0
-2958 2957 0
2958 -2490 -2957 0
-2959 2472 0
-2959 2958 0
2959 -2472 -2958 0
-2960 2433 0
-2960 2959 0
2960 -2433 -2959 0
-2961 2415 0
-2961 2960 0
2961 -2415 -2960 0
-2962 2373 0
-2962 2961 0
2962 -2373 -2961 0
-2963 2349 0
-2963 2962 0
2963 -2349 -2962 0
-2964 2334 0
-2964 2963 0
2964 -2334 -2963 0
-2965 2262 0
-2965 2964 0
2965 -2262 -2964 0
-2966 2205 0
-2966 2965 0
2966 -2205 -2965 0
-2967 2151 0
-2967 2966 0
2967 -2151 -2966 0
-2968 2073 0
-2968 2967 0
2968 -2073 -2967 0
-2969 2070 0
-2969 2968 0
2969 -2070 -2968 0
-2970 2034 0
-2970 2969 0
2970 -2034 -2969 0
-2971 1980 0
-2971 2970 0
2971 -1980 -2970 0
-2972 1923 0
-2972 2971 0
2972 -1923 -2971 0
-2973 1821 0
-2973 2972 0
2973 -1821 -2972 0
-2974 1761 0
-2974 -2973 0
2974 -1761 2973 0
-2999 -79 0
-2999 85 0
2999 79 -85 0
-2994 -78 0
-2994 84 0
2994 78 -84 0
-2989 -77 0
-2989 83 0
2989 77 -83 0
-2984 -76 0
-2984 82 0
2984 76 -82 0
-2979 -75 0
-2979 81 0
2979 75 -81 0
-2975 -74 0
-2975 80 0
2975 74 -80 0
-2976 74 0
-2976 -80 0
2976 -74 80 0
-2977 -2975 0
-2977 -2976 0
2977 2975 2976 0
-2978 -2975 0
-2978 -2977 0
2978 2975 2977 0
-2980 75 0
-2980 -81 0
2980 -75 81 0
-2981 -2979 0
-2981 -2980 0
2981 2979 2980 0
-2982 -2978 0
-2982 2981 0
2982 2978 -2981 0
-2983 -2979 0
-2983 -2982 0
2983 2979 2982 0
-2985 76 0
-2985 -82 0
2985 -76 82 0
-2986 -2984 0
-2986 -2985 0
2986 2984 2985 0
-2987 -2983 0
-2987 2986 0
2987 2983 -2986 0
-2988 -2984 0
-2988 -2987 0
2988 2984 2987 0
-2990 77 0
-2990 -83 0
2990 -77 83 0
-2991 -2989 0
-2991 -2990 0
2991 2989 2990 0
-2992 -2988 0
-2992 2991 0
2992 2988 -2991 0
-2993 -2989 0
-2993 -2992 0
2993 2989 2992 0
-2995 78 0
-2995 -84 0
2995 -78 84 0
-2996 -2994 0
-2996 -2995 0
2996 2994 2995 0
-2997 -2993 0
-2997 2996 0
2997 2993 -2996 0
-2998 -2994 0
-2998 -2997 0
2998 2994 2997 0
-3000 79 0
-3000 -85 0
3000 -79 85 0
-3001 -2999 0
-3001 -3000 0
3001 2999 3000 0
-3002 -2998 0
-3002 3001 0
3002 2998 -3001 0
-3003 -2999 0
-3003 -3002 0
3003 2999 3002 0
-3004 2974 0
-3004 -3003 0
3004 -2974 3003 0
-3029 -73 0
-3029 79 0
3029 73 -79 0
-3024 -72 0
-3024 78 0
3024 72 -78 0
-3019 -71 0
-3019 77 0
3019 71 -77 0
-3014 -70 0
-3014 76 0
3014 70 -76 0
-3009 -69 0
-3009 75 0
3009 69 -75 0
-3005 -68 0
-3005 74 0
3005 68 -74 0
-3006 68 0
-3006 -74 0
3006 -68 74 0
-3007 -3005 0
-3007 -3006 0
3007 3005 3006 0
-3008 -3005 0
-3008 -3007 0
3008 3005 3007 0
-3010 69 0
-3010 -75 0
3010 -69 75 0
-3011 -3009 0
-3011 -3010 0
3011 3009 3010 0
-3012 -3008 0
-3012 3011 0
3012 3008 -3011 0
-3013 -3009 0
-3013 -3012 0
3013 3009 3012 0
-3015 70 0
-3015 -76 0
3015 -70 76 0
-3016 -3014 0
-3016 -3015 0
3016 3014 3015 0
-3017 -3013 0
-3017 3016 0
3017 3013 -3016 0
-3018 -3014 0
-3018 -3017 0
3018 3014 3017 0
-3020 71 0
-3020 -77 0
3020 -71 77 0
-3021 -3019 0
-3021 -3020 0
3021 3019 3020 0
-3022 -3018 0
-3022 3021 0
3022 3018 -3021 0
-3023 -3019 0
-3023 -3022 0
3023 3019 3022 0
-3025 72 0
-3025 -78 0
3025 -72 78 0
-3026 -3024 0
-3026 -3025 0
3026 3024 3025 0
-3027 -3023 0
-3027 3026 0
3027 3023 -3026 0
-3028 -3024 0
-3028 -3027 0
3028 3024 3027 0
-3030 73 0
-3030 -79 0
3030 -73 79 0
-3031 -3029 0
-3031 -3030 0
3031 3029 3030 0
-3032 -3028 0
-3032 3031 0
3032 3028 -3031 0
-3033 -3029 0
-3033 -3032 0
3033 3029 3032 0
-3034 3004 0
-3034 -3033 0
3034 -3004 3033 0
-3059 -67 0
-3059 73 0
3059 67 -73 0
-3054 -66 0
-3054 72 0
3054 66 -72 0
-3049 -65 0
-3049 71 0
3049 65 -71 0
-3044 -64 0
-3044 70 0
3044 64 -70 0
-3039 -63 0
-3039 69 0
3039 63 -69 0
-3035 -62 0
-3035 68 0
3035 62 -68 0
-3036 62 0
-3036 -68 0
3036 -62 68 0
-3037 -3035 0
-3037 -3036 0
3037 3035 3036 0
-3038 -3035 0
-3038 -3037 0
3038 3035 3037 0
-3040 63 0
-3040 -69 0
3040 -63 69 0
-3041 -3039 0
-3041 -3040 0
3041 3039 3040 0
-3042 -3038 0
-3042 3041 0
3042 3038 -3041 0
-3043 -3039 0
-3043 -3042 0
3043 3039 3042 0
-3045 64 0
-3045 -70 0
3045 -64 70 0
-3046 -3044 0
-3046 -3045 0
3046 3044 3045 0
-3047 -3043 0
-3047 3046 0
3047 3043 -3046 0
-3048 -3044 0
-3048 -3047 0
3048 3044 3047 0
-3050 65 0
-3050 -71 0
3050 -65 71 0
-3051 -3049 0
-3051 -3050 0
3051 3049 3050 0
-3052 -3048 0
-3052 3051 0
3052 3048 -3051 0
-3053 -3049 0
-3053 -3052 0
3053 3049 3052 0
-3055 66 0
-3055 -72 0
3055 -66 72 0
-3056 -3054 0
-3056 -3055 0
3056 3054 3055 0
-3057 -3053 0
-3057 3056 0
3057 3053 -3056 0
-3058 -3054 0
-3058 -3057 0
3058 3054 3057 0
-3060 67 0
-3060 -73 0
3060 -67 73 0
-3061 -3059 0
-3061 -3060 0
3061 3059 3060 0
-3062 -3058 0
-3062 3061 0
3062 3058 -3061 0
-3063 -3059 0
-3063 -3062 0
3063 3059 3062 0
-3064 3034 0
-3064 -3063 0
3064 -3034 3063 0
-3089 -61 0
-3089 67 0
3089 61 -67 0
-3084 -60 0
-3084 66 0
3084 60 -66 0
-3079 -59 0
-3079 65 0
3079 59 -65 0
-3074 -58 0
-3074 64 0
3074 58 -64 0
-3069 -57 0
-3069 63 0
3069 57 -63 0
-3065 -56 0
-3065 62 0
3065 56 -62 0
-3066 56 0
-3066 -62 0
3066 -56 62 0
-3067 -3065 0
-3067 -3066 0
3067 3065 3066 0
-3068 -3065 0
-3068 -3067 0
3068 3065 3067 0
-3070 57 0
-3070 -63 0
3070 -57 63 0
-3071 -3069 0
-3071 -3070 0
3071 3069 3070 0
-3072 -3068 0
-3072 3071 0
3072 3068 -3071 0
-3073 -3069 0
-3073 -3072 0
3073 3069 3072 0
-3075 58 0
-3075 -64 0
3075 -58 64 0
-3076 -3074 0
-3076 -3075 0
3076 3074 3075 0
-3077 -3073 0
-3077 3076 0
3077 3073 -3076 0
-3078 -3074 0
-3078 -3077 0
3078 3074 3077 0
-3080 59 0
-3080 -65 0
3080 -59 65 0
-3081 -3079 0
-3081 -3080 0
3081 3079 3080 0
-3082 -3078 0
-3082 3081 0
3082 3078 -3081 0
-3083 -3079 0
-3083 -3082 0
3083 3079 3082 0
-3085 60 0
-3085 -66 0
3085 -60 66 0
-3086 -3084 0
-3086 -3085 0
3086 3084 3085 0
-3087 -3083 0
-3087 3086 0
3087 3083 -3086 0
-3088 -3084 0
-3088 -3087 0
3088 3084 3087 0
-3090 61 0
-3090 -67 0
3090 -61 67 0
-3091 -3089 0
-3091 -3090 0
3091 3089 3090 0
-3092 -3088 0
-3092 3091 0
3092 3088 -3091 0
-3093 -3089 0
-3093 -3092 0
3093 3089 3092 0
-3094 3064 0
-3094 -3093 0
3094 -3064 3093 0
3094 0
