p cnf 667 1731
15 -614 0
-15 614 0
16 -615 0
-16 615 0
22 -621 0
-22 621 0
23 -622 0
-23 622 0
11 -610 0
-11 610 0
369 -654 0
-369 654 0
-372 -11 0
-372 369 0
372 11 -369 0
-370 11 0
-370 -369 0
370 -11 369 0
12 -611 0
-12 611 0
352 -652 0
-352 652 0
-355 -12 0
-355 352 0
355 12 -352 0
-353 12 0
-353 -352 0
353 -12 352 0
13 -612 0
-13 612 0
98 -631 0
-98 631 0
-101 -13 0
-101 98 0
101 13 -98 0
-99 13 0
-99 -98 0
99 -13 98 0
14 -613 0
-14 613 0
89 -630 0
-89 630 0
-92 -14 0
-92 89 0
92 14 -89 0
-90 14 0
-90 -89 0
90 -14 89 0
137 -634 0
-137 634 0
-140 -15 0
-140 137 0
140 15 -137 0
-138 15 0
-138 -137 0
138 -15 137 0
116 -633 0
-116 633 0
-119 -16 0
-119 116 0
119 16 -116 0
-117 16 0
-117 -116 0
117 -16 116 0
17 -616 0
-17 616 0
107 -632 0
-107 632 0
-110 -17 0
-110 107 0
110 17 -107 0
-108 17 0
-108 -107 0
108 -17 107 0
3 -602 0
-3 602 0
4 -603 0
-4 603 0
72 -628 0
-72 628 0
-75 -22 0
-75 72 0
75 22 -72 0
-73 22 0
-73 -72 0
73 -22 72 0
51 -627 0
-51 627 0
-54 -23 0
-54 51 0
54 23 -51 0
-52 23 0
-52 -51 0
52 -23 51 0
20 -619 0
-20 619 0
33 -625 0
-33 625 0
-36 -20 0
-36 33 0
36 20 -33 0
-34 20 0
-34 -33 0
34 -20 33 0
2 -601 0
-2 601 0
171 -638 0
-171 638 0
-176 2 0
-176 -171 0
176 -2 171 0
-177 -2 0
-177 171 0
177 2 -171 0
-178 -176 0
-178 -177 0
178 176 177 0
179 -639 0
-179 639 0
-182 -178 0
-182 -179 0
182 178 179 0
-180 178 0
-180 179 0
180 -178 -179 0
-174 -4 0
-174 171 0
174 4 -171 0
-172 4 0
-172 -171 0
172 -4 171 0
154 -636 0
-154 636 0
-159 3 0
-159 -154 0
159 -3 154 0
-160 -3 0
-160 154 0
160 3 -154 0
-161 -159 0
-161 -160 0
161 159 160 0
162 -637 0
-162 637 0
-165 -161 0
-165 -162 0
165 161 162 0
-163 161 0
-163 162 0
163 -161 -162 0
5 -604 0
-5 604 0
-157 -5 0
-157 154 0
157 5 -154 0
-155 5 0
-155 -154 0
155 -5 154 0
7 -606 0
-7 606 0
205 -642 0
-205 642 0
-208 -7 0
-208 205 0
208 7 -205 0
-206 7 0
-206 -205 0
206 -7 205 0
8 -607 0
-8 607 0
188 -640 0
-188 640 0
-191 -8 0
-191 188 0
191 8 -188 0
-189 8 0
-189 -188 0
189 -8 188 0
24 -623 0
-24 623 0
42 -626 0
-42 626 0
-45 -24 0
-45 42 0
45 24 -42 0
-43 24 0
-43 -42 0
43 -24 42 0
21 -620 0
-21 620 0
25 -624 0
-25 624 0
-26 21 0
-26 -25 0
26 -21 25 0
-27 -21 0
-27 25 0
27 21 -25 0
-28 -26 0
-28 -27 0
28 26 27 0
19 -618 0
-19 618 0
-29 19 0
-29 -25 0
29 -19 25 0
-30 -19 0
-30 25 0
30 19 -25 0
-31 -29 0
-31 -30 0
31 29 30 0
-32 28 0
-32 31 0
32 -28 -31 0
-35 32 0
-35 -34 0
35 -32 34 0
-37 35 0
-37 -36 0
37 -35 36 0
18 -617 0
-18 617 0
-38 18 0
-38 -33 0
38 -18 33 0
-39 -18 0
-39 33 0
39 18 -33 0
-40 -38 0
-40 -39 0
40 38 39 0
-41 37 0
-41 40 0
41 -37 -40 0
-44 41 0
-44 -43 0
44 -41 43 0
-46 44 0
-46 -45 0
46 -44 45 0
-47 19 0
-47 -42 0
47 -19 42 0
-48 -19 0
-48 42 0
48 19 -42 0
-49 -47 0
-49 -48 0
49 47 48 0
-50 46 0
-50 49 0
50 -46 -49 0
-53 50 0
-53 -52 0
53 -50 52 0
-55 53 0
-55 -54 0
55 -53 54 0
-56 18 0
-56 -51 0
56 -18 51 0
-57 -18 0
-57 51 0
57 18 -51 0
-58 -56 0
-58 -57 0
58 56 57 0
-59 55 0
-59 58 0
59 -55 -58 0
-60 -43 0
-60 59 0
60 43 -59 0
-61 -45 0
-61 60 0
61 45 -60 0
-62 22 0
-62 -42 0
62 -22 42 0
-63 -22 0
-63 42 0
63 22 -42 0
-64 -62 0
-64 -63 0
64 62 63 0
-65 61 0
-65 64 0
65 -61 -64 0
-66 -52 0
-66 65 0
66 52 -65 0
-67 -54 0
-67 66 0
67 54 -66 0
-68 21 0
-68 -51 0
68 -21 51 0
-69 -21 0
-69 51 0
69 21 -51 0
-70 -68 0
-70 -69 0
70 68 69 0
-71 67 0
-71 70 0
71 -67 -70 0
-74 71 0
-74 -73 0
74 -71 73 0
-76 74 0
-76 -75 0
76 -74 75 0
-77 20 0
-77 -72 0
77 -20 72 0
-78 -20 0
-78 72 0
78 20 -72 0
-79 -77 0
-79 -78 0
79 77 78 0
80 -629 0
-80 629 0
-81 79 0
-81 80 0
81 -79 -80 0
-82 76 0
-82 -81 0
82 -76 81 0
-83 -79 0
-83 -80 0
83 79 80 0
-84 82 0
-84 -83 0
84 -82 83 0
-85 24 0
-85 -80 0
85 -24 80 0
-86 -24 0
-86 80 0
86 24 -80 0
-87 -85 0
-87 -86 0
87 85 86 0
-88 84 0
-88 87 0
88 -84 -87 0
-91 88 0
-91 -90 0
91 -88 90 0
-93 91 0
-93 -92 0
93 -91 92 0
-94 12 0
-94 -89 0
94 -12 89 0
-95 -12 0
-95 89 0
95 12 -89 0
-96 -94 0
-96 -95 0
96 94 95 0
-97 93 0
-97 96 0
97 -93 -96 0
-100 97 0
-100 -99 0
100 -97 99 0
-102 100 0
-102 -101 0
102 -100 101 0
-103 11 0
-103 -98 0
103 -11 98 0
-104 -11 0
-104 98 0
104 11 -98 0
-105 -103 0
-105 -104 0
105 103 104 0
-106 102 0
-106 105 0
106 -102 -105 0
-109 106 0
-109 -108 0
109 -106 108 0
-111 109 0
-111 -110 0
111 -109 110 0
-112 12 0
-112 -107 0
112 -12 107 0
-113 -12 0
-113 107 0
113 12 -107 0
-114 -112 0
-114 -113 0
114 112 113 0
-115 111 0
-115 114 0
115 -111 -114 0
-118 115 0
-118 -117 0
118 -115 117 0
-120 118 0
-120 -119 0
120 -118 119 0
-121 11 0
-121 -116 0
121 -11 116 0
-122 -11 0
-122 116 0
122 11 -116 0
-123 -121 0
-123 -122 0
123 121 122 0
-124 120 0
-124 123 0
124 -120 -123 0
-125 -108 0
-125 124 0
125 108 -124 0
-126 -110 0
-126 125 0
126 110 -125 0
-127 15 0
-127 -107 0
127 -15 107 0
-128 -15 0
-128 107 0
128 15 -107 0
-129 -127 0
-129 -128 0
129 127 128 0
-130 126 0
-130 129 0
130 -126 -129 0
-131 -117 0
-131 130 0
131 117 -130 0
-132 -119 0
-132 131 0
132 119 -131 0
-133 14 0
-133 -116 0
133 -14 116 0
-134 -14 0
-134 116 0
134 14 -116 0
-135 -133 0
-135 -134 0
135 133 134 0
-136 132 0
-136 135 0
136 -132 -135 0
-139 136 0
-139 -138 0
139 -136 138 0
-141 139 0
-141 -140 0
141 -139 140 0
-142 13 0
-142 -137 0
142 -13 137 0
-143 -13 0
-143 137 0
143 13 -137 0
-144 -142 0
-144 -143 0
144 142 143 0
145 -635 0
-145 635 0
-146 144 0
-146 145 0
146 -144 -145 0
-147 141 0
-147 -146 0
147 -141 146 0
-148 -144 0
-148 -145 0
148 144 145 0
-149 147 0
-149 -148 0
149 -147 148 0
-150 17 0
-150 -145 0
150 -17 145 0
-151 -17 0
-151 145 0
151 17 -145 0
-152 -150 0
-152 -151 0
152 150 151 0
-153 149 0
-153 152 0
153 -149 -152 0
-156 153 0
-156 -155 0
156 -153 155 0
-158 156 0
-158 -157 0
158 -156 157 0
-164 158 0
-164 -163 0
164 -158 163 0
-166 164 0
-166 -165 0
166 -164 165 0
10 -609 0
-10 609 0
-167 10 0
-167 -162 0
167 -10 162 0
-168 -10 0
-168 162 0
168 10 -162 0
-169 -167 0
-169 -168 0
169 167 168 0
-170 166 0
-170 169 0
170 -166 -169 0
-173 170 0
-173 -172 0
173 -170 172 0
-175 173 0
-175 -174 0
175 -173 174 0
-181 175 0
-181 -180 0
181 -175 180 0
-183 181 0
-183 -182 0
183 -181 182 0
9 -608 0
-9 608 0
-184 9 0
-184 -179 0
184 -9 179 0
-185 -9 0
-185 179 0
185 9 -179 0
-186 -184 0
-186 -185 0
186 184 185 0
-187 183 0
-187 186 0
187 -183 -186 0
-190 187 0
-190 -189 0
190 -187 189 0
-192 190 0
-192 -191 0
192 -190 191 0
-193 3 0
-193 -188 0
193 -3 188 0
-194 -3 0
-194 188 0
194 3 -188 0
-195 -193 0
-195 -194 0
195 193 194 0
196 -641 0
-196 641 0
-197 195 0
-197 196 0
197 -195 -196 0
-198 192 0
-198 -197 0
198 -192 197 0
-199 -195 0
-199 -196 0
199 195 196 0
-200 198 0
-200 -199 0
200 -198 199 0
-201 10 0
-201 -196 0
201 -10 196 0
-202 -10 0
-202 196 0
202 10 -196 0
-203 -201 0
-203 -202 0
203 201 202 0
-204 200 0
-204 203 0
204 -200 -203 0
-207 204 0
-207 -206 0
207 -204 206 0
-209 207 0
-209 -208 0
209 -207 208 0
-210 2 0
-210 -205 0
210 -2 205 0
-211 -2 0
-211 205 0
211 2 -205 0
-212 -210 0
-212 -211 0
212 210 211 0
213 -643 0
-213 643 0
-214 212 0
-214 213 0
214 -212 -213 0
-215 209 0
-215 -214 0
215 -209 214 0
-216 -212 0
-216 -213 0
216 212 213 0
-217 215 0
-217 -216 0
217 -215 216 0
-218 9 0
-218 -213 0
218 -9 213 0
-219 -9 0
-219 213 0
219 9 -213 0
-220 -218 0
-220 -219 0
220 218 219 0
-221 217 0
-221 220 0
221 -217 -220 0
-222 -189 0
-222 221 0
222 189 -221 0
-223 -191 0
-223 222 0
223 191 -222 0
6 -605 0
-6 605 0
-224 6 0
-224 -188 0
224 -6 188 0
-225 -6 0
-225 188 0
225 6 -188 0
-226 -224 0
-226 -225 0
226 224 225 0
227 -644 0
-227 644 0
-228 226 0
-228 227 0
228 -226 -227 0
-229 223 0
-229 -228 0
229 -223 228 0
-230 -226 0
-230 -227 0
230 226 227 0
-231 229 0
-231 -230 0
231 -229 230 0
-232 10 0
-232 -227 0
232 -10 227 0
-233 -10 0
-233 227 0
233 10 -227 0
-234 -232 0
-234 -233 0
234 232 233 0
-235 231 0
-235 234 0
235 -231 -234 0
-236 -206 0
-236 235 0
236 206 -235 0
-237 -208 0
-237 236 0
237 208 -236 0
-238 5 0
-238 -205 0
238 -5 205 0
-239 -5 0
-239 205 0
239 5 -205 0
-240 -238 0
-240 -239 0
240 238 239 0
241 -645 0
-241 645 0
-242 240 0
-242 241 0
242 -240 -241 0
-243 237 0
-243 -242 0
243 -237 242 0
-244 -240 0
-244 -241 0
244 240 241 0
-245 243 0
-245 -244 0
245 -243 244 0
-246 9 0
-246 -241 0
246 -9 241 0
-247 -9 0
-247 241 0
247 9 -241 0
-248 -246 0
-248 -247 0
248 246 247 0
-249 245 0
-249 248 0
249 -245 -248 0
250 -646 0
-250 646 0
-251 6 0
-251 -250 0
251 -6 250 0
-252 249 0
-252 -251 0
252 -249 251 0
-253 -6 0
-253 250 0
253 6 -250 0
-254 252 0
-254 -253 0
254 -252 253 0
-255 4 0
-255 -250 0
255 -4 250 0
-256 -4 0
-256 250 0
256 4 -250 0
-257 -255 0
-257 -256 0
257 255 256 0
258 -647 0
-258 647 0
-259 257 0
-259 258 0
259 -257 -258 0
-260 254 0
-260 -259 0
260 -254 259 0
-261 -257 0
-261 -258 0
261 257 258 0
-262 260 0
-262 -261 0
262 -260 261 0
-263 8 0
-263 -258 0
263 -8 258 0
-264 -8 0
-264 258 0
264 8 -258 0
-265 -263 0
-265 -264 0
265 263 264 0
-266 262 0
-266 265 0
266 -262 -265 0
-267 -155 0
-267 266 0
267 155 -266 0
-268 -157 0
-268 267 0
268 157 -267 0
-269 -163 0
-269 268 0
269 163 -268 0
-270 -165 0
-270 269 0
270 165 -269 0
-271 7 0
-271 -162 0
271 -7 162 0
-272 -7 0
-272 162 0
272 7 -162 0
-273 -271 0
-273 -272 0
273 271 272 0
-274 270 0
-274 273 0
274 -270 -273 0
-275 -172 0
-275 274 0
275 172 -274 0
-276 -174 0
-276 275 0
276 174 -275 0
-277 -180 0
-277 276 0
277 180 -276 0
-278 -182 0
-278 277 0
278 182 -277 0
-279 6 0
-279 -179 0
279 -6 179 0
-280 -6 0
-280 179 0
280 6 -179 0
-281 -279 0
-281 -280 0
281 279 280 0
-282 278 0
-282 281 0
282 -278 -281 0
-283 -34 0
-283 282 0
283 34 -282 0
-284 -36 0
-284 283 0
284 36 -283 0
-285 10 0
-285 -33 0
285 -10 33 0
-286 -10 0
-286 33 0
286 10 -33 0
-287 -285 0
-287 -286 0
287 285 286 0
-288 284 0
-288 287 0
288 -284 -287 0
289 -648 0
-289 648 0
-290 19 0
-290 -289 0
290 -19 289 0
-291 288 0
-291 -290 0
291 -288 290 0
-292 -19 0
-292 289 0
292 19 -289 0
-293 291 0
-293 -292 0
293 -291 292 0
-294 9 0
-294 -289 0
294 -9 289 0
-295 -9 0
-295 289 0
295 9 -289 0
-296 -294 0
-296 -295 0
296 294 295 0
-297 293 0
-297 296 0
297 -293 -296 0
-298 -108 0
-298 297 0
298 108 -297 0
-299 -110 0
-299 298 0
299 110 -298 0
-300 8 0
-300 -107 0
300 -8 107 0
-301 -8 0
-301 107 0
301 8 -107 0
-302 -300 0
-302 -301 0
302 300 301 0
303 -649 0
-303 649 0
-304 302 0
-304 303 0
304 -302 -303 0
-305 299 0
-305 -304 0
305 -299 304 0
-306 -302 0
-306 -303 0
306 302 303 0
-307 305 0
-307 -306 0
307 -305 306 0
-308 18 0
-308 -303 0
308 -18 303 0
-309 -18 0
-309 303 0
309 18 -303 0
-310 -308 0
-310 -309 0
310 308 309 0
-311 307 0
-311 310 0
311 -307 -310 0
-312 -117 0
-312 311 0
312 117 -311 0
-313 -119 0
-313 312 0
313 119 -312 0
-314 7 0
-314 -116 0
314 -7 116 0
-315 -7 0
-315 116 0
315 7 -116 0
-316 -314 0
-316 -315 0
316 314 315 0
-317 313 0
-317 316 0
317 -313 -316 0
-318 -138 0
-318 317 0
318 138 -317 0
-319 -140 0
-319 318 0
319 140 -318 0
-320 6 0
-320 -137 0
320 -6 137 0
-321 -6 0
-321 137 0
321 6 -137 0
-322 -320 0
-322 -321 0
322 320 321 0
-323 319 0
-323 322 0
323 -319 -322 0
-324 -90 0
-324 323 0
324 90 -323 0
-325 -92 0
-325 324 0
325 92 -324 0
-326 5 0
-326 -89 0
326 -5 89 0
-327 -5 0
-327 89 0
327 5 -89 0
-328 -326 0
-328 -327 0
328 326 327 0
329 -650 0
-329 650 0
-330 328 0
-330 329 0
330 -328 -329 0
-331 325 0
-331 -330 0
331 -325 330 0
-332 -328 0
-332 -329 0
332 328 329 0
-333 331 0
-333 -332 0
333 -331 332 0
-334 24 0
-334 -329 0
334 -24 329 0
-335 -24 0
-335 329 0
335 24 -329 0
-336 -334 0
-336 -335 0
336 334 335 0
-337 333 0
-337 336 0
337 -333 -336 0
-338 -99 0
-338 337 0
338 99 -337 0
-339 -101 0
-339 338 0
339 101 -338 0
-340 4 0
-340 -98 0
340 -4 98 0
-341 -4 0
-341 98 0
341 4 -98 0
-342 -340 0
-342 -341 0
342 340 341 0
343 -651 0
-343 651 0
-344 342 0
-344 343 0
344 -342 -343 0
-345 339 0
-345 -344 0
345 -339 344 0
-346 -342 0
-346 -343 0
346 342 343 0
-347 345 0
-347 -346 0
347 -345 346 0
-348 23 0
-348 -343 0
348 -23 343 0
-349 -23 0
-349 343 0
349 23 -343 0
-350 -348 0
-350 -349 0
350 348 349 0
-351 347 0
-351 350 0
351 -347 -350 0
-354 351 0
-354 -353 0
354 -351 353 0
-356 354 0
-356 -355 0
356 -354 355 0
-357 3 0
-357 -352 0
357 -3 352 0
-358 -3 0
-358 352 0
358 3 -352 0
-359 -357 0
-359 -358 0
359 357 358 0
360 -653 0
-360 653 0
-361 359 0
-361 360 0
361 -359 -360 0
-362 356 0
-362 -361 0
362 -356 361 0
-363 -359 0
-363 -360 0
363 359 360 0
-364 362 0
-364 -363 0
364 -362 363 0
-365 22 0
-365 -360 0
365 -22 360 0
-366 -22 0
-366 360 0
366 22 -360 0
-367 -365 0
-367 -366 0
367 365 366 0
-368 364 0
-368 367 0
368 -364 -367 0
-371 368 0
-371 -370 0
371 -368 370 0
-373 371 0
-373 -372 0
373 -371 372 0
-374 2 0
-374 -369 0
374 -2 369 0
-375 -2 0
-375 369 0
375 2 -369 0
-376 -374 0
-376 -375 0
376 374 375 0
377 -655 0
-377 655 0
-378 376 0
-378 377 0
378 -376 -377 0
-379 373 0
-379 -378 0
379 -373 378 0
-380 -376 0
-380 -377 0
380 376 377 0
-381 379 0
-381 -380 0
381 -379 380 0
-382 21 0
-382 -377 0
382 -21 377 0
-383 -21 0
-383 377 0
383 21 -377 0
-384 -382 0
-384 -383 0
384 382 383 0
-385 381 0
-385 384 0
385 -381 -384 0
-386 -99 0
-386 385 0
386 99 -385 0
-387 -101 0
-387 386 0
387 101 -386 0
-388 10 0
-388 -98 0
388 -10 98 0
-389 -10 0
-389 98 0
389 10 -98 0
-390 -388 0
-390 -389 0
390 388 389 0
-391 387 0
-391 390 0
391 -387 -390 0
-392 -353 0
-392 391 0
392 353 -391 0
-393 -355 0
-393 392 0
393 355 -392 0
-394 9 0
-394 -352 0
394 -9 352 0
-395 -9 0
-395 352 0
395 9 -352 0
-396 -394 0
-396 -395 0
396 394 395 0
-397 393 0
-397 396 0
397 -393 -396 0
-398 -370 0
-398 397 0
398 370 -397 0
-399 -372 0
-399 398 0
399 372 -398 0
-400 8 0
-400 -369 0
400 -8 369 0
-401 -8 0
-401 369 0
401 8 -369 0
-402 -400 0
-402 -401 0
402 400 401 0
403 -656 0
-403 656 0
-404 402 0
-404 403 0
404 -402 -403 0
-405 399 0
-405 -404 0
405 -399 404 0
-406 -402 0
-406 -403 0
406 402 403 0
-407 405 0
-407 -406 0
407 -405 406 0
-408 24 0
-408 -403 0
408 -24 403 0
-409 -24 0
-409 403 0
409 24 -403 0
-410 -408 0
-410 -409 0
410 408 409 0
-411 407 0
-411 410 0
411 -407 -410 0
-412 -52 0
-412 411 0
412 52 -411 0
-413 -54 0
-413 412 0
413 54 -412 0
-414 7 0
-414 -51 0
414 -7 51 0
-415 -7 0
-415 51 0
415 7 -51 0
-416 -414 0
-416 -415 0
416 414 415 0
-417 413 0
-417 416 0
417 -413 -416 0
-418 -73 0
-418 417 0
418 73 -417 0
-419 -75 0
-419 418 0
419 75 -418 0
-420 6 0
-420 -72 0
420 -6 72 0
-421 -6 0
-421 72 0
421 6 -72 0
-422 -420 0
-422 -421 0
422 420 421 0
-423 419 0
-423 422 0
423 -419 -422 0
-424 -108 0
-424 423 0
424 108 -423 0
-425 -110 0
-425 424 0
425 110 -424 0
-426 5 0
-426 -107 0
426 -5 107 0
-427 -5 0
-427 107 0
427 5 -107 0
-428 -426 0
-428 -427 0
428 426 427 0
429 -657 0
-429 657 0
-430 428 0
-430 429 0
430 -428 -429 0
-431 425 0
-431 -430 0
431 -425 430 0
-432 -428 0
-432 -429 0
432 428 429 0
-433 431 0
-433 -432 0
433 -431 432 0
-434 21 0
-434 -429 0
434 -21 429 0
-435 -21 0
-435 429 0
435 21 -429 0
-436 -434 0
-436 -435 0
436 434 435 0
-437 433 0
-437 436 0
437 -433 -436 0
-438 -117 0
-438 437 0
438 117 -437 0
-439 -119 0
-439 438 0
439 119 -438 0
-440 4 0
-440 -116 0
440 -4 116 0
-441 -4 0
-441 116 0
441 4 -116 0
-442 -440 0
-442 -441 0
442 440 441 0
443 -658 0
-443 658 0
-444 442 0
-444 443 0
444 -442 -443 0
-445 439 0
-445 -444 0
445 -439 444 0
-446 -442 0
-446 -443 0
446 442 443 0
-447 445 0
-447 -446 0
447 -445 446 0
-448 20 0
-448 -443 0
448 -20 443 0
-449 -20 0
-449 443 0
449 20 -443 0
-450 -448 0
-450 -449 0
450 448 449 0
-451 447 0
-451 450 0
451 -447 -450 0
-452 -138 0
-452 451 0
452 138 -451 0
-453 -140 0
-453 452 0
453 140 -452 0
-454 3 0
-454 -137 0
454 -3 137 0
-455 -3 0
-455 137 0
455 3 -137 0
-456 -454 0
-456 -455 0
456 454 455 0
457 -659 0
-457 659 0
-458 456 0
-458 457 0
458 -456 -457 0
-459 453 0
-459 -458 0
459 -453 458 0
-460 -456 0
-460 -457 0
460 456 457 0
-461 459 0
-461 -460 0
461 -459 460 0
-462 19 0
-462 -457 0
462 -19 457 0
-463 -19 0
-463 457 0
463 19 -457 0
-464 -462 0
-464 -463 0
464 462 463 0
-465 461 0
-465 464 0
465 -461 -464 0
-466 -90 0
-466 465 0
466 90 -465 0
-467 -92 0
-467 466 0
467 92 -466 0
-468 2 0
-468 -89 0
468 -2 89 0
-469 -2 0
-469 89 0
469 2 -89 0
-470 -468 0
-470 -469 0
470 468 469 0
471 -660 0
-471 660 0
-472 470 0
-472 471 0
472 -470 -471 0
-473 467 0
-473 -472 0
473 -467 472 0
-474 -470 0
-474 -471 0
474 470 471 0
-475 473 0
-475 -474 0
475 -473 474 0
-476 18 0
-476 -471 0
476 -18 471 0
-477 -18 0
-477 471 0
477 18 -471 0
-478 -476 0
-478 -477 0
478 476 477 0
-479 475 0
-479 478 0
479 -475 -478 0
-480 -4 0
-480 479 0
480 4 -479 0
-481 -3 0
-481 480 0
481 3 -480 0
-482 -108 0
-482 481 0
482 108 -481 0
-483 -110 0
-483 482 0
483 110 -482 0
-484 2 0
-484 -107 0
484 -2 107 0
-485 -2 0
-485 107 0
485 2 -107 0
-486 -484 0
-486 -485 0
486 484 485 0
487 -661 0
-487 661 0
-488 486 0
-488 487 0
488 -486 -487 0
-489 483 0
-489 -488 0
489 -483 488 0
-490 -486 0
-490 -487 0
490 486 487 0
-491 489 0
-491 -490 0
491 -489 490 0
-492 24 0
-492 -487 0
492 -24 487 0
-493 -24 0
-493 487 0
493 24 -487 0
-494 -492 0
-494 -493 0
494 492 493 0
-495 491 0
-495 494 0
495 -491 -494 0
-496 -117 0
-496 495 0
496 117 -495 0
-497 -119 0
-497 496 0
497 119 -496 0
-498 10 0
-498 -116 0
498 -10 116 0
-499 -10 0
-499 116 0
499 10 -116 0
-500 -498 0
-500 -499 0
500 498 499 0
501 -662 0
-501 662 0
-502 500 0
-502 501 0
502 -500 -501 0
-503 497 0
-503 -502 0
503 -497 502 0
-504 -500 0
-504 -501 0
504 500 501 0
-505 503 0
-505 -504 0
505 -503 504 0
-506 23 0
-506 -501 0
506 -23 501 0
-507 -23 0
-507 501 0
507 23 -501 0
-508 -506 0
-508 -507 0
508 506 507 0
-509 505 0
-509 508 0
509 -505 -508 0
-510 -138 0
-510 509 0
510 138 -509 0
-511 -140 0
-511 510 0
511 140 -510 0
-512 9 0
-512 -137 0
512 -9 137 0
-513 -9 0
-513 137 0
513 9 -137 0
-514 -512 0
-514 -513 0
514 512 513 0
515 -663 0
-515 663 0
-516 514 0
-516 515 0
516 -514 -515 0
-517 511 0
-517 -516 0
517 -511 516 0
-518 -514 0
-518 -515 0
518 514 515 0
-519 517 0
-519 -518 0
519 -517 518 0
-520 22 0
-520 -515 0
520 -22 515 0
-521 -22 0
-521 515 0
521 22 -515 0
-522 -520 0
-522 -521 0
522 520 521 0
-523 519 0
-523 522 0
523 -519 -522 0
-524 -90 0
-524 523 0
524 90 -523 0
-525 -92 0
-525 524 0
525 92 -524 0
-526 8 0
-526 -89 0
526 -8 89 0
-527 -8 0
-527 89 0
527 8 -89 0
-528 -526 0
-528 -527 0
528 526 527 0
529 -664 0
-529 664 0
-530 528 0
-530 529 0
530 -528 -529 0
-531 525 0
-531 -530 0
531 -525 530 0
-532 -528 0
-532 -529 0
532 528 529 0
-533 531 0
-533 -532 0
533 -531 532 0
-534 21 0
-534 -529 0
534 -21 529 0
-535 -21 0
-535 529 0
535 21 -529 0
-536 -534 0
-536 -535 0
536 534 535 0
-537 533 0
-537 536 0
537 -533 -536 0
-538 -99 0
-538 537 0
538 99 -537 0
-539 -101 0
-539 538 0
539 101 -538 0
-540 7 0
-540 -98 0
540 -7 98 0
-541 -7 0
-541 98 0
541 7 -98 0
-542 -540 0
-542 -541 0
542 540 541 0
543 -665 0
-543 665 0
-544 542 0
-544 543 0
544 -542 -543 0
-545 539 0
-545 -544 0
545 -539 544 0
-546 -542 0
-546 -543 0
546 542 543 0
-547 545 0
-547 -546 0
547 -545 546 0
-548 20 0
-548 -543 0
548 -20 543 0
-549 -20 0
-549 543 0
549 20 -543 0
-550 -548 0
-550 -549 0
550 548 549 0
-551 547 0
-551 550 0
551 -547 -550 0
-552 -353 0
-552 551 0
552 353 -551 0
-553 -355 0
-553 552 0
553 355 -552 0
-554 6 0
-554 -352 0
554 -6 352 0
-555 -6 0
-555 352 0
555 6 -352 0
-556 -554 0
-556 -555 0
556 554 555 0
557 -666 0
-557 666 0
-558 556 0
-558 557 0
558 -556 -557 0
-559 553 0
-559 -558 0
559 -553 558 0
-560 -556 0
-560 -557 0
560 556 557 0
-561 559 0
-561 -560 0
561 -559 560 0
-562 19 0
-562 -557 0
562 -19 557 0
-563 -19 0
-563 557 0
563 19 -557 0
-564 -562 0
-564 -563 0
564 562 563 0
-565 561 0
-565 564 0
565 -561 -564 0
-566 -370 0
-566 565 0
566 370 -565 0
-567 -372 0
-567 566 0
567 372 -566 0
-568 5 0
-568 -369 0
568 -5 369 0
-569 -5 0
-569 369 0
569 5 -369 0
-570 -568 0
-570 -569 0
570 568 569 0
571 -667 0
-571 667 0
-572 570 0
-572 571 0
572 -570 -571 0
-573 567 0
-573 -572 0
573 -567 572 0
-574 -570 0
-574 -571 0
574 570 571 0
-575 573 0
-575 -574 0
575 -573 574 0
-576 18 0
-576 -571 0
576 -18 571 0
-577 -18 0
-577 571 0
577 18 -571 0
-578 -576 0
-578 -577 0
578 576 577 0
-579 575 0
-579 578 0
579 -575 -578 0
-580 -23 0
-580 579 0
580 23 -579 0
-581 -22 0
-581 580 0
581 22 -580 0
-582 -16 0
-582 581 0
582 16 -581 0
-583 -15 0
-583 582 0
583 15 -582 0
-584 -2 0
-584 -5 0
584 2 5 0
-585 -6 0
-585 584 0
585 6 -584 0
-586 -7 0
-586 585 0
586 7 -585 0
-587 -8 0
-587 586 0
587 8 -586 0
-588 -9 0
-588 587 0
588 9 -587 0
-589 -10 0
-589 588 0
589 10 -588 0
-590 -11 0
-590 589 0
590 11 -589 0
-591 -12 0
-591 590 0
591 12 -590 0
-592 -13 0
-592 591 0
592 13 -591 0
-593 -14 0
-593 592 0
593 14 -592 0
-594 -17 0
-594 593 0
594 17 -593 0
-595 -18 0
-595 594 0
595 18 -594 0
-596 -19 0
-596 595 0
596 19 -595 0
-597 -20 0
-597 596 0
597 20 -596 0
-598 -21 0
-598 597 0
598 21 -597 0
-599 -24 0
-599 598 0
599 24 -598 0
-600 583 0
-600 -599 0
600 -583 599 0
600 0
