p cnf 6876 13093
71 -6820 0
-71 6820 0
127 -6876 0
-127 6876 0
126 -6875 0
-126 6875 0
125 -6874 0
-125 6874 0
124 -6873 0
-124 6873 0
123 -6872 0
-123 6872 0
121 -6870 0
-121 6870 0
122 -6871 0
-122 6871 0
-129 121 0
-129 -122 0
129 -121 122 0
-137 123 0
-137 129 0
137 -123 -129 0
-145 -124 0
-145 137 0
145 124 -137 0
-161 -125 0
-161 145 0
161 125 -145 0
-193 -126 0
-193 161 0
193 126 -161 0
-321 127 0
-321 193 0
321 -127 -193 0
120 -6869 0
-120 6869 0
119 -6868 0
-119 6868 0
118 -6867 0
-118 6867 0
117 -6866 0
-117 6866 0
116 -6865 0
-116 6865 0
114 -6863 0
-114 6863 0
115 -6864 0
-115 6864 0
-323 114 0
-323 -115 0
323 -114 115 0
-331 116 0
-331 323 0
331 -116 -323 0
-339 -117 0
-339 331 0
339 117 -331 0
-355 -118 0
-355 339 0
355 118 -339 0
-387 -119 0
-387 355 0
387 119 -355 0
-515 120 0
-515 387 0
515 -120 -387 0
113 -6862 0
-113 6862 0
112 -6861 0
-112 6861 0
111 -6860 0
-111 6860 0
110 -6859 0
-110 6859 0
109 -6858 0
-109 6858 0
107 -6856 0
-107 6856 0
108 -6857 0
-108 6857 0
-517 107 0
-517 -108 0
517 -107 108 0
-525 109 0
-525 517 0
525 -109 -517 0
-533 -110 0
-533 525 0
533 110 -525 0
-549 -111 0
-549 533 0
549 111 -533 0
-581 -112 0
-581 549 0
581 112 -549 0
-709 113 0
-709 581 0
709 -113 -581 0
106 -6855 0
-106 6855 0
105 -6854 0
-105 6854 0
104 -6853 0
-104 6853 0
103 -6852 0
-103 6852 0
102 -6851 0
-102 6851 0
100 -6849 0
-100 6849 0
101 -6850 0
-101 6850 0
-711 100 0
-711 -101 0
711 -100 101 0
-719 102 0
-719 711 0
719 -102 -711 0
-727 -103 0
-727 719 0
727 103 -719 0
-743 -104 0
-743 727 0
743 104 -727 0
-775 -105 0
-775 743 0
775 105 -743 0
-903 106 0
-903 775 0
903 -106 -775 0
99 -6848 0
-99 6848 0
98 -6847 0
-98 6847 0
97 -6846 0
-97 6846 0
96 -6845 0
-96 6845 0
95 -6844 0
-95 6844 0
93 -6842 0
-93 6842 0
94 -6843 0
-94 6843 0
-905 93 0
-905 -94 0
905 -93 94 0
-913 95 0
-913 905 0
913 -95 -905 0
-921 -96 0
-921 913 0
921 96 -913 0
-937 -97 0
-937 921 0
937 97 -921 0
-969 -98 0
-969 937 0
969 98 -937 0
-1097 99 0
-1097 969 0
1097 -99 -969 0
92 -6841 0
-92 6841 0
91 -6840 0
-91 6840 0
90 -6839 0
-90 6839 0
89 -6838 0
-89 6838 0
88 -6837 0
-88 6837 0
86 -6835 0
-86 6835 0
87 -6836 0
-87 6836 0
-1099 86 0
-1099 -87 0
1099 -86 87 0
-1107 88 0
-1107 1099 0
1107 -88 -1099 0
-1115 -89 0
-1115 1107 0
1115 89 -1107 0
-1131 -90 0
-1131 1115 0
1131 90 -1115 0
-1163 -91 0
-1163 1131 0
1163 91 -1131 0
-1291 92 0
-1291 1163 0
1291 -92 -1163 0
85 -6834 0
-85 6834 0
84 -6833 0
-84 6833 0
83 -6832 0
-83 6832 0
82 -6831 0
-82 6831 0
81 -6830 0
-81 6830 0
79 -6828 0
-79 6828 0
80 -6829 0
-80 6829 0
-1293 79 0
-1293 -80 0
1293 -79 80 0
-1301 81 0
-1301 1293 0
1301 -81 -1293 0
-1309 -82 0
-1309 1301 0
1309 82 -1301 0
-1325 -83 0
-1325 1309 0
1325 83 -1309 0
-1357 -84 0
-1357 1325 0
1357 84 -1325 0
-1485 85 0
-1485 1357 0
1485 -85 -1357 0
78 -6827 0
-78 6827 0
77 -6826 0
-77 6826 0
76 -6825 0
-76 6825 0
75 -6824 0
-75 6824 0
74 -6823 0
-74 6823 0
72 -6821 0
-72 6821 0
73 -6822 0
-73 6822 0
-1487 72 0
-1487 -73 0
1487 -72 73 0
-1495 74 0
-1495 1487 0
1495 -74 -1487 0
-1503 -75 0
-1503 1495 0
1503 75 -1495 0
-1519 -76 0
-1519 1503 0
1519 76 -1503 0
-1551 -77 0
-1551 1519 0
1551 77 -1519 0
-1679 78 0
-1679 1551 0
1679 -78 -1551 0
-1749 -1485 0
-1749 -1679 0
1749 1485 1679 0
-1819 -1291 0
-1819 1749 0
1819 1291 -1749 0
-1889 -1097 0
-1889 1819 0
1889 1097 -1819 0
-1959 -903 0
-1959 1889 0
1959 903 -1889 0
-2029 -709 0
-2029 1959 0
2029 709 -1959 0
-2099 -515 0
-2099 2029 0
2099 515 -2029 0
-2169 -321 0
-2169 2099 0
2169 321 -2099 0
-2377 71 0
-2377 2169 0
2377 -71 -2169 0
-2378 -71 0
-2378 -2169 0
2378 71 2169 0
-2379 -2377 0
-2379 -2378 0
2379 2377 2378 0
70 -6819 0
-70 6819 0
-128 -121 0
-128 -122 0
128 121 122 0
-136 123 0
-136 128 0
136 -123 -128 0
-144 -124 0
-144 136 0
144 124 -136 0
-160 -125 0
-160 144 0
160 125 -144 0
-192 -126 0
-192 160 0
192 126 -160 0
-320 127 0
-320 192 0
320 -127 -192 0
-322 -114 0
-322 -115 0
322 114 115 0
-330 116 0
-330 322 0
330 -116 -322 0
-338 -117 0
-338 330 0
338 117 -330 0
-354 -118 0
-354 338 0
354 118 -338 0
-386 -119 0
-386 354 0
386 119 -354 0
-514 120 0
-514 386 0
514 -120 -386 0
-516 -107 0
-516 -108 0
516 107 108 0
-524 109 0
-524 516 0
524 -109 -516 0
-532 -110 0
-532 524 0
532 110 -524 0
-548 -111 0
-548 532 0
548 111 -532 0
-580 -112 0
-580 548 0
580 112 -548 0
-708 113 0
-708 580 0
708 -113 -580 0
-710 -100 0
-710 -101 0
710 100 101 0
-718 102 0
-718 710 0
718 -102 -710 0
-726 -103 0
-726 718 0
726 103 -718 0
-742 -104 0
-742 726 0
742 104 -726 0
-774 -105 0
-774 742 0
774 105 -742 0
-902 106 0
-902 774 0
902 -106 -774 0
-904 -93 0
-904 -94 0
904 93 94 0
-912 95 0
-912 904 0
912 -95 -904 0
-920 -96 0
-920 912 0
920 96 -912 0
-936 -97 0
-936 920 0
936 97 -920 0
-968 -98 0
-968 936 0
968 98 -936 0
-1096 99 0
-1096 968 0
1096 -99 -968 0
-1098 -86 0
-1098 -87 0
1098 86 87 0
-1106 88 0
-1106 1098 0
1106 -88 -1098 0
-1114 -89 0
-1114 1106 0
1114 89 -1106 0
-1130 -90 0
-1130 1114 0
1130 90 -1114 0
-1162 -91 0
-1162 1130 0
1162 91 -1130 0
-1290 92 0
-1290 1162 0
1290 -92 -1162 0
-1292 -79 0
-1292 -80 0
1292 79 80 0
-1300 81 0
-1300 1292 0
1300 -81 -1292 0
-1308 -82 0
-1308 1300 0
1308 82 -1300 0
-1324 -83 0
-1324 1308 0
1324 83 -1308 0
-1356 -84 0
-1356 1324 0
1356 84 -1324 0
-1484 85 0
-1484 1356 0
1484 -85 -1356 0
-1486 -72 0
-1486 -73 0
1486 72 73 0
-1494 74 0
-1494 1486 0
1494 -74 -1486 0
-1502 -75 0
-1502 1494 0
1502 75 -1494 0
-1518 -76 0
-1518 1502 0
1518 76 -1502 0
-1550 -77 0
-1550 1518 0
1550 77 -1518 0
-1678 78 0
-1678 1550 0
1678 -78 -1550 0
-1748 -1484 0
-1748 -1678 0
1748 1484 1678 0
-1818 -1290 0
-1818 1748 0
1818 1290 -1748 0
-1888 -1096 0
-1888 1818 0
1888 1096 -1818 0
-1958 -902 0
-1958 1888 0
1958 902 -1888 0
-2028 -708 0
-2028 1958 0
2028 708 -1958 0
-2098 -514 0
-2098 2028 0
2098 514 -2028 0
-2168 -320 0
-2168 2098 0
2168 320 -2098 0
-2374 70 0
-2374 2168 0
2374 -70 -2168 0
-2375 -70 0
-2375 -2168 0
2375 70 2168 0
-2376 -2374 0
-2376 -2375 0
2376 2374 2375 0
69 -6818 0
-69 6818 0
-131 121 0
-131 122 0
131 -121 -122 0
-135 -123 0
-135 131 0
135 123 -131 0
-143 -124 0
-143 135 0
143 124 -135 0
-159 -125 0
-159 143 0
159 125 -143 0
-191 -126 0
-191 159 0
191 126 -159 0
-319 127 0
-319 191 0
319 -127 -191 0
-325 114 0
-325 115 0
325 -114 -115 0
-329 -116 0
-329 325 0
329 116 -325 0
-337 -117 0
-337 329 0
337 117 -329 0
-353 -118 0
-353 337 0
353 118 -337 0
-385 -119 0
-385 353 0
385 119 -353 0
-513 120 0
-513 385 0
513 -120 -385 0
-519 107 0
-519 108 0
519 -107 -108 0
-523 -109 0
-523 519 0
523 109 -519 0
-531 -110 0
-531 523 0
531 110 -523 0
-547 -111 0
-547 531 0
547 111 -531 0
-579 -112 0
-579 547 0
579 112 -547 0
-707 113 0
-707 579 0
707 -113 -579 0
-713 100 0
-713 101 0
713 -100 -101 0
-717 -102 0
-717 713 0
717 102 -713 0
-725 -103 0
-725 717 0
725 103 -717 0
-741 -104 0
-741 725 0
741 104 -725 0
-773 -105 0
-773 741 0
773 105 -741 0
-901 106 0
-901 773 0
901 -106 -773 0
-907 93 0
-907 94 0
907 -93 -94 0
-911 -95 0
-911 907 0
911 95 -907 0
-919 -96 0
-919 911 0
919 96 -911 0
-935 -97 0
-935 919 0
935 97 -919 0
-967 -98 0
-967 935 0
967 98 -935 0
-1095 99 0
-1095 967 0
1095 -99 -967 0
-1101 86 0
-1101 87 0
1101 -86 -87 0
-1105 -88 0
-1105 1101 0
1105 88 -1101 0
-1113 -89 0
-1113 1105 0
1113 89 -1105 0
-1129 -90 0
-1129 1113 0
1129 90 -1113 0
-1161 -91 0
-1161 1129 0
1161 91 -1129 0
-1289 92 0
-1289 1161 0
1289 -92 -1161 0
-1295 79 0
-1295 80 0
1295 -79 -80 0
-1299 -81 0
-1299 1295 0
1299 81 -1295 0
-1307 -82 0
-1307 1299 0
1307 82 -1299 0
-1323 -83 0
-1323 1307 0
1323 83 -1307 0
-1355 -84 0
-1355 1323 0
1355 84 -1323 0
-1483 85 0
-1483 1355 0
1483 -85 -1355 0
-1489 72 0
-1489 73 0
1489 -72 -73 0
-1493 -74 0
-1493 1489 0
1493 74 -1489 0
-1501 -75 0
-1501 1493 0
1501 75 -1493 0
-1517 -76 0
-1517 1501 0
1517 76 -1501 0
-1549 -77 0
-1549 1517 0
1549 77 -1517 0
-1677 78 0
-1677 1549 0
1677 -78 -1549 0
-1747 -1483 0
-1747 -1677 0
1747 1483 1677 0
-1817 -1289 0
-1817 1747 0
1817 1289 -1747 0
-1887 -1095 0
-1887 1817 0
1887 1095 -1817 0
-1957 -901 0
-1957 1887 0
1957 901 -1887 0
-2027 -707 0
-2027 1957 0
2027 707 -1957 0
-2097 -513 0
-2097 2027 0
2097 513 -2027 0
-2167 -319 0
-2167 2097 0
2167 319 -2097 0
-2371 69 0
-2371 2167 0
2371 -69 -2167 0
-2372 -69 0
-2372 -2167 0
2372 69 2167 0
-2373 -2371 0
-2373 -2372 0
2373 2371 2372 0
68 -6817 0
-68 6817 0
-130 -121 0
-130 122 0
130 121 -122 0
-134 -123 0
-134 130 0
134 123 -130 0
-142 -124 0
-142 134 0
142 124 -134 0
-158 -125 0
-158 142 0
158 125 -142 0
-190 -126 0
-190 158 0
190 126 -158 0
-318 127 0
-318 190 0
318 -127 -190 0
-324 -114 0
-324 115 0
324 114 -115 0
-328 -116 0
-328 324 0
328 116 -324 0
-336 -117 0
-336 328 0
336 117 -328 0
-352 -118 0
-352 336 0
352 118 -336 0
-384 -119 0
-384 352 0
384 119 -352 0
-512 120 0
-512 384 0
512 -120 -384 0
-518 -107 0
-518 108 0
518 107 -108 0
-522 -109 0
-522 518 0
522 109 -518 0
-530 -110 0
-530 522 0
530 110 -522 0
-546 -111 0
-546 530 0
546 111 -530 0
-578 -112 0
-578 546 0
578 112 -546 0
-706 113 0
-706 578 0
706 -113 -578 0
-712 -100 0
-712 101 0
712 100 -101 0
-716 -102 0
-716 712 0
716 102 -712 0
-724 -103 0
-724 716 0
724 103 -716 0
-740 -104 0
-740 724 0
740 104 -724 0
-772 -105 0
-772 740 0
772 105 -740 0
-900 106 0
-900 772 0
900 -106 -772 0
-906 -93 0
-906 94 0
906 93 -94 0
-910 -95 0
-910 906 0
910 95 -906 0
-918 -96 0
-918 910 0
918 96 -910 0
-934 -97 0
-934 918 0
934 97 -918 0
-966 -98 0
-966 934 0
966 98 -934 0
-1094 99 0
-1094 966 0
1094 -99 -966 0
-1100 -86 0
-1100 87 0
1100 86 -87 0
-1104 -88 0
-1104 1100 0
1104 88 -1100 0
-1112 -89 0
-1112 1104 0
1112 89 -1104 0
-1128 -90 0
-1128 1112 0
1128 90 -1112 0
-1160 -91 0
-1160 1128 0
1160 91 -1128 0
-1288 92 0
-1288 1160 0
1288 -92 -1160 0
-1294 -79 0
-1294 80 0
1294 79 -80 0
-1298 -81 0
-1298 1294 0
1298 81 -1294 0
-1306 -82 0
-1306 1298 0
1306 82 -1298 0
-1322 -83 0
-1322 1306 0
1322 83 -1306 0
-1354 -84 0
-1354 1322 0
1354 84 -1322 0
-1482 85 0
-1482 1354 0
1482 -85 -1354 0
-1488 -72 0
-1488 73 0
1488 72 -73 0
-1492 -74 0
-1492 1488 0
1492 74 -1488 0
-1500 -75 0
-1500 1492 0
1500 75 -1492 0
-1516 -76 0
-1516 1500 0
1516 76 -1500 0
-1548 -77 0
-1548 1516 0
1548 77 -1516 0
-1676 78 0
-1676 1548 0
1676 -78 -1548 0
-1746 -1482 0
-1746 -1676 0
1746 1482 1676 0
-1816 -1288 0
-1816 1746 0
1816 1288 -1746 0
-1886 -1094 0
-1886 1816 0
1886 1094 -1816 0
-1956 -900 0
-1956 1886 0
1956 900 -1886 0
-2026 -706 0
-2026 1956 0
2026 706 -1956 0
-2096 -512 0
-2096 2026 0
2096 512 -2026 0
-2166 -318 0
-2166 2096 0
2166 318 -2096 0
-2368 68 0
-2368 2166 0
2368 -68 -2166 0
-2369 -68 0
-2369 -2166 0
2369 68 2166 0
-2370 -2368 0
-2370 -2369 0
2370 2368 2369 0
67 -6816 0
-67 6816 0
-133 -123 0
-133 129 0
133 123 -129 0
-141 -124 0
-141 133 0
141 124 -133 0
-157 -125 0
-157 141 0
157 125 -141 0
-189 -126 0
-189 157 0
189 126 -157 0
-317 127 0
-317 189 0
317 -127 -189 0
-327 -116 0
-327 323 0
327 116 -323 0
-335 -117 0
-335 327 0
335 117 -327 0
-351 -118 0
-351 335 0
351 118 -335 0
-383 -119 0
-383 351 0
383 119 -351 0
-511 120 0
-511 383 0
511 -120 -383 0
-521 -109 0
-521 517 0
521 109 -517 0
-529 -110 0
-529 521 0
529 110 -521 0
-545 -111 0
-545 529 0
545 111 -529 0
-577 -112 0
-577 545 0
577 112 -545 0
-705 113 0
-705 577 0
705 -113 -577 0
-715 -102 0
-715 711 0
715 102 -711 0
-723 -103 0
-723 715 0
723 103 -715 0
-739 -104 0
-739 723 0
739 104 -723 0
-771 -105 0
-771 739 0
771 105 -739 0
-899 106 0
-899 771 0
899 -106 -771 0
-909 -95 0
-909 905 0
909 95 -905 0
-917 -96 0
-917 909 0
917 96 -909 0
-933 -97 0
-933 917 0
933 97 -917 0
-965 -98 0
-965 933 0
965 98 -933 0
-1093 99 0
-1093 965 0
1093 -99 -965 0
-1103 -88 0
-1103 1099 0
1103 88 -1099 0
-1111 -89 0
-1111 1103 0
1111 89 -1103 0
-1127 -90 0
-1127 1111 0
1127 90 -1111 0
-1159 -91 0
-1159 1127 0
1159 91 -1127 0
-1287 92 0
-1287 1159 0
1287 -92 -1159 0
-1297 -81 0
-1297 1293 0
1297 81 -1293 0
-1305 -82 0
-1305 1297 0
1305 82 -1297 0
-1321 -83 0
-1321 1305 0
1321 83 -1305 0
-1353 -84 0
-1353 1321 0
1353 84 -1321 0
-1481 85 0
-1481 1353 0
1481 -85 -1353 0
-1491 -74 0
-1491 1487 0
1491 74 -1487 0
-1499 -75 0
-1499 1491 0
1499 75 -1491 0
-1515 -76 0
-1515 1499 0
1515 76 -1499 0
-1547 -77 0
-1547 1515 0
1547 77 -1515 0
-1675 78 0
-1675 1547 0
1675 -78 -1547 0
-1745 -1481 0
-1745 -1675 0
1745 1481 1675 0
-1815 -1287 0
-1815 1745 0
1815 1287 -1745 0
-1885 -1093 0
-1885 1815 0
1885 1093 -1815 0
-1955 -899 0
-1955 1885 0
1955 899 -1885 0
-2025 -705 0
-2025 1955 0
2025 705 -1955 0
-2095 -511 0
-2095 2025 0
2095 511 -2025 0
-2165 -317 0
-2165 2095 0
2165 317 -2095 0
-2365 67 0
-2365 2165 0
2365 -67 -2165 0
-2366 -67 0
-2366 -2165 0
2366 67 2165 0
-2367 -2365 0
-2367 -2366 0
2367 2365 2366 0
66 -6815 0
-66 6815 0
-132 -123 0
-132 128 0
132 123 -128 0
-140 -124 0
-140 132 0
140 124 -132 0
-156 -125 0
-156 140 0
156 125 -140 0
-188 -126 0
-188 156 0
188 126 -156 0
-316 127 0
-316 188 0
316 -127 -188 0
-326 -116 0
-326 322 0
326 116 -322 0
-334 -117 0
-334 326 0
334 117 -326 0
-350 -118 0
-350 334 0
350 118 -334 0
-382 -119 0
-382 350 0
382 119 -350 0
-510 120 0
-510 382 0
510 -120 -382 0
-520 -109 0
-520 516 0
520 109 -516 0
-528 -110 0
-528 520 0
528 110 -520 0
-544 -111 0
-544 528 0
544 111 -528 0
-576 -112 0
-576 544 0
576 112 -544 0
-704 113 0
-704 576 0
704 -113 -576 0
-714 -102 0
-714 710 0
714 102 -710 0
-722 -103 0
-722 714 0
722 103 -714 0
-738 -104 0
-738 722 0
738 104 -722 0
-770 -105 0
-770 738 0
770 105 -738 0
-898 106 0
-898 770 0
898 -106 -770 0
-908 -95 0
-908 904 0
908 95 -904 0
-916 -96 0
-916 908 0
916 96 -908 0
-932 -97 0
-932 916 0
932 97 -916 0
-964 -98 0
-964 932 0
964 98 -932 0
-1092 99 0
-1092 964 0
1092 -99 -964 0
-1102 -88 0
-1102 1098 0
1102 88 -1098 0
-1110 -89 0
-1110 1102 0
1110 89 -1102 0
-1126 -90 0
-1126 1110 0
1126 90 -1110 0
-1158 -91 0
-1158 1126 0
1158 91 -1126 0
-1286 92 0
-1286 1158 0
1286 -92 -1158 0
-1296 -81 0
-1296 1292 0
1296 81 -1292 0
-1304 -82 0
-1304 1296 0
1304 82 -1296 0
-1320 -83 0
-1320 1304 0
1320 83 -1304 0
-1352 -84 0
-1352 1320 0
1352 84 -1320 0
-1480 85 0
-1480 1352 0
1480 -85 -1352 0
-1490 -74 0
-1490 1486 0
1490 74 -1486 0
-1498 -75 0
-1498 1490 0
1498 75 -1490 0
-1514 -76 0
-1514 1498 0
1514 76 -1498 0
-1546 -77 0
-1546 1514 0
1546 77 -1514 0
-1674 78 0
-1674 1546 0
1674 -78 -1546 0
-1744 -1480 0
-1744 -1674 0
1744 1480 1674 0
-1814 -1286 0
-1814 1744 0
1814 1286 -1744 0
-1884 -1092 0
-1884 1814 0
1884 1092 -1814 0
-1954 -898 0
-1954 1884 0
1954 898 -1884 0
-2024 -704 0
-2024 1954 0
2024 704 -1954 0
-2094 -510 0
-2094 2024 0
2094 510 -2024 0
-2164 -316 0
-2164 2094 0
2164 316 -2094 0
-2362 66 0
-2362 2164 0
2362 -66 -2164 0
-2363 -66 0
-2363 -2164 0
2363 66 2164 0
-2364 -2362 0
-2364 -2363 0
2364 2362 2363 0
65 -6814 0
-65 6814 0
-139 123 0
-139 131 0
139 -123 -131 0
-155 124 0
-155 139 0
155 -124 -139 0
-187 125 0
-187 155 0
187 -125 -155 0
-251 126 0
-251 187 0
251 -126 -187 0
-315 -127 0
-315 251 0
315 127 -251 0
-333 116 0
-333 325 0
333 -116 -325 0
-349 117 0
-349 333 0
349 -117 -333 0
-381 118 0
-381 349 0
381 -118 -349 0
-445 119 0
-445 381 0
445 -119 -381 0
-509 -120 0
-509 445 0
509 120 -445 0
-527 109 0
-527 519 0
527 -109 -519 0
-543 110 0
-543 527 0
543 -110 -527 0
-575 111 0
-575 543 0
575 -111 -543 0
-639 112 0
-639 575 0
639 -112 -575 0
-703 -113 0
-703 639 0
703 113 -639 0
-721 102 0
-721 713 0
721 -102 -713 0
-737 103 0
-737 721 0
737 -103 -721 0
-769 104 0
-769 737 0
769 -104 -737 0
-833 105 0
-833 769 0
833 -105 -769 0
-897 -106 0
-897 833 0
897 106 -833 0
-915 95 0
-915 907 0
915 -95 -907 0
-931 96 0
-931 915 0
931 -96 -915 0
-963 97 0
-963 931 0
963 -97 -931 0
-1027 98 0
-1027 963 0
1027 -98 -963 0
-1091 -99 0
-1091 1027 0
1091 99 -1027 0
-1109 88 0
-1109 1101 0
1109 -88 -1101 0
-1125 89 0
-1125 1109 0
1125 -89 -1109 0
-1157 90 0
-1157 1125 0
1157 -90 -1125 0
-1221 91 0
-1221 1157 0
1221 -91 -1157 0
-1285 -92 0
-1285 1221 0
1285 92 -1221 0
-1303 81 0
-1303 1295 0
1303 -81 -1295 0
-1319 82 0
-1319 1303 0
1319 -82 -1303 0
-1351 83 0
-1351 1319 0
1351 -83 -1319 0
-1415 84 0
-1415 1351 0
1415 -84 -1351 0
-1479 -85 0
-1479 1415 0
1479 85 -1415 0
-1497 74 0
-1497 1489 0
1497 -74 -1489 0
-1513 75 0
-1513 1497 0
1513 -75 -1497 0
-1545 76 0
-1545 1513 0
1545 -76 -1513 0
-1609 77 0
-1609 1545 0
1609 -77 -1545 0
-1673 -78 0
-1673 1609 0
1673 78 -1609 0
-1743 -1479 0
-1743 -1673 0
1743 1479 1673 0
-1813 -1285 0
-1813 1743 0
1813 1285 -1743 0
-1883 -1091 0
-1883 1813 0
1883 1091 -1813 0
-1953 -897 0
-1953 1883 0
1953 897 -1883 0
-2023 -703 0
-2023 1953 0
2023 703 -1953 0
-2093 -509 0
-2093 2023 0
2093 509 -2023 0
-2163 -315 0
-2163 2093 0
2163 315 -2093 0
-2359 65 0
-2359 2163 0
2359 -65 -2163 0
-2360 -65 0
-2360 -2163 0
2360 65 2163 0
-2361 -2359 0
-2361 -2360 0
2361 2359 2360 0
64 -6813 0
-64 6813 0
-138 123 0
-138 130 0
138 -123 -130 0
-154 124 0
-154 138 0
154 -124 -138 0
-186 125 0
-186 154 0
186 -125 -154 0
-250 126 0
-250 186 0
250 -126 -186 0
-314 -127 0
-314 250 0
314 127 -250 0
-332 116 0
-332 324 0
332 -116 -324 0
-348 117 0
-348 332 0
348 -117 -332 0
-380 118 0
-380 348 0
380 -118 -348 0
-444 119 0
-444 380 0
444 -119 -380 0
-508 -120 0
-508 444 0
508 120 -444 0
-526 109 0
-526 518 0
526 -109 -518 0
-542 110 0
-542 526 0
542 -110 -526 0
-574 111 0
-574 542 0
574 -111 -542 0
-638 112 0
-638 574 0
638 -112 -574 0
-702 -113 0
-702 638 0
702 113 -638 0
-720 102 0
-720 712 0
720 -102 -712 0
-736 103 0
-736 720 0
736 -103 -720 0
-768 104 0
-768 736 0
768 -104 -736 0
-832 105 0
-832 768 0
832 -105 -768 0
-896 -106 0
-896 832 0
896 106 -832 0
-914 95 0
-914 906 0
914 -95 -906 0
-930 96 0
-930 914 0
930 -96 -914 0
-962 97 0
-962 930 0
962 -97 -930 0
-1026 98 0
-1026 962 0
1026 -98 -962 0
-1090 -99 0
-1090 1026 0
1090 99 -1026 0
-1108 88 0
-1108 1100 0
1108 -88 -1100 0
-1124 89 0
-1124 1108 0
1124 -89 -1108 0
-1156 90 0
-1156 1124 0
1156 -90 -1124 0
-1220 91 0
-1220 1156 0
1220 -91 -1156 0
-1284 -92 0
-1284 1220 0
1284 92 -1220 0
-1302 81 0
-1302 1294 0
1302 -81 -1294 0
-1318 82 0
-1318 1302 0
1318 -82 -1302 0
-1350 83 0
-1350 1318 0
1350 -83 -1318 0
-1414 84 0
-1414 1350 0
1414 -84 -1350 0
-1478 -85 0
-1478 1414 0
1478 85 -1414 0
-1496 74 0
-1496 1488 0
1496 -74 -1488 0
-1512 75 0
-1512 1496 0
1512 -75 -1496 0
-1544 76 0
-1544 1512 0
1544 -76 -1512 0
-1608 77 0
-1608 1544 0
1608 -77 -1544 0
-1672 -78 0
-1672 1608 0
1672 78 -1608 0
-1742 -1478 0
-1742 -1672 0
1742 1478 1672 0
-1812 -1284 0
-1812 1742 0
1812 1284 -1742 0
-1882 -1090 0
-1882 1812 0
1882 1090 -1812 0
-1952 -896 0
-1952 1882 0
1952 896 -1882 0
-2022 -702 0
-2022 1952 0
2022 702 -1952 0
-2092 -508 0
-2092 2022 0
2092 508 -2022 0
-2162 -314 0
-2162 2092 0
2162 314 -2092 0
-2356 64 0
-2356 2162 0
2356 -64 -2162 0
-2357 -64 0
-2357 -2162 0
2357 64 2162 0
-2358 -2356 0
-2358 -2357 0
2358 2356 2357 0
63 -6812 0
-63 6812 0
-153 124 0
-153 137 0
153 -124 -137 0
-185 125 0
-185 153 0
185 -125 -153 0
-249 126 0
-249 185 0
249 -126 -185 0
-313 -127 0
-313 249 0
313 127 -249 0
-347 117 0
-347 331 0
347 -117 -331 0
-379 118 0
-379 347 0
379 -118 -347 0
-443 119 0
-443 379 0
443 -119 -379 0
-507 -120 0
-507 443 0
507 120 -443 0
-541 110 0
-541 525 0
541 -110 -525 0
-573 111 0
-573 541 0
573 -111 -541 0
-637 112 0
-637 573 0
637 -112 -573 0
-701 -113 0
-701 637 0
701 113 -637 0
-735 103 0
-735 719 0
735 -103 -719 0
-767 104 0
-767 735 0
767 -104 -735 0
-831 105 0
-831 767 0
831 -105 -767 0
-895 -106 0
-895 831 0
895 106 -831 0
-929 96 0
-929 913 0
929 -96 -913 0
-961 97 0
-961 929 0
961 -97 -929 0
-1025 98 0
-1025 961 0
1025 -98 -961 0
-1089 -99 0
-1089 1025 0
1089 99 -1025 0
-1123 89 0
-1123 1107 0
1123 -89 -1107 0
-1155 90 0
-1155 1123 0
1155 -90 -1123 0
-1219 91 0
-1219 1155 0
1219 -91 -1155 0
-1283 -92 0
-1283 1219 0
1283 92 -1219 0
-1317 82 0
-1317 1301 0
1317 -82 -1301 0
-1349 83 0
-1349 1317 0
1349 -83 -1317 0
-1413 84 0
-1413 1349 0
1413 -84 -1349 0
-1477 -85 0
-1477 1413 0
1477 85 -1413 0
-1511 75 0
-1511 1495 0
1511 -75 -1495 0
-1543 76 0
-1543 1511 0
1543 -76 -1511 0
-1607 77 0
-1607 1543 0
1607 -77 -1543 0
-1671 -78 0
-1671 1607 0
1671 78 -1607 0
-1741 -1477 0
-1741 -1671 0
1741 1477 1671 0
-1811 -1283 0
-1811 1741 0
1811 1283 -1741 0
-1881 -1089 0
-1881 1811 0
1881 1089 -1811 0
-1951 -895 0
-1951 1881 0
1951 895 -1881 0
-2021 -701 0
-2021 1951 0
2021 701 -1951 0
-2091 -507 0
-2091 2021 0
2091 507 -2021 0
-2161 -313 0
-2161 2091 0
2161 313 -2091 0
-2353 63 0
-2353 2161 0
2353 -63 -2161 0
-2354 -63 0
-2354 -2161 0
2354 63 2161 0
-2355 -2353 0
-2355 -2354 0
2355 2353 2354 0
62 -6811 0
-62 6811 0
-152 124 0
-152 136 0
152 -124 -136 0
-184 125 0
-184 152 0
184 -125 -152 0
-248 126 0
-248 184 0
248 -126 -184 0
-312 -127 0
-312 248 0
312 127 -248 0
-346 117 0
-346 330 0
346 -117 -330 0
-378 118 0
-378 346 0
378 -118 -346 0
-442 119 0
-442 378 0
442 -119 -378 0
-506 -120 0
-506 442 0
506 120 -442 0
-540 110 0
-540 524 0
540 -110 -524 0
-572 111 0
-572 540 0
572 -111 -540 0
-636 112 0
-636 572 0
636 -112 -572 0
-700 -113 0
-700 636 0
700 113 -636 0
-734 103 0
-734 718 0
734 -103 -718 0
-766 104 0
-766 734 0
766 -104 -734 0
-830 105 0
-830 766 0
830 -105 -766 0
-894 -106 0
-894 830 0
894 106 -830 0
-928 96 0
-928 912 0
928 -96 -912 0
-960 97 0
-960 928 0
960 -97 -928 0
-1024 98 0
-1024 960 0
1024 -98 -960 0
-1088 -99 0
-1088 1024 0
1088 99 -1024 0
-1122 89 0
-1122 1106 0
1122 -89 -1106 0
-1154 90 0
-1154 1122 0
1154 -90 -1122 0
-1218 91 0
-1218 1154 0
1218 -91 -1154 0
-1282 -92 0
-1282 1218 0
1282 92 -1218 0
-1316 82 0
-1316 1300 0
1316 -82 -1300 0
-1348 83 0
-1348 1316 0
1348 -83 -1316 0
-1412 84 0
-1412 1348 0
1412 -84 -1348 0
-1476 -85 0
-1476 1412 0
1476 85 -1412 0
-1510 75 0
-1510 1494 0
1510 -75 -1494 0
-1542 76 0
-1542 1510 0
1542 -76 -1510 0
-1606 77 0
-1606 1542 0
1606 -77 -1542 0
-1670 -78 0
-1670 1606 0
1670 78 -1606 0
-1740 -1476 0
-1740 -1670 0
1740 1476 1670 0
-1810 -1282 0
-1810 1740 0
1810 1282 -1740 0
-1880 -1088 0
-1880 1810 0
1880 1088 -1810 0
-1950 -894 0
-1950 1880 0
1950 894 -1880 0
-2020 -700 0
-2020 1950 0
2020 700 -1950 0
-2090 -506 0
-2090 2020 0
2090 506 -2020 0
-2160 -312 0
-2160 2090 0
2160 312 -2090 0
-2350 62 0
-2350 2160 0
2350 -62 -2160 0
-2351 -62 0
-2351 -2160 0
2351 62 2160 0
-2352 -2350 0
-2352 -2351 0
2352 2350 2351 0
61 -6810 0
-61 6810 0
-151 124 0
-151 135 0
151 -124 -135 0
-183 125 0
-183 151 0
183 -125 -151 0
-247 126 0
-247 183 0
247 -126 -183 0
-311 -127 0
-311 247 0
311 127 -247 0
-345 117 0
-345 329 0
345 -117 -329 0
-377 118 0
-377 345 0
377 -118 -345 0
-441 119 0
-441 377 0
441 -119 -377 0
-505 -120 0
-505 441 0
505 120 -441 0
-539 110 0
-539 523 0
539 -110 -523 0
-571 111 0
-571 539 0
571 -111 -539 0
-635 112 0
-635 571 0
635 -112 -571 0
-699 -113 0
-699 635 0
699 113 -635 0
-733 103 0
-733 717 0
733 -103 -717 0
-765 104 0
-765 733 0
765 -104 -733 0
-829 105 0
-829 765 0
829 -105 -765 0
-893 -106 0
-893 829 0
893 106 -829 0
-927 96 0
-927 911 0
927 -96 -911 0
-959 97 0
-959 927 0
959 -97 -927 0
-1023 98 0
-1023 959 0
1023 -98 -959 0
-1087 -99 0
-1087 1023 0
1087 99 -1023 0
-1121 89 0
-1121 1105 0
1121 -89 -1105 0
-1153 90 0
-1153 1121 0
1153 -90 -1121 0
-1217 91 0
-1217 1153 0
1217 -91 -1153 0
-1281 -92 0
-1281 1217 0
1281 92 -1217 0
-1315 82 0
-1315 1299 0
1315 -82 -1299 0
-1347 83 0
-1347 1315 0
1347 -83 -1315 0
-1411 84 0
-1411 1347 0
1411 -84 -1347 0
-1475 -85 0
-1475 1411 0
1475 85 -1411 0
-1509 75 0
-1509 1493 0
1509 -75 -1493 0
-1541 76 0
-1541 1509 0
1541 -76 -1509 0
-1605 77 0
-1605 1541 0
1605 -77 -1541 0
-1669 -78 0
-1669 1605 0
1669 78 -1605 0
-1739 -1475 0
-1739 -1669 0
1739 1475 1669 0
-1809 -1281 0
-1809 1739 0
1809 1281 -1739 0
-1879 -1087 0
-1879 1809 0
1879 1087 -1809 0
-1949 -893 0
-1949 1879 0
1949 893 -1879 0
-2019 -699 0
-2019 1949 0
2019 699 -1949 0
-2089 -505 0
-2089 2019 0
2089 505 -2019 0
-2159 -311 0
-2159 2089 0
2159 311 -2089 0
-2347 61 0
-2347 2159 0
2347 -61 -2159 0
-2348 -61 0
-2348 -2159 0
2348 61 2159 0
-2349 -2347 0
-2349 -2348 0
2349 2347 2348 0
60 -6809 0
-60 6809 0
-150 124 0
-150 134 0
150 -124 -134 0
-182 125 0
-182 150 0
182 -125 -150 0
-246 126 0
-246 182 0
246 -126 -182 0
-310 -127 0
-310 246 0
310 127 -246 0
-344 117 0
-344 328 0
344 -117 -328 0
-376 118 0
-376 344 0
376 -118 -344 0
-440 119 0
-440 376 0
440 -119 -376 0
-504 -120 0
-504 440 0
504 120 -440 0
-538 110 0
-538 522 0
538 -110 -522 0
-570 111 0
-570 538 0
570 -111 -538 0
-634 112 0
-634 570 0
634 -112 -570 0
-698 -113 0
-698 634 0
698 113 -634 0
-732 103 0
-732 716 0
732 -103 -716 0
-764 104 0
-764 732 0
764 -104 -732 0
-828 105 0
-828 764 0
828 -105 -764 0
-892 -106 0
-892 828 0
892 106 -828 0
-926 96 0
-926 910 0
926 -96 -910 0
-958 97 0
-958 926 0
958 -97 -926 0
-1022 98 0
-1022 958 0
1022 -98 -958 0
-1086 -99 0
-1086 1022 0
1086 99 -1022 0
-1120 89 0
-1120 1104 0
1120 -89 -1104 0
-1152 90 0
-1152 1120 0
1152 -90 -1120 0
-1216 91 0
-1216 1152 0
1216 -91 -1152 0
-1280 -92 0
-1280 1216 0
1280 92 -1216 0
-1314 82 0
-1314 1298 0
1314 -82 -1298 0
-1346 83 0
-1346 1314 0
1346 -83 -1314 0
-1410 84 0
-1410 1346 0
1410 -84 -1346 0
-1474 -85 0
-1474 1410 0
1474 85 -1410 0
-1508 75 0
-1508 1492 0
1508 -75 -1492 0
-1540 76 0
-1540 1508 0
1540 -76 -1508 0
-1604 77 0
-1604 1540 0
1604 -77 -1540 0
-1668 -78 0
-1668 1604 0
1668 78 -1604 0
-1738 -1474 0
-1738 -1668 0
1738 1474 1668 0
-1808 -1280 0
-1808 1738 0
1808 1280 -1738 0
-1878 -1086 0
-1878 1808 0
1878 1086 -1808 0
-1948 -892 0
-1948 1878 0
1948 892 -1878 0
-2018 -698 0
-2018 1948 0
2018 698 -1948 0
-2088 -504 0
-2088 2018 0
2088 504 -2018 0
-2158 -310 0
-2158 2088 0
2158 310 -2088 0
-2344 60 0
-2344 2158 0
2344 -60 -2158 0
-2345 -60 0
-2345 -2158 0
2345 60 2158 0
-2346 -2344 0
-2346 -2345 0
2346 2344 2345 0
59 -6808 0
-59 6808 0
-149 124 0
-149 133 0
149 -124 -133 0
-181 125 0
-181 149 0
181 -125 -149 0
-245 126 0
-245 181 0
245 -126 -181 0
-309 -127 0
-309 245 0
309 127 -245 0
-343 117 0
-343 327 0
343 -117 -327 0
-375 118 0
-375 343 0
375 -118 -343 0
-439 119 0
-439 375 0
439 -119 -375 0
-503 -120 0
-503 439 0
503 120 -439 0
-537 110 0
-537 521 0
537 -110 -521 0
-569 111 0
-569 537 0
569 -111 -537 0
-633 112 0
-633 569 0
633 -112 -569 0
-697 -113 0
-697 633 0
697 113 -633 0
-731 103 0
-731 715 0
731 -103 -715 0
-763 104 0
-763 731 0
763 -104 -731 0
-827 105 0
-827 763 0
827 -105 -763 0
-891 -106 0
-891 827 0
891 106 -827 0
-925 96 0
-925 909 0
925 -96 -909 0
-957 97 0
-957 925 0
957 -97 -925 0
-1021 98 0
-1021 957 0
1021 -98 -957 0
-1085 -99 0
-1085 1021 0
1085 99 -1021 0
-1119 89 0
-1119 1103 0
1119 -89 -1103 0
-1151 90 0
-1151 1119 0
1151 -90 -1119 0
-1215 91 0
-1215 1151 0
1215 -91 -1151 0
-1279 -92 0
-1279 1215 0
1279 92 -1215 0
-1313 82 0
-1313 1297 0
1313 -82 -1297 0
-1345 83 0
-1345 1313 0
1345 -83 -1313 0
-1409 84 0
-1409 1345 0
1409 -84 -1345 0
-1473 -85 0
-1473 1409 0
1473 85 -1409 0
-1507 75 0
-1507 1491 0
1507 -75 -1491 0
-1539 76 0
-1539 1507 0
1539 -76 -1507 0
-1603 77 0
-1603 1539 0
1603 -77 -1539 0
-1667 -78 0
-1667 1603 0
1667 78 -1603 0
-1737 -1473 0
-1737 -1667 0
1737 1473 1667 0
-1807 -1279 0
-1807 1737 0
1807 1279 -1737 0
-1877 -1085 0
-1877 1807 0
1877 1085 -1807 0
-1947 -891 0
-1947 1877 0
1947 891 -1877 0
-2017 -697 0
-2017 1947 0
2017 697 -1947 0
-2087 -503 0
-2087 2017 0
2087 503 -2017 0
-2157 -309 0
-2157 2087 0
2157 309 -2087 0
-2341 59 0
-2341 2157 0
2341 -59 -2157 0
-2342 -59 0
-2342 -2157 0
2342 59 2157 0
-2343 -2341 0
-2343 -2342 0
2343 2341 2342 0
58 -6807 0
-58 6807 0
-148 124 0
-148 132 0
148 -124 -132 0
-180 125 0
-180 148 0
180 -125 -148 0
-244 126 0
-244 180 0
244 -126 -180 0
-308 -127 0
-308 244 0
308 127 -244 0
-342 117 0
-342 326 0
342 -117 -326 0
-374 118 0
-374 342 0
374 -118 -342 0
-438 119 0
-438 374 0
438 -119 -374 0
-502 -120 0
-502 438 0
502 120 -438 0
-536 110 0
-536 520 0
536 -110 -520 0
-568 111 0
-568 536 0
568 -111 -536 0
-632 112 0
-632 568 0
632 -112 -568 0
-696 -113 0
-696 632 0
696 113 -632 0
-730 103 0
-730 714 0
730 -103 -714 0
-762 104 0
-762 730 0
762 -104 -730 0
-826 105 0
-826 762 0
826 -105 -762 0
-890 -106 0
-890 826 0
890 106 -826 0
-924 96 0
-924 908 0
924 -96 -908 0
-956 97 0
-956 924 0
956 -97 -924 0
-1020 98 0
-1020 956 0
1020 -98 -956 0
-1084 -99 0
-1084 1020 0
1084 99 -1020 0
-1118 89 0
-1118 1102 0
1118 -89 -1102 0
-1150 90 0
-1150 1118 0
1150 -90 -1118 0
-1214 91 0
-1214 1150 0
1214 -91 -1150 0
-1278 -92 0
-1278 1214 0
1278 92 -1214 0
-1312 82 0
-1312 1296 0
1312 -82 -1296 0
-1344 83 0
-1344 1312 0
1344 -83 -1312 0
-1408 84 0
-1408 1344 0
1408 -84 -1344 0
-1472 -85 0
-1472 1408 0
1472 85 -1408 0
-1506 75 0
-1506 1490 0
1506 -75 -1490 0
-1538 76 0
-1538 1506 0
1538 -76 -1506 0
-1602 77 0
-1602 1538 0
1602 -77 -1538 0
-1666 -78 0
-1666 1602 0
1666 78 -1602 0
-1736 -1472 0
-1736 -1666 0
1736 1472 1666 0
-1806 -1278 0
-1806 1736 0
1806 1278 -1736 0
-1876 -1084 0
-1876 1806 0
1876 1084 -1806 0
-1946 -890 0
-1946 1876 0
1946 890 -1876 0
-2016 -696 0
-2016 1946 0
2016 696 -1946 0
-2086 -502 0
-2086 2016 0
2086 502 -2016 0
-2156 -308 0
-2156 2086 0
2156 308 -2086 0
-2338 58 0
-2338 2156 0
2338 -58 -2156 0
-2339 -58 0
-2339 -2156 0
2339 58 2156 0
-2340 -2338 0
-2340 -2339 0
2340 2338 2339 0
57 -6806 0
-57 6806 0
-147 -124 0
-147 139 0
147 124 -139 0
-179 125 0
-179 147 0
179 -125 -147 0
-243 126 0
-243 179 0
243 -126 -179 0
-307 -127 0
-307 243 0
307 127 -243 0
-341 -117 0
-341 333 0
341 117 -333 0
-373 118 0
-373 341 0
373 -118 -341 0
-437 119 0
-437 373 0
437 -119 -373 0
-501 -120 0
-501 437 0
501 120 -437 0
-535 -110 0
-535 527 0
535 110 -527 0
-567 111 0
-567 535 0
567 -111 -535 0
-631 112 0
-631 567 0
631 -112 -567 0
-695 -113 0
-695 631 0
695 113 -631 0
-729 -103 0
-729 721 0
729 103 -721 0
-761 104 0
-761 729 0
761 -104 -729 0
-825 105 0
-825 761 0
825 -105 -761 0
-889 -106 0
-889 825 0
889 106 -825 0
-923 -96 0
-923 915 0
923 96 -915 0
-955 97 0
-955 923 0
955 -97 -923 0
-1019 98 0
-1019 955 0
1019 -98 -955 0
-1083 -99 0
-1083 1019 0
1083 99 -1019 0
-1117 -89 0
-1117 1109 0
1117 89 -1109 0
-1149 90 0
-1149 1117 0
1149 -90 -1117 0
-1213 91 0
-1213 1149 0
1213 -91 -1149 0
-1277 -92 0
-1277 1213 0
1277 92 -1213 0
-1311 -82 0
-1311 1303 0
1311 82 -1303 0
-1343 83 0
-1343 1311 0
1343 -83 -1311 0
-1407 84 0
-1407 1343 0
1407 -84 -1343 0
-1471 -85 0
-1471 1407 0
1471 85 -1407 0
-1505 -75 0
-1505 1497 0
1505 75 -1497 0
-1537 76 0
-1537 1505 0
1537 -76 -1505 0
-1601 77 0
-1601 1537 0
1601 -77 -1537 0
-1665 -78 0
-1665 1601 0
1665 78 -1601 0
-1735 -1471 0
-1735 -1665 0
1735 1471 1665 0
-1805 -1277 0
-1805 1735 0
1805 1277 -1735 0
-1875 -1083 0
-1875 1805 0
1875 1083 -1805 0
-1945 -889 0
-1945 1875 0
1945 889 -1875 0
-2015 -695 0
-2015 1945 0
2015 695 -1945 0
-2085 -501 0
-2085 2015 0
2085 501 -2015 0
-2155 -307 0
-2155 2085 0
2155 307 -2085 0
-2335 57 0
-2335 2155 0
2335 -57 -2155 0
-2336 -57 0
-2336 -2155 0
2336 57 2155 0
-2337 -2335 0
-2337 -2336 0
2337 2335 2336 0
56 -6805 0
-56 6805 0
-146 -124 0
-146 138 0
146 124 -138 0
-178 125 0
-178 146 0
178 -125 -146 0
-242 126 0
-242 178 0
242 -126 -178 0
-306 -127 0
-306 242 0
306 127 -242 0
-340 -117 0
-340 332 0
340 117 -332 0
-372 118 0
-372 340 0
372 -118 -340 0
-436 119 0
-436 372 0
436 -119 -372 0
-500 -120 0
-500 436 0
500 120 -436 0
-534 -110 0
-534 526 0
534 110 -526 0
-566 111 0
-566 534 0
566 -111 -534 0
-630 112 0
-630 566 0
630 -112 -566 0
-694 -113 0
-694 630 0
694 113 -630 0
-728 -103 0
-728 720 0
728 103 -720 0
-760 104 0
-760 728 0
760 -104 -728 0
-824 105 0
-824 760 0
824 -105 -760 0
-888 -106 0
-888 824 0
888 106 -824 0
-922 -96 0
-922 914 0
922 96 -914 0
-954 97 0
-954 922 0
954 -97 -922 0
-1018 98 0
-1018 954 0
1018 -98 -954 0
-1082 -99 0
-1082 1018 0
1082 99 -1018 0
-1116 -89 0
-1116 1108 0
1116 89 -1108 0
-1148 90 0
-1148 1116 0
1148 -90 -1116 0
-1212 91 0
-1212 1148 0
1212 -91 -1148 0
-1276 -92 0
-1276 1212 0
1276 92 -1212 0
-1310 -82 0
-1310 1302 0
1310 82 -1302 0
-1342 83 0
-1342 1310 0
1342 -83 -1310 0
-1406 84 0
-1406 1342 0
1406 -84 -1342 0
-1470 -85 0
-1470 1406 0
1470 85 -1406 0
-1504 -75 0
-1504 1496 0
1504 75 -1496 0
-1536 76 0
-1536 1504 0
1536 -76 -1504 0
-1600 77 0
-1600 1536 0
1600 -77 -1536 0
-1664 -78 0
-1664 1600 0
1664 78 -1600 0
-1734 -1470 0
-1734 -1664 0
1734 1470 1664 0
-1804 -1276 0
-1804 1734 0
1804 1276 -1734 0
-1874 -1082 0
-1874 1804 0
1874 1082 -1804 0
-1944 -888 0
-1944 1874 0
1944 888 -1874 0
-2014 -694 0
-2014 1944 0
2014 694 -1944 0
-2084 -500 0
-2084 2014 0
2084 500 -2014 0
-2154 -306 0
-2154 2084 0
2154 306 -2084 0
-2332 56 0
-2332 2154 0
2332 -56 -2154 0
-2333 -56 0
-2333 -2154 0
2333 56 2154 0
-2334 -2332 0
-2334 -2333 0
2334 2332 2333 0
55 -6804 0
-55 6804 0
-177 125 0
-177 145 0
177 -125 -145 0
-241 126 0
-241 177 0
241 -126 -177 0
-305 -127 0
-305 241 0
305 127 -241 0
-371 118 0
-371 339 0
371 -118 -339 0
-435 119 0
-435 371 0
435 -119 -371 0
-499 -120 0
-499 435 0
499 120 -435 0
-565 111 0
-565 533 0
565 -111 -533 0
-629 112 0
-629 565 0
629 -112 -565 0
-693 -113 0
-693 629 0
693 113 -629 0
-759 104 0
-759 727 0
759 -104 -727 0
-823 105 0
-823 759 0
823 -105 -759 0
-887 -106 0
-887 823 0
887 106 -823 0
-953 97 0
-953 921 0
953 -97 -921 0
-1017 98 0
-1017 953 0
1017 -98 -953 0
-1081 -99 0
-1081 1017 0
1081 99 -1017 0
-1147 90 0
-1147 1115 0
1147 -90 -1115 0
-1211 91 0
-1211 1147 0
1211 -91 -1147 0
-1275 -92 0
-1275 1211 0
1275 92 -1211 0
-1341 83 0
-1341 1309 0
1341 -83 -1309 0
-1405 84 0
-1405 1341 0
1405 -84 -1341 0
-1469 -85 0
-1469 1405 0
1469 85 -1405 0
-1535 76 0
-1535 1503 0
1535 -76 -1503 0
-1599 77 0
-1599 1535 0
1599 -77 -1535 0
-1663 -78 0
-1663 1599 0
1663 78 -1599 0
-1733 -1469 0
-1733 -1663 0
1733 1469 1663 0
-1803 -1275 0
-1803 1733 0
1803 1275 -1733 0
-1873 -1081 0
-1873 1803 0
1873 1081 -1803 0
-1943 -887 0
-1943 1873 0
1943 887 -1873 0
-2013 -693 0
-2013 1943 0
2013 693 -1943 0
-2083 -499 0
-2083 2013 0
2083 499 -2013 0
-2153 -305 0
-2153 2083 0
2153 305 -2083 0
-2329 55 0
-2329 2153 0
2329 -55 -2153 0
-2330 -55 0
-2330 -2153 0
2330 55 2153 0
-2331 -2329 0
-2331 -2330 0
2331 2329 2330 0
54 -6803 0
-54 6803 0
-176 125 0
-176 144 0
176 -125 -144 0
-240 126 0
-240 176 0
240 -126 -176 0
-304 -127 0
-304 240 0
304 127 -240 0
-370 118 0
-370 338 0
370 -118 -338 0
-434 119 0
-434 370 0
434 -119 -370 0
-498 -120 0
-498 434 0
498 120 -434 0
-564 111 0
-564 532 0
564 -111 -532 0
-628 112 0
-628 564 0
628 -112 -564 0
-692 -113 0
-692 628 0
692 113 -628 0
-758 104 0
-758 726 0
758 -104 -726 0
-822 105 0
-822 758 0
822 -105 -758 0
-886 -106 0
-886 822 0
886 106 -822 0
-952 97 0
-952 920 0
952 -97 -920 0
-1016 98 0
-1016 952 0
1016 -98 -952 0
-1080 -99 0
-1080 1016 0
1080 99 -1016 0
-1146 90 0
-1146 1114 0
1146 -90 -1114 0
-1210 91 0
-1210 1146 0
1210 -91 -1146 0
-1274 -92 0
-1274 1210 0
1274 92 -1210 0
-1340 83 0
-1340 1308 0
1340 -83 -1308 0
-1404 84 0
-1404 1340 0
1404 -84 -1340 0
-1468 -85 0
-1468 1404 0
1468 85 -1404 0
-1534 76 0
-1534 1502 0
1534 -76 -1502 0
-1598 77 0
-1598 1534 0
1598 -77 -1534 0
-1662 -78 0
-1662 1598 0
1662 78 -1598 0
-1732 -1468 0
-1732 -1662 0
1732 1468 1662 0
-1802 -1274 0
-1802 1732 0
1802 1274 -1732 0
-1872 -1080 0
-1872 1802 0
1872 1080 -1802 0
-1942 -886 0
-1942 1872 0
1942 886 -1872 0
-2012 -692 0
-2012 1942 0
2012 692 -1942 0
-2082 -498 0
-2082 2012 0
2082 498 -2012 0
-2152 -304 0
-2152 2082 0
2152 304 -2082 0
-2326 54 0
-2326 2152 0
2326 -54 -2152 0
-2327 -54 0
-2327 -2152 0
2327 54 2152 0
-2328 -2326 0
-2328 -2327 0
2328 2326 2327 0
53 -6802 0
-53 6802 0
-175 125 0
-175 143 0
175 -125 -143 0
-239 126 0
-239 175 0
239 -126 -175 0
-303 -127 0
-303 239 0
303 127 -239 0
-369 118 0
-369 337 0
369 -118 -337 0
-433 119 0
-433 369 0
433 -119 -369 0
-497 -120 0
-497 433 0
497 120 -433 0
-563 111 0
-563 531 0
563 -111 -531 0
-627 112 0
-627 563 0
627 -112 -563 0
-691 -113 0
-691 627 0
691 113 -627 0
-757 104 0
-757 725 0
757 -104 -725 0
-821 105 0
-821 757 0
821 -105 -757 0
-885 -106 0
-885 821 0
885 106 -821 0
-951 97 0
-951 919 0
951 -97 -919 0
-1015 98 0
-1015 951 0
1015 -98 -951 0
-1079 -99 0
-1079 1015 0
1079 99 -1015 0
-1145 90 0
-1145 1113 0
1145 -90 -1113 0
-1209 91 0
-1209 1145 0
1209 -91 -1145 0
-1273 -92 0
-1273 1209 0
1273 92 -1209 0
-1339 83 0
-1339 1307 0
1339 -83 -1307 0
-1403 84 0
-1403 1339 0
1403 -84 -1339 0
-1467 -85 0
-1467 1403 0
1467 85 -1403 0
-1533 76 0
-1533 1501 0
1533 -76 -1501 0
-1597 77 0
-1597 1533 0
1597 -77 -1533 0
-1661 -78 0
-1661 1597 0
1661 78 -1597 0
-1731 -1467 0
-1731 -1661 0
1731 1467 1661 0
-1801 -1273 0
-1801 1731 0
1801 1273 -1731 0
-1871 -1079 0
-1871 1801 0
1871 1079 -1801 0
-1941 -885 0
-1941 1871 0
1941 885 -1871 0
-2011 -691 0
-2011 1941 0
2011 691 -1941 0
-2081 -497 0
-2081 2011 0
2081 497 -2011 0
-2151 -303 0
-2151 2081 0
2151 303 -2081 0
-2323 53 0
-2323 2151 0
2323 -53 -2151 0
-2324 -53 0
-2324 -2151 0
2324 53 2151 0
-2325 -2323 0
-2325 -2324 0
2325 2323 2324 0
52 -6801 0
-52 6801 0
-174 125 0
-174 142 0
174 -125 -142 0
-238 126 0
-238 174 0
238 -126 -174 0
-302 -127 0
-302 238 0
302 127 -238 0
-368 118 0
-368 336 0
368 -118 -336 0
-432 119 0
-432 368 0
432 -119 -368 0
-496 -120 0
-496 432 0
496 120 -432 0
-562 111 0
-562 530 0
562 -111 -530 0
-626 112 0
-626 562 0
626 -112 -562 0
-690 -113 0
-690 626 0
690 113 -626 0
-756 104 0
-756 724 0
756 -104 -724 0
-820 105 0
-820 756 0
820 -105 -756 0
-884 -106 0
-884 820 0
884 106 -820 0
-950 97 0
-950 918 0
950 -97 -918 0
-1014 98 0
-1014 950 0
1014 -98 -950 0
-1078 -99 0
-1078 1014 0
1078 99 -1014 0
-1144 90 0
-1144 1112 0
1144 -90 -1112 0
-1208 91 0
-1208 1144 0
1208 -91 -1144 0
-1272 -92 0
-1272 1208 0
1272 92 -1208 0
-1338 83 0
-1338 1306 0
1338 -83 -1306 0
-1402 84 0
-1402 1338 0
1402 -84 -1338 0
-1466 -85 0
-1466 1402 0
1466 85 -1402 0
-1532 76 0
-1532 1500 0
1532 -76 -1500 0
-1596 77 0
-1596 1532 0
1596 -77 -1532 0
-1660 -78 0
-1660 1596 0
1660 78 -1596 0
-1730 -1466 0
-1730 -1660 0
1730 1466 1660 0
-1800 -1272 0
-1800 1730 0
1800 1272 -1730 0
-1870 -1078 0
-1870 1800 0
1870 1078 -1800 0
-1940 -884 0
-1940 1870 0
1940 884 -1870 0
-2010 -690 0
-2010 1940 0
2010 690 -1940 0
-2080 -496 0
-2080 2010 0
2080 496 -2010 0
-2150 -302 0
-2150 2080 0
2150 302 -2080 0
-2320 52 0
-2320 2150 0
2320 -52 -2150 0
-2321 -52 0
-2321 -2150 0
2321 52 2150 0
-2322 -2320 0
-2322 -2321 0
2322 2320 2321 0
51 -6800 0
-51 6800 0
-173 125 0
-173 141 0
173 -125 -141 0
-237 126 0
-237 173 0
237 -126 -173 0
-301 -127 0
-301 237 0
301 127 -237 0
-367 118 0
-367 335 0
367 -118 -335 0
-431 119 0
-431 367 0
431 -119 -367 0
-495 -120 0
-495 431 0
495 120 -431 0
-561 111 0
-561 529 0
561 -111 -529 0
-625 112 0
-625 561 0
625 -112 -561 0
-689 -113 0
-689 625 0
689 113 -625 0
-755 104 0
-755 723 0
755 -104 -723 0
-819 105 0
-819 755 0
819 -105 -755 0
-883 -106 0
-883 819 0
883 106 -819 0
-949 97 0
-949 917 0
949 -97 -917 0
-1013 98 0
-1013 949 0
1013 -98 -949 0
-1077 -99 0
-1077 1013 0
1077 99 -1013 0
-1143 90 0
-1143 1111 0
1143 -90 -1111 0
-1207 91 0
-1207 1143 0
1207 -91 -1143 0
-1271 -92 0
-1271 1207 0
1271 92 -1207 0
-1337 83 0
-1337 1305 0
1337 -83 -1305 0
-1401 84 0
-1401 1337 0
1401 -84 -1337 0
-1465 -85 0
-1465 1401 0
1465 85 -1401 0
-1531 76 0
-1531 1499 0
1531 -76 -1499 0
-1595 77 0
-1595 1531 0
1595 -77 -1531 0
-1659 -78 0
-1659 1595 0
1659 78 -1595 0
-1729 -1465 0
-1729 -1659 0
1729 1465 1659 0
-1799 -1271 0
-1799 1729 0
1799 1271 -1729 0
-1869 -1077 0
-1869 1799 0
1869 1077 -1799 0
-1939 -883 0
-1939 1869 0
1939 883 -1869 0
-2009 -689 0
-2009 1939 0
2009 689 -1939 0
-2079 -495 0
-2079 2009 0
2079 495 -2009 0
-2149 -301 0
-2149 2079 0
2149 301 -2079 0
-2317 51 0
-2317 2149 0
2317 -51 -2149 0
-2318 -51 0
-2318 -2149 0
2318 51 2149 0
-2319 -2317 0
-2319 -2318 0
2319 2317 2318 0
50 -6799 0
-50 6799 0
-172 125 0
-172 140 0
172 -125 -140 0
-236 126 0
-236 172 0
236 -126 -172 0
-300 -127 0
-300 236 0
300 127 -236 0
-366 118 0
-366 334 0
366 -118 -334 0
-430 119 0
-430 366 0
430 -119 -366 0
-494 -120 0
-494 430 0
494 120 -430 0
-560 111 0
-560 528 0
560 -111 -528 0
-624 112 0
-624 560 0
624 -112 -560 0
-688 -113 0
-688 624 0
688 113 -624 0
-754 104 0
-754 722 0
754 -104 -722 0
-818 105 0
-818 754 0
818 -105 -754 0
-882 -106 0
-882 818 0
882 106 -818 0
-948 97 0
-948 916 0
948 -97 -916 0
-1012 98 0
-1012 948 0
1012 -98 -948 0
-1076 -99 0
-1076 1012 0
1076 99 -1012 0
-1142 90 0
-1142 1110 0
1142 -90 -1110 0
-1206 91 0
-1206 1142 0
1206 -91 -1142 0
-1270 -92 0
-1270 1206 0
1270 92 -1206 0
-1336 83 0
-1336 1304 0
1336 -83 -1304 0
-1400 84 0
-1400 1336 0
1400 -84 -1336 0
-1464 -85 0
-1464 1400 0
1464 85 -1400 0
-1530 76 0
-1530 1498 0
1530 -76 -1498 0
-1594 77 0
-1594 1530 0
1594 -77 -1530 0
-1658 -78 0
-1658 1594 0
1658 78 -1594 0
-1728 -1464 0
-1728 -1658 0
1728 1464 1658 0
-1798 -1270 0
-1798 1728 0
1798 1270 -1728 0
-1868 -1076 0
-1868 1798 0
1868 1076 -1798 0
-1938 -882 0
-1938 1868 0
1938 882 -1868 0
-2008 -688 0
-2008 1938 0
2008 688 -1938 0
-2078 -494 0
-2078 2008 0
2078 494 -2008 0
-2148 -300 0
-2148 2078 0
2148 300 -2078 0
-2314 50 0
-2314 2148 0
2314 -50 -2148 0
-2315 -50 0
-2315 -2148 0
2315 50 2148 0
-2316 -2314 0
-2316 -2315 0
2316 2314 2315 0
49 -6798 0
-49 6798 0
-171 -125 0
-171 155 0
171 125 -155 0
-235 126 0
-235 171 0
235 -126 -171 0
-299 -127 0
-299 235 0
299 127 -235 0
-365 -118 0
-365 349 0
365 118 -349 0
-429 119 0
-429 365 0
429 -119 -365 0
-493 -120 0
-493 429 0
493 120 -429 0
-559 -111 0
-559 543 0
559 111 -543 0
-623 112 0
-623 559 0
623 -112 -559 0
-687 -113 0
-687 623 0
687 113 -623 0
-753 -104 0
-753 737 0
753 104 -737 0
-817 105 0
-817 753 0
817 -105 -753 0
-881 -106 0
-881 817 0
881 106 -817 0
-947 -97 0
-947 931 0
947 97 -931 0
-1011 98 0
-1011 947 0
1011 -98 -947 0
-1075 -99 0
-1075 1011 0
1075 99 -1011 0
-1141 -90 0
-1141 1125 0
1141 90 -1125 0
-1205 91 0
-1205 1141 0
1205 -91 -1141 0
-1269 -92 0
-1269 1205 0
1269 92 -1205 0
-1335 -83 0
-1335 1319 0
1335 83 -1319 0
-1399 84 0
-1399 1335 0
1399 -84 -1335 0
-1463 -85 0
-1463 1399 0
1463 85 -1399 0
-1529 -76 0
-1529 1513 0
1529 76 -1513 0
-1593 77 0
-1593 1529 0
1593 -77 -1529 0
-1657 -78 0
-1657 1593 0
1657 78 -1593 0
-1727 -1463 0
-1727 -1657 0
1727 1463 1657 0
-1797 -1269 0
-1797 1727 0
1797 1269 -1727 0
-1867 -1075 0
-1867 1797 0
1867 1075 -1797 0
-1937 -881 0
-1937 1867 0
1937 881 -1867 0
-2007 -687 0
-2007 1937 0
2007 687 -1937 0
-2077 -493 0
-2077 2007 0
2077 493 -2007 0
-2147 -299 0
-2147 2077 0
2147 299 -2077 0
-2311 49 0
-2311 2147 0
2311 -49 -2147 0
-2312 -49 0
-2312 -2147 0
2312 49 2147 0
-2313 -2311 0
-2313 -2312 0
2313 2311 2312 0
48 -6797 0
-48 6797 0
-170 -125 0
-170 154 0
170 125 -154 0
-234 126 0
-234 170 0
234 -126 -170 0
-298 -127 0
-298 234 0
298 127 -234 0
-364 -118 0
-364 348 0
364 118 -348 0
-428 119 0
-428 364 0
428 -119 -364 0
-492 -120 0
-492 428 0
492 120 -428 0
-558 -111 0
-558 542 0
558 111 -542 0
-622 112 0
-622 558 0
622 -112 -558 0
-686 -113 0
-686 622 0
686 113 -622 0
-752 -104 0
-752 736 0
752 104 -736 0
-816 105 0
-816 752 0
816 -105 -752 0
-880 -106 0
-880 816 0
880 106 -816 0
-946 -97 0
-946 930 0
946 97 -930 0
-1010 98 0
-1010 946 0
1010 -98 -946 0
-1074 -99 0
-1074 1010 0
1074 99 -1010 0
-1140 -90 0
-1140 1124 0
1140 90 -1124 0
-1204 91 0
-1204 1140 0
1204 -91 -1140 0
-1268 -92 0
-1268 1204 0
1268 92 -1204 0
-1334 -83 0
-1334 1318 0
1334 83 -1318 0
-1398 84 0
-1398 1334 0
1398 -84 -1334 0
-1462 -85 0
-1462 1398 0
1462 85 -1398 0
-1528 -76 0
-1528 1512 0
1528 76 -1512 0
-1592 77 0
-1592 1528 0
1592 -77 -1528 0
-1656 -78 0
-1656 1592 0
1656 78 -1592 0
-1726 -1462 0
-1726 -1656 0
1726 1462 1656 0
-1796 -1268 0
-1796 1726 0
1796 1268 -1726 0
-1866 -1074 0
-1866 1796 0
1866 1074 -1796 0
-1936 -880 0
-1936 1866 0
1936 880 -1866 0
-2006 -686 0
-2006 1936 0
2006 686 -1936 0
-2076 -492 0
-2076 2006 0
2076 492 -2006 0
-2146 -298 0
-2146 2076 0
2146 298 -2076 0
-2308 48 0
-2308 2146 0
2308 -48 -2146 0
-2309 -48 0
-2309 -2146 0
2309 48 2146 0
-2310 -2308 0
-2310 -2309 0
2310 2308 2309 0
47 -6796 0
-47 6796 0
-169 -125 0
-169 153 0
169 125 -153 0
-233 126 0
-233 169 0
233 -126 -169 0
-297 -127 0
-297 233 0
297 127 -233 0
-363 -118 0
-363 347 0
363 118 -347 0
-427 119 0
-427 363 0
427 -119 -363 0
-491 -120 0
-491 427 0
491 120 -427 0
-557 -111 0
-557 541 0
557 111 -541 0
-621 112 0
-621 557 0
621 -112 -557 0
-685 -113 0
-685 621 0
685 113 -621 0
-751 -104 0
-751 735 0
751 104 -735 0
-815 105 0
-815 751 0
815 -105 -751 0
-879 -106 0
-879 815 0
879 106 -815 0
-945 -97 0
-945 929 0
945 97 -929 0
-1009 98 0
-1009 945 0
1009 -98 -945 0
-1073 -99 0
-1073 1009 0
1073 99 -1009 0
-1139 -90 0
-1139 1123 0
1139 90 -1123 0
-1203 91 0
-1203 1139 0
1203 -91 -1139 0
-1267 -92 0
-1267 1203 0
1267 92 -1203 0
-1333 -83 0
-1333 1317 0
1333 83 -1317 0
-1397 84 0
-1397 1333 0
1397 -84 -1333 0
-1461 -85 0
-1461 1397 0
1461 85 -1397 0
-1527 -76 0
-1527 1511 0
1527 76 -1511 0
-1591 77 0
-1591 1527 0
1591 -77 -1527 0
-1655 -78 0
-1655 1591 0
1655 78 -1591 0
-1725 -1461 0
-1725 -1655 0
1725 1461 1655 0
-1795 -1267 0
-1795 1725 0
1795 1267 -1725 0
-1865 -1073 0
-1865 1795 0
1865 1073 -1795 0
-1935 -879 0
-1935 1865 0
1935 879 -1865 0
-2005 -685 0
-2005 1935 0
2005 685 -1935 0
-2075 -491 0
-2075 2005 0
2075 491 -2005 0
-2145 -297 0
-2145 2075 0
2145 297 -2075 0
-2305 47 0
-2305 2145 0
2305 -47 -2145 0
-2306 -47 0
-2306 -2145 0
2306 47 2145 0
-2307 -2305 0
-2307 -2306 0
2307 2305 2306 0
46 -6795 0
-46 6795 0
-168 -125 0
-168 152 0
168 125 -152 0
-232 126 0
-232 168 0
232 -126 -168 0
-296 -127 0
-296 232 0
296 127 -232 0
-362 -118 0
-362 346 0
362 118 -346 0
-426 119 0
-426 362 0
426 -119 -362 0
-490 -120 0
-490 426 0
490 120 -426 0
-556 -111 0
-556 540 0
556 111 -540 0
-620 112 0
-620 556 0
620 -112 -556 0
-684 -113 0
-684 620 0
684 113 -620 0
-750 -104 0
-750 734 0
750 104 -734 0
-814 105 0
-814 750 0
814 -105 -750 0
-878 -106 0
-878 814 0
878 106 -814 0
-944 -97 0
-944 928 0
944 97 -928 0
-1008 98 0
-1008 944 0
1008 -98 -944 0
-1072 -99 0
-1072 1008 0
1072 99 -1008 0
-1138 -90 0
-1138 1122 0
1138 90 -1122 0
-1202 91 0
-1202 1138 0
1202 -91 -1138 0
-1266 -92 0
-1266 1202 0
1266 92 -1202 0
-1332 -83 0
-1332 1316 0
1332 83 -1316 0
-1396 84 0
-1396 1332 0
1396 -84 -1332 0
-1460 -85 0
-1460 1396 0
1460 85 -1396 0
-1526 -76 0
-1526 1510 0
1526 76 -1510 0
-1590 77 0
-1590 1526 0
1590 -77 -1526 0
-1654 -78 0
-1654 1590 0
1654 78 -1590 0
-1724 -1460 0
-1724 -1654 0
1724 1460 1654 0
-1794 -1266 0
-1794 1724 0
1794 1266 -1724 0
-1864 -1072 0
-1864 1794 0
1864 1072 -1794 0
-1934 -878 0
-1934 1864 0
1934 878 -1864 0
-2004 -684 0
-2004 1934 0
2004 684 -1934 0
-2074 -490 0
-2074 2004 0
2074 490 -2004 0
-2144 -296 0
-2144 2074 0
2144 296 -2074 0
-2302 46 0
-2302 2144 0
2302 -46 -2144 0
-2303 -46 0
-2303 -2144 0
2303 46 2144 0
-2304 -2302 0
-2304 -2303 0
2304 2302 2303 0
45 -6794 0
-45 6794 0
-167 -125 0
-167 151 0
167 125 -151 0
-231 126 0
-231 167 0
231 -126 -167 0
-295 -127 0
-295 231 0
295 127 -231 0
-361 -118 0
-361 345 0
361 118 -345 0
-425 119 0
-425 361 0
425 -119 -361 0
-489 -120 0
-489 425 0
489 120 -425 0
-555 -111 0
-555 539 0
555 111 -539 0
-619 112 0
-619 555 0
619 -112 -555 0
-683 -113 0
-683 619 0
683 113 -619 0
-749 -104 0
-749 733 0
749 104 -733 0
-813 105 0
-813 749 0
813 -105 -749 0
-877 -106 0
-877 813 0
877 106 -813 0
-943 -97 0
-943 927 0
943 97 -927 0
-1007 98 0
-1007 943 0
1007 -98 -943 0
-1071 -99 0
-1071 1007 0
1071 99 -1007 0
-1137 -90 0
-1137 1121 0
1137 90 -1121 0
-1201 91 0
-1201 1137 0
1201 -91 -1137 0
-1265 -92 0
-1265 1201 0
1265 92 -1201 0
-1331 -83 0
-1331 1315 0
1331 83 -1315 0
-1395 84 0
-1395 1331 0
1395 -84 -1331 0
-1459 -85 0
-1459 1395 0
1459 85 -1395 0
-1525 -76 0
-1525 1509 0
1525 76 -1509 0
-1589 77 0
-1589 1525 0
1589 -77 -1525 0
-1653 -78 0
-1653 1589 0
1653 78 -1589 0
-1723 -1459 0
-1723 -1653 0
1723 1459 1653 0
-1793 -1265 0
-1793 1723 0
1793 1265 -1723 0
-1863 -1071 0
-1863 1793 0
1863 1071 -1793 0
-1933 -877 0
-1933 1863 0
1933 877 -1863 0
-2003 -683 0
-2003 1933 0
2003 683 -1933 0
-2073 -489 0
-2073 2003 0
2073 489 -2003 0
-2143 -295 0
-2143 2073 0
2143 295 -2073 0
-2299 45 0
-2299 2143 0
2299 -45 -2143 0
-2300 -45 0
-2300 -2143 0
2300 45 2143 0
-2301 -2299 0
-2301 -2300 0
2301 2299 2300 0
44 -6793 0
-44 6793 0
-166 -125 0
-166 150 0
166 125 -150 0
-230 126 0
-230 166 0
230 -126 -166 0
-294 -127 0
-294 230 0
294 127 -230 0
-360 -118 0
-360 344 0
360 118 -344 0
-424 119 0
-424 360 0
424 -119 -360 0
-488 -120 0
-488 424 0
488 120 -424 0
-554 -111 0
-554 538 0
554 111 -538 0
-618 112 0
-618 554 0
618 -112 -554 0
-682 -113 0
-682 618 0
682 113 -618 0
-748 -104 0
-748 732 0
748 104 -732 0
-812 105 0
-812 748 0
812 -105 -748 0
-876 -106 0
-876 812 0
876 106 -812 0
-942 -97 0
-942 926 0
942 97 -926 0
-1006 98 0
-1006 942 0
1006 -98 -942 0
-1070 -99 0
-1070 1006 0
1070 99 -1006 0
-1136 -90 0
-1136 1120 0
1136 90 -1120 0
-1200 91 0
-1200 1136 0
1200 -91 -1136 0
-1264 -92 0
-1264 1200 0
1264 92 -1200 0
-1330 -83 0
-1330 1314 0
1330 83 -1314 0
-1394 84 0
-1394 1330 0
1394 -84 -1330 0
-1458 -85 0
-1458 1394 0
1458 85 -1394 0
-1524 -76 0
-1524 1508 0
1524 76 -1508 0
-1588 77 0
-1588 1524 0
1588 -77 -1524 0
-1652 -78 0
-1652 1588 0
1652 78 -1588 0
-1722 -1458 0
-1722 -1652 0
1722 1458 1652 0
-1792 -1264 0
-1792 1722 0
1792 1264 -1722 0
-1862 -1070 0
-1862 1792 0
1862 1070 -1792 0
-1932 -876 0
-1932 1862 0
1932 876 -1862 0
-2002 -682 0
-2002 1932 0
2002 682 -1932 0
-2072 -488 0
-2072 2002 0
2072 488 -2002 0
-2142 -294 0
-2142 2072 0
2142 294 -2072 0
-2296 44 0
-2296 2142 0
2296 -44 -2142 0
-2297 -44 0
-2297 -2142 0
2297 44 2142 0
-2298 -2296 0
-2298 -2297 0
2298 2296 2297 0
43 -6792 0
-43 6792 0
-165 -125 0
-165 149 0
165 125 -149 0
-229 126 0
-229 165 0
229 -126 -165 0
-293 -127 0
-293 229 0
293 127 -229 0
-359 -118 0
-359 343 0
359 118 -343 0
-423 119 0
-423 359 0
423 -119 -359 0
-487 -120 0
-487 423 0
487 120 -423 0
-553 -111 0
-553 537 0
553 111 -537 0
-617 112 0
-617 553 0
617 -112 -553 0
-681 -113 0
-681 617 0
681 113 -617 0
-747 -104 0
-747 731 0
747 104 -731 0
-811 105 0
-811 747 0
811 -105 -747 0
-875 -106 0
-875 811 0
875 106 -811 0
-941 -97 0
-941 925 0
941 97 -925 0
-1005 98 0
-1005 941 0
1005 -98 -941 0
-1069 -99 0
-1069 1005 0
1069 99 -1005 0
-1135 -90 0
-1135 1119 0
1135 90 -1119 0
-1199 91 0
-1199 1135 0
1199 -91 -1135 0
-1263 -92 0
-1263 1199 0
1263 92 -1199 0
-1329 -83 0
-1329 1313 0
1329 83 -1313 0
-1393 84 0
-1393 1329 0
1393 -84 -1329 0
-1457 -85 0
-1457 1393 0
1457 85 -1393 0
-1523 -76 0
-1523 1507 0
1523 76 -1507 0
-1587 77 0
-1587 1523 0
1587 -77 -1523 0
-1651 -78 0
-1651 1587 0
1651 78 -1587 0
-1721 -1457 0
-1721 -1651 0
1721 1457 1651 0
-1791 -1263 0
-1791 1721 0
1791 1263 -1721 0
-1861 -1069 0
-1861 1791 0
1861 1069 -1791 0
-1931 -875 0
-1931 1861 0
1931 875 -1861 0
-2001 -681 0
-2001 1931 0
2001 681 -1931 0
-2071 -487 0
-2071 2001 0
2071 487 -2001 0
-2141 -293 0
-2141 2071 0
2141 293 -2071 0
-2293 43 0
-2293 2141 0
2293 -43 -2141 0
-2294 -43 0
-2294 -2141 0
2294 43 2141 0
-2295 -2293 0
-2295 -2294 0
2295 2293 2294 0
42 -6791 0
-42 6791 0
-164 -125 0
-164 148 0
164 125 -148 0
-228 126 0
-228 164 0
228 -126 -164 0
-292 -127 0
-292 228 0
292 127 -228 0
-358 -118 0
-358 342 0
358 118 -342 0
-422 119 0
-422 358 0
422 -119 -358 0
-486 -120 0
-486 422 0
486 120 -422 0
-552 -111 0
-552 536 0
552 111 -536 0
-616 112 0
-616 552 0
616 -112 -552 0
-680 -113 0
-680 616 0
680 113 -616 0
-746 -104 0
-746 730 0
746 104 -730 0
-810 105 0
-810 746 0
810 -105 -746 0
-874 -106 0
-874 810 0
874 106 -810 0
-940 -97 0
-940 924 0
940 97 -924 0
-1004 98 0
-1004 940 0
1004 -98 -940 0
-1068 -99 0
-1068 1004 0
1068 99 -1004 0
-1134 -90 0
-1134 1118 0
1134 90 -1118 0
-1198 91 0
-1198 1134 0
1198 -91 -1134 0
-1262 -92 0
-1262 1198 0
1262 92 -1198 0
-1328 -83 0
-1328 1312 0
1328 83 -1312 0
-1392 84 0
-1392 1328 0
1392 -84 -1328 0
-1456 -85 0
-1456 1392 0
1456 85 -1392 0
-1522 -76 0
-1522 1506 0
1522 76 -1506 0
-1586 77 0
-1586 1522 0
1586 -77 -1522 0
-1650 -78 0
-1650 1586 0
1650 78 -1586 0
-1720 -1456 0
-1720 -1650 0
1720 1456 1650 0
-1790 -1262 0
-1790 1720 0
1790 1262 -1720 0
-1860 -1068 0
-1860 1790 0
1860 1068 -1790 0
-1930 -874 0
-1930 1860 0
1930 874 -1860 0
-2000 -680 0
-2000 1930 0
2000 680 -1930 0
-2070 -486 0
-2070 2000 0
2070 486 -2000 0
-2140 -292 0
-2140 2070 0
2140 292 -2070 0
-2290 42 0
-2290 2140 0
2290 -42 -2140 0
-2291 -42 0
-2291 -2140 0
2291 42 2140 0
-2292 -2290 0
-2292 -2291 0
2292 2290 2291 0
41 -6790 0
-41 6790 0
-163 -125 0
-163 147 0
163 125 -147 0
-227 126 0
-227 163 0
227 -126 -163 0
-291 -127 0
-291 227 0
291 127 -227 0
-357 -118 0
-357 341 0
357 118 -341 0
-421 119 0
-421 357 0
421 -119 -357 0
-485 -120 0
-485 421 0
485 120 -421 0
-551 -111 0
-551 535 0
551 111 -535 0
-615 112 0
-615 551 0
615 -112 -551 0
-679 -113 0
-679 615 0
679 113 -615 0
-745 -104 0
-745 729 0
745 104 -729 0
-809 105 0
-809 745 0
809 -105 -745 0
-873 -106 0
-873 809 0
873 106 -809 0
-939 -97 0
-939 923 0
939 97 -923 0
-1003 98 0
-1003 939 0
1003 -98 -939 0
-1067 -99 0
-1067 1003 0
1067 99 -1003 0
-1133 -90 0
-1133 1117 0
1133 90 -1117 0
-1197 91 0
-1197 1133 0
1197 -91 -1133 0
-1261 -92 0
-1261 1197 0
1261 92 -1197 0
-1327 -83 0
-1327 1311 0
1327 83 -1311 0
-1391 84 0
-1391 1327 0
1391 -84 -1327 0
-1455 -85 0
-1455 1391 0
1455 85 -1391 0
-1521 -76 0
-1521 1505 0
1521 76 -1505 0
-1585 77 0
-1585 1521 0
1585 -77 -1521 0
-1649 -78 0
-1649 1585 0
1649 78 -1585 0
-1719 -1455 0
-1719 -1649 0
1719 1455 1649 0
-1789 -1261 0
-1789 1719 0
1789 1261 -1719 0
-1859 -1067 0
-1859 1789 0
1859 1067 -1789 0
-1929 -873 0
-1929 1859 0
1929 873 -1859 0
-1999 -679 0
-1999 1929 0
1999 679 -1929 0
-2069 -485 0
-2069 1999 0
2069 485 -1999 0
-2139 -291 0
-2139 2069 0
2139 291 -2069 0
-2287 41 0
-2287 2139 0
2287 -41 -2139 0
-2288 -41 0
-2288 -2139 0
2288 41 2139 0
-2289 -2287 0
-2289 -2288 0
2289 2287 2288 0
40 -6789 0
-40 6789 0
-162 -125 0
-162 146 0
162 125 -146 0
-226 126 0
-226 162 0
226 -126 -162 0
-290 -127 0
-290 226 0
290 127 -226 0
-356 -118 0
-356 340 0
356 118 -340 0
-420 119 0
-420 356 0
420 -119 -356 0
-484 -120 0
-484 420 0
484 120 -420 0
-550 -111 0
-550 534 0
550 111 -534 0
-614 112 0
-614 550 0
614 -112 -550 0
-678 -113 0
-678 614 0
678 113 -614 0
-744 -104 0
-744 728 0
744 104 -728 0
-808 105 0
-808 744 0
808 -105 -744 0
-872 -106 0
-872 808 0
872 106 -808 0
-938 -97 0
-938 922 0
938 97 -922 0
-1002 98 0
-1002 938 0
1002 -98 -938 0
-1066 -99 0
-1066 1002 0
1066 99 -1002 0
-1132 -90 0
-1132 1116 0
1132 90 -1116 0
-1196 91 0
-1196 1132 0
1196 -91 -1132 0
-1260 -92 0
-1260 1196 0
1260 92 -1196 0
-1326 -83 0
-1326 1310 0
1326 83 -1310 0
-1390 84 0
-1390 1326 0
1390 -84 -1326 0
-1454 -85 0
-1454 1390 0
1454 85 -1390 0
-1520 -76 0
-1520 1504 0
1520 76 -1504 0
-1584 77 0
-1584 1520 0
1584 -77 -1520 0
-1648 -78 0
-1648 1584 0
1648 78 -1584 0
-1718 -1454 0
-1718 -1648 0
1718 1454 1648 0
-1788 -1260 0
-1788 1718 0
1788 1260 -1718 0
-1858 -1066 0
-1858 1788 0
1858 1066 -1788 0
-1928 -872 0
-1928 1858 0
1928 872 -1858 0
-1998 -678 0
-1998 1928 0
1998 678 -1928 0
-2068 -484 0
-2068 1998 0
2068 484 -1998 0
-2138 -290 0
-2138 2068 0
2138 290 -2068 0
-2284 40 0
-2284 2138 0
2284 -40 -2138 0
-2285 -40 0
-2285 -2138 0
2285 40 2138 0
-2286 -2284 0
-2286 -2285 0
2286 2284 2285 0
39 -6788 0
-39 6788 0
-225 126 0
-225 161 0
225 -126 -161 0
-289 -127 0
-289 225 0
289 127 -225 0
-419 119 0
-419 355 0
419 -119 -355 0
-483 -120 0
-483 419 0
483 120 -419 0
-613 112 0
-613 549 0
613 -112 -549 0
-677 -113 0
-677 613 0
677 113 -613 0
-807 105 0
-807 743 0
807 -105 -743 0
-871 -106 0
-871 807 0
871 106 -807 0
-1001 98 0
-1001 937 0
1001 -98 -937 0
-1065 -99 0
-1065 1001 0
1065 99 -1001 0
-1195 91 0
-1195 1131 0
1195 -91 -1131 0
-1259 -92 0
-1259 1195 0
1259 92 -1195 0
-1389 84 0
-1389 1325 0
1389 -84 -1325 0
-1453 -85 0
-1453 1389 0
1453 85 -1389 0
-1583 77 0
-1583 1519 0
1583 -77 -1519 0
-1647 -78 0
-1647 1583 0
1647 78 -1583 0
-1717 -1453 0
-1717 -1647 0
1717 1453 1647 0
-1787 -1259 0
-1787 1717 0
1787 1259 -1717 0
-1857 -1065 0
-1857 1787 0
1857 1065 -1787 0
-1927 -871 0
-1927 1857 0
1927 871 -1857 0
-1997 -677 0
-1997 1927 0
1997 677 -1927 0
-2067 -483 0
-2067 1997 0
2067 483 -1997 0
-2137 -289 0
-2137 2067 0
2137 289 -2067 0
-2281 39 0
-2281 2137 0
2281 -39 -2137 0
-2282 -39 0
-2282 -2137 0
2282 39 2137 0
-2283 -2281 0
-2283 -2282 0
2283 2281 2282 0
38 -6787 0
-38 6787 0
-224 126 0
-224 160 0
224 -126 -160 0
-288 -127 0
-288 224 0
288 127 -224 0
-418 119 0
-418 354 0
418 -119 -354 0
-482 -120 0
-482 418 0
482 120 -418 0
-612 112 0
-612 548 0
612 -112 -548 0
-676 -113 0
-676 612 0
676 113 -612 0
-806 105 0
-806 742 0
806 -105 -742 0
-870 -106 0
-870 806 0
870 106 -806 0
-1000 98 0
-1000 936 0
1000 -98 -936 0
-1064 -99 0
-1064 1000 0
1064 99 -1000 0
-1194 91 0
-1194 1130 0
1194 -91 -1130 0
-1258 -92 0
-1258 1194 0
1258 92 -1194 0
-1388 84 0
-1388 1324 0
1388 -84 -1324 0
-1452 -85 0
-1452 1388 0
1452 85 -1388 0
-1582 77 0
-1582 1518 0
1582 -77 -1518 0
-1646 -78 0
-1646 1582 0
1646 78 -1582 0
-1716 -1452 0
-1716 -1646 0
1716 1452 1646 0
-1786 -1258 0
-1786 1716 0
1786 1258 -1716 0
-1856 -1064 0
-1856 1786 0
1856 1064 -1786 0
-1926 -870 0
-1926 1856 0
1926 870 -1856 0
-1996 -676 0
-1996 1926 0
1996 676 -1926 0
-2066 -482 0
-2066 1996 0
2066 482 -1996 0
-2136 -288 0
-2136 2066 0
2136 288 -2066 0
-2278 38 0
-2278 2136 0
2278 -38 -2136 0
-2279 -38 0
-2279 -2136 0
2279 38 2136 0
-2280 -2278 0
-2280 -2279 0
2280 2278 2279 0
37 -6786 0
-37 6786 0
-223 126 0
-223 159 0
223 -126 -159 0
-287 -127 0
-287 223 0
287 127 -223 0
-417 119 0
-417 353 0
417 -119 -353 0
-481 -120 0
-481 417 0
481 120 -417 0
-611 112 0
-611 547 0
611 -112 -547 0
-675 -113 0
-675 611 0
675 113 -611 0
-805 105 0
-805 741 0
805 -105 -741 0
-869 -106 0
-869 805 0
869 106 -805 0
-999 98 0
-999 935 0
999 -98 -935 0
-1063 -99 0
-1063 999 0
1063 99 -999 0
-1193 91 0
-1193 1129 0
1193 -91 -1129 0
-1257 -92 0
-1257 1193 0
1257 92 -1193 0
-1387 84 0
-1387 1323 0
1387 -84 -1323 0
-1451 -85 0
-1451 1387 0
1451 85 -1387 0
-1581 77 0
-1581 1517 0
1581 -77 -1517 0
-1645 -78 0
-1645 1581 0
1645 78 -1581 0
-1715 -1451 0
-1715 -1645 0
1715 1451 1645 0
-1785 -1257 0
-1785 1715 0
1785 1257 -1715 0
-1855 -1063 0
-1855 1785 0
1855 1063 -1785 0
-1925 -869 0
-1925 1855 0
1925 869 -1855 0
-1995 -675 0
-1995 1925 0
1995 675 -1925 0
-2065 -481 0
-2065 1995 0
2065 481 -1995 0
-2135 -287 0
-2135 2065 0
2135 287 -2065 0
-2275 37 0
-2275 2135 0
2275 -37 -2135 0
-2276 -37 0
-2276 -2135 0
2276 37 2135 0
-2277 -2275 0
-2277 -2276 0
2277 2275 2276 0
36 -6785 0
-36 6785 0
-222 126 0
-222 158 0
222 -126 -158 0
-286 -127 0
-286 222 0
286 127 -222 0
-416 119 0
-416 352 0
416 -119 -352 0
-480 -120 0
-480 416 0
480 120 -416 0
-610 112 0
-610 546 0
610 -112 -546 0
-674 -113 0
-674 610 0
674 113 -610 0
-804 105 0
-804 740 0
804 -105 -740 0
-868 -106 0
-868 804 0
868 106 -804 0
-998 98 0
-998 934 0
998 -98 -934 0
-1062 -99 0
-1062 998 0
1062 99 -998 0
-1192 91 0
-1192 1128 0
1192 -91 -1128 0
-1256 -92 0
-1256 1192 0
1256 92 -1192 0
-1386 84 0
-1386 1322 0
1386 -84 -1322 0
-1450 -85 0
-1450 1386 0
1450 85 -1386 0
-1580 77 0
-1580 1516 0
1580 -77 -1516 0
-1644 -78 0
-1644 1580 0
1644 78 -1580 0
-1714 -1450 0
-1714 -1644 0
1714 1450 1644 0
-1784 -1256 0
-1784 1714 0
1784 1256 -1714 0
-1854 -1062 0
-1854 1784 0
1854 1062 -1784 0
-1924 -868 0
-1924 1854 0
1924 868 -1854 0
-1994 -674 0
-1994 1924 0
1994 674 -1924 0
-2064 -480 0
-2064 1994 0
2064 480 -1994 0
-2134 -286 0
-2134 2064 0
2134 286 -2064 0
-2272 36 0
-2272 2134 0
2272 -36 -2134 0
-2273 -36 0
-2273 -2134 0
2273 36 2134 0
-2274 -2272 0
-2274 -2273 0
2274 2272 2273 0
35 -6784 0
-35 6784 0
-221 126 0
-221 157 0
221 -126 -157 0
-285 -127 0
-285 221 0
285 127 -221 0
-415 119 0
-415 351 0
415 -119 -351 0
-479 -120 0
-479 415 0
479 120 -415 0
-609 112 0
-609 545 0
609 -112 -545 0
-673 -113 0
-673 609 0
673 113 -609 0
-803 105 0
-803 739 0
803 -105 -739 0
-867 -106 0
-867 803 0
867 106 -803 0
-997 98 0
-997 933 0
997 -98 -933 0
-1061 -99 0
-1061 997 0
1061 99 -997 0
-1191 91 0
-1191 1127 0
1191 -91 -1127 0
-1255 -92 0
-1255 1191 0
1255 92 -1191 0
-1385 84 0
-1385 1321 0
1385 -84 -1321 0
-1449 -85 0
-1449 1385 0
1449 85 -1385 0
-1579 77 0
-1579 1515 0
1579 -77 -1515 0
-1643 -78 0
-1643 1579 0
1643 78 -1579 0
-1713 -1449 0
-1713 -1643 0
1713 1449 1643 0
-1783 -1255 0
-1783 1713 0
1783 1255 -1713 0
-1853 -1061 0
-1853 1783 0
1853 1061 -1783 0
-1923 -867 0
-1923 1853 0
1923 867 -1853 0
-1993 -673 0
-1993 1923 0
1993 673 -1923 0
-2063 -479 0
-2063 1993 0
2063 479 -1993 0
-2133 -285 0
-2133 2063 0
2133 285 -2063 0
-2269 35 0
-2269 2133 0
2269 -35 -2133 0
-2270 -35 0
-2270 -2133 0
2270 35 2133 0
-2271 -2269 0
-2271 -2270 0
2271 2269 2270 0
34 -6783 0
-34 6783 0
-220 126 0
-220 156 0
220 -126 -156 0
-284 -127 0
-284 220 0
284 127 -220 0
-414 119 0
-414 350 0
414 -119 -350 0
-478 -120 0
-478 414 0
478 120 -414 0
-608 112 0
-608 544 0
608 -112 -544 0
-672 -113 0
-672 608 0
672 113 -608 0
-802 105 0
-802 738 0
802 -105 -738 0
-866 -106 0
-866 802 0
866 106 -802 0
-996 98 0
-996 932 0
996 -98 -932 0
-1060 -99 0
-1060 996 0
1060 99 -996 0
-1190 91 0
-1190 1126 0
1190 -91 -1126 0
-1254 -92 0
-1254 1190 0
1254 92 -1190 0
-1384 84 0
-1384 1320 0
1384 -84 -1320 0
-1448 -85 0
-1448 1384 0
1448 85 -1384 0
-1578 77 0
-1578 1514 0
1578 -77 -1514 0
-1642 -78 0
-1642 1578 0
1642 78 -1578 0
-1712 -1448 0
-1712 -1642 0
1712 1448 1642 0
-1782 -1254 0
-1782 1712 0
1782 1254 -1712 0
-1852 -1060 0
-1852 1782 0
1852 1060 -1782 0
-1922 -866 0
-1922 1852 0
1922 866 -1852 0
-1992 -672 0
-1992 1922 0
1992 672 -1922 0
-2062 -478 0
-2062 1992 0
2062 478 -1992 0
-2132 -284 0
-2132 2062 0
2132 284 -2062 0
-2266 34 0
-2266 2132 0
2266 -34 -2132 0
-2267 -34 0
-2267 -2132 0
2267 34 2132 0
-2268 -2266 0
-2268 -2267 0
2268 2266 2267 0
33 -6782 0
-33 6782 0
-219 -126 0
-219 187 0
219 126 -187 0
-283 -127 0
-283 219 0
283 127 -219 0
-413 -119 0
-413 381 0
413 119 -381 0
-477 -120 0
-477 413 0
477 120 -413 0
-607 -112 0
-607 575 0
607 112 -575 0
-671 -113 0
-671 607 0
671 113 -607 0
-801 -105 0
-801 769 0
801 105 -769 0
-865 -106 0
-865 801 0
865 106 -801 0
-995 -98 0
-995 963 0
995 98 -963 0
-1059 -99 0
-1059 995 0
1059 99 -995 0
-1189 -91 0
-1189 1157 0
1189 91 -1157 0
-1253 -92 0
-1253 1189 0
1253 92 -1189 0
-1383 -84 0
-1383 1351 0
1383 84 -1351 0
-1447 -85 0
-1447 1383 0
1447 85 -1383 0
-1577 -77 0
-1577 1545 0
1577 77 -1545 0
-1641 -78 0
-1641 1577 0
1641 78 -1577 0
-1711 -1447 0
-1711 -1641 0
1711 1447 1641 0
-1781 -1253 0
-1781 1711 0
1781 1253 -1711 0
-1851 -1059 0
-1851 1781 0
1851 1059 -1781 0
-1921 -865 0
-1921 1851 0
1921 865 -1851 0
-1991 -671 0
-1991 1921 0
1991 671 -1921 0
-2061 -477 0
-2061 1991 0
2061 477 -1991 0
-2131 -283 0
-2131 2061 0
2131 283 -2061 0
-2263 33 0
-2263 2131 0
2263 -33 -2131 0
-2264 -33 0
-2264 -2131 0
2264 33 2131 0
-2265 -2263 0
-2265 -2264 0
2265 2263 2264 0
32 -6781 0
-32 6781 0
-218 -126 0
-218 186 0
218 126 -186 0
-282 -127 0
-282 218 0
282 127 -218 0
-412 -119 0
-412 380 0
412 119 -380 0
-476 -120 0
-476 412 0
476 120 -412 0
-606 -112 0
-606 574 0
606 112 -574 0
-670 -113 0
-670 606 0
670 113 -606 0
-800 -105 0
-800 768 0
800 105 -768 0
-864 -106 0
-864 800 0
864 106 -800 0
-994 -98 0
-994 962 0
994 98 -962 0
-1058 -99 0
-1058 994 0
1058 99 -994 0
-1188 -91 0
-1188 1156 0
1188 91 -1156 0
-1252 -92 0
-1252 1188 0
1252 92 -1188 0
-1382 -84 0
-1382 1350 0
1382 84 -1350 0
-1446 -85 0
-1446 1382 0
1446 85 -1382 0
-1576 -77 0
-1576 1544 0
1576 77 -1544 0
-1640 -78 0
-1640 1576 0
1640 78 -1576 0
-1710 -1446 0
-1710 -1640 0
1710 1446 1640 0
-1780 -1252 0
-1780 1710 0
1780 1252 -1710 0
-1850 -1058 0
-1850 1780 0
1850 1058 -1780 0
-1920 -864 0
-1920 1850 0
1920 864 -1850 0
-1990 -670 0
-1990 1920 0
1990 670 -1920 0
-2060 -476 0
-2060 1990 0
2060 476 -1990 0
-2130 -282 0
-2130 2060 0
2130 282 -2060 0
-2260 32 0
-2260 2130 0
2260 -32 -2130 0
-2261 -32 0
-2261 -2130 0
2261 32 2130 0
-2262 -2260 0
-2262 -2261 0
2262 2260 2261 0
31 -6780 0
-31 6780 0
-217 -126 0
-217 185 0
217 126 -185 0
-281 -127 0
-281 217 0
281 127 -217 0
-411 -119 0
-411 379 0
411 119 -379 0
-475 -120 0
-475 411 0
475 120 -411 0
-605 -112 0
-605 573 0
605 112 -573 0
-669 -113 0
-669 605 0
669 113 -605 0
-799 -105 0
-799 767 0
799 105 -767 0
-863 -106 0
-863 799 0
863 106 -799 0
-993 -98 0
-993 961 0
993 98 -961 0
-1057 -99 0
-1057 993 0
1057 99 -993 0
-1187 -91 0
-1187 1155 0
1187 91 -1155 0
-1251 -92 0
-1251 1187 0
1251 92 -1187 0
-1381 -84 0
-1381 1349 0
1381 84 -1349 0
-1445 -85 0
-1445 1381 0
1445 85 -1381 0
-1575 -77 0
-1575 1543 0
1575 77 -1543 0
-1639 -78 0
-1639 1575 0
1639 78 -1575 0
-1709 -1445 0
-1709 -1639 0
1709 1445 1639 0
-1779 -1251 0
-1779 1709 0
1779 1251 -1709 0
-1849 -1057 0
-1849 1779 0
1849 1057 -1779 0
-1919 -863 0
-1919 1849 0
1919 863 -1849 0
-1989 -669 0
-1989 1919 0
1989 669 -1919 0
-2059 -475 0
-2059 1989 0
2059 475 -1989 0
-2129 -281 0
-2129 2059 0
2129 281 -2059 0
-2257 31 0
-2257 2129 0
2257 -31 -2129 0
-2258 -31 0
-2258 -2129 0
2258 31 2129 0
-2259 -2257 0
-2259 -2258 0
2259 2257 2258 0
30 -6779 0
-30 6779 0
-216 -126 0
-216 184 0
216 126 -184 0
-280 -127 0
-280 216 0
280 127 -216 0
-410 -119 0
-410 378 0
410 119 -378 0
-474 -120 0
-474 410 0
474 120 -410 0
-604 -112 0
-604 572 0
604 112 -572 0
-668 -113 0
-668 604 0
668 113 -604 0
-798 -105 0
-798 766 0
798 105 -766 0
-862 -106 0
-862 798 0
862 106 -798 0
-992 -98 0
-992 960 0
992 98 -960 0
-1056 -99 0
-1056 992 0
1056 99 -992 0
-1186 -91 0
-1186 1154 0
1186 91 -1154 0
-1250 -92 0
-1250 1186 0
1250 92 -1186 0
-1380 -84 0
-1380 1348 0
1380 84 -1348 0
-1444 -85 0
-1444 1380 0
1444 85 -1380 0
-1574 -77 0
-1574 1542 0
1574 77 -1542 0
-1638 -78 0
-1638 1574 0
1638 78 -1574 0
-1708 -1444 0
-1708 -1638 0
1708 1444 1638 0
-1778 -1250 0
-1778 1708 0
1778 1250 -1708 0
-1848 -1056 0
-1848 1778 0
1848 1056 -1778 0
-1918 -862 0
-1918 1848 0
1918 862 -1848 0
-1988 -668 0
-1988 1918 0
1988 668 -1918 0
-2058 -474 0
-2058 1988 0
2058 474 -1988 0
-2128 -280 0
-2128 2058 0
2128 280 -2058 0
-2254 30 0
-2254 2128 0
2254 -30 -2128 0
-2255 -30 0
-2255 -2128 0
2255 30 2128 0
-2256 -2254 0
-2256 -2255 0
2256 2254 2255 0
29 -6778 0
-29 6778 0
-215 -126 0
-215 183 0
215 126 -183 0
-279 -127 0
-279 215 0
279 127 -215 0
-409 -119 0
-409 377 0
409 119 -377 0
-473 -120 0
-473 409 0
473 120 -409 0
-603 -112 0
-603 571 0
603 112 -571 0
-667 -113 0
-667 603 0
667 113 -603 0
-797 -105 0
-797 765 0
797 105 -765 0
-861 -106 0
-861 797 0
861 106 -797 0
-991 -98 0
-991 959 0
991 98 -959 0
-1055 -99 0
-1055 991 0
1055 99 -991 0
-1185 -91 0
-1185 1153 0
1185 91 -1153 0
-1249 -92 0
-1249 1185 0
1249 92 -1185 0
-1379 -84 0
-1379 1347 0
1379 84 -1347 0
-1443 -85 0
-1443 1379 0
1443 85 -1379 0
-1573 -77 0
-1573 1541 0
1573 77 -1541 0
-1637 -78 0
-1637 1573 0
1637 78 -1573 0
-1707 -1443 0
-1707 -1637 0
1707 1443 1637 0
-1777 -1249 0
-1777 1707 0
1777 1249 -1707 0
-1847 -1055 0
-1847 1777 0
1847 1055 -1777 0
-1917 -861 0
-1917 1847 0
1917 861 -1847 0
-1987 -667 0
-1987 1917 0
1987 667 -1917 0
-2057 -473 0
-2057 1987 0
2057 473 -1987 0
-2127 -279 0
-2127 2057 0
2127 279 -2057 0
-2251 29 0
-2251 2127 0
2251 -29 -2127 0
-2252 -29 0
-2252 -2127 0
2252 29 2127 0
-2253 -2251 0
-2253 -2252 0
2253 2251 2252 0
28 -6777 0
-28 6777 0
-214 -126 0
-214 182 0
214 126 -182 0
-278 -127 0
-278 214 0
278 127 -214 0
-408 -119 0
-408 376 0
408 119 -376 0
-472 -120 0
-472 408 0
472 120 -408 0
-602 -112 0
-602 570 0
602 112 -570 0
-666 -113 0
-666 602 0
666 113 -602 0
-796 -105 0
-796 764 0
796 105 -764 0
-860 -106 0
-860 796 0
860 106 -796 0
-990 -98 0
-990 958 0
990 98 -958 0
-1054 -99 0
-1054 990 0
1054 99 -990 0
-1184 -91 0
-1184 1152 0
1184 91 -1152 0
-1248 -92 0
-1248 1184 0
1248 92 -1184 0
-1378 -84 0
-1378 1346 0
1378 84 -1346 0
-1442 -85 0
-1442 1378 0
1442 85 -1378 0
-1572 -77 0
-1572 1540 0
1572 77 -1540 0
-1636 -78 0
-1636 1572 0
1636 78 -1572 0
-1706 -1442 0
-1706 -1636 0
1706 1442 1636 0
-1776 -1248 0
-1776 1706 0
1776 1248 -1706 0
-1846 -1054 0
-1846 1776 0
1846 1054 -1776 0
-1916 -860 0
-1916 1846 0
1916 860 -1846 0
-1986 -666 0
-1986 1916 0
1986 666 -1916 0
-2056 -472 0
-2056 1986 0
2056 472 -1986 0
-2126 -278 0
-2126 2056 0
2126 278 -2056 0
-2248 28 0
-2248 2126 0
2248 -28 -2126 0
-2249 -28 0
-2249 -2126 0
2249 28 2126 0
-2250 -2248 0
-2250 -2249 0
2250 2248 2249 0
27 -6776 0
-27 6776 0
-213 -126 0
-213 181 0
213 126 -181 0
-277 -127 0
-277 213 0
277 127 -213 0
-407 -119 0
-407 375 0
407 119 -375 0
-471 -120 0
-471 407 0
471 120 -407 0
-601 -112 0
-601 569 0
601 112 -569 0
-665 -113 0
-665 601 0
665 113 -601 0
-795 -105 0
-795 763 0
795 105 -763 0
-859 -106 0
-859 795 0
859 106 -795 0
-989 -98 0
-989 957 0
989 98 -957 0
-1053 -99 0
-1053 989 0
1053 99 -989 0
-1183 -91 0
-1183 1151 0
1183 91 -1151 0
-1247 -92 0
-1247 1183 0
1247 92 -1183 0
-1377 -84 0
-1377 1345 0
1377 84 -1345 0
-1441 -85 0
-1441 1377 0
1441 85 -1377 0
-1571 -77 0
-1571 1539 0
1571 77 -1539 0
-1635 -78 0
-1635 1571 0
1635 78 -1571 0
-1705 -1441 0
-1705 -1635 0
1705 1441 1635 0
-1775 -1247 0
-1775 1705 0
1775 1247 -1705 0
-1845 -1053 0
-1845 1775 0
1845 1053 -1775 0
-1915 -859 0
-1915 1845 0
1915 859 -1845 0
-1985 -665 0
-1985 1915 0
1985 665 -1915 0
-2055 -471 0
-2055 1985 0
2055 471 -1985 0
-2125 -277 0
-2125 2055 0
2125 277 -2055 0
-2245 27 0
-2245 2125 0
2245 -27 -2125 0
-2246 -27 0
-2246 -2125 0
2246 27 2125 0
-2247 -2245 0
-2247 -2246 0
2247 2245 2246 0
26 -6775 0
-26 6775 0
-212 -126 0
-212 180 0
212 126 -180 0
-276 -127 0
-276 212 0
276 127 -212 0
-406 -119 0
-406 374 0
406 119 -374 0
-470 -120 0
-470 406 0
470 120 -406 0
-600 -112 0
-600 568 0
600 112 -568 0
-664 -113 0
-664 600 0
664 113 -600 0
-794 -105 0
-794 762 0
794 105 -762 0
-858 -106 0
-858 794 0
858 106 -794 0
-988 -98 0
-988 956 0
988 98 -956 0
-1052 -99 0
-1052 988 0
1052 99 -988 0
-1182 -91 0
-1182 1150 0
1182 91 -1150 0
-1246 -92 0
-1246 1182 0
1246 92 -1182 0
-1376 -84 0
-1376 1344 0
1376 84 -1344 0
-1440 -85 0
-1440 1376 0
1440 85 -1376 0
-1570 -77 0
-1570 1538 0
1570 77 -1538 0
-1634 -78 0
-1634 1570 0
1634 78 -1570 0
-1704 -1440 0
-1704 -1634 0
1704 1440 1634 0
-1774 -1246 0
-1774 1704 0
1774 1246 -1704 0
-1844 -1052 0
-1844 1774 0
1844 1052 -1774 0
-1914 -858 0
-1914 1844 0
1914 858 -1844 0
-1984 -664 0
-1984 1914 0
1984 664 -1914 0
-2054 -470 0
-2054 1984 0
2054 470 -1984 0
-2124 -276 0
-2124 2054 0
2124 276 -2054 0
-2242 26 0
-2242 2124 0
2242 -26 -2124 0
-2243 -26 0
-2243 -2124 0
2243 26 2124 0
-2244 -2242 0
-2244 -2243 0
2244 2242 2243 0
25 -6774 0
-25 6774 0
-211 -126 0
-211 179 0
211 126 -179 0
-275 -127 0
-275 211 0
275 127 -211 0
-405 -119 0
-405 373 0
405 119 -373 0
-469 -120 0
-469 405 0
469 120 -405 0
-599 -112 0
-599 567 0
599 112 -567 0
-663 -113 0
-663 599 0
663 113 -599 0
-793 -105 0
-793 761 0
793 105 -761 0
-857 -106 0
-857 793 0
857 106 -793 0
-987 -98 0
-987 955 0
987 98 -955 0
-1051 -99 0
-1051 987 0
1051 99 -987 0
-1181 -91 0
-1181 1149 0
1181 91 -1149 0
-1245 -92 0
-1245 1181 0
1245 92 -1181 0
-1375 -84 0
-1375 1343 0
1375 84 -1343 0
-1439 -85 0
-1439 1375 0
1439 85 -1375 0
-1569 -77 0
-1569 1537 0
1569 77 -1537 0
-1633 -78 0
-1633 1569 0
1633 78 -1569 0
-1703 -1439 0
-1703 -1633 0
1703 1439 1633 0
-1773 -1245 0
-1773 1703 0
1773 1245 -1703 0
-1843 -1051 0
-1843 1773 0
1843 1051 -1773 0
-1913 -857 0
-1913 1843 0
1913 857 -1843 0
-1983 -663 0
-1983 1913 0
1983 663 -1913 0
-2053 -469 0
-2053 1983 0
2053 469 -1983 0
-2123 -275 0
-2123 2053 0
2123 275 -2053 0
-2239 25 0
-2239 2123 0
2239 -25 -2123 0
-2240 -25 0
-2240 -2123 0
2240 25 2123 0
-2241 -2239 0
-2241 -2240 0
2241 2239 2240 0
24 -6773 0
-24 6773 0
-210 -126 0
-210 178 0
210 126 -178 0
-274 -127 0
-274 210 0
274 127 -210 0
-404 -119 0
-404 372 0
404 119 -372 0
-468 -120 0
-468 404 0
468 120 -404 0
-598 -112 0
-598 566 0
598 112 -566 0
-662 -113 0
-662 598 0
662 113 -598 0
-792 -105 0
-792 760 0
792 105 -760 0
-856 -106 0
-856 792 0
856 106 -792 0
-986 -98 0
-986 954 0
986 98 -954 0
-1050 -99 0
-1050 986 0
1050 99 -986 0
-1180 -91 0
-1180 1148 0
1180 91 -1148 0
-1244 -92 0
-1244 1180 0
1244 92 -1180 0
-1374 -84 0
-1374 1342 0
1374 84 -1342 0
-1438 -85 0
-1438 1374 0
1438 85 -1374 0
-1568 -77 0
-1568 1536 0
1568 77 -1536 0
-1632 -78 0
-1632 1568 0
1632 78 -1568 0
-1702 -1438 0
-1702 -1632 0
1702 1438 1632 0
-1772 -1244 0
-1772 1702 0
1772 1244 -1702 0
-1842 -1050 0
-1842 1772 0
1842 1050 -1772 0
-1912 -856 0
-1912 1842 0
1912 856 -1842 0
-1982 -662 0
-1982 1912 0
1982 662 -1912 0
-2052 -468 0
-2052 1982 0
2052 468 -1982 0
-2122 -274 0
-2122 2052 0
2122 274 -2052 0
-2236 24 0
-2236 2122 0
2236 -24 -2122 0
-2237 -24 0
-2237 -2122 0
2237 24 2122 0
-2238 -2236 0
-2238 -2237 0
2238 2236 2237 0
23 -6772 0
-23 6772 0
-209 -126 0
-209 177 0
209 126 -177 0
-273 -127 0
-273 209 0
273 127 -209 0
-403 -119 0
-403 371 0
403 119 -371 0
-467 -120 0
-467 403 0
467 120 -403 0
-597 -112 0
-597 565 0
597 112 -565 0
-661 -113 0
-661 597 0
661 113 -597 0
-791 -105 0
-791 759 0
791 105 -759 0
-855 -106 0
-855 791 0
855 106 -791 0
-985 -98 0
-985 953 0
985 98 -953 0
-1049 -99 0
-1049 985 0
1049 99 -985 0
-1179 -91 0
-1179 1147 0
1179 91 -1147 0
-1243 -92 0
-1243 1179 0
1243 92 -1179 0
-1373 -84 0
-1373 1341 0
1373 84 -1341 0
-1437 -85 0
-1437 1373 0
1437 85 -1373 0
-1567 -77 0
-1567 1535 0
1567 77 -1535 0
-1631 -78 0
-1631 1567 0
1631 78 -1567 0
-1701 -1437 0
-1701 -1631 0
1701 1437 1631 0
-1771 -1243 0
-1771 1701 0
1771 1243 -1701 0
-1841 -1049 0
-1841 1771 0
1841 1049 -1771 0
-1911 -855 0
-1911 1841 0
1911 855 -1841 0
-1981 -661 0
-1981 1911 0
1981 661 -1911 0
-2051 -467 0
-2051 1981 0
2051 467 -1981 0
-2121 -273 0
-2121 2051 0
2121 273 -2051 0
-2233 23 0
-2233 2121 0
2233 -23 -2121 0
-2234 -23 0
-2234 -2121 0
2234 23 2121 0
-2235 -2233 0
-2235 -2234 0
2235 2233 2234 0
22 -6771 0
-22 6771 0
-208 -126 0
-208 176 0
208 126 -176 0
-272 -127 0
-272 208 0
272 127 -208 0
-402 -119 0
-402 370 0
402 119 -370 0
-466 -120 0
-466 402 0
466 120 -402 0
-596 -112 0
-596 564 0
596 112 -564 0
-660 -113 0
-660 596 0
660 113 -596 0
-790 -105 0
-790 758 0
790 105 -758 0
-854 -106 0
-854 790 0
854 106 -790 0
-984 -98 0
-984 952 0
984 98 -952 0
-1048 -99 0
-1048 984 0
1048 99 -984 0
-1178 -91 0
-1178 1146 0
1178 91 -1146 0
-1242 -92 0
-1242 1178 0
1242 92 -1178 0
-1372 -84 0
-1372 1340 0
1372 84 -1340 0
-1436 -85 0
-1436 1372 0
1436 85 -1372 0
-1566 -77 0
-1566 1534 0
1566 77 -1534 0
-1630 -78 0
-1630 1566 0
1630 78 -1566 0
-1700 -1436 0
-1700 -1630 0
1700 1436 1630 0
-1770 -1242 0
-1770 1700 0
1770 1242 -1700 0
-1840 -1048 0
-1840 1770 0
1840 1048 -1770 0
-1910 -854 0
-1910 1840 0
1910 854 -1840 0
-1980 -660 0
-1980 1910 0
1980 660 -1910 0
-2050 -466 0
-2050 1980 0
2050 466 -1980 0
-2120 -272 0
-2120 2050 0
2120 272 -2050 0
-2230 22 0
-2230 2120 0
2230 -22 -2120 0
-2231 -22 0
-2231 -2120 0
2231 22 2120 0
-2232 -2230 0
-2232 -2231 0
2232 2230 2231 0
21 -6770 0
-21 6770 0
-207 -126 0
-207 175 0
207 126 -175 0
-271 -127 0
-271 207 0
271 127 -207 0
-401 -119 0
-401 369 0
401 119 -369 0
-465 -120 0
-465 401 0
465 120 -401 0
-595 -112 0
-595 563 0
595 112 -563 0
-659 -113 0
-659 595 0
659 113 -595 0
-789 -105 0
-789 757 0
789 105 -757 0
-853 -106 0
-853 789 0
853 106 -789 0
-983 -98 0
-983 951 0
983 98 -951 0
-1047 -99 0
-1047 983 0
1047 99 -983 0
-1177 -91 0
-1177 1145 0
1177 91 -1145 0
-1241 -92 0
-1241 1177 0
1241 92 -1177 0
-1371 -84 0
-1371 1339 0
1371 84 -1339 0
-1435 -85 0
-1435 1371 0
1435 85 -1371 0
-1565 -77 0
-1565 1533 0
1565 77 -1533 0
-1629 -78 0
-1629 1565 0
1629 78 -1565 0
-1699 -1435 0
-1699 -1629 0
1699 1435 1629 0
-1769 -1241 0
-1769 1699 0
1769 1241 -1699 0
-1839 -1047 0
-1839 1769 0
1839 1047 -1769 0
-1909 -853 0
-1909 1839 0
1909 853 -1839 0
-1979 -659 0
-1979 1909 0
1979 659 -1909 0
-2049 -465 0
-2049 1979 0
2049 465 -1979 0
-2119 -271 0
-2119 2049 0
2119 271 -2049 0
-2227 21 0
-2227 2119 0
2227 -21 -2119 0
-2228 -21 0
-2228 -2119 0
2228 21 2119 0
-2229 -2227 0
-2229 -2228 0
2229 2227 2228 0
20 -6769 0
-20 6769 0
-206 -126 0
-206 174 0
206 126 -174 0
-270 -127 0
-270 206 0
270 127 -206 0
-400 -119 0
-400 368 0
400 119 -368 0
-464 -120 0
-464 400 0
464 120 -400 0
-594 -112 0
-594 562 0
594 112 -562 0
-658 -113 0
-658 594 0
658 113 -594 0
-788 -105 0
-788 756 0
788 105 -756 0
-852 -106 0
-852 788 0
852 106 -788 0
-982 -98 0
-982 950 0
982 98 -950 0
-1046 -99 0
-1046 982 0
1046 99 -982 0
-1176 -91 0
-1176 1144 0
1176 91 -1144 0
-1240 -92 0
-1240 1176 0
1240 92 -1176 0
-1370 -84 0
-1370 1338 0
1370 84 -1338 0
-1434 -85 0
-1434 1370 0
1434 85 -1370 0
-1564 -77 0
-1564 1532 0
1564 77 -1532 0
-1628 -78 0
-1628 1564 0
1628 78 -1564 0
-1698 -1434 0
-1698 -1628 0
1698 1434 1628 0
-1768 -1240 0
-1768 1698 0
1768 1240 -1698 0
-1838 -1046 0
-1838 1768 0
1838 1046 -1768 0
-1908 -852 0
-1908 1838 0
1908 852 -1838 0
-1978 -658 0
-1978 1908 0
1978 658 -1908 0
-2048 -464 0
-2048 1978 0
2048 464 -1978 0
-2118 -270 0
-2118 2048 0
2118 270 -2048 0
-2224 20 0
-2224 2118 0
2224 -20 -2118 0
-2225 -20 0
-2225 -2118 0
2225 20 2118 0
-2226 -2224 0
-2226 -2225 0
2226 2224 2225 0
19 -6768 0
-19 6768 0
-205 -126 0
-205 173 0
205 126 -173 0
-269 -127 0
-269 205 0
269 127 -205 0
-399 -119 0
-399 367 0
399 119 -367 0
-463 -120 0
-463 399 0
463 120 -399 0
-593 -112 0
-593 561 0
593 112 -561 0
-657 -113 0
-657 593 0
657 113 -593 0
-787 -105 0
-787 755 0
787 105 -755 0
-851 -106 0
-851 787 0
851 106 -787 0
-981 -98 0
-981 949 0
981 98 -949 0
-1045 -99 0
-1045 981 0
1045 99 -981 0
-1175 -91 0
-1175 1143 0
1175 91 -1143 0
-1239 -92 0
-1239 1175 0
1239 92 -1175 0
-1369 -84 0
-1369 1337 0
1369 84 -1337 0
-1433 -85 0
-1433 1369 0
1433 85 -1369 0
-1563 -77 0
-1563 1531 0
1563 77 -1531 0
-1627 -78 0
-1627 1563 0
1627 78 -1563 0
-1697 -1433 0
-1697 -1627 0
1697 1433 1627 0
-1767 -1239 0
-1767 1697 0
1767 1239 -1697 0
-1837 -1045 0
-1837 1767 0
1837 1045 -1767 0
-1907 -851 0
-1907 1837 0
1907 851 -1837 0
-1977 -657 0
-1977 1907 0
1977 657 -1907 0
-2047 -463 0
-2047 1977 0
2047 463 -1977 0
-2117 -269 0
-2117 2047 0
2117 269 -2047 0
-2221 19 0
-2221 2117 0
2221 -19 -2117 0
-2222 -19 0
-2222 -2117 0
2222 19 2117 0
-2223 -2221 0
-2223 -2222 0
2223 2221 2222 0
18 -6767 0
-18 6767 0
-204 -126 0
-204 172 0
204 126 -172 0
-268 -127 0
-268 204 0
268 127 -204 0
-398 -119 0
-398 366 0
398 119 -366 0
-462 -120 0
-462 398 0
462 120 -398 0
-592 -112 0
-592 560 0
592 112 -560 0
-656 -113 0
-656 592 0
656 113 -592 0
-786 -105 0
-786 754 0
786 105 -754 0
-850 -106 0
-850 786 0
850 106 -786 0
-980 -98 0
-980 948 0
980 98 -948 0
-1044 -99 0
-1044 980 0
1044 99 -980 0
-1174 -91 0
-1174 1142 0
1174 91 -1142 0
-1238 -92 0
-1238 1174 0
1238 92 -1174 0
-1368 -84 0
-1368 1336 0
1368 84 -1336 0
-1432 -85 0
-1432 1368 0
1432 85 -1368 0
-1562 -77 0
-1562 1530 0
1562 77 -1530 0
-1626 -78 0
-1626 1562 0
1626 78 -1562 0
-1696 -1432 0
-1696 -1626 0
1696 1432 1626 0
-1766 -1238 0
-1766 1696 0
1766 1238 -1696 0
-1836 -1044 0
-1836 1766 0
1836 1044 -1766 0
-1906 -850 0
-1906 1836 0
1906 850 -1836 0
-1976 -656 0
-1976 1906 0
1976 656 -1906 0
-2046 -462 0
-2046 1976 0
2046 462 -1976 0
-2116 -268 0
-2116 2046 0
2116 268 -2046 0
-2218 18 0
-2218 2116 0
2218 -18 -2116 0
-2219 -18 0
-2219 -2116 0
2219 18 2116 0
-2220 -2218 0
-2220 -2219 0
2220 2218 2219 0
17 -6766 0
-17 6766 0
-203 -126 0
-203 171 0
203 126 -171 0
-267 -127 0
-267 203 0
267 127 -203 0
-397 -119 0
-397 365 0
397 119 -365 0
-461 -120 0
-461 397 0
461 120 -397 0
-591 -112 0
-591 559 0
591 112 -559 0
-655 -113 0
-655 591 0
655 113 -591 0
-785 -105 0
-785 753 0
785 105 -753 0
-849 -106 0
-849 785 0
849 106 -785 0
-979 -98 0
-979 947 0
979 98 -947 0
-1043 -99 0
-1043 979 0
1043 99 -979 0
-1173 -91 0
-1173 1141 0
1173 91 -1141 0
-1237 -92 0
-1237 1173 0
1237 92 -1173 0
-1367 -84 0
-1367 1335 0
1367 84 -1335 0
-1431 -85 0
-1431 1367 0
1431 85 -1367 0
-1561 -77 0
-1561 1529 0
1561 77 -1529 0
-1625 -78 0
-1625 1561 0
1625 78 -1561 0
-1695 -1431 0
-1695 -1625 0
1695 1431 1625 0
-1765 -1237 0
-1765 1695 0
1765 1237 -1695 0
-1835 -1043 0
-1835 1765 0
1835 1043 -1765 0
-1905 -849 0
-1905 1835 0
1905 849 -1835 0
-1975 -655 0
-1975 1905 0
1975 655 -1905 0
-2045 -461 0
-2045 1975 0
2045 461 -1975 0
-2115 -267 0
-2115 2045 0
2115 267 -2045 0
-2215 17 0
-2215 2115 0
2215 -17 -2115 0
-2216 -17 0
-2216 -2115 0
2216 17 2115 0
-2217 -2215 0
-2217 -2216 0
2217 2215 2216 0
16 -6765 0
-16 6765 0
-202 -126 0
-202 170 0
202 126 -170 0
-266 -127 0
-266 202 0
266 127 -202 0
-396 -119 0
-396 364 0
396 119 -364 0
-460 -120 0
-460 396 0
460 120 -396 0
-590 -112 0
-590 558 0
590 112 -558 0
-654 -113 0
-654 590 0
654 113 -590 0
-784 -105 0
-784 752 0
784 105 -752 0
-848 -106 0
-848 784 0
848 106 -784 0
-978 -98 0
-978 946 0
978 98 -946 0
-1042 -99 0
-1042 978 0
1042 99 -978 0
-1172 -91 0
-1172 1140 0
1172 91 -1140 0
-1236 -92 0
-1236 1172 0
1236 92 -1172 0
-1366 -84 0
-1366 1334 0
1366 84 -1334 0
-1430 -85 0
-1430 1366 0
1430 85 -1366 0
-1560 -77 0
-1560 1528 0
1560 77 -1528 0
-1624 -78 0
-1624 1560 0
1624 78 -1560 0
-1694 -1430 0
-1694 -1624 0
1694 1430 1624 0
-1764 -1236 0
-1764 1694 0
1764 1236 -1694 0
-1834 -1042 0
-1834 1764 0
1834 1042 -1764 0
-1904 -848 0
-1904 1834 0
1904 848 -1834 0
-1974 -654 0
-1974 1904 0
1974 654 -1904 0
-2044 -460 0
-2044 1974 0
2044 460 -1974 0
-2114 -266 0
-2114 2044 0
2114 266 -2044 0
-2212 16 0
-2212 2114 0
2212 -16 -2114 0
-2213 -16 0
-2213 -2114 0
2213 16 2114 0
-2214 -2212 0
-2214 -2213 0
2214 2212 2213 0
15 -6764 0
-15 6764 0
-201 -126 0
-201 169 0
201 126 -169 0
-265 -127 0
-265 201 0
265 127 -201 0
-395 -119 0
-395 363 0
395 119 -363 0
-459 -120 0
-459 395 0
459 120 -395 0
-589 -112 0
-589 557 0
589 112 -557 0
-653 -113 0
-653 589 0
653 113 -589 0
-783 -105 0
-783 751 0
783 105 -751 0
-847 -106 0
-847 783 0
847 106 -783 0
-977 -98 0
-977 945 0
977 98 -945 0
-1041 -99 0
-1041 977 0
1041 99 -977 0
-1171 -91 0
-1171 1139 0
1171 91 -1139 0
-1235 -92 0
-1235 1171 0
1235 92 -1171 0
-1365 -84 0
-1365 1333 0
1365 84 -1333 0
-1429 -85 0
-1429 1365 0
1429 85 -1365 0
-1559 -77 0
-1559 1527 0
1559 77 -1527 0
-1623 -78 0
-1623 1559 0
1623 78 -1559 0
-1693 -1429 0
-1693 -1623 0
1693 1429 1623 0
-1763 -1235 0
-1763 1693 0
1763 1235 -1693 0
-1833 -1041 0
-1833 1763 0
1833 1041 -1763 0
-1903 -847 0
-1903 1833 0
1903 847 -1833 0
-1973 -653 0
-1973 1903 0
1973 653 -1903 0
-2043 -459 0
-2043 1973 0
2043 459 -1973 0
-2113 -265 0
-2113 2043 0
2113 265 -2043 0
-2209 15 0
-2209 2113 0
2209 -15 -2113 0
-2210 -15 0
-2210 -2113 0
2210 15 2113 0
-2211 -2209 0
-2211 -2210 0
2211 2209 2210 0
14 -6763 0
-14 6763 0
-200 -126 0
-200 168 0
200 126 -168 0
-264 -127 0
-264 200 0
264 127 -200 0
-394 -119 0
-394 362 0
394 119 -362 0
-458 -120 0
-458 394 0
458 120 -394 0
-588 -112 0
-588 556 0
588 112 -556 0
-652 -113 0
-652 588 0
652 113 -588 0
-782 -105 0
-782 750 0
782 105 -750 0
-846 -106 0
-846 782 0
846 106 -782 0
-976 -98 0
-976 944 0
976 98 -944 0
-1040 -99 0
-1040 976 0
1040 99 -976 0
-1170 -91 0
-1170 1138 0
1170 91 -1138 0
-1234 -92 0
-1234 1170 0
1234 92 -1170 0
-1364 -84 0
-1364 1332 0
1364 84 -1332 0
-1428 -85 0
-1428 1364 0
1428 85 -1364 0
-1558 -77 0
-1558 1526 0
1558 77 -1526 0
-1622 -78 0
-1622 1558 0
1622 78 -1558 0
-1692 -1428 0
-1692 -1622 0
1692 1428 1622 0
-1762 -1234 0
-1762 1692 0
1762 1234 -1692 0
-1832 -1040 0
-1832 1762 0
1832 1040 -1762 0
-1902 -846 0
-1902 1832 0
1902 846 -1832 0
-1972 -652 0
-1972 1902 0
1972 652 -1902 0
-2042 -458 0
-2042 1972 0
2042 458 -1972 0
-2112 -264 0
-2112 2042 0
2112 264 -2042 0
-2206 14 0
-2206 2112 0
2206 -14 -2112 0
-2207 -14 0
-2207 -2112 0
2207 14 2112 0
-2208 -2206 0
-2208 -2207 0
2208 2206 2207 0
13 -6762 0
-13 6762 0
-199 -126 0
-199 167 0
199 126 -167 0
-263 -127 0
-263 199 0
263 127 -199 0
-393 -119 0
-393 361 0
393 119 -361 0
-457 -120 0
-457 393 0
457 120 -393 0
-587 -112 0
-587 555 0
587 112 -555 0
-651 -113 0
-651 587 0
651 113 -587 0
-781 -105 0
-781 749 0
781 105 -749 0
-845 -106 0
-845 781 0
845 106 -781 0
-975 -98 0
-975 943 0
975 98 -943 0
-1039 -99 0
-1039 975 0
1039 99 -975 0
-1169 -91 0
-1169 1137 0
1169 91 -1137 0
-1233 -92 0
-1233 1169 0
1233 92 -1169 0
-1363 -84 0
-1363 1331 0
1363 84 -1331 0
-1427 -85 0
-1427 1363 0
1427 85 -1363 0
-1557 -77 0
-1557 1525 0
1557 77 -1525 0
-1621 -78 0
-1621 1557 0
1621 78 -1557 0
-1691 -1427 0
-1691 -1621 0
1691 1427 1621 0
-1761 -1233 0
-1761 1691 0
1761 1233 -1691 0
-1831 -1039 0
-1831 1761 0
1831 1039 -1761 0
-1901 -845 0
-1901 1831 0
1901 845 -1831 0
-1971 -651 0
-1971 1901 0
1971 651 -1901 0
-2041 -457 0
-2041 1971 0
2041 457 -1971 0
-2111 -263 0
-2111 2041 0
2111 263 -2041 0
-2203 13 0
-2203 2111 0
2203 -13 -2111 0
-2204 -13 0
-2204 -2111 0
2204 13 2111 0
-2205 -2203 0
-2205 -2204 0
2205 2203 2204 0
12 -6761 0
-12 6761 0
-198 -126 0
-198 166 0
198 126 -166 0
-262 -127 0
-262 198 0
262 127 -198 0
-392 -119 0
-392 360 0
392 119 -360 0
-456 -120 0
-456 392 0
456 120 -392 0
-586 -112 0
-586 554 0
586 112 -554 0
-650 -113 0
-650 586 0
650 113 -586 0
-780 -105 0
-780 748 0
780 105 -748 0
-844 -106 0
-844 780 0
844 106 -780 0
-974 -98 0
-974 942 0
974 98 -942 0
-1038 -99 0
-1038 974 0
1038 99 -974 0
-1168 -91 0
-1168 1136 0
1168 91 -1136 0
-1232 -92 0
-1232 1168 0
1232 92 -1168 0
-1362 -84 0
-1362 1330 0
1362 84 -1330 0
-1426 -85 0
-1426 1362 0
1426 85 -1362 0
-1556 -77 0
-1556 1524 0
1556 77 -1524 0
-1620 -78 0
-1620 1556 0
1620 78 -1556 0
-1690 -1426 0
-1690 -1620 0
1690 1426 1620 0
-1760 -1232 0
-1760 1690 0
1760 1232 -1690 0
-1830 -1038 0
-1830 1760 0
1830 1038 -1760 0
-1900 -844 0
-1900 1830 0
1900 844 -1830 0
-1970 -650 0
-1970 1900 0
1970 650 -1900 0
-2040 -456 0
-2040 1970 0
2040 456 -1970 0
-2110 -262 0
-2110 2040 0
2110 262 -2040 0
-2200 12 0
-2200 2110 0
2200 -12 -2110 0
-2201 -12 0
-2201 -2110 0
2201 12 2110 0
-2202 -2200 0
-2202 -2201 0
2202 2200 2201 0
11 -6760 0
-11 6760 0
-197 -126 0
-197 165 0
197 126 -165 0
-261 -127 0
-261 197 0
261 127 -197 0
-391 -119 0
-391 359 0
391 119 -359 0
-455 -120 0
-455 391 0
455 120 -391 0
-585 -112 0
-585 553 0
585 112 -553 0
-649 -113 0
-649 585 0
649 113 -585 0
-779 -105 0
-779 747 0
779 105 -747 0
-843 -106 0
-843 779 0
843 106 -779 0
-973 -98 0
-973 941 0
973 98 -941 0
-1037 -99 0
-1037 973 0
1037 99 -973 0
-1167 -91 0
-1167 1135 0
1167 91 -1135 0
-1231 -92 0
-1231 1167 0
1231 92 -1167 0
-1361 -84 0
-1361 1329 0
1361 84 -1329 0
-1425 -85 0
-1425 1361 0
1425 85 -1361 0
-1555 -77 0
-1555 1523 0
1555 77 -1523 0
-1619 -78 0
-1619 1555 0
1619 78 -1555 0
-1689 -1425 0
-1689 -1619 0
1689 1425 1619 0
-1759 -1231 0
-1759 1689 0
1759 1231 -1689 0
-1829 -1037 0
-1829 1759 0
1829 1037 -1759 0
-1899 -843 0
-1899 1829 0
1899 843 -1829 0
-1969 -649 0
-1969 1899 0
1969 649 -1899 0
-2039 -455 0
-2039 1969 0
2039 455 -1969 0
-2109 -261 0
-2109 2039 0
2109 261 -2039 0
-2197 11 0
-2197 2109 0
2197 -11 -2109 0
-2198 -11 0
-2198 -2109 0
2198 11 2109 0
-2199 -2197 0
-2199 -2198 0
2199 2197 2198 0
10 -6759 0
-10 6759 0
-196 -126 0
-196 164 0
196 126 -164 0
-260 -127 0
-260 196 0
260 127 -196 0
-390 -119 0
-390 358 0
390 119 -358 0
-454 -120 0
-454 390 0
454 120 -390 0
-584 -112 0
-584 552 0
584 112 -552 0
-648 -113 0
-648 584 0
648 113 -584 0
-778 -105 0
-778 746 0
778 105 -746 0
-842 -106 0
-842 778 0
842 106 -778 0
-972 -98 0
-972 940 0
972 98 -940 0
-1036 -99 0
-1036 972 0
1036 99 -972 0
-1166 -91 0
-1166 1134 0
1166 91 -1134 0
-1230 -92 0
-1230 1166 0
1230 92 -1166 0
-1360 -84 0
-1360 1328 0
1360 84 -1328 0
-1424 -85 0
-1424 1360 0
1424 85 -1360 0
-1554 -77 0
-1554 1522 0
1554 77 -1522 0
-1618 -78 0
-1618 1554 0
1618 78 -1554 0
-1688 -1424 0
-1688 -1618 0
1688 1424 1618 0
-1758 -1230 0
-1758 1688 0
1758 1230 -1688 0
-1828 -1036 0
-1828 1758 0
1828 1036 -1758 0
-1898 -842 0
-1898 1828 0
1898 842 -1828 0
-1968 -648 0
-1968 1898 0
1968 648 -1898 0
-2038 -454 0
-2038 1968 0
2038 454 -1968 0
-2108 -260 0
-2108 2038 0
2108 260 -2038 0
-2194 10 0
-2194 2108 0
2194 -10 -2108 0
-2195 -10 0
-2195 -2108 0
2195 10 2108 0
-2196 -2194 0
-2196 -2195 0
2196 2194 2195 0
9 -6758 0
-9 6758 0
-195 -126 0
-195 163 0
195 126 -163 0
-259 -127 0
-259 195 0
259 127 -195 0
-389 -119 0
-389 357 0
389 119 -357 0
-453 -120 0
-453 389 0
453 120 -389 0
-583 -112 0
-583 551 0
583 112 -551 0
-647 -113 0
-647 583 0
647 113 -583 0
-777 -105 0
-777 745 0
777 105 -745 0
-841 -106 0
-841 777 0
841 106 -777 0
-971 -98 0
-971 939 0
971 98 -939 0
-1035 -99 0
-1035 971 0
1035 99 -971 0
-1165 -91 0
-1165 1133 0
1165 91 -1133 0
-1229 -92 0
-1229 1165 0
1229 92 -1165 0
-1359 -84 0
-1359 1327 0
1359 84 -1327 0
-1423 -85 0
-1423 1359 0
1423 85 -1359 0
-1553 -77 0
-1553 1521 0
1553 77 -1521 0
-1617 -78 0
-1617 1553 0
1617 78 -1553 0
-1687 -1423 0
-1687 -1617 0
1687 1423 1617 0
-1757 -1229 0
-1757 1687 0
1757 1229 -1687 0
-1827 -1035 0
-1827 1757 0
1827 1035 -1757 0
-1897 -841 0
-1897 1827 0
1897 841 -1827 0
-1967 -647 0
-1967 1897 0
1967 647 -1897 0
-2037 -453 0
-2037 1967 0
2037 453 -1967 0
-2107 -259 0
-2107 2037 0
2107 259 -2037 0
-2191 9 0
-2191 2107 0
2191 -9 -2107 0
-2192 -9 0
-2192 -2107 0
2192 9 2107 0
-2193 -2191 0
-2193 -2192 0
2193 2191 2192 0
8 -6757 0
-8 6757 0
-194 -126 0
-194 162 0
194 126 -162 0
-258 -127 0
-258 194 0
258 127 -194 0
-388 -119 0
-388 356 0
388 119 -356 0
-452 -120 0
-452 388 0
452 120 -388 0
-582 -112 0
-582 550 0
582 112 -550 0
-646 -113 0
-646 582 0
646 113 -582 0
-776 -105 0
-776 744 0
776 105 -744 0
-840 -106 0
-840 776 0
840 106 -776 0
-970 -98 0
-970 938 0
970 98 -938 0
-1034 -99 0
-1034 970 0
1034 99 -970 0
-1164 -91 0
-1164 1132 0
1164 91 -1132 0
-1228 -92 0
-1228 1164 0
1228 92 -1164 0
-1358 -84 0
-1358 1326 0
1358 84 -1326 0
-1422 -85 0
-1422 1358 0
1422 85 -1358 0
-1552 -77 0
-1552 1520 0
1552 77 -1520 0
-1616 -78 0
-1616 1552 0
1616 78 -1552 0
-1686 -1422 0
-1686 -1616 0
1686 1422 1616 0
-1756 -1228 0
-1756 1686 0
1756 1228 -1686 0
-1826 -1034 0
-1826 1756 0
1826 1034 -1756 0
-1896 -840 0
-1896 1826 0
1896 840 -1826 0
-1966 -646 0
-1966 1896 0
1966 646 -1896 0
-2036 -452 0
-2036 1966 0
2036 452 -1966 0
-2106 -258 0
-2106 2036 0
2106 258 -2036 0
-2188 8 0
-2188 2106 0
2188 -8 -2106 0
-2189 -8 0
-2189 -2106 0
2189 8 2106 0
-2190 -2188 0
-2190 -2189 0
2190 2188 2189 0
7 -6756 0
-7 6756 0
-257 -127 0
-257 193 0
257 127 -193 0
-451 -120 0
-451 387 0
451 120 -387 0
-645 -113 0
-645 581 0
645 113 -581 0
-839 -106 0
-839 775 0
839 106 -775 0
-1033 -99 0
-1033 969 0
1033 99 -969 0
-1227 -92 0
-1227 1163 0
1227 92 -1163 0
-1421 -85 0
-1421 1357 0
1421 85 -1357 0
-1615 -78 0
-1615 1551 0
1615 78 -1551 0
-1685 -1421 0
-1685 -1615 0
1685 1421 1615 0
-1755 -1227 0
-1755 1685 0
1755 1227 -1685 0
-1825 -1033 0
-1825 1755 0
1825 1033 -1755 0
-1895 -839 0
-1895 1825 0
1895 839 -1825 0
-1965 -645 0
-1965 1895 0
1965 645 -1895 0
-2035 -451 0
-2035 1965 0
2035 451 -1965 0
-2105 -257 0
-2105 2035 0
2105 257 -2035 0
-2185 7 0
-2185 2105 0
2185 -7 -2105 0
-2186 -7 0
-2186 -2105 0
2186 7 2105 0
-2187 -2185 0
-2187 -2186 0
2187 2185 2186 0
6 -6755 0
-6 6755 0
-256 -127 0
-256 192 0
256 127 -192 0
-450 -120 0
-450 386 0
450 120 -386 0
-644 -113 0
-644 580 0
644 113 -580 0
-838 -106 0
-838 774 0
838 106 -774 0
-1032 -99 0
-1032 968 0
1032 99 -968 0
-1226 -92 0
-1226 1162 0
1226 92 -1162 0
-1420 -85 0
-1420 1356 0
1420 85 -1356 0
-1614 -78 0
-1614 1550 0
1614 78 -1550 0
-1684 -1420 0
-1684 -1614 0
1684 1420 1614 0
-1754 -1226 0
-1754 1684 0
1754 1226 -1684 0
-1824 -1032 0
-1824 1754 0
1824 1032 -1754 0
-1894 -838 0
-1894 1824 0
1894 838 -1824 0
-1964 -644 0
-1964 1894 0
1964 644 -1894 0
-2034 -450 0
-2034 1964 0
2034 450 -1964 0
-2104 -256 0
-2104 2034 0
2104 256 -2034 0
-2182 6 0
-2182 2104 0
2182 -6 -2104 0
-2183 -6 0
-2183 -2104 0
2183 6 2104 0
-2184 -2182 0
-2184 -2183 0
2184 2182 2183 0
5 -6754 0
-5 6754 0
-255 -127 0
-255 191 0
255 127 -191 0
-449 -120 0
-449 385 0
449 120 -385 0
-643 -113 0
-643 579 0
643 113 -579 0
-837 -106 0
-837 773 0
837 106 -773 0
-1031 -99 0
-1031 967 0
1031 99 -967 0
-1225 -92 0
-1225 1161 0
1225 92 -1161 0
-1419 -85 0
-1419 1355 0
1419 85 -1355 0
-1613 -78 0
-1613 1549 0
1613 78 -1549 0
-1683 -1419 0
-1683 -1613 0
1683 1419 1613 0
-1753 -1225 0
-1753 1683 0
1753 1225 -1683 0
-1823 -1031 0
-1823 1753 0
1823 1031 -1753 0
-1893 -837 0
-1893 1823 0
1893 837 -1823 0
-1963 -643 0
-1963 1893 0
1963 643 -1893 0
-2033 -449 0
-2033 1963 0
2033 449 -1963 0
-2103 -255 0
-2103 2033 0
2103 255 -2033 0
-2179 5 0
-2179 2103 0
2179 -5 -2103 0
-2180 -5 0
-2180 -2103 0
2180 5 2103 0
-2181 -2179 0
-2181 -2180 0
2181 2179 2180 0
4 -6753 0
-4 6753 0
-254 -127 0
-254 190 0
254 127 -190 0
-448 -120 0
-448 384 0
448 120 -384 0
-642 -113 0
-642 578 0
642 113 -578 0
-836 -106 0
-836 772 0
836 106 -772 0
-1030 -99 0
-1030 966 0
1030 99 -966 0
-1224 -92 0
-1224 1160 0
1224 92 -1160 0
-1418 -85 0
-1418 1354 0
1418 85 -1354 0
-1612 -78 0
-1612 1548 0
1612 78 -1548 0
-1682 -1418 0
-1682 -1612 0
1682 1418 1612 0
-1752 -1224 0
-1752 1682 0
1752 1224 -1682 0
-1822 -1030 0
-1822 1752 0
1822 1030 -1752 0
-1892 -836 0
-1892 1822 0
1892 836 -1822 0
-1962 -642 0
-1962 1892 0
1962 642 -1892 0
-2032 -448 0
-2032 1962 0
2032 448 -1962 0
-2102 -254 0
-2102 2032 0
2102 254 -2032 0
-2176 4 0
-2176 2102 0
2176 -4 -2102 0
-2177 -4 0
-2177 -2102 0
2177 4 2102 0
-2178 -2176 0
-2178 -2177 0
2178 2176 2177 0
2 -6751 0
-2 6751 0
-252 -127 0
-252 188 0
252 127 -188 0
-446 -120 0
-446 382 0
446 120 -382 0
-640 -113 0
-640 576 0
640 113 -576 0
-834 -106 0
-834 770 0
834 106 -770 0
-1028 -99 0
-1028 964 0
1028 99 -964 0
-1222 -92 0
-1222 1158 0
1222 92 -1158 0
-1416 -85 0
-1416 1352 0
1416 85 -1352 0
-1610 -78 0
-1610 1546 0
1610 78 -1546 0
-1680 -1416 0
-1680 -1610 0
1680 1416 1610 0
-1750 -1222 0
-1750 1680 0
1750 1222 -1680 0
-1820 -1028 0
-1820 1750 0
1820 1028 -1750 0
-1890 -834 0
-1890 1820 0
1890 834 -1820 0
-1960 -640 0
-1960 1890 0
1960 640 -1890 0
-2030 -446 0
-2030 1960 0
2030 446 -1960 0
-2100 -252 0
-2100 2030 0
2100 252 -2030 0
-2170 2 0
-2170 2100 0
2170 -2 -2100 0
-2171 -2 0
-2171 -2100 0
2171 2 2100 0
-2172 -2170 0
-2172 -2171 0
2172 2170 2171 0
3 -6752 0
-3 6752 0
-253 -127 0
-253 189 0
253 127 -189 0
-447 -120 0
-447 383 0
447 120 -383 0
-641 -113 0
-641 577 0
641 113 -577 0
-835 -106 0
-835 771 0
835 106 -771 0
-1029 -99 0
-1029 965 0
1029 99 -965 0
-1223 -92 0
-1223 1159 0
1223 92 -1159 0
-1417 -85 0
-1417 1353 0
1417 85 -1353 0
-1611 -78 0
-1611 1547 0
1611 78 -1547 0
-1681 -1417 0
-1681 -1611 0
1681 1417 1611 0
-1751 -1223 0
-1751 1681 0
1751 1223 -1681 0
-1821 -1029 0
-1821 1751 0
1821 1029 -1751 0
-1891 -835 0
-1891 1821 0
1891 835 -1821 0
-1961 -641 0
-1961 1891 0
1961 641 -1891 0
-2031 -447 0
-2031 1961 0
2031 447 -1961 0
-2101 -253 0
-2101 2031 0
2101 253 -2031 0
-2173 3 0
-2173 2101 0
2173 -3 -2101 0
-2174 -3 0
-2174 -2101 0
2174 3 2101 0
-2175 -2173 0
-2175 -2174 0
2175 2173 2174 0
-2380 2172 0
-2380 2175 0
2380 -2172 -2175 0
-2381 2178 0
-2381 2380 0
2381 -2178 -2380 0
-2382 2181 0
-2382 2381 0
2382 -2181 -2381 0
-2383 2184 0
-2383 2382 0
2383 -2184 -2382 0
-2384 2187 0
-2384 2383 0
2384 -2187 -2383 0
-2385 2190 0
-2385 2384 0
2385 -2190 -2384 0
-2386 2193 0
-2386 2385 0
2386 -2193 -2385 0
-2387 2196 0
-2387 2386 0
2387 -2196 -2386 0
-2388 2199 0
-2388 2387 0
2388 -2199 -2387 0
-2389 2202 0
-2389 2388 0
2389 -2202 -2388 0
-2390 2205 0
-2390 2389 0
2390 -2205 -2389 0
-2391 2208 0
-2391 2390 0
2391 -2208 -2390 0
-2392 2211 0
-2392 2391 0
2392 -2211 -2391 0
-2393 2214 0
-2393 2392 0
2393 -2214 -2392 0
-2394 2217 0
-2394 2393 0
2394 -2217 -2393 0
-2395 2220 0
-2395 2394 0
2395 -2220 -2394 0
-2396 2223 0
-2396 2395 0
2396 -2223 -2395 0
-2397 2226 0
-2397 2396 0
2397 -2226 -2396 0
-2398 2229 0
-2398 2397 0
2398 -2229 -2397 0
-2399 2232 0
-2399 2398 0
2399 -2232 -2398 0
-2400 2235 0
-2400 2399 0
2400 -2235 -2399 0
-2401 2238 0
-2401 2400 0
2401 -2238 -2400 0
-2402 2241 0
-2402 2401 0
2402 -2241 -2401 0
-2403 2244 0
-2403 2402 0
2403 -2244 -2402 0
-2404 2247 0
-2404 2403 0
2404 -2247 -2403 0
-2405 2250 0
-2405 2404 0
2405 -2250 -2404 0
-2406 2253 0
-2406 2405 0
2406 -2253 -2405 0
-2407 2256 0
-2407 2406 0
2407 -2256 -2406 0
-2408 2259 0
-2408 2407 0
2408 -2259 -2407 0
-2409 2262 0
-2409 2408 0
2409 -2262 -2408 0
-2410 2265 0
-2410 2409 0
2410 -2265 -2409 0
-2411 2268 0
-2411 2410 0
2411 -2268 -2410 0
-2412 2271 0
-2412 2411 0
2412 -2271 -2411 0
-2413 2274 0
-2413 2412 0
2413 -2274 -2412 0
-2414 2277 0
-2414 2413 0
2414 -2277 -2413 0
-2415 2280 0
-2415 2414 0
2415 -2280 -2414 0
-2416 2283 0
-2416 2415 0
2416 -2283 -2415 0
-2417 2286 0
-2417 2416 0
2417 -2286 -2416 0
-2418 2289 0
-2418 2417 0
2418 -2289 -2417 0
-2419 2292 0
-2419 2418 0
2419 -2292 -2418 0
-2420 2295 0
-2420 2419 0
2420 -2295 -2419 0
-2421 2298 0
-2421 2420 0
2421 -2298 -2420 0
-2422 2301 0
-2422 2421 0
2422 -2301 -2421 0
-2423 2304 0
-2423 2422 0
2423 -2304 -2422 0
-2424 2307 0
-2424 2423 0
2424 -2307 -2423 0
-2425 2310 0
-2425 2424 0
2425 -2310 -2424 0
-2426 2313 0
-2426 2425 0
2426 -2313 -2425 0
-2427 2316 0
-2427 2426 0
2427 -2316 -2426 0
-2428 2319 0
-2428 2427 0
2428 -2319 -2427 0
-2429 2322 0
-2429 2428 0
2429 -2322 -2428 0
-2430 2325 0
-2430 2429 0
2430 -2325 -2429 0
-2431 2328 0
-2431 2430 0
2431 -2328 -2430 0
-2432 2331 0
-2432 2431 0
2432 -2331 -2431 0
-2433 2334 0
-2433 2432 0
2433 -2334 -2432 0
-2434 2337 0
-2434 2433 0
2434 -2337 -2433 0
-2435 2340 0
-2435 2434 0
2435 -2340 -2434 0
-2436 2343 0
-2436 2435 0
2436 -2343 -2435 0
-2437 2346 0
-2437 2436 0
2437 -2346 -2436 0
-2438 2349 0
-2438 2437 0
2438 -2349 -2437 0
-2439 2352 0
-2439 2438 0
2439 -2352 -2438 0
-2440 2355 0
-2440 2439 0
2440 -2355 -2439 0
-2441 2358 0
-2441 2440 0
2441 -2358 -2440 0
-2442 2361 0
-2442 2441 0
2442 -2361 -2441 0
-2443 2364 0
-2443 2442 0
2443 -2364 -2442 0
-2444 2367 0
-2444 2443 0
2444 -2367 -2443 0
-2445 2370 0
-2445 2444 0
2445 -2370 -2444 0
-2446 2373 0
-2446 2445 0
2446 -2373 -2445 0
-2447 2376 0
-2447 2446 0
2447 -2376 -2446 0
-2448 2379 0
-2448 2447 0
2448 -2379 -2447 0
-2449 11 0
-2449 16 0
2449 -11 -16 0
-2450 -11 0
-2450 -16 0
2450 11 16 0
-2451 -2449 0
-2451 -2450 0
2451 2449 2450 0
-2455 21 0
-2455 33 0
2455 -21 -33 0
-2456 -21 0
-2456 -33 0
2456 21 33 0
-2457 -2455 0
-2457 -2456 0
2457 2455 2456 0
-2458 2451 0
-2458 2457 0
2458 -2451 -2457 0
-2459 -2451 0
-2459 -2457 0
2459 2451 2457 0
-2460 -2458 0
-2460 -2459 0
2460 2458 2459 0
-2464 41 0
-2464 51 0
2464 -41 -51 0
-2465 -41 0
-2465 -51 0
2465 41 51 0
-2466 -2464 0
-2466 -2465 0
2466 2464 2465 0
-2467 2460 0
-2467 2466 0
2467 -2460 -2466 0
-2468 -2460 0
-2468 -2466 0
2468 2460 2466 0
-2469 -2467 0
-2469 -2468 0
2469 2467 2468 0
-2470 67 0
-2470 2469 0
2470 -67 -2469 0
-2471 -67 0
-2471 -2469 0
2471 67 2469 0
-2472 -2470 0
-2472 -2471 0
2472 2470 2471 0
-2473 2448 0
-2473 -2472 0
2473 -2448 2472 0
-2474 10 0
-2474 15 0
2474 -10 -15 0
-2475 -10 0
-2475 -15 0
2475 10 15 0
-2476 -2474 0
-2476 -2475 0
2476 2474 2475 0
-2480 20 0
-2480 32 0
2480 -20 -32 0
-2481 -20 0
-2481 -32 0
2481 20 32 0
-2482 -2480 0
-2482 -2481 0
2482 2480 2481 0
-2483 2476 0
-2483 2482 0
2483 -2476 -2482 0
-2484 -2476 0
-2484 -2482 0
2484 2476 2482 0
-2485 -2483 0
-2485 -2484 0
2485 2483 2484 0
-2489 40 0
-2489 50 0
2489 -40 -50 0
-2490 -40 0
-2490 -50 0
2490 40 50 0
-2491 -2489 0
-2491 -2490 0
2491 2489 2490 0
-2492 2485 0
-2492 2491 0
2492 -2485 -2491 0
-2493 -2485 0
-2493 -2491 0
2493 2485 2491 0
-2494 -2492 0
-2494 -2493 0
2494 2492 2493 0
-2495 71 0
-2495 2494 0
2495 -71 -2494 0
-2496 -71 0
-2496 -2494 0
2496 71 2494 0
-2497 -2495 0
-2497 -2496 0
2497 2495 2496 0
-2498 2473 0
-2498 -2497 0
2498 -2473 2497 0
-2502 9 0
-2502 14 0
2502 -9 -14 0
-2503 -9 0
-2503 -14 0
2503 9 14 0
-2504 -2502 0
-2504 -2503 0
2504 2502 2503 0
-2508 19 0
-2508 2504 0
2508 -19 -2504 0
-2509 -19 0
-2509 -2504 0
2509 19 2504 0
-2510 -2508 0
-2510 -2509 0
2510 2508 2509 0
-2499 36 0
-2499 39 0
2499 -36 -39 0
-2500 -36 0
-2500 -39 0
2500 36 39 0
-2501 -2499 0
-2501 -2500 0
2501 2499 2500 0
-2511 49 0
-2511 2501 0
2511 -49 -2501 0
-2512 -49 0
-2512 -2501 0
2512 49 2501 0
-2513 -2511 0
-2513 -2512 0
2513 2511 2512 0
-2517 2510 0
-2517 2513 0
2517 -2510 -2513 0
-2518 -2510 0
-2518 -2513 0
2518 2510 2513 0
-2519 -2517 0
-2519 -2518 0
2519 2517 2518 0
-2520 70 0
-2520 2519 0
2520 -70 -2519 0
-2521 -70 0
-2521 -2519 0
2521 70 2519 0
-2522 -2520 0
-2522 -2521 0
2522 2520 2521 0
-2523 2498 0
-2523 -2522 0
2523 -2498 2522 0
-2527 8 0
-2527 13 0
2527 -8 -13 0
-2528 -8 0
-2528 -13 0
2528 8 13 0
-2529 -2527 0
-2529 -2528 0
2529 2527 2528 0
-2533 18 0
-2533 2529 0
2533 -18 -2529 0
-2534 -18 0
-2534 -2529 0
2534 18 2529 0
-2535 -2533 0
-2535 -2534 0
2535 2533 2534 0
-2524 35 0
-2524 38 0
2524 -35 -38 0
-2525 -35 0
-2525 -38 0
2525 35 38 0
-2526 -2524 0
-2526 -2525 0
2526 2524 2525 0
-2536 48 0
-2536 2526 0
2536 -48 -2526 0
-2537 -48 0
-2537 -2526 0
2537 48 2526 0
-2538 -2536 0
-2538 -2537 0
2538 2536 2537 0
-2542 2535 0
-2542 2538 0
2542 -2535 -2538 0
-2543 -2535 0
-2543 -2538 0
2543 2535 2538 0
-2544 -2542 0
-2544 -2543 0
2544 2542 2543 0
-2545 69 0
-2545 2544 0
2545 -69 -2544 0
-2546 -69 0
-2546 -2544 0
2546 69 2544 0
-2547 -2545 0
-2547 -2546 0
2547 2545 2546 0
-2548 2523 0
-2548 -2547 0
2548 -2523 2547 0
-2552 12 0
-2552 17 0
2552 -12 -17 0
-2553 -12 0
-2553 -17 0
2553 12 17 0
-2554 -2552 0
-2554 -2553 0
2554 2552 2553 0
-2555 7 0
-2555 2554 0
2555 -7 -2554 0
-2556 -7 0
-2556 -2554 0
2556 7 2554 0
-2557 -2555 0
-2557 -2556 0
2557 2555 2556 0
-2549 34 0
-2549 37 0
2549 -34 -37 0
-2550 -34 0
-2550 -37 0
2550 34 37 0
-2551 -2549 0
-2551 -2550 0
2551 2549 2550 0
-2558 47 0
-2558 2551 0
2558 -47 -2551 0
-2559 -47 0
-2559 -2551 0
2559 47 2551 0
-2560 -2558 0
-2560 -2559 0
2560 2558 2559 0
-2564 2557 0
-2564 2560 0
2564 -2557 -2560 0
-2565 -2557 0
-2565 -2560 0
2565 2557 2560 0
-2566 -2564 0
-2566 -2565 0
2566 2564 2565 0
-2567 68 0
-2567 2566 0
2567 -68 -2566 0
-2568 -68 0
-2568 -2566 0
2568 68 2566 0
-2569 -2567 0
-2569 -2568 0
2569 2567 2568 0
-2570 2548 0
-2570 -2569 0
2570 -2548 2569 0
-2571 6 0
-2571 2451 0
2571 -6 -2451 0
-2572 -6 0
-2572 -2451 0
2572 6 2451 0
-2573 -2571 0
-2573 -2572 0
2573 2571 2572 0
-2574 28 0
-2574 2573 0
2574 -28 -2573 0
-2575 -28 0
-2575 -2573 0
2575 28 2573 0
-2576 -2574 0
-2576 -2575 0
2576 2574 2575 0
-2580 46 0
-2580 62 0
2580 -46 -62 0
-2581 -46 0
-2581 -62 0
2581 46 62 0
-2582 -2580 0
-2582 -2581 0
2582 2580 2581 0
-2583 2576 0
-2583 2582 0
2583 -2576 -2582 0
-2584 -2576 0
-2584 -2582 0
2584 2576 2582 0
-2585 -2583 0
-2585 -2584 0
2585 2583 2584 0
-2586 71 0
-2586 2585 0
2586 -71 -2585 0
-2587 -71 0
-2587 -2585 0
2587 71 2585 0
-2588 -2586 0
-2588 -2587 0
2588 2586 2587 0
-2589 2570 0
-2589 -2588 0
2589 -2570 2588 0
-2593 66 0
-2593 70 0
2593 -66 -70 0
-2594 -66 0
-2594 -70 0
2594 66 70 0
-2595 -2593 0
-2595 -2594 0
2595 2593 2594 0
-2590 5 0
-2590 2476 0
2590 -5 -2476 0
-2591 -5 0
-2591 -2476 0
2591 5 2476 0
-2592 -2590 0
-2592 -2591 0
2592 2590 2591 0
-2596 27 0
-2596 2592 0
2596 -27 -2592 0
-2597 -27 0
-2597 -2592 0
2597 27 2592 0
-2598 -2596 0
-2598 -2597 0
2598 2596 2597 0
-2599 45 0
-2599 2598 0
2599 -45 -2598 0
-2600 -45 0
-2600 -2598 0
2600 45 2598 0
-2601 -2599 0
-2601 -2600 0
2601 2599 2600 0
-2602 2595 0
-2602 2601 0
2602 -2595 -2601 0
-2603 -2595 0
-2603 -2601 0
2603 2595 2601 0
-2604 -2602 0
-2604 -2603 0
2604 2602 2603 0
-2605 2589 0
-2605 -2604 0
2605 -2589 2604 0
-2606 4 0
-2606 9 0
2606 -4 -9 0
-2607 -4 0
-2607 -9 0
2607 4 9 0
-2608 -2606 0
-2608 -2607 0
2608 2606 2607 0
-2609 14 0
-2609 2608 0
2609 -14 -2608 0
-2610 -14 0
-2610 -2608 0
2610 14 2608 0
-2611 -2609 0
-2611 -2610 0
2611 2609 2610 0
-2615 31 0
-2615 2611 0
2615 -31 -2611 0
-2616 -31 0
-2616 -2611 0
2616 31 2611 0
-2617 -2615 0
-2617 -2616 0
2617 2615 2616 0
-2621 44 0
-2621 65 0
2621 -44 -65 0
-2622 -44 0
-2622 -65 0
2622 44 65 0
-2623 -2621 0
-2623 -2622 0
2623 2621 2622 0
-2624 2617 0
-2624 2623 0
2624 -2617 -2623 0
-2625 -2617 0
-2625 -2623 0
2625 2617 2623 0
-2626 -2624 0
-2626 -2625 0
2626 2624 2625 0
-2627 69 0
-2627 2626 0
2627 -69 -2626 0
-2628 -69 0
-2628 -2626 0
2628 69 2626 0
-2629 -2627 0
-2629 -2628 0
2629 2627 2628 0
-2630 2605 0
-2630 -2629 0
2630 -2605 2629 0
-2631 3 0
-2631 8 0
2631 -3 -8 0
-2632 -3 0
-2632 -8 0
2632 3 8 0
-2633 -2631 0
-2633 -2632 0
2633 2631 2632 0
-2634 13 0
-2634 2633 0
2634 -13 -2633 0
-2635 -13 0
-2635 -2633 0
2635 13 2633 0
-2636 -2634 0
-2636 -2635 0
2636 2634 2635 0
-2640 30 0
-2640 2636 0
2640 -30 -2636 0
-2641 -30 0
-2641 -2636 0
2641 30 2636 0
-2642 -2640 0
-2642 -2641 0
2642 2640 2641 0
-2646 43 0
-2646 64 0
2646 -43 -64 0
-2647 -43 0
-2647 -64 0
2647 43 64 0
-2648 -2646 0
-2648 -2647 0
2648 2646 2647 0
-2649 2642 0
-2649 2648 0
2649 -2642 -2648 0
-2650 -2642 0
-2650 -2648 0
2650 2642 2648 0
-2651 -2649 0
-2651 -2650 0
2651 2649 2650 0
-2652 68 0
-2652 2651 0
2652 -68 -2651 0
-2653 -68 0
-2653 -2651 0
2653 68 2651 0
-2654 -2652 0
-2654 -2653 0
2654 2652 2653 0
-2655 2630 0
-2655 -2654 0
2655 -2630 2654 0
-2656 2 0
-2656 7 0
2656 -2 -7 0
-2657 -2 0
-2657 -7 0
2657 2 7 0
-2658 -2656 0
-2658 -2657 0
2658 2656 2657 0
-2659 12 0
-2659 2658 0
2659 -12 -2658 0
-2660 -12 0
-2660 -2658 0
2660 12 2658 0
-2661 -2659 0
-2661 -2660 0
2661 2659 2660 0
-2665 29 0
-2665 2661 0
2665 -29 -2661 0
-2666 -29 0
-2666 -2661 0
2666 29 2661 0
-2667 -2665 0
-2667 -2666 0
2667 2665 2666 0
-2671 42 0
-2671 63 0
2671 -42 -63 0
-2672 -42 0
-2672 -63 0
2672 42 63 0
-2673 -2671 0
-2673 -2672 0
2673 2671 2672 0
-2674 2667 0
-2674 2673 0
2674 -2667 -2673 0
-2675 -2667 0
-2675 -2673 0
2675 2667 2673 0
-2676 -2674 0
-2676 -2675 0
2676 2674 2675 0
-2677 67 0
-2677 2676 0
2677 -67 -2676 0
-2678 -67 0
-2678 -2676 0
2678 67 2676 0
-2679 -2677 0
-2679 -2678 0
2679 2677 2678 0
-2680 2655 0
-2680 -2679 0
2680 -2655 2679 0
-2681 6 0
-2681 11 0
2681 -6 -11 0
-2682 -6 0
-2682 -11 0
2682 6 11 0
-2683 -2681 0
-2683 -2682 0
2683 2681 2682 0
-2687 23 0
-2687 2683 0
2687 -23 -2683 0
-2688 -23 0
-2688 -2683 0
2688 23 2683 0
-2689 -2687 0
-2689 -2688 0
2689 2687 2688 0
-2684 36 0
-2684 41 0
2684 -36 -41 0
-2685 -36 0
-2685 -41 0
2685 36 41 0
-2686 -2684 0
-2686 -2685 0
2686 2684 2685 0
-2696 57 0
-2696 2686 0
2696 -57 -2686 0
-2697 -57 0
-2697 -2686 0
2697 57 2686 0
-2698 -2696 0
-2698 -2697 0
2698 2696 2697 0
-2699 2689 0
-2699 2698 0
2699 -2689 -2698 0
-2700 -2689 0
-2700 -2698 0
2700 2689 2698 0
-2701 -2699 0
-2701 -2700 0
2701 2699 2700 0
-2702 66 0
-2702 2701 0
2702 -66 -2701 0
-2703 -66 0
-2703 -2701 0
2703 66 2701 0
-2704 -2702 0
-2704 -2703 0
2704 2702 2703 0
-2705 2680 0
-2705 -2704 0
2705 -2680 2704 0
-2706 5 0
-2706 10 0
2706 -5 -10 0
-2707 -5 0
-2707 -10 0
2707 5 10 0
-2708 -2706 0
-2708 -2707 0
2708 2706 2707 0
-2715 22 0
-2715 2708 0
2715 -22 -2708 0
-2716 -22 0
-2716 -2708 0
2716 22 2708 0
-2717 -2715 0
-2717 -2716 0
2717 2715 2716 0
-2709 35 0
-2709 40 0
2709 -35 -40 0
-2710 -35 0
-2710 -40 0
2710 35 40 0
-2711 -2709 0
-2711 -2710 0
2711 2709 2710 0
-2712 61 0
-2712 65 0
2712 -61 -65 0
-2713 -61 0
-2713 -65 0
2713 61 65 0
-2714 -2712 0
-2714 -2713 0
2714 2712 2713 0
-2721 2711 0
-2721 2714 0
2721 -2711 -2714 0
-2722 -2711 0
-2722 -2714 0
2722 2711 2714 0
-2723 -2721 0
-2723 -2722 0
2723 2721 2722 0
-2724 2717 0
-2724 2723 0
2724 -2717 -2723 0
-2725 -2717 0
-2725 -2723 0
2725 2717 2723 0
-2726 -2724 0
-2726 -2725 0
2726 2724 2725 0
-2727 2705 0
-2727 -2726 0
2727 -2705 2726 0
-2734 26 0
-2734 2608 0
2734 -26 -2608 0
-2735 -26 0
-2735 -2608 0
2735 26 2608 0
-2736 -2734 0
-2736 -2735 0
2736 2734 2735 0
-2728 34 0
-2728 39 0
2728 -34 -39 0
-2729 -34 0
-2729 -39 0
2729 34 39 0
-2730 -2728 0
-2730 -2729 0
2730 2728 2729 0
-2731 60 0
-2731 64 0
2731 -60 -64 0
-2732 -60 0
-2732 -64 0
2732 60 64 0
-2733 -2731 0
-2733 -2732 0
2733 2731 2732 0
-2743 2730 0
-2743 2733 0
2743 -2730 -2733 0
-2744 -2730 0
-2744 -2733 0
2744 2730 2733 0
-2745 -2743 0
-2745 -2744 0
2745 2743 2744 0
-2746 2736 0
-2746 2745 0
2746 -2736 -2745 0
-2747 -2736 0
-2747 -2745 0
2747 2736 2745 0
-2748 -2746 0
-2748 -2747 0
2748 2746 2747 0
-2749 2727 0
-2749 -2748 0
2749 -2727 2748 0
-2756 25 0
-2756 33 0
2756 -25 -33 0
-2757 -25 0
-2757 -33 0
2757 25 33 0
-2758 -2756 0
-2758 -2757 0
2758 2756 2757 0
-2759 2633 0
-2759 2758 0
2759 -2633 -2758 0
-2760 -2633 0
-2760 -2758 0
2760 2633 2758 0
-2761 -2759 0
-2761 -2760 0
2761 2759 2760 0
-2753 59 0
-2753 63 0
2753 -59 -63 0
-2754 -59 0
-2754 -63 0
2754 59 63 0
-2755 -2753 0
-2755 -2754 0
2755 2753 2754 0
-2765 38 0
-2765 2755 0
2765 -38 -2755 0
-2766 -38 0
-2766 -2755 0
2766 38 2755 0
-2767 -2765 0
-2767 -2766 0
2767 2765 2766 0
-2768 2761 0
-2768 2767 0
2768 -2761 -2767 0
-2769 -2761 0
-2769 -2767 0
2769 2761 2767 0
-2770 -2768 0
-2770 -2769 0
2770 2768 2769 0
-2771 2749 0
-2771 -2770 0
2771 -2749 2770 0
-2778 24 0
-2778 32 0
2778 -24 -32 0
-2779 -24 0
-2779 -32 0
2779 24 32 0
-2780 -2778 0
-2780 -2779 0
2780 2778 2779 0
-2781 2658 0
-2781 2780 0
2781 -2658 -2780 0
-2782 -2658 0
-2782 -2780 0
2782 2658 2780 0
-2783 -2781 0
-2783 -2782 0
2783 2781 2782 0
-2775 58 0
-2775 62 0
2775 -58 -62 0
-2776 -58 0
-2776 -62 0
2776 58 62 0
-2777 -2775 0
-2777 -2776 0
2777 2775 2776 0
-2787 37 0
-2787 2777 0
2787 -37 -2777 0
-2788 -37 0
-2788 -2777 0
2788 37 2777 0
-2789 -2787 0
-2789 -2788 0
2789 2787 2788 0
-2790 2783 0
-2790 2789 0
2790 -2783 -2789 0
-2791 -2783 0
-2791 -2789 0
2791 2783 2789 0
-2792 -2790 0
-2792 -2791 0
2792 2790 2791 0
-2793 2771 0
-2793 -2792 0
2793 -2771 2792 0
-2797 18 0
-2797 31 0
2797 -18 -31 0
-2798 -18 0
-2798 -31 0
2798 18 31 0
-2799 -2797 0
-2799 -2798 0
2799 2797 2798 0
-2800 6 0
-2800 2799 0
2800 -6 -2799 0
-2801 -6 0
-2801 -2799 0
2801 6 2799 0
-2802 -2800 0
-2802 -2801 0
2802 2800 2801 0
-2803 52 0
-2803 61 0
2803 -52 -61 0
-2804 -52 0
-2804 -61 0
2804 52 61 0
-2805 -2803 0
-2805 -2804 0
2805 2803 2804 0
-2809 36 0
-2809 2805 0
2809 -36 -2805 0
-2810 -36 0
-2810 -2805 0
2810 36 2805 0
-2811 -2809 0
-2811 -2810 0
2811 2809 2810 0
-2812 2802 0
-2812 2811 0
2812 -2802 -2811 0
-2813 -2802 0
-2813 -2811 0
2813 2802 2811 0
-2814 -2812 0
-2814 -2813 0
2814 2812 2813 0
-2815 71 0
-2815 2814 0
2815 -71 -2814 0
-2816 -71 0
-2816 -2814 0
2816 71 2814 0
-2817 -2815 0
-2817 -2816 0
2817 2815 2816 0
-2818 2793 0
-2818 -2817 0
2818 -2793 2817 0
-2819 5 0
-2819 17 0
2819 -5 -17 0
-2820 -5 0
-2820 -17 0
2820 5 17 0
-2821 -2819 0
-2821 -2820 0
2821 2819 2820 0
-2828 30 0
-2828 2821 0
2828 -30 -2821 0
-2829 -30 0
-2829 -2821 0
2829 30 2821 0
-2830 -2828 0
-2830 -2829 0
2830 2828 2829 0
-2825 56 0
-2825 60 0
2825 -56 -60 0
-2826 -56 0
-2826 -60 0
2826 56 60 0
-2827 -2825 0
-2827 -2826 0
2827 2825 2826 0
-2837 35 0
-2837 2827 0
2837 -35 -2827 0
-2838 -35 0
-2838 -2827 0
2838 35 2827 0
-2839 -2837 0
-2839 -2838 0
2839 2837 2838 0
-2840 2830 0
-2840 2839 0
2840 -2830 -2839 0
-2841 -2830 0
-2841 -2839 0
2841 2830 2839 0
-2842 -2840 0
-2842 -2841 0
2842 2840 2841 0
-2843 70 0
-2843 2842 0
2843 -70 -2842 0
-2844 -70 0
-2844 -2842 0
2844 70 2842 0
-2845 -2843 0
-2845 -2844 0
2845 2843 2844 0
-2846 2818 0
-2846 -2845 0
2846 -2818 2845 0
-2853 21 0
-2853 29 0
2853 -21 -29 0
-2854 -21 0
-2854 -29 0
2854 21 29 0
-2855 -2853 0
-2855 -2854 0
2855 2853 2854 0
-2856 4 0
-2856 2855 0
2856 -4 -2855 0
-2857 -4 0
-2857 -2855 0
2857 4 2855 0
-2858 -2856 0
-2858 -2857 0
2858 2856 2857 0
-2850 55 0
-2850 59 0
2850 -55 -59 0
-2851 -55 0
-2851 -59 0
2851 55 59 0
-2852 -2850 0
-2852 -2851 0
2852 2850 2851 0
-2868 34 0
-2868 2852 0
2868 -34 -2852 0
-2869 -34 0
-2869 -2852 0
2869 34 2852 0
-2870 -2868 0
-2870 -2869 0
2870 2868 2869 0
-2871 2858 0
-2871 2870 0
2871 -2858 -2870 0
-2872 -2858 0
-2872 -2870 0
2872 2858 2870 0
-2873 -2871 0
-2873 -2872 0
2873 2871 2872 0
-2874 69 0
-2874 2873 0
2874 -69 -2873 0
-2875 -69 0
-2875 -2873 0
2875 69 2873 0
-2876 -2874 0
-2876 -2875 0
2876 2874 2875 0
-2877 2846 0
-2877 -2876 0
2877 -2846 2876 0
-2881 54 0
-2881 58 0
2881 -54 -58 0
-2882 -54 0
-2882 -58 0
2882 54 58 0
-2883 -2881 0
-2883 -2882 0
2883 2881 2882 0
-2878 28 0
-2878 33 0
2878 -28 -33 0
-2879 -28 0
-2879 -33 0
2879 28 33 0
-2880 -2878 0
-2880 -2879 0
2880 2878 2879 0
-2884 20 0
-2884 2880 0
2884 -20 -2880 0
-2885 -20 0
-2885 -2880 0
2885 20 2880 0
-2886 -2884 0
-2886 -2885 0
2886 2884 2885 0
-2887 3 0
-2887 2886 0
2887 -3 -2886 0
-2888 -3 0
-2888 -2886 0
2888 3 2886 0
-2889 -2887 0
-2889 -2888 0
2889 2887 2888 0
-2896 2883 0
-2896 2889 0
2896 -2883 -2889 0
-2897 -2883 0
-2897 -2889 0
2897 2883 2889 0
-2898 -2896 0
-2898 -2897 0
2898 2896 2897 0
-2899 68 0
-2899 2898 0
2899 -68 -2898 0
-2900 -68 0
-2900 -2898 0
2900 68 2898 0
-2901 -2899 0
-2901 -2900 0
2901 2899 2900 0
-2902 2877 0
-2902 -2901 0
2902 -2877 2901 0
-2906 53 0
-2906 57 0
2906 -53 -57 0
-2907 -53 0
-2907 -57 0
2907 53 57 0
-2908 -2906 0
-2908 -2907 0
2908 2906 2907 0
-2903 27 0
-2903 32 0
2903 -27 -32 0
-2904 -27 0
-2904 -32 0
2904 27 32 0
-2905 -2903 0
-2905 -2904 0
2905 2903 2904 0
-2909 19 0
-2909 2905 0
2909 -19 -2905 0
-2910 -19 0
-2910 -2905 0
2910 19 2905 0
-2911 -2909 0
-2911 -2910 0
2911 2909 2910 0
-2912 2 0
-2912 2911 0
2912 -2 -2911 0
-2913 -2 0
-2913 -2911 0
2913 2 2911 0
-2914 -2912 0
-2914 -2913 0
2914 2912 2913 0
-2921 2908 0
-2921 2914 0
2921 -2908 -2914 0
-2922 -2908 0
-2922 -2914 0
2922 2908 2914 0
-2923 -2921 0
-2923 -2922 0
2923 2921 2922 0
-2924 67 0
-2924 2923 0
2924 -67 -2923 0
-2925 -67 0
-2925 -2923 0
2925 67 2923 0
-2926 -2924 0
-2926 -2925 0
2926 2924 2925 0
-2927 2902 0
-2927 -2926 0
2927 -2902 2926 0
-2928 26 0
-2928 31 0
2928 -26 -31 0
-2929 -26 0
-2929 -31 0
2929 26 31 0
-2930 -2928 0
-2930 -2929 0
2930 2928 2929 0
-2931 13 0
-2931 2930 0
2931 -13 -2930 0
-2932 -13 0
-2932 -2930 0
2932 13 2930 0
-2933 -2931 0
-2933 -2932 0
2933 2931 2932 0
-2934 36 0
-2934 47 0
2934 -36 -47 0
-2935 -36 0
-2935 -47 0
2935 36 47 0
-2936 -2934 0
-2936 -2935 0
2936 2934 2935 0
-2949 56 0
-2949 2936 0
2949 -56 -2936 0
-2950 -56 0
-2950 -2936 0
2950 56 2936 0
-2951 -2949 0
-2951 -2950 0
2951 2949 2950 0
-2952 2933 0
-2952 2951 0
2952 -2933 -2951 0
-2953 -2933 0
-2953 -2951 0
2953 2933 2951 0
-2954 -2952 0
-2954 -2953 0
2954 2952 2953 0
-2955 66 0
-2955 2954 0
2955 -66 -2954 0
-2956 -66 0
-2956 -2954 0
2956 66 2954 0
-2957 -2955 0
-2957 -2956 0
2957 2955 2956 0
-2958 2927 0
-2958 -2957 0
2958 -2927 2957 0
-2959 25 0
-2959 30 0
2959 -25 -30 0
-2960 -25 0
-2960 -30 0
2960 25 30 0
-2961 -2959 0
-2961 -2960 0
2961 2959 2960 0
-2965 12 0
-2965 2961 0
2965 -12 -2961 0
-2966 -12 0
-2966 -2961 0
2966 12 2961 0
-2967 -2965 0
-2967 -2966 0
2967 2965 2966 0
-2962 51 0
-2962 55 0
2962 -51 -55 0
-2963 -51 0
-2963 -55 0
2963 51 55 0
-2964 -2962 0
-2964 -2963 0
2964 2962 2963 0
-2974 65 0
-2974 2964 0
2974 -65 -2964 0
-2975 -65 0
-2975 -2964 0
2975 65 2964 0
-2976 -2974 0
-2976 -2975 0
2976 2974 2975 0
-2980 35 0
-2980 2976 0
2980 -35 -2976 0
-2981 -35 0
-2981 -2976 0
2981 35 2976 0
-2982 -2980 0
-2982 -2981 0
2982 2980 2981 0
-2983 2967 0
-2983 2982 0
2983 -2967 -2982 0
-2984 -2967 0
-2984 -2982 0
2984 2967 2982 0
-2985 -2983 0
-2985 -2984 0
2985 2983 2984 0
-2986 2958 0
-2986 -2985 0
2986 -2958 2985 0
-2987 24 0
-2987 29 0
2987 -24 -29 0
-2988 -24 0
-2988 -29 0
2988 24 29 0
-2989 -2987 0
-2989 -2988 0
2989 2987 2988 0
-2993 16 0
-2993 2989 0
2993 -16 -2989 0
-2994 -16 0
-2994 -2989 0
2994 16 2989 0
-2995 -2993 0
-2995 -2994 0
2995 2993 2994 0
-2990 50 0
-2990 54 0
2990 -50 -54 0
-2991 -50 0
-2991 -54 0
2991 50 54 0
-2992 -2990 0
-2992 -2991 0
2992 2990 2991 0
-3002 64 0
-3002 2992 0
3002 -64 -2992 0
-3003 -64 0
-3003 -2992 0
3003 64 2992 0
-3004 -3002 0
-3004 -3003 0
3004 3002 3003 0
-3008 34 0
-3008 3004 0
3008 -34 -3004 0
-3009 -34 0
-3009 -3004 0
3009 34 3004 0
-3010 -3008 0
-3010 -3009 0
3010 3008 3009 0
-3011 2995 0
-3011 3010 0
3011 -2995 -3010 0
-3012 -2995 0
-3012 -3010 0
3012 2995 3010 0
-3013 -3011 0
-3013 -3012 0
3013 3011 3012 0
-3014 2986 0
-3014 -3013 0
3014 -2986 3013 0
-3021 23 0
-3021 2880 0
3021 -23 -2880 0
-3022 -23 0
-3022 -2880 0
3022 23 2880 0
-3023 -3021 0
-3023 -3022 0
3023 3021 3022 0
-3024 15 0
-3024 3023 0
3024 -15 -3023 0
-3025 -15 0
-3025 -3023 0
3025 15 3023 0
-3026 -3024 0
-3026 -3025 0
3026 3024 3025 0
-3033 53 0
-3033 63 0
3033 -53 -63 0
-3034 -53 0
-3034 -63 0
3034 53 63 0
-3035 -3033 0
-3035 -3034 0
3035 3033 3034 0
-3036 49 0
-3036 3035 0
3036 -49 -3035 0
-3037 -49 0
-3037 -3035 0
3037 49 3035 0
-3038 -3036 0
-3038 -3037 0
3038 3036 3037 0
-3039 3026 0
-3039 3038 0
3039 -3026 -3038 0
-3040 -3026 0
-3040 -3038 0
3040 3026 3038 0
-3041 -3039 0
-3041 -3040 0
3041 3039 3040 0
-3042 3014 0
-3042 -3041 0
3042 -3014 3041 0
-3049 22 0
-3049 2905 0
3049 -22 -2905 0
-3050 -22 0
-3050 -2905 0
3050 22 2905 0
-3051 -3049 0
-3051 -3050 0
3051 3049 3050 0
-3052 14 0
-3052 3051 0
3052 -14 -3051 0
-3053 -14 0
-3053 -3051 0
3053 14 3051 0
-3054 -3052 0
-3054 -3053 0
3054 3052 3053 0
-3061 52 0
-3061 62 0
3061 -52 -62 0
-3062 -52 0
-3062 -62 0
3062 52 62 0
-3063 -3061 0
-3063 -3062 0
3063 3061 3062 0
-3064 48 0
-3064 3063 0
3064 -48 -3063 0
-3065 -48 0
-3065 -3063 0
3065 48 3063 0
-3066 -3064 0
-3066 -3065 0
3066 3064 3065 0
-3067 3054 0
-3067 3066 0
3067 -3054 -3066 0
-3068 -3054 0
-3068 -3066 0
3068 3054 3066 0
-3069 -3067 0
-3069 -3068 0
3069 3067 3068 0
-3070 3042 0
-3070 -3069 0
3070 -3042 3069 0
-3074 21 0
-3074 2930 0
3074 -21 -2930 0
-3075 -21 0
-3075 -2930 0
3075 21 2930 0
-3076 -3074 0
-3076 -3075 0
3076 3074 3075 0
-3077 8 0
-3077 3076 0
3077 -8 -3076 0
-3078 -8 0
-3078 -3076 0
3078 8 3076 0
-3079 -3077 0
-3079 -3078 0
3079 3077 3078 0
-3089 51 0
-3089 61 0
3089 -51 -61 0
-3090 -51 0
-3090 -61 0
3090 51 61 0
-3091 -3089 0
-3091 -3090 0
3091 3089 3090 0
-3092 42 0
-3092 3091 0
3092 -42 -3091 0
-3093 -42 0
-3093 -3091 0
3093 42 3091 0
-3094 -3092 0
-3094 -3093 0
3094 3092 3093 0
-3095 3079 0
-3095 3094 0
3095 -3079 -3094 0
-3096 -3079 0
-3096 -3094 0
3096 3079 3094 0
-3097 -3095 0
-3097 -3096 0
3097 3095 3096 0
-3098 3070 0
-3098 -3097 0
3098 -3070 3097 0
-3099 20 0
-3099 25 0
3099 -20 -25 0
-3100 -20 0
-3100 -25 0
3100 20 25 0
-3101 -3099 0
-3101 -3100 0
3101 3099 3100 0
-3105 30 0
-3105 3101 0
3105 -30 -3101 0
-3106 -30 0
-3106 -3101 0
3106 30 3101 0
-3107 -3105 0
-3107 -3106 0
3107 3105 3106 0
-3108 7 0
-3108 3107 0
3108 -7 -3107 0
-3109 -7 0
-3109 -3107 0
3109 7 3107 0
-3110 -3108 0
-3110 -3109 0
3110 3108 3109 0
-3114 50 0
-3114 60 0
3114 -50 -60 0
-3115 -50 0
-3115 -60 0
3115 50 60 0
-3116 -3114 0
-3116 -3115 0
3116 3114 3115 0
-3117 46 0
-3117 3116 0
3117 -46 -3116 0
-3118 -46 0
-3118 -3116 0
3118 46 3116 0
-3119 -3117 0
-3119 -3118 0
3119 3117 3118 0
-3120 3110 0
-3120 3119 0
3120 -3110 -3119 0
-3121 -3110 0
-3121 -3119 0
3121 3110 3119 0
-3122 -3120 0
-3122 -3121 0
3122 3120 3121 0
-3123 3098 0
-3123 -3122 0
3123 -3098 3122 0
-3124 19 0
-3124 24 0
3124 -19 -24 0
-3125 -19 0
-3125 -24 0
3125 19 24 0
-3126 -3124 0
-3126 -3125 0
3126 3124 3125 0
-3130 29 0
-3130 3126 0
3130 -29 -3126 0
-3131 -29 0
-3131 -3126 0
3131 29 3126 0
-3132 -3130 0
-3132 -3131 0
3132 3130 3131 0
-3133 11 0
-3133 3132 0
3133 -11 -3132 0
-3134 -11 0
-3134 -3132 0
3134 11 3132 0
-3135 -3133 0
-3135 -3134 0
3135 3133 3134 0
-3127 45 0
-3127 49 0
3127 -45 -49 0
-3128 -45 0
-3128 -49 0
3128 45 49 0
-3129 -3127 0
-3129 -3128 0
3129 3127 3128 0
-3136 59 0
-3136 3129 0
3136 -59 -3129 0
-3137 -59 0
-3137 -3129 0
3137 59 3129 0
-3138 -3136 0
-3138 -3137 0
3138 3136 3137 0
-3142 3135 0
-3142 3138 0
3142 -3135 -3138 0
-3143 -3135 0
-3143 -3138 0
3143 3135 3138 0
-3144 -3142 0
-3144 -3143 0
3144 3142 3143 0
-3145 3123 0
-3145 -3144 0
3145 -3123 3144 0
-3146 18 0
-3146 23 0
3146 -18 -23 0
-3147 -18 0
-3147 -23 0
3147 18 23 0
-3148 -3146 0
-3148 -3147 0
3148 3146 3147 0
-3152 28 0
-3152 3148 0
3152 -28 -3148 0
-3153 -28 0
-3153 -3148 0
3153 28 3148 0
-3154 -3152 0
-3154 -3153 0
3154 3152 3153 0
-3155 10 0
-3155 3154 0
3155 -10 -3154 0
-3156 -10 0
-3156 -3154 0
3156 10 3154 0
-3157 -3155 0
-3157 -3156 0
3157 3155 3156 0
-3149 44 0
-3149 48 0
3149 -44 -48 0
-3150 -44 0
-3150 -48 0
3150 44 48 0
-3151 -3149 0
-3151 -3150 0
3151 3149 3150 0
-3158 58 0
-3158 3151 0
3158 -58 -3151 0
-3159 -58 0
-3159 -3151 0
3159 58 3151 0
-3160 -3158 0
-3160 -3159 0
3160 3158 3159 0
-3164 3157 0
-3164 3160 0
3164 -3157 -3160 0
-3165 -3157 0
-3165 -3160 0
3165 3157 3160 0
-3166 -3164 0
-3166 -3165 0
3166 3164 3165 0
-3167 3145 0
-3167 -3166 0
3167 -3145 3166 0
-3043 22 0
-3043 27 0
3043 -22 -27 0
-3044 -22 0
-3044 -27 0
3044 22 27 0
-3045 -3043 0
-3045 -3044 0
3045 3043 3044 0
-3168 9 0
-3168 17 0
3168 -9 -17 0
-3169 -9 0
-3169 -17 0
3169 9 17 0
-3170 -3168 0
-3170 -3169 0
3170 3168 3169 0
-3177 3045 0
-3177 3170 0
3177 -3045 -3170 0
-3178 -3045 0
-3178 -3170 0
3178 3045 3170 0
-3179 -3177 0
-3179 -3178 0
3179 3177 3178 0
-3174 43 0
-3174 47 0
3174 -43 -47 0
-3175 -43 0
-3175 -47 0
3175 43 47 0
-3176 -3174 0
-3176 -3175 0
3176 3174 3175 0
-3180 57 0
-3180 3176 0
3180 -57 -3176 0
-3181 -57 0
-3181 -3176 0
3181 57 3176 0
-3182 -3180 0
-3182 -3181 0
3182 3180 3181 0
-3186 3179 0
-3186 3182 0
3186 -3179 -3182 0
-3187 -3179 0
-3187 -3182 0
3187 3179 3182 0
-3188 -3186 0
-3188 -3187 0
3188 3186 3187 0
-3189 3167 0
-3189 -3188 0
3189 -3167 3188 0
-3071 21 0
-3071 26 0
3071 -21 -26 0
-3072 -21 0
-3072 -26 0
3072 21 26 0
-3073 -3071 0
-3073 -3072 0
3073 3071 3072 0
-3190 3 0
-3190 16 0
3190 -3 -16 0
-3191 -3 0
-3191 -16 0
3191 3 16 0
-3192 -3190 0
-3192 -3191 0
3192 3190 3191 0
-3193 3073 0
-3193 3192 0
3193 -3073 -3192 0
-3194 -3073 0
-3194 -3192 0
3194 3073 3192 0
-3195 -3193 0
-3195 -3194 0
3195 3193 3194 0
-3196 37 0
-3196 46 0
3196 -37 -46 0
-3197 -37 0
-3197 -46 0
3197 37 46 0
-3198 -3196 0
-3198 -3197 0
3198 3196 3197 0
-3205 56 0
-3205 3198 0
3205 -56 -3198 0
-3206 -56 0
-3206 -3198 0
3206 56 3198 0
-3207 -3205 0
-3207 -3206 0
3207 3205 3206 0
-3208 3195 0
-3208 3207 0
3208 -3195 -3207 0
-3209 -3195 0
-3209 -3207 0
3209 3195 3207 0
-3210 -3208 0
-3210 -3209 0
3210 3208 3209 0
-3211 3189 0
-3211 -3210 0
3211 -3189 3210 0
-3212 2 0
-3212 15 0
3212 -2 -15 0
-3213 -2 0
-3213 -15 0
3213 2 15 0
-3214 -3212 0
-3214 -3213 0
3214 3212 3213 0
-3218 3101 0
-3218 3214 0
3218 -3101 -3214 0
-3219 -3101 0
-3219 -3214 0
3219 3101 3214 0
-3220 -3218 0
-3220 -3219 0
3220 3218 3219 0
-3215 41 0
-3215 45 0
3215 -41 -45 0
-3216 -41 0
-3216 -45 0
3216 41 45 0
-3217 -3215 0
-3217 -3216 0
3217 3215 3216 0
-3221 55 0
-3221 3217 0
3221 -55 -3217 0
-3222 -55 0
-3222 -3217 0
3222 55 3217 0
-3223 -3221 0
-3223 -3222 0
3223 3221 3222 0
-3227 3220 0
-3227 3223 0
3227 -3220 -3223 0
-3228 -3220 0
-3228 -3223 0
3228 3220 3223 0
-3229 -3227 0
-3229 -3228 0
3229 3227 3228 0
-3230 3211 0
-3230 -3229 0
3230 -3211 3229 0
-3231 6 0
-3231 14 0
3231 -6 -14 0
-3232 -6 0
-3232 -14 0
3232 6 14 0
-3233 -3231 0
-3233 -3232 0
3233 3231 3232 0
-3237 3126 0
-3237 3233 0
3237 -3126 -3233 0
-3238 -3126 0
-3238 -3233 0
3238 3126 3233 0
-3239 -3237 0
-3239 -3238 0
3239 3237 3238 0
-3234 40 0
-3234 44 0
3234 -40 -44 0
-3235 -40 0
-3235 -44 0
3235 40 44 0
-3236 -3234 0
-3236 -3235 0
3236 3234 3235 0
-3240 54 0
-3240 3236 0
3240 -54 -3236 0
-3241 -54 0
-3241 -3236 0
3241 54 3236 0
-3242 -3240 0
-3242 -3241 0
3242 3240 3241 0
-3246 3239 0
-3246 3242 0
3246 -3239 -3242 0
-3247 -3239 0
-3247 -3242 0
3247 3239 3242 0
-3248 -3246 0
-3248 -3247 0
3248 3246 3247 0
-3249 3230 0
-3249 -3248 0
3249 -3230 3248 0
-3250 5 0
-3250 13 0
3250 -5 -13 0
-3251 -5 0
-3251 -13 0
3251 5 13 0
-3252 -3250 0
-3252 -3251 0
3252 3250 3251 0
-3256 3148 0
-3256 3252 0
3256 -3148 -3252 0
-3257 -3148 0
-3257 -3252 0
3257 3148 3252 0
-3258 -3256 0
-3258 -3257 0
3258 3256 3257 0
-3253 39 0
-3253 43 0
3253 -39 -43 0
-3254 -39 0
-3254 -43 0
3254 39 43 0
-3255 -3253 0
-3255 -3254 0
3255 3253 3254 0
-3259 53 0
-3259 3255 0
3259 -53 -3255 0
-3260 -53 0
-3260 -3255 0
3260 53 3255 0
-3261 -3259 0
-3261 -3260 0
3261 3259 3260 0
-3265 3258 0
-3265 3261 0
3265 -3258 -3261 0
-3266 -3258 0
-3266 -3261 0
3266 3258 3261 0
-3267 -3265 0
-3267 -3266 0
3267 3265 3266 0
-3268 3249 0
-3268 -3267 0
3268 -3249 3267 0
-3269 4 0
-3269 2554 0
3269 -4 -2554 0
-3270 -4 0
-3270 -2554 0
3270 4 2554 0
-3271 -3269 0
-3271 -3270 0
3271 3269 3270 0
-3275 22 0
-3275 3271 0
3275 -22 -3271 0
-3276 -22 0
-3276 -3271 0
3276 22 3271 0
-3277 -3275 0
-3277 -3276 0
3277 3275 3276 0
-3272 38 0
-3272 42 0
3272 -38 -42 0
-3273 -38 0
-3273 -42 0
3273 38 42 0
-3274 -3272 0
-3274 -3273 0
3274 3272 3273 0
-3278 52 0
-3278 3274 0
3278 -52 -3274 0
-3279 -52 0
-3279 -3274 0
3279 52 3274 0
-3280 -3278 0
-3280 -3279 0
3280 3278 3279 0
-3284 3277 0
-3284 3280 0
3284 -3277 -3280 0
-3285 -3277 0
-3285 -3280 0
3285 3277 3280 0
-3286 -3284 0
-3286 -3285 0
3286 3284 3285 0
-3287 3268 0
-3287 -3286 0
3287 -3268 3286 0
-3291 11 0
-3291 12 0
3291 -11 -12 0
-3292 -11 0
-3292 -12 0
3292 11 12 0
-3293 -3291 0
-3293 -3292 0
3293 3291 3292 0
-3288 2 0
-3288 4 0
3288 -2 -4 0
-3289 -2 0
-3289 -4 0
3289 2 4 0
-3290 -3288 0
-3290 -3289 0
3290 3288 3289 0
-3294 6 0
-3294 3290 0
3294 -6 -3290 0
-3295 -6 0
-3295 -3290 0
3295 6 3290 0
-3296 -3294 0
-3296 -3295 0
3296 3294 3295 0
-3300 3293 0
-3300 3296 0
3300 -3293 -3296 0
-3301 -3293 0
-3301 -3296 0
3301 3293 3296 0
-3302 -3300 0
-3302 -3301 0
3302 3300 3301 0
-3297 22 0
-3297 25 0
3297 -22 -25 0
-3298 -22 0
-3298 -25 0
3298 22 25 0
-3299 -3297 0
-3299 -3298 0
3299 3297 3298 0
-3303 18 0
-3303 3299 0
3303 -18 -3299 0
-3304 -18 0
-3304 -3299 0
3304 18 3299 0
-3305 -3303 0
-3305 -3304 0
3305 3303 3304 0
-3321 29 0
-3321 33 0
3321 -29 -33 0
-3322 -29 0
-3322 -33 0
3322 29 33 0
-3323 -3321 0
-3323 -3322 0
3323 3321 3322 0
-3324 3305 0
-3324 3323 0
3324 -3305 -3323 0
-3325 -3305 0
-3325 -3323 0
3325 3305 3323 0
-3326 -3324 0
-3326 -3325 0
3326 3324 3325 0
-3327 3302 0
-3327 3326 0
3327 -3302 -3326 0
-3328 -3302 0
-3328 -3326 0
3328 3302 3326 0
-3329 -3327 0
-3329 -3328 0
3329 3327 3328 0
-3339 -71 0
-3339 3329 0
3339 71 -3329 0
-3340 71 0
-3340 -3329 0
3340 -71 3329 0
-3341 -3339 0
-3341 -3340 0
3341 3339 3340 0
-3345 8 0
-3345 9 0
3345 -8 -9 0
-3346 -8 0
-3346 -9 0
3346 8 9 0
-3347 -3345 0
-3347 -3346 0
3347 3345 3346 0
-3360 7 0
-3360 3347 0
3360 -7 -3347 0
-3361 -7 0
-3361 -3347 0
3361 7 3347 0
-3362 -3360 0
-3362 -3361 0
3362 3360 3361 0
-3363 3290 0
-3363 3362 0
3363 -3290 -3362 0
-3364 -3290 0
-3364 -3362 0
3364 3290 3362 0
-3365 -3363 0
-3365 -3364 0
3365 3363 3364 0
-3348 12 0
-3348 13 0
3348 -12 -13 0
-3349 -12 0
-3349 -13 0
3349 12 13 0
-3350 -3348 0
-3350 -3349 0
3350 3348 3349 0
-3366 11 0
-3366 3350 0
3366 -11 -3350 0
-3367 -11 0
-3367 -3350 0
3367 11 3350 0
-3368 -3366 0
-3368 -3367 0
3368 3366 3367 0
-3354 14 0
-3354 15 0
3354 -14 -15 0
-3355 -14 0
-3355 -15 0
3355 14 15 0
-3356 -3354 0
-3356 -3355 0
3356 3354 3355 0
-3387 17 0
-3387 3356 0
3387 -17 -3356 0
-3388 -17 0
-3388 -3356 0
3388 17 3356 0
-3389 -3387 0
-3389 -3388 0
3389 3387 3388 0
-3402 3368 0
-3402 3389 0
3402 -3368 -3389 0
-3403 -3368 0
-3403 -3389 0
3403 3368 3389 0
-3404 -3402 0
-3404 -3403 0
3404 3402 3403 0
-3405 3365 0
-3405 3404 0
3405 -3365 -3404 0
-3406 -3365 0
-3406 -3404 0
3406 3365 3404 0
-3407 -3405 0
-3407 -3406 0
3407 3405 3406 0
-3357 22 0
-3357 23 0
3357 -22 -23 0
-3358 -22 0
-3358 -23 0
3358 22 23 0
-3359 -3357 0
-3359 -3358 0
3359 3357 3358 0
-3393 25 0
-3393 3359 0
3393 -25 -3359 0
-3394 -25 0
-3394 -3359 0
3394 25 3359 0
-3395 -3393 0
-3395 -3394 0
3395 3393 3394 0
-3438 28 0
-3438 32 0
3438 -28 -32 0
-3439 -28 0
-3439 -32 0
3439 28 32 0
-3440 -3438 0
-3440 -3439 0
3440 3438 3439 0
-3441 3395 0
-3441 3440 0
3441 -3395 -3440 0
-3442 -3395 0
-3442 -3440 0
3442 3395 3440 0
-3443 -3441 0
-3443 -3442 0
3443 3441 3442 0
-3444 3407 0
-3444 3443 0
3444 -3407 -3443 0
-3445 -3407 0
-3445 -3443 0
3445 3407 3443 0
-3446 -3444 0
-3446 -3445 0
3446 3444 3445 0
-3459 -70 0
-3459 3446 0
3459 70 -3446 0
-3460 70 0
-3460 -3446 0
3460 -70 3446 0
-3461 -3459 0
-3461 -3460 0
3461 3459 3460 0
-3483 34 0
-3483 35 0
3483 -34 -35 0
-3484 -34 0
-3484 -35 0
3484 34 35 0
-3485 -3483 0
-3485 -3484 0
3485 3483 3484 0
-3462 6 0
-3462 7 0
3462 -6 -7 0
-3463 -6 0
-3463 -7 0
3463 6 7 0
-3464 -3462 0
-3464 -3463 0
3464 3462 3463 0
-3486 8 0
-3486 3464 0
3486 -8 -3464 0
-3487 -8 0
-3487 -3464 0
3487 8 3464 0
-3488 -3486 0
-3488 -3487 0
3488 3486 3487 0
-3489 3 0
-3489 3488 0
3489 -3 -3488 0
-3490 -3 0
-3490 -3488 0
3490 3 3488 0
-3491 -3489 0
-3491 -3490 0
3491 3489 3490 0
-3390 15 0
-3390 17 0
3390 -15 -17 0
-3391 -15 0
-3391 -17 0
3391 15 17 0
-3392 -3390 0
-3392 -3391 0
3392 3390 3391 0
-3465 10 0
-3465 11 0
3465 -10 -11 0
-3466 -10 0
-3466 -11 0
3466 10 11 0
-3467 -3465 0
-3467 -3466 0
3467 3465 3466 0
-3525 3392 0
-3525 3467 0
3525 -3392 -3467 0
-3526 -3392 0
-3526 -3467 0
3526 3392 3467 0
-3527 -3525 0
-3527 -3526 0
3527 3525 3526 0
-3528 3491 0
-3528 3527 0
3528 -3491 -3527 0
-3529 -3491 0
-3529 -3527 0
3529 3491 3527 0
-3530 -3528 0
-3530 -3529 0
3530 3528 3529 0
-3396 23 0
-3396 25 0
3396 -23 -25 0
-3397 -23 0
-3397 -25 0
3397 23 25 0
-3398 -3396 0
-3398 -3397 0
3398 3396 3397 0
-3471 18 0
-3471 19 0
3471 -18 -19 0
-3472 -18 0
-3472 -19 0
3472 18 19 0
-3473 -3471 0
-3473 -3472 0
3473 3471 3472 0
-3507 20 0
-3507 3473 0
3507 -20 -3473 0
-3508 -20 0
-3508 -3473 0
3508 20 3473 0
-3509 -3507 0
-3509 -3508 0
3509 3507 3508 0
-3531 3398 0
-3531 3509 0
3531 -3398 -3509 0
-3532 -3398 0
-3532 -3509 0
3532 3398 3509 0
-3533 -3531 0
-3533 -3532 0
3533 3531 3532 0
-3477 32 0
-3477 33 0
3477 -32 -33 0
-3478 -32 0
-3478 -33 0
3478 32 33 0
-3479 -3477 0
-3479 -3478 0
3479 3477 3478 0
-3570 27 0
-3570 3479 0
3570 -27 -3479 0
-3571 -27 0
-3571 -3479 0
3571 27 3479 0
-3572 -3570 0
-3572 -3571 0
3572 3570 3571 0
-3582 3533 0
-3582 3572 0
3582 -3533 -3572 0
-3583 -3533 0
-3583 -3572 0
3583 3533 3572 0
-3584 -3582 0
-3584 -3583 0
3584 3582 3583 0
-3585 3530 0
-3585 3584 0
3585 -3530 -3584 0
-3586 -3530 0
-3586 -3584 0
3586 3530 3584 0
-3587 -3585 0
-3587 -3586 0
3587 3585 3586 0
-3615 3485 0
-3615 3587 0
3615 -3485 -3587 0
-3616 -3485 0
-3616 -3587 0
3616 3485 3587 0
-3617 -3615 0
-3617 -3616 0
3617 3615 3616 0
-3618 -69 0
-3618 3617 0
3618 69 -3617 0
-3619 69 0
-3619 -3617 0
3619 -69 3617 0
-3620 -3618 0
-3620 -3619 0
3620 3618 3619 0
-3621 3 0
-3621 4 0
3621 -3 -4 0
-3622 -3 0
-3622 -4 0
3622 3 4 0
-3623 -3621 0
-3623 -3622 0
3623 3621 3622 0
-3645 9 0
-3645 3464 0
3645 -9 -3464 0
-3646 -9 0
-3646 -3464 0
3646 9 3464 0
-3647 -3645 0
-3647 -3646 0
3647 3645 3646 0
-3648 3623 0
-3648 3647 0
3648 -3623 -3647 0
-3649 -3623 0
-3649 -3647 0
3649 3623 3647 0
-3650 -3648 0
-3650 -3649 0
3650 3648 3649 0
-3651 3350 0
-3651 3467 0
3651 -3350 -3467 0
-3652 -3350 0
-3652 -3467 0
3652 3350 3467 0
-3653 -3651 0
-3653 -3652 0
3653 3651 3652 0
-3630 16 0
-3630 17 0
3630 -16 -17 0
-3631 -16 0
-3631 -17 0
3631 16 17 0
-3632 -3630 0
-3632 -3631 0
3632 3630 3631 0
-3672 15 0
-3672 3632 0
3672 -15 -3632 0
-3673 -15 0
-3673 -3632 0
3673 15 3632 0
-3674 -3672 0
-3674 -3673 0
3674 3672 3673 0
-3708 3653 0
-3708 3674 0
3708 -3653 -3674 0
-3709 -3653 0
-3709 -3674 0
3709 3653 3674 0
-3710 -3708 0
-3710 -3709 0
3710 3708 3709 0
-3711 3650 0
-3711 3710 0
3711 -3650 -3710 0
-3712 -3650 0
-3712 -3710 0
3712 3650 3710 0
-3713 -3711 0
-3713 -3712 0
3713 3711 3712 0
-3684 21 0
-3684 3473 0
3684 -21 -3473 0
-3685 -21 0
-3685 -3473 0
3685 21 3473 0
-3686 -3684 0
-3686 -3685 0
3686 3684 3685 0
-3693 22 0
-3693 24 0
3693 -22 -24 0
-3694 -22 0
-3694 -24 0
3694 22 24 0
-3695 -3693 0
-3695 -3694 0
3695 3693 3694 0
-3714 3686 0
-3714 3695 0
3714 -3686 -3695 0
-3715 -3686 0
-3715 -3695 0
3715 3686 3695 0
-3716 -3714 0
-3716 -3715 0
3716 3714 3715 0
-3639 28 0
-3639 29 0
3639 -28 -29 0
-3640 -28 0
-3640 -29 0
3640 28 29 0
-3641 -3639 0
-3641 -3640 0
3641 3639 3640 0
-3699 27 0
-3699 3641 0
3699 -27 -3641 0
-3700 -27 0
-3700 -3641 0
3700 27 3641 0
-3701 -3699 0
-3701 -3700 0
3701 3699 3700 0
-3756 30 0
-3756 3701 0
3756 -30 -3701 0
-3757 -30 0
-3757 -3701 0
3757 30 3701 0
-3758 -3756 0
-3758 -3757 0
3758 3756 3757 0
-3765 3716 0
-3765 3758 0
3765 -3716 -3758 0
-3766 -3716 0
-3766 -3758 0
3766 3716 3758 0
-3767 -3765 0
-3767 -3766 0
3767 3765 3766 0
-3768 3713 0
-3768 3767 0
3768 -3713 -3767 0
-3769 -3713 0
-3769 -3767 0
3769 3713 3767 0
-3770 -3768 0
-3770 -3769 0
3770 3768 3769 0
-3795 35 0
-3795 3770 0
3795 -35 -3770 0
-3796 -35 0
-3796 -3770 0
3796 35 3770 0
-3797 -3795 0
-3797 -3796 0
3797 3795 3796 0
-3798 -68 0
-3798 3797 0
3798 68 -3797 0
-3799 68 0
-3799 -3797 0
3799 -68 3797 0
-3800 -3798 0
-3800 -3799 0
3800 3798 3799 0
-3804 6 0
-3804 3347 0
3804 -6 -3347 0
-3805 -6 0
-3805 -3347 0
3805 6 3347 0
-3806 -3804 0
-3806 -3805 0
3806 3804 3805 0
-3807 4 0
-3807 3806 0
3807 -4 -3806 0
-3808 -4 0
-3808 -3806 0
3808 4 3806 0
-3809 -3807 0
-3809 -3808 0
3809 3807 3808 0
-3810 12 0
-3810 3467 0
3810 -12 -3467 0
-3811 -12 0
-3811 -3467 0
3811 12 3467 0
-3812 -3810 0
-3812 -3811 0
3812 3810 3811 0
-3828 16 0
-3828 3356 0
3828 -16 -3356 0
-3829 -16 0
-3829 -3356 0
3829 16 3356 0
-3830 -3828 0
-3830 -3829 0
3830 3828 3829 0
-3840 3812 0
-3840 3830 0
3840 -3812 -3830 0
-3841 -3812 0
-3841 -3830 0
3841 3812 3830 0
-3842 -3840 0
-3842 -3841 0
3842 3840 3841 0
-3843 3809 0
-3843 3842 0
3843 -3809 -3842 0
-3844 -3809 0
-3844 -3842 0
3844 3809 3842 0
-3845 -3843 0
-3845 -3844 0
3845 3843 3844 0
-3801 24 0
-3801 25 0
3801 -24 -25 0
-3802 -24 0
-3802 -25 0
3802 24 25 0
-3803 -3801 0
-3803 -3802 0
3803 3801 3802 0
-3837 22 0
-3837 3803 0
3837 -22 -3803 0
-3838 -22 0
-3838 -3803 0
3838 22 3803 0
-3839 -3837 0
-3839 -3838 0
3839 3837 3838 0
-3846 19 0
-3846 3839 0
3846 -19 -3839 0
-3847 -19 0
-3847 -3839 0
3847 19 3839 0
-3848 -3846 0
-3848 -3847 0
3848 3846 3847 0
-3882 30 0
-3882 3848 0
3882 -30 -3848 0
-3883 -30 0
-3883 -3848 0
3883 30 3848 0
-3884 -3882 0
-3884 -3883 0
3884 3882 3883 0
-3885 3845 0
-3885 3884 0
3885 -3845 -3884 0
-3886 -3845 0
-3886 -3884 0
3886 3845 3884 0
-3887 -3885 0
-3887 -3886 0
3887 3885 3886 0
-3903 34 0
-3903 3887 0
3903 -34 -3887 0
-3904 -34 0
-3904 -3887 0
3904 34 3887 0
-3905 -3903 0
-3905 -3904 0
3905 3903 3904 0
-3906 -67 0
-3906 3905 0
3906 67 -3905 0
-3907 67 0
-3907 -3905 0
3907 -67 3905 0
-3908 -3906 0
-3908 -3907 0
3908 3906 3907 0
-3909 2 0
-3909 3 0
3909 -2 -3 0
-3910 -2 0
-3910 -3 0
3910 2 3 0
-3911 -3909 0
-3911 -3910 0
3911 3909 3910 0
-3912 4 0
-3912 5 0
3912 -4 -5 0
-3913 -4 0
-3913 -5 0
3913 4 5 0
-3914 -3912 0
-3914 -3913 0
3914 3912 3913 0
-3915 3911 0
-3915 3914 0
3915 -3911 -3914 0
-3916 -3911 0
-3916 -3914 0
3916 3911 3914 0
-3917 -3915 0
-3917 -3916 0
3917 3915 3916 0
-3918 3347 0
-3918 3917 0
3918 -3347 -3917 0
-3919 -3347 0
-3919 -3917 0
3919 3347 3917 0
-3920 -3918 0
-3920 -3919 0
3920 3918 3919 0
-3921 13 0
-3921 3467 0
3921 -13 -3467 0
-3922 -13 0
-3922 -3467 0
3922 13 3467 0
-3923 -3921 0
-3923 -3922 0
3923 3921 3922 0
-3939 3920 0
-3939 3923 0
3939 -3920 -3923 0
-3940 -3920 0
-3940 -3923 0
3940 3920 3923 0
-3941 -3939 0
-3941 -3940 0
3941 3939 3940 0
-3942 24 0
-3942 3686 0
3942 -24 -3686 0
-3943 -24 0
-3943 -3686 0
3943 24 3686 0
-3944 -3942 0
-3944 -3943 0
3944 3942 3943 0
-3969 2880 0
-3969 3944 0
3969 -2880 -3944 0
-3970 -2880 0
-3970 -3944 0
3970 2880 3944 0
-3971 -3969 0
-3971 -3970 0
3971 3969 3970 0
-3972 3941 0
-3972 3971 0
3972 -3941 -3971 0
-3973 -3941 0
-3973 -3971 0
3973 3941 3971 0
-3974 -3972 0
-3974 -3973 0
3974 3972 3973 0
-3990 35 0
-3990 3974 0
3990 -35 -3974 0
-3991 -35 0
-3991 -3974 0
3991 35 3974 0
-3992 -3990 0
-3992 -3991 0
3992 3990 3991 0
-3993 -66 0
-3993 3992 0
3993 66 -3992 0
-3994 66 0
-3994 -3992 0
3994 -66 3992 0
-3995 -3993 0
-3995 -3994 0
3995 3993 3994 0
-3996 4 0
-3996 3911 0
3996 -4 -3911 0
-3997 -4 0
-3997 -3911 0
3997 4 3911 0
-3998 -3996 0
-3998 -3997 0
3998 3996 3997 0
-3999 3347 0
-3999 3464 0
3999 -3347 -3464 0
-4000 -3347 0
-4000 -3464 0
4000 3347 3464 0
-4001 -3999 0
-4001 -4000 0
4001 3999 4000 0
-4002 3998 0
-4002 4001 0
4002 -3998 -4001 0
-4003 -3998 0
-4003 -4001 0
4003 3998 4001 0
-4004 -4002 0
-4004 -4003 0
4004 4002 4003 0
-4005 10 0
-4005 12 0
4005 -10 -12 0
-4006 -10 0
-4006 -12 0
4006 10 12 0
-4007 -4005 0
-4007 -4006 0
4007 4005 4006 0
-4026 17 0
-4026 4007 0
4026 -17 -4007 0
-4027 -17 0
-4027 -4007 0
4027 17 4007 0
-4028 -4026 0
-4028 -4027 0
4028 4026 4027 0
-4029 4004 0
-4029 4028 0
4029 -4004 -4028 0
-4030 -4004 0
-4030 -4028 0
4030 4004 4028 0
-4031 -4029 0
-4031 -4030 0
4031 4029 4030 0
-4020 18 0
-4020 20 0
4020 -18 -20 0
-4021 -18 0
-4021 -20 0
4021 18 20 0
-4022 -4020 0
-4022 -4021 0
4022 4020 4021 0
-4032 23 0
-4032 4022 0
4032 -23 -4022 0
-4033 -23 0
-4033 -4022 0
4033 23 4022 0
-4034 -4032 0
-4034 -4033 0
4034 4032 4033 0
-4056 2905 0
-4056 4034 0
4056 -2905 -4034 0
-4057 -2905 0
-4057 -4034 0
4057 2905 4034 0
-4058 -4056 0
-4058 -4057 0
4058 4056 4057 0
-4059 4031 0
-4059 4058 0
4059 -4031 -4058 0
-4060 -4031 0
-4060 -4058 0
4060 4031 4058 0
-4061 -4059 0
-4061 -4060 0
4061 4059 4060 0
-4074 34 0
-4074 65 0
4074 -34 -65 0
-4075 -34 0
-4075 -65 0
4075 34 65 0
-4076 -4074 0
-4076 -4075 0
4076 4074 4075 0
-4077 4061 0
-4077 4076 0
4077 -4061 -4076 0
-4078 -4061 0
-4078 -4076 0
4078 4061 4076 0
-4079 -4077 0
-4079 -4078 0
4079 4077 4078 0
-4080 4 0
-4080 3362 0
4080 -4 -3362 0
-4081 -4 0
-4081 -3362 0
4081 4 3362 0
-4082 -4080 0
-4082 -4081 0
4082 4080 4081 0
-4095 3404 0
-4095 4082 0
4095 -3404 -4082 0
-4096 -3404 0
-4096 -4082 0
4096 3404 4082 0
-4097 -4095 0
-4097 -4096 0
4097 4095 4096 0
-3930 19 0
-3930 21 0
3930 -19 -21 0
-3931 -19 0
-3931 -21 0
3931 19 21 0
-3932 -3930 0
-3932 -3931 0
3932 3930 3931 0
-4098 22 0
-4098 3932 0
4098 -22 -3932 0
-4099 -22 0
-4099 -3932 0
4099 22 3932 0
-4100 -4098 0
-4100 -4099 0
4100 4098 4099 0
-4089 30 0
-4089 32 0
4089 -30 -32 0
-4090 -30 0
-4090 -32 0
4090 30 32 0
-4091 -4089 0
-4091 -4090 0
4091 4089 4090 0
-4131 3701 0
-4131 4091 0
4131 -3701 -4091 0
-4132 -3701 0
-4132 -4091 0
4132 3701 4091 0
-4133 -4131 0
-4133 -4132 0
4133 4131 4132 0
-4149 4100 0
-4149 4133 0
4149 -4100 -4133 0
-4150 -4100 0
-4150 -4133 0
4150 4100 4133 0
-4151 -4149 0
-4151 -4150 0
4151 4149 4150 0
-4152 4097 0
-4152 4151 0
4152 -4097 -4151 0
-4153 -4097 0
-4153 -4151 0
4153 4097 4151 0
-4154 -4152 0
-4154 -4153 0
4154 4152 4153 0
-4182 64 0
-4182 3485 0
4182 -64 -3485 0
-4183 -64 0
-4183 -3485 0
4183 64 3485 0
-4184 -4182 0
-4184 -4183 0
4184 4182 4183 0
-4185 4154 0
-4185 4184 0
4185 -4154 -4184 0
-4186 -4154 0
-4186 -4184 0
4186 4154 4184 0
-4187 -4185 0
-4187 -4186 0
4187 4185 4186 0
-4194 3 0
-4194 9 0
4194 -3 -9 0
-4195 -3 0
-4195 -9 0
4195 3 9 0
-4196 -4194 0
-4196 -4195 0
4196 4194 4195 0
-4209 14 0
-4209 16 0
4209 -14 -16 0
-4210 -14 0
-4210 -16 0
4210 14 16 0
-4211 -4209 0
-4211 -4210 0
4211 4209 4210 0
-4236 3350 0
-4236 4211 0
4236 -3350 -4211 0
-4237 -3350 0
-4237 -4211 0
4237 3350 4211 0
-4238 -4236 0
-4238 -4237 0
4238 4236 4237 0
-4239 4196 0
-4239 4238 0
4239 -4196 -4238 0
-4240 -4196 0
-4240 -4238 0
4240 4196 4238 0
-4241 -4239 0
-4241 -4240 0
4241 4239 4240 0
-4188 20 0
-4188 21 0
4188 -20 -21 0
-4189 -20 0
-4189 -21 0
4189 20 21 0
-4190 -4188 0
-4190 -4189 0
4190 4188 4189 0
-4215 18 0
-4215 4190 0
4215 -18 -4190 0
-4216 -18 0
-4216 -4190 0
4216 18 4190 0
-4217 -4215 0
-4217 -4216 0
4217 4215 4216 0
-4227 3359 0
-4227 3803 0
4227 -3359 -3803 0
-4228 -3359 0
-4228 -3803 0
4228 3359 3803 0
-4229 -4227 0
-4229 -4228 0
4229 4227 4228 0
-4242 4217 0
-4242 4229 0
4242 -4217 -4229 0
-4243 -4217 0
-4243 -4229 0
4243 4217 4229 0
-4244 -4242 0
-4244 -4243 0
4244 4242 4243 0
-4287 4091 0
-4287 4244 0
4287 -4091 -4244 0
-4288 -4091 0
-4288 -4244 0
4288 4091 4244 0
-4289 -4287 0
-4289 -4288 0
4289 4287 4288 0
-4290 4241 0
-4290 4289 0
4290 -4241 -4289 0
-4291 -4241 0
-4291 -4289 0
4291 4241 4289 0
-4292 -4290 0
-4292 -4291 0
4292 4290 4291 0
-4314 35 0
-4314 63 0
4314 -35 -63 0
-4315 -35 0
-4315 -63 0
4315 35 63 0
-4316 -4314 0
-4316 -4315 0
4316 4314 4315 0
-4317 4292 0
-4317 4316 0
4317 -4292 -4316 0
-4318 -4292 0
-4318 -4316 0
4318 4292 4316 0
-4319 -4317 0
-4319 -4318 0
4319 4317 4318 0
-4320 2 0
-4320 8 0
4320 -2 -8 0
-4321 -2 0
-4321 -8 0
4321 2 8 0
-4322 -4320 0
-4322 -4321 0
4322 4320 4321 0
-4332 14 0
-4332 4322 0
4332 -14 -4322 0
-4333 -14 0
-4333 -4322 0
4333 14 4322 0
-4334 -4332 0
-4334 -4333 0
4334 4332 4333 0
-4323 18 0
-4323 21 0
4323 -18 -21 0
-4324 -18 0
-4324 -21 0
4324 18 21 0
-4325 -4323 0
-4325 -4324 0
4325 4323 4324 0
-4335 25 0
-4335 4325 0
4335 -25 -4325 0
-4336 -25 0
-4336 -4325 0
4336 25 4325 0
-4337 -4335 0
-4337 -4336 0
4337 4335 4336 0
-4350 29 0
-4350 3479 0
4350 -29 -3479 0
-4351 -29 0
-4351 -3479 0
4351 29 3479 0
-4352 -4350 0
-4352 -4351 0
4352 4350 4351 0
-4359 4337 0
-4359 4352 0
4359 -4337 -4352 0
-4360 -4337 0
-4360 -4352 0
4360 4337 4352 0
-4361 -4359 0
-4361 -4360 0
4361 4359 4360 0
-4362 4334 0
-4362 4361 0
4362 -4334 -4361 0
-4363 -4334 0
-4363 -4361 0
4363 4334 4361 0
-4364 -4362 0
-4364 -4363 0
4364 4362 4363 0
-4383 35 0
-4383 62 0
4383 -35 -62 0
-4384 -35 0
-4384 -62 0
4384 35 62 0
-4385 -4383 0
-4385 -4384 0
4385 4383 4384 0
-4386 4364 0
-4386 4385 0
4386 -4364 -4385 0
-4387 -4364 0
-4387 -4385 0
4387 4364 4385 0
-4388 -4386 0
-4388 -4387 0
4388 4386 4387 0
-4389 3 0
-4389 3914 0
4389 -3 -3914 0
-4390 -3 0
-4390 -3914 0
4390 3 3914 0
-4391 -4389 0
-4391 -4390 0
4391 4389 4390 0
-4395 6 0
-4395 8 0
4395 -6 -8 0
-4396 -6 0
-4396 -8 0
4396 6 8 0
-4397 -4395 0
-4397 -4396 0
4397 4395 4396 0
-4398 4391 0
-4398 4397 0
4398 -4391 -4397 0
-4399 -4391 0
-4399 -4397 0
4399 4391 4397 0
-4400 -4398 0
-4400 -4399 0
4400 4398 4399 0
-4407 13 0
-4407 4211 0
4407 -13 -4211 0
-4408 -13 0
-4408 -4211 0
4408 13 4211 0
-4409 -4407 0
-4409 -4408 0
4409 4407 4408 0
-4410 4400 0
-4410 4409 0
4410 -4400 -4409 0
-4411 -4400 0
-4411 -4409 0
4411 4400 4409 0
-4412 -4410 0
-4412 -4411 0
4412 4410 4411 0
-4413 19 0
-4413 23 0
4413 -19 -23 0
-4414 -19 0
-4414 -23 0
4414 19 23 0
-4415 -4413 0
-4415 -4414 0
4415 4413 4414 0
-4404 30 0
-4404 3479 0
4404 -30 -3479 0
-4405 -30 0
-4405 -3479 0
4405 30 3479 0
-4406 -4404 0
-4406 -4405 0
4406 4404 4405 0
-4434 28 0
-4434 4406 0
4434 -28 -4406 0
-4435 -28 0
-4435 -4406 0
4435 28 4406 0
-4436 -4434 0
-4436 -4435 0
4436 4434 4435 0
-4449 4415 0
-4449 4436 0
4449 -4415 -4436 0
-4450 -4415 0
-4450 -4436 0
4450 4415 4436 0
-4451 -4449 0
-4451 -4450 0
4451 4449 4450 0
-4452 4412 0
-4452 4451 0
4452 -4412 -4451 0
-4453 -4412 0
-4453 -4451 0
4453 4412 4451 0
-4454 -4452 0
-4454 -4453 0
4454 4452 4453 0
-4479 61 0
-4479 3485 0
4479 -61 -3485 0
-4480 -61 0
-4480 -3485 0
4480 61 3485 0
-4481 -4479 0
-4481 -4480 0
4481 4479 4480 0
-4482 4454 0
-4482 4481 0
4482 -4454 -4481 0
-4483 -4454 0
-4483 -4481 0
4483 4454 4481 0
-4484 -4482 0
-4484 -4483 0
4484 4482 4483 0
-4503 3392 0
-4503 3653 0
4503 -3392 -3653 0
-4504 -3392 0
-4504 -3653 0
4504 3392 3653 0
-4505 -4503 0
-4505 -4504 0
4505 4503 4504 0
-4506 3806 0
-4506 4505 0
4506 -3806 -4505 0
-4507 -3806 0
-4507 -4505 0
4507 3806 4505 0
-4508 -4506 0
-4508 -4507 0
4508 4506 4507 0
-4500 27 0
-4500 29 0
4500 -27 -29 0
-4501 -27 0
-4501 -29 0
4501 27 29 0
-4502 -4500 0
-4502 -4501 0
4502 4500 4501 0
-4491 19 0
-4491 4190 0
4491 -19 -4190 0
-4492 -19 0
-4492 -4190 0
4492 19 4190 0
-4493 -4491 0
-4493 -4492 0
4493 4491 4492 0
-4509 22 0
-4509 4493 0
4509 -22 -4493 0
-4510 -22 0
-4510 -4493 0
4510 22 4493 0
-4511 -4509 0
-4511 -4510 0
4511 4509 4510 0
-4542 4502 0
-4542 4511 0
4542 -4502 -4511 0
-4543 -4502 0
-4543 -4511 0
4543 4502 4511 0
-4544 -4542 0
-4544 -4543 0
4544 4542 4543 0
-4545 4508 0
-4545 4544 0
4545 -4508 -4544 0
-4546 -4508 0
-4546 -4544 0
4546 4508 4544 0
-4547 -4545 0
-4547 -4546 0
4547 4545 4546 0
-4563 35 0
-4563 60 0
4563 -35 -60 0
-4564 -35 0
-4564 -60 0
4564 35 60 0
-4565 -4563 0
-4565 -4564 0
4565 4563 4564 0
-4566 4547 0
-4566 4565 0
4566 -4547 -4565 0
-4567 -4547 0
-4567 -4565 0
4567 4547 4565 0
-4568 -4566 0
-4568 -4567 0
4568 4566 4567 0
-4572 14 0
-4572 3632 0
4572 -14 -3632 0
-4573 -14 0
-4573 -3632 0
4573 14 3632 0
-4574 -4572 0
-4574 -4573 0
4574 4572 4573 0
-4584 4007 0
-4584 4574 0
4584 -4007 -4574 0
-4585 -4007 0
-4585 -4574 0
4585 4007 4574 0
-4586 -4584 0
-4586 -4585 0
4586 4584 4585 0
-4587 4004 0
-4587 4586 0
4587 -4004 -4586 0
-4588 -4004 0
-4588 -4586 0
4588 4004 4586 0
-4589 -4587 0
-4589 -4588 0
4589 4587 4588 0
-4626 30 0
-4626 4502 0
4626 -30 -4502 0
-4627 -30 0
-4627 -4502 0
4627 30 4502 0
-4628 -4626 0
-4628 -4627 0
4628 4626 4627 0
-4635 4229 0
-4635 4628 0
4635 -4229 -4628 0
-4636 -4229 0
-4636 -4628 0
4636 4229 4628 0
-4637 -4635 0
-4637 -4636 0
4637 4635 4636 0
-4638 4589 0
-4638 4637 0
4638 -4589 -4637 0
-4639 -4589 0
-4639 -4637 0
4639 4589 4637 0
-4640 -4638 0
-4640 -4639 0
4640 4638 4639 0
-4665 34 0
-4665 59 0
4665 -34 -59 0
-4666 -34 0
-4666 -59 0
4666 34 59 0
-4667 -4665 0
-4667 -4666 0
4667 4665 4666 0
-4668 4640 0
-4668 4667 0
4668 -4640 -4667 0
-4669 -4640 0
-4669 -4667 0
4669 4640 4667 0
-4670 -4668 0
-4670 -4669 0
4670 4668 4669 0
-3927 11 0
-3927 13 0
3927 -11 -13 0
-3928 -11 0
-3928 -13 0
3928 11 13 0
-3929 -3927 0
-3929 -3928 0
3929 3927 3928 0
-4680 3674 0
-4680 3929 0
4680 -3674 -3929 0
-4681 -3674 0
-4681 -3929 0
4681 3674 3929 0
-4682 -4680 0
-4682 -4681 0
4682 4680 4681 0
-4683 4082 0
-4683 4682 0
4683 -4082 -4682 0
-4684 -4082 0
-4684 -4682 0
4684 4082 4682 0
-4685 -4683 0
-4685 -4684 0
4685 4683 4684 0
-4686 25 0
-4686 3509 0
4686 -25 -3509 0
-4687 -25 0
-4687 -3509 0
4687 25 3509 0
-4688 -4686 0
-4688 -4687 0
4688 4686 4687 0
-4677 30 0
-4677 33 0
4677 -30 -33 0
-4678 -30 0
-4678 -33 0
4678 30 33 0
-4679 -4677 0
-4679 -4678 0
4679 4677 4678 0
-4719 27 0
-4719 4679 0
4719 -27 -4679 0
-4720 -27 0
-4720 -4679 0
4720 27 4679 0
-4721 -4719 0
-4721 -4720 0
4721 4719 4720 0
-4725 4688 0
-4725 4721 0
4725 -4688 -4721 0
-4726 -4688 0
-4726 -4721 0
4726 4688 4721 0
-4727 -4725 0
-4727 -4726 0
4727 4725 4726 0
-4728 4685 0
-4728 4727 0
4728 -4685 -4727 0
-4729 -4685 0
-4729 -4727 0
4729 4685 4727 0
-4730 -4728 0
-4730 -4729 0
4730 4728 4729 0
-4746 58 0
-4746 4730 0
4746 -58 -4730 0
-4747 -58 0
-4747 -4730 0
4747 58 4730 0
-4748 -4746 0
-4748 -4747 0
4748 4746 4747 0
-4749 13 0
-4749 16 0
4749 -13 -16 0
-4750 -13 0
-4750 -16 0
4750 13 16 0
-4751 -4749 0
-4751 -4750 0
4751 4749 4750 0
-4755 4196 0
-4755 4751 0
4755 -4196 -4751 0
-4756 -4196 0
-4756 -4751 0
4756 4196 4751 0
-4757 -4755 0
-4757 -4756 0
4757 4755 4756 0
-4758 20 0
-4758 24 0
4758 -20 -24 0
-4759 -20 0
-4759 -24 0
4759 20 24 0
-4760 -4758 0
-4760 -4759 0
4760 4758 4759 0
-3636 27 0
-3636 28 0
3636 -27 -28 0
-3637 -27 0
-3637 -28 0
3637 27 28 0
-3638 -3636 0
-3638 -3637 0
3638 3636 3637 0
-4779 3638 0
-4779 4091 0
4779 -3638 -4091 0
-4780 -3638 0
-4780 -4091 0
4780 3638 4091 0
-4781 -4779 0
-4781 -4780 0
4781 4779 4780 0
-4788 4760 0
-4788 4781 0
4788 -4760 -4781 0
-4789 -4760 0
-4789 -4781 0
4789 4760 4781 0
-4790 -4788 0
-4790 -4789 0
4790 4788 4789 0
-4791 4757 0
-4791 4790 0
4791 -4757 -4790 0
-4792 -4757 0
-4792 -4790 0
4792 4757 4790 0
-4793 -4791 0
-4793 -4792 0
4793 4791 4792 0
-4809 57 0
-4809 4793 0
4809 -57 -4793 0
-4810 -57 0
-4810 -4793 0
4810 57 4793 0
-4811 -4809 0
-4811 -4810 0
4811 4809 4810 0
-4812 2 0
-4812 3914 0
4812 -2 -3914 0
-4813 -2 0
-4813 -3914 0
4813 2 3914 0
-4814 -4812 0
-4814 -4813 0
4814 4812 4813 0
-4815 3464 0
-4815 4814 0
4815 -3464 -4814 0
-4816 -3464 0
-4816 -4814 0
4816 3464 4814 0
-4817 -4815 0
-4817 -4816 0
4817 4815 4816 0
-4821 14 0
-4821 17 0
4821 -14 -17 0
-4822 -14 0
-4822 -17 0
4822 14 17 0
-4823 -4821 0
-4823 -4822 0
4823 4821 4822 0
-4836 10 0
-4836 4823 0
4836 -10 -4823 0
-4837 -10 0
-4837 -4823 0
4837 10 4823 0
-4838 -4836 0
-4838 -4837 0
4838 4836 4837 0
-4839 4817 0
-4839 4838 0
4839 -4817 -4838 0
-4840 -4817 0
-4840 -4838 0
4840 4817 4838 0
-4841 -4839 0
-4841 -4840 0
4841 4839 4840 0
-4842 3398 0
-4842 4493 0
4842 -3398 -4493 0
-4843 -3398 0
-4843 -4493 0
4843 3398 4493 0
-4844 -4842 0
-4844 -4843 0
4844 4842 4843 0
-4890 4133 0
-4890 4844 0
4890 -4133 -4844 0
-4891 -4133 0
-4891 -4844 0
4891 4133 4844 0
-4892 -4890 0
-4892 -4891 0
4892 4890 4891 0
-4893 4841 0
-4893 4892 0
4893 -4841 -4892 0
-4894 -4841 0
-4894 -4892 0
4894 4841 4892 0
-4895 -4893 0
-4895 -4894 0
4895 4893 4894 0
-4914 56 0
-4914 4895 0
4914 -56 -4895 0
-4915 -56 0
-4915 -4895 0
4915 56 4895 0
-4916 -4914 0
-4916 -4915 0
4916 4914 4915 0
-4917 2 0
-4917 9 0
4917 -2 -9 0
-4918 -2 0
-4918 -9 0
4918 2 9 0
-4919 -4917 0
-4919 -4918 0
4919 4917 4918 0
-4932 3293 0
-4932 3830 0
4932 -3293 -3830 0
-4933 -3293 0
-4933 -3830 0
4933 3293 3830 0
-4934 -4932 0
-4934 -4933 0
4934 4932 4933 0
-4935 4919 0
-4935 4934 0
4935 -4919 -4934 0
-4936 -4919 0
-4936 -4934 0
4936 4919 4934 0
-4937 -4935 0
-4937 -4936 0
4937 4935 4936 0
-4929 3473 0
-4929 4190 0
4929 -3473 -4190 0
-4930 -3473 0
-4930 -4190 0
4930 3473 4190 0
-4931 -4929 0
-4931 -4930 0
4931 4929 4930 0
-4938 3695 0
-4938 4931 0
4938 -3695 -4931 0
-4939 -3695 0
-4939 -4931 0
4939 3695 4931 0
-4940 -4938 0
-4940 -4939 0
4940 4938 4939 0
-4977 4406 0
-4977 4940 0
4977 -4406 -4940 0
-4978 -4406 0
-4978 -4940 0
4978 4406 4940 0
-4979 -4977 0
-4979 -4978 0
4979 4977 4978 0
-4980 4937 0
-4980 4979 0
4980 -4937 -4979 0
-4981 -4937 0
-4981 -4979 0
4981 4937 4979 0
-4982 -4980 0
-4982 -4981 0
4982 4980 4981 0
-5004 55 0
-5004 3485 0
5004 -55 -3485 0
-5005 -55 0
-5005 -3485 0
5005 55 3485 0
-5006 -5004 0
-5006 -5005 0
5006 5004 5005 0
-5007 4982 0
-5007 5006 0
5007 -4982 -5006 0
-5008 -4982 0
-5008 -5006 0
5008 4982 5006 0
-5009 -5007 0
-5009 -5008 0
5009 5007 5008 0
-5013 4007 0
-5013 4397 0
5013 -4007 -4397 0
-5014 -4007 0
-5014 -4397 0
5014 4007 4397 0
-5015 -5013 0
-5015 -5014 0
5015 5013 5014 0
-5016 21 0
-5016 3839 0
5016 -21 -3839 0
-5017 -21 0
-5017 -3839 0
5017 21 3839 0
-5018 -5016 0
-5018 -5017 0
5018 5016 5017 0
-5031 29 0
-5031 5018 0
5031 -29 -5018 0
-5032 -29 0
-5032 -5018 0
5032 29 5018 0
-5033 -5031 0
-5033 -5032 0
5033 5031 5032 0
-5034 5015 0
-5034 5033 0
5034 -5015 -5033 0
-5035 -5015 0
-5035 -5033 0
5035 5015 5033 0
-5036 -5034 0
-5036 -5035 0
5036 5034 5035 0
-5055 35 0
-5055 54 0
5055 -35 -54 0
-5056 -35 0
-5056 -54 0
5056 35 54 0
-5057 -5055 0
-5057 -5056 0
5057 5055 5056 0
-5058 5036 0
-5058 5057 0
5058 -5036 -5057 0
-5059 -5036 0
-5059 -5057 0
5059 5036 5057 0
-5060 -5058 0
-5060 -5059 0
5060 5058 5059 0
-5061 3998 0
-5061 4397 0
5061 -3998 -4397 0
-5062 -3998 0
-5062 -4397 0
5062 3998 4397 0
-5063 -5061 0
-5063 -5062 0
5063 5061 5062 0
-5070 3356 0
-5070 3653 0
5070 -3356 -3653 0
-5071 -3356 0
-5071 -3653 0
5071 3356 3653 0
-5072 -5070 0
-5072 -5071 0
5072 5070 5071 0
-5073 5063 0
-5073 5072 0
5073 -5063 -5072 0
-5074 -5063 0
-5074 -5072 0
5074 5063 5072 0
-5075 -5073 0
-5075 -5074 0
5075 5073 5074 0
-5076 20 0
-5076 3299 0
5076 -20 -3299 0
-5077 -20 0
-5077 -3299 0
5077 20 3299 0
-5078 -5076 0
-5078 -5077 0
5078 5076 5077 0
-5103 28 0
-5103 5078 0
5103 -28 -5078 0
-5104 -28 0
-5104 -5078 0
5104 28 5078 0
-5105 -5103 0
-5105 -5104 0
5105 5103 5104 0
-5106 5075 0
-5106 5105 0
5106 -5075 -5105 0
-5107 -5075 0
-5107 -5105 0
5107 5075 5105 0
-5108 -5106 0
-5108 -5107 0
5108 5106 5107 0
-5121 34 0
-5121 53 0
5121 -34 -53 0
-5122 -34 0
-5122 -53 0
5122 34 53 0
-5123 -5121 0
-5123 -5122 0
5123 5121 5122 0
-5124 5108 0
-5124 5123 0
5124 -5108 -5123 0
-5125 -5108 0
-5125 -5123 0
5125 5108 5123 0
-5126 -5124 0
-5126 -5125 0
5126 5124 5125 0
-5127 4 0
-5127 8 0
5127 -4 -8 0
-5128 -4 0
-5128 -8 0
5128 4 8 0
-5129 -5127 0
-5129 -5128 0
5129 5127 5128 0
-5133 11 0
-5133 15 0
5133 -11 -15 0
-5134 -11 0
-5134 -15 0
5134 11 15 0
-5135 -5133 0
-5135 -5134 0
5135 5133 5134 0
-5136 5129 0
-5136 5135 0
5136 -5129 -5135 0
-5137 -5129 0
-5137 -5135 0
5137 5129 5135 0
-5138 -5136 0
-5138 -5137 0
5138 5136 5137 0
-5139 19 0
-5139 3395 0
5139 -19 -3395 0
-5140 -19 0
-5140 -3395 0
5140 19 3395 0
-5141 -5139 0
-5141 -5140 0
5141 5139 5140 0
-5160 27 0
-5160 33 0
5160 -27 -33 0
-5161 -27 0
-5161 -33 0
5161 27 33 0
-5162 -5160 0
-5162 -5161 0
5162 5160 5161 0
-5163 5141 0
-5163 5162 0
5163 -5141 -5162 0
-5164 -5141 0
-5164 -5162 0
5164 5141 5162 0
-5165 -5163 0
-5165 -5164 0
5165 5163 5164 0
-5166 5138 0
-5166 5165 0
5166 -5138 -5165 0
-5167 -5138 0
-5167 -5165 0
5167 5138 5165 0
-5168 -5166 0
-5168 -5167 0
5168 5166 5167 0
-5184 52 0
-5184 5168 0
5184 -52 -5168 0
-5185 -52 0
-5185 -5168 0
5185 52 5168 0
-5186 -5184 0
-5186 -5185 0
5186 5184 5185 0
-5187 3488 0
-5187 3623 0
5187 -3488 -3623 0
-5188 -3488 0
-5188 -3623 0
5188 3488 3623 0
-5189 -5187 0
-5189 -5188 0
5189 5187 5188 0
-5190 3356 0
-5190 3632 0
5190 -3356 -3632 0
-5191 -3356 0
-5191 -3632 0
5191 3356 3632 0
-5192 -5190 0
-5192 -5191 0
5192 5190 5191 0
-5202 3812 0
-5202 5192 0
5202 -3812 -5192 0
-5203 -3812 0
-5203 -5192 0
5203 3812 5192 0
-5204 -5202 0
-5204 -5203 0
5204 5202 5203 0
-5205 5189 0
-5205 5204 0
5205 -5189 -5204 0
-5206 -5189 0
-5206 -5204 0
5206 5189 5204 0
-5207 -5205 0
-5207 -5206 0
5207 5205 5206 0
-5208 3932 0
-5208 4229 0
5208 -3932 -4229 0
-5209 -3932 0
-5209 -4229 0
5209 3932 4229 0
-5210 -5208 0
-5210 -5209 0
5210 5208 5209 0
-5247 5162 0
-5247 5210 0
5247 -5162 -5210 0
-5248 -5162 0
-5248 -5210 0
5248 5162 5210 0
-5249 -5247 0
-5249 -5248 0
5249 5247 5248 0
-5250 5207 0
-5250 5249 0
5250 -5207 -5249 0
-5251 -5207 0
-5251 -5249 0
5251 5207 5249 0
-5252 -5250 0
-5252 -5251 0
5252 5250 5251 0
-5271 51 0
-5271 5252 0
5271 -51 -5252 0
-5272 -51 0
-5272 -5252 0
5272 51 5252 0
-5273 -5271 0
-5273 -5272 0
5273 5271 5272 0
-5274 4 0
-5274 3647 0
5274 -4 -3647 0
-5275 -4 0
-5275 -3647 0
5275 4 3647 0
-5276 -5274 0
-5276 -5275 0
5276 5274 5275 0
-5286 3923 0
-5286 5192 0
5286 -3923 -5192 0
-5287 -3923 0
-5287 -5192 0
5287 3923 5192 0
-5288 -5286 0
-5288 -5287 0
5288 5286 5287 0
-5289 5276 0
-5289 5288 0
5289 -5276 -5288 0
-5290 -5276 0
-5290 -5288 0
5290 5276 5288 0
-5291 -5289 0
-5291 -5290 0
5291 5289 5290 0
-5292 19 0
-5292 25 0
5292 -19 -25 0
-5293 -19 0
-5293 -25 0
5293 19 25 0
-5294 -5292 0
-5294 -5293 0
5294 5292 5293 0
-5316 4133 0
-5316 5294 0
5316 -4133 -5294 0
-5317 -4133 0
-5317 -5294 0
5317 4133 5294 0
-5318 -5316 0
-5318 -5317 0
5318 5316 5317 0
-5319 5291 0
-5319 5318 0
5319 -5291 -5318 0
-5320 -5291 0
-5320 -5318 0
5320 5291 5318 0
-5321 -5319 0
-5321 -5320 0
5321 5319 5320 0
-5334 50 0
-5334 5321 0
5334 -50 -5321 0
-5335 -50 0
-5335 -5321 0
5335 50 5321 0
-5336 -5334 0
-5336 -5335 0
5336 5334 5335 0
-5337 3290 0
-5337 3806 0
5337 -3290 -3806 0
-5338 -3290 0
-5338 -3806 0
5338 3290 3806 0
-5339 -5337 0
-5339 -5338 0
5339 5337 5338 0
-5340 16 0
-5340 3467 0
5340 -16 -3467 0
-5341 -16 0
-5341 -3467 0
5341 16 3467 0
-5342 -5340 0
-5342 -5341 0
5342 5340 5341 0
-5343 5339 0
-5343 5342 0
5343 -5339 -5342 0
-5344 -5339 0
-5344 -5342 0
5344 5339 5342 0
-5345 -5343 0
-5345 -5344 0
5345 5343 5344 0
-5346 24 0
-5346 4325 0
5346 -24 -4325 0
-5347 -24 0
-5347 -4325 0
5347 24 4325 0
-5348 -5346 0
-5348 -5347 0
5348 5346 5347 0
-5361 4406 0
-5361 5348 0
5361 -4406 -5348 0
-5362 -4406 0
-5362 -5348 0
5362 4406 5348 0
-5363 -5361 0
-5363 -5362 0
5363 5361 5362 0
-5364 5345 0
-5364 5363 0
5364 -5345 -5363 0
-5365 -5345 0
-5365 -5363 0
5365 5345 5363 0
-5366 -5364 0
-5366 -5365 0
5366 5364 5365 0
-5367 49 0
-5367 3485 0
5367 -49 -3485 0
-5368 -49 0
-5368 -3485 0
5368 49 3485 0
-5369 -5367 0
-5369 -5368 0
5369 5367 5368 0
-5385 5366 0
-5385 5369 0
5385 -5366 -5369 0
-5386 -5366 0
-5386 -5369 0
5386 5366 5369 0
-5387 -5385 0
-5387 -5386 0
5387 5385 5386 0
-5391 3290 0
-5391 5135 0
5391 -3290 -5135 0
-5392 -3290 0
-5392 -5135 0
5392 3290 5135 0
-5393 -5391 0
-5393 -5392 0
5393 5391 5392 0
-5394 23 0
-5394 3686 0
5394 -23 -3686 0
-5395 -23 0
-5395 -3686 0
5395 23 3686 0
-5396 -5394 0
-5396 -5395 0
5396 5394 5395 0
-5418 29 0
-5418 5396 0
5418 -29 -5396 0
-5419 -29 0
-5419 -5396 0
5419 29 5396 0
-5420 -5418 0
-5420 -5419 0
5420 5418 5419 0
-5421 5393 0
-5421 5420 0
5421 -5393 -5420 0
-5422 -5393 0
-5422 -5420 0
5422 5393 5420 0
-5423 -5421 0
-5423 -5422 0
5423 5421 5422 0
-5424 35 0
-5424 48 0
5424 -35 -48 0
-5425 -35 0
-5425 -48 0
5425 35 48 0
-5426 -5424 0
-5426 -5425 0
5426 5424 5425 0
-5436 5423 0
-5436 5426 0
5436 -5423 -5426 0
-5437 -5423 0
-5437 -5426 0
5437 5423 5426 0
-5438 -5436 0
-5438 -5437 0
5438 5436 5437 0
-5439 3 0
-5439 6 0
5439 -3 -6 0
-5440 -3 0
-5440 -6 0
5440 3 6 0
-5441 -5439 0
-5441 -5440 0
5441 5439 5440 0
-5442 4838 0
-5442 5441 0
5442 -4838 -5441 0
-5443 -4838 0
-5443 -5441 0
5443 4838 5441 0
-5444 -5442 0
-5444 -5443 0
5444 5442 5443 0
-5445 22 0
-5445 4022 0
5445 -22 -4022 0
-5446 -22 0
-5446 -4022 0
5446 22 4022 0
-5447 -5445 0
-5447 -5446 0
5447 5445 5446 0
-5466 28 0
-5466 5447 0
5466 -28 -5447 0
-5467 -28 0
-5467 -5447 0
5467 28 5447 0
-5468 -5466 0
-5468 -5467 0
5468 5466 5467 0
-5469 5444 0
-5469 5468 0
5469 -5444 -5468 0
-5470 -5444 0
-5470 -5468 0
5470 5444 5468 0
-5471 -5469 0
-5471 -5470 0
5471 5469 5470 0
-5472 34 0
-5472 47 0
5472 -34 -47 0
-5473 -34 0
-5473 -47 0
5473 34 47 0
-5474 -5472 0
-5474 -5473 0
5474 5472 5473 0
-5481 5471 0
-5481 5474 0
5481 -5471 -5474 0
-5482 -5471 0
-5482 -5474 0
5482 5471 5474 0
-5483 -5481 0
-5483 -5482 0
5483 5481 5482 0
-5484 12 0
-5484 4211 0
5484 -12 -4211 0
-5485 -12 0
-5485 -4211 0
5485 12 4211 0
-5486 -5484 0
-5486 -5485 0
5486 5484 5485 0
-5487 5129 0
-5487 5486 0
5487 -5129 -5486 0
-5488 -5129 0
-5488 -5486 0
5488 5129 5486 0
-5489 -5487 0
-5489 -5488 0
5489 5487 5488 0
-3633 21 0
-3633 22 0
3633 -21 -22 0
-3634 -21 0
-3634 -22 0
3634 21 22 0
-3635 -3633 0
-3635 -3634 0
3635 3633 3634 0
-5505 3440 0
-5505 3635 0
5505 -3440 -3635 0
-5506 -3440 0
-5506 -3635 0
5506 3440 3635 0
-5507 -5505 0
-5507 -5506 0
5507 5505 5506 0
-5508 5489 0
-5508 5507 0
5508 -5489 -5507 0
-5509 -5489 0
-5509 -5507 0
5509 5489 5507 0
-5510 -5508 0
-5510 -5509 0
5510 5508 5509 0
-5511 35 0
-5511 46 0
5511 -35 -46 0
-5512 -35 0
-5512 -46 0
5512 35 46 0
-5513 -5511 0
-5513 -5512 0
5513 5511 5512 0
-5529 5510 0
-5529 5513 0
5529 -5510 -5513 0
-5530 -5510 0
-5530 -5513 0
5530 5510 5513 0
-5531 -5529 0
-5531 -5530 0
5531 5529 5530 0
-5532 3 0
-5532 7 0
5532 -3 -7 0
-5533 -3 0
-5533 -7 0
5533 3 7 0
-5534 -5532 0
-5534 -5533 0
5534 5532 5533 0
-5535 12 0
-5535 4823 0
5535 -12 -4823 0
-5536 -12 0
-5536 -4823 0
5536 12 4823 0
-5537 -5535 0
-5537 -5536 0
5537 5535 5536 0
-5538 5534 0
-5538 5537 0
5538 -5534 -5537 0
-5539 -5534 0
-5539 -5537 0
5539 5534 5537 0
-5540 -5538 0
-5540 -5539 0
5540 5538 5539 0
-5541 3686 0
-5541 4229 0
5541 -3686 -4229 0
-5542 -3686 0
-5542 -4229 0
5542 3686 4229 0
-5543 -5541 0
-5543 -5542 0
5543 5541 5542 0
-5568 3572 0
-5568 5543 0
5568 -3572 -5543 0
-5569 -3572 0
-5569 -5543 0
5569 3572 5543 0
-5570 -5568 0
-5570 -5569 0
5570 5568 5569 0
-5571 5540 0
-5571 5570 0
5571 -5540 -5570 0
-5572 -5540 0
-5572 -5570 0
5572 5540 5570 0
-5573 -5571 0
-5573 -5572 0
5573 5571 5572 0
-5574 35 0
-5574 45 0
5574 -35 -45 0
-5575 -35 0
-5575 -45 0
5575 35 45 0
-5576 -5574 0
-5576 -5575 0
5576 5574 5575 0
-5607 5573 0
-5607 5576 0
5607 -5573 -5576 0
-5608 -5573 0
-5608 -5576 0
5608 5573 5576 0
-5609 -5607 0
-5609 -5608 0
5609 5607 5608 0
-5610 2 0
-5610 3362 0
5610 -2 -3362 0
-5611 -2 0
-5611 -3362 0
5611 2 3362 0
-5612 -5610 0
-5612 -5611 0
5612 5610 5611 0
-5613 10 0
-5613 13 0
5613 -10 -13 0
-5614 -10 0
-5614 -13 0
5614 10 13 0
-5615 -5613 0
-5615 -5614 0
5615 5613 5614 0
-5622 3632 0
-5622 5615 0
5622 -3632 -5615 0
-5623 -3632 0
-5623 -5615 0
5623 3632 5615 0
-5624 -5622 0
-5624 -5623 0
5624 5622 5623 0
-5625 5612 0
-5625 5624 0
5625 -5612 -5624 0
-5626 -5612 0
-5626 -5624 0
5626 5612 5624 0
-5627 -5625 0
-5627 -5626 0
5627 5625 5626 0
-5628 25 0
-5628 4217 0
5628 -25 -4217 0
-5629 -25 0
-5629 -4217 0
5629 25 4217 0
-5630 -5628 0
-5630 -5629 0
5630 5628 5629 0
-5664 3701 0
-5664 4679 0
5664 -3701 -4679 0
-5665 -3701 0
-5665 -4679 0
5665 3701 4679 0
-5666 -5664 0
-5666 -5665 0
5666 5664 5665 0
-5679 5630 0
-5679 5666 0
5679 -5630 -5666 0
-5680 -5630 0
-5680 -5666 0
5680 5630 5666 0
-5681 -5679 0
-5681 -5680 0
5681 5679 5680 0
-5682 5627 0
-5682 5681 0
5682 -5627 -5681 0
-5683 -5627 0
-5683 -5681 0
5683 5627 5681 0
-5684 -5682 0
-5684 -5683 0
5684 5682 5683 0
-5685 35 0
-5685 44 0
5685 -35 -44 0
-5686 -35 0
-5686 -44 0
5686 35 44 0
-5687 -5685 0
-5687 -5686 0
5687 5685 5686 0
-5724 5684 0
-5724 5687 0
5724 -5684 -5687 0
-5725 -5684 0
-5725 -5687 0
5725 5684 5687 0
-5726 -5724 0
-5726 -5725 0
5726 5724 5725 0
-5727 4211 0
-5727 5615 0
5727 -4211 -5615 0
-5728 -4211 0
-5728 -5615 0
5728 4211 5615 0
-5729 -5727 0
-5729 -5728 0
5729 5727 5728 0
-5730 6 0
-5730 5729 0
5730 -6 -5729 0
-5731 -6 0
-5731 -5729 0
5731 6 5729 0
-5732 -5730 0
-5732 -5731 0
5732 5730 5731 0
-5733 18 0
-5733 24 0
5733 -18 -24 0
-5734 -18 0
-5734 -24 0
5734 18 24 0
-5735 -5733 0
-5735 -5734 0
5735 5733 5734 0
-5751 4091 0
-5751 5735 0
5751 -4091 -5735 0
-5752 -4091 0
-5752 -5735 0
5752 4091 5735 0
-5753 -5751 0
-5753 -5752 0
5753 5751 5752 0
-5754 5732 0
-5754 5753 0
5754 -5732 -5753 0
-5755 -5732 0
-5755 -5753 0
5755 5732 5753 0
-5756 -5754 0
-5756 -5755 0
5756 5754 5755 0
-5757 34 0
-5757 43 0
5757 -34 -43 0
-5758 -34 0
-5758 -43 0
5758 34 43 0
-5759 -5757 0
-5759 -5758 0
5759 5757 5758 0
-5778 5756 0
-5778 5759 0
5778 -5756 -5759 0
-5779 -5756 0
-5779 -5759 0
5779 5756 5759 0
-5780 -5778 0
-5780 -5779 0
5780 5778 5779 0
-5781 3488 0
-5781 3998 0
5781 -3488 -3998 0
-5782 -3488 0
-5782 -3998 0
5782 3488 3998 0
-5783 -5781 0
-5783 -5782 0
5783 5781 5782 0
-5784 15 0
-5784 3653 0
5784 -15 -3653 0
-5785 -15 0
-5785 -3653 0
5785 15 3653 0
-5786 -5784 0
-5786 -5785 0
5786 5784 5785 0
-5787 5783 0
-5787 5786 0
5787 -5783 -5786 0
-5788 -5783 0
-5788 -5786 0
5788 5783 5786 0
-5789 -5787 0
-5789 -5788 0
5789 5787 5788 0
-4326 29 0
-4326 32 0
4326 -29 -32 0
-4327 -29 0
-4327 -32 0
4327 29 32 0
-4328 -4326 0
-4328 -4327 0
4328 4326 4327 0
-5790 23 0
-5790 4931 0
5790 -23 -4931 0
-5791 -23 0
-5791 -4931 0
5791 23 4931 0
-5792 -5790 0
-5792 -5791 0
5792 5790 5791 0
-5829 4328 0
-5829 5792 0
5829 -4328 -5792 0
-5830 -4328 0
-5830 -5792 0
5830 4328 5792 0
-5831 -5829 0
-5831 -5830 0
5831 5829 5830 0
-5832 5789 0
-5832 5831 0
5832 -5789 -5831 0
-5833 -5789 0
-5833 -5831 0
5833 5789 5831 0
-5834 -5832 0
-5834 -5833 0
5834 5832 5833 0
-5835 42 0
-5835 3485 0
5835 -42 -3485 0
-5836 -42 0
-5836 -3485 0
5836 42 3485 0
-5837 -5835 0
-5837 -5836 0
5837 5835 5836 0
-5868 5834 0
-5868 5837 0
5868 -5834 -5837 0
-5869 -5834 0
-5869 -5837 0
5869 5834 5837 0
-5870 -5868 0
-5870 -5869 0
5870 5868 5869 0
-5895 34 0
-5895 41 0
5895 -34 -41 0
-5896 -34 0
-5896 -41 0
5896 34 41 0
-5897 -5895 0
-5897 -5896 0
5897 5895 5896 0
-5871 7 0
-5871 9 0
5871 -7 -9 0
-5872 -7 0
-5872 -9 0
5872 7 9 0
-5873 -5871 0
-5873 -5872 0
5873 5871 5872 0
-5874 3 0
-5874 5873 0
5874 -3 -5873 0
-5875 -3 0
-5875 -5873 0
5875 3 5873 0
-5876 -5874 0
-5876 -5875 0
5876 5874 5875 0
-5877 11 0
-5877 3632 0
5877 -11 -3632 0
-5878 -11 0
-5878 -3632 0
5878 11 3632 0
-5879 -5877 0
-5879 -5878 0
5879 5877 5878 0
-5880 5876 0
-5880 5879 0
5880 -5876 -5879 0
-5881 -5876 0
-5881 -5879 0
5881 5876 5879 0
-5882 -5880 0
-5882 -5881 0
5882 5880 5881 0
-4674 27 0
-4674 30 0
4674 -27 -30 0
-4675 -27 0
-4675 -30 0
4675 27 30 0
-4676 -4674 0
-4676 -4675 0
4676 4674 4675 0
-5889 23 0
-5889 4676 0
5889 -23 -4676 0
-5890 -23 0
-5890 -4676 0
5890 23 4676 0
-5891 -5889 0
-5891 -5890 0
5891 5889 5890 0
-5898 5882 0
-5898 5891 0
5898 -5882 -5891 0
-5899 -5882 0
-5899 -5891 0
5899 5882 5891 0
-5900 -5898 0
-5900 -5899 0
5900 5898 5899 0
-5919 5897 0
-5919 5900 0
5919 -5897 -5900 0
-5920 -5897 0
-5920 -5900 0
5920 5897 5900 0
-5921 -5919 0
-5921 -5920 0
5921 5919 5920 0
-5922 2 0
-5922 5873 0
5922 -2 -5873 0
-5923 -2 0
-5923 -5873 0
5923 2 5873 0
-5924 -5922 0
-5924 -5923 0
5924 5922 5923 0
-5928 3350 0
-5928 4574 0
5928 -3350 -4574 0
-5929 -3350 0
-5929 -4574 0
5929 3350 4574 0
-5930 -5928 0
-5930 -5929 0
5930 5928 5929 0
-5931 5924 0
-5931 5930 0
5931 -5924 -5930 0
-5932 -5924 0
-5932 -5930 0
5932 5924 5930 0
-5933 -5931 0
-5933 -5932 0
5933 5931 5932 0
-5934 22 0
-5934 3509 0
5934 -22 -3509 0
-5935 -22 0
-5935 -3509 0
5935 22 3509 0
-5936 -5934 0
-5936 -5935 0
5936 5934 5935 0
-5967 3638 0
-5967 4679 0
5967 -3638 -4679 0
-5968 -3638 0
-5968 -4679 0
5968 3638 4679 0
-5969 -5967 0
-5969 -5968 0
5969 5967 5968 0
-5979 5936 0
-5979 5969 0
5979 -5936 -5969 0
-5980 -5936 0
-5980 -5969 0
5980 5936 5969 0
-5981 -5979 0
-5981 -5980 0
5981 5979 5980 0
-5982 5933 0
-5982 5981 0
5982 -5933 -5981 0
-5983 -5933 0
-5983 -5981 0
5983 5933 5981 0
-5984 -5982 0
-5984 -5983 0
5984 5982 5983 0
-6012 40 0
-6012 5984 0
6012 -40 -5984 0
-6013 -40 0
-6013 -5984 0
6013 40 5984 0
-6014 -6012 0
-6014 -6013 0
6014 6012 6013 0
-6015 8 0
-6015 3917 0
6015 -8 -3917 0
-6016 -8 0
-6016 -3917 0
6016 8 3917 0
-6017 -6015 0
-6017 -6016 0
6017 6015 6016 0
-3627 15 0
-3627 16 0
3627 -15 -16 0
-3628 -15 0
-3628 -16 0
3628 15 16 0
-3629 -3627 0
-3629 -3628 0
3629 3627 3628 0
-6021 3368 0
-6021 3629 0
6021 -3368 -3629 0
-6022 -3368 0
-6022 -3629 0
6022 3368 3629 0
-6023 -6021 0
-6023 -6022 0
6023 6021 6022 0
-6024 6017 0
-6024 6023 0
6024 -6017 -6023 0
-6025 -6017 0
-6025 -6023 0
6025 6017 6023 0
-6026 -6024 0
-6026 -6025 0
6026 6024 6025 0
-4431 28 0
-4431 4091 0
4431 -28 -4091 0
-4432 -28 0
-4432 -4091 0
4432 28 4091 0
-4433 -4431 0
-4433 -4432 0
4433 4431 4432 0
-6027 20 0
-6027 4229 0
6027 -20 -4229 0
-6028 -20 0
-6028 -4229 0
6028 20 4229 0
-6029 -6027 0
-6029 -6028 0
6029 6027 6028 0
-6075 4433 0
-6075 6029 0
6075 -4433 -6029 0
-6076 -4433 0
-6076 -6029 0
6076 4433 6029 0
-6077 -6075 0
-6077 -6076 0
6077 6075 6076 0
-6078 6026 0
-6078 6077 0
6078 -6026 -6077 0
-6079 -6026 0
-6079 -6077 0
6079 6026 6077 0
-6080 -6078 0
-6080 -6079 0
6080 6078 6079 0
-6111 39 0
-6111 6080 0
6111 -39 -6080 0
-6112 -39 0
-6112 -6080 0
6112 39 6080 0
-6113 -6111 0
-6113 -6112 0
6113 6111 6112 0
-6168 38 0
-6168 3485 0
6168 -38 -3485 0
-6169 -38 0
-6169 -3485 0
6169 38 3485 0
-6170 -6168 0
-6170 -6169 0
6170 6168 6169 0
-6114 3464 0
-6114 3998 0
6114 -3464 -3998 0
-6115 -3464 0
-6115 -3998 0
6115 3464 3998 0
-6116 -6114 0
-6116 -6115 0
6116 6114 6115 0
-6117 17 0
-6117 5615 0
6117 -17 -5615 0
-6118 -17 0
-6118 -5615 0
6118 17 5615 0
-6119 -6117 0
-6119 -6118 0
6119 6117 6118 0
-6120 6116 0
-6120 6119 0
6120 -6116 -6119 0
-6121 -6116 0
-6121 -6119 0
6121 6116 6119 0
-6122 -6120 0
-6122 -6121 0
6122 6120 6121 0
-6147 3479 0
-6147 4502 0
6147 -3479 -4502 0
-6148 -3479 0
-6148 -4502 0
6148 3479 4502 0
-6149 -6147 0
-6149 -6148 0
6149 6147 6148 0
-6171 5630 0
-6171 6149 0
6171 -5630 -6149 0
-6172 -5630 0
-6172 -6149 0
6172 5630 6149 0
-6173 -6171 0
-6173 -6172 0
6173 6171 6172 0
-6174 6122 0
-6174 6173 0
6174 -6122 -6173 0
-6175 -6122 0
-6175 -6173 0
6175 6122 6173 0
-6176 -6174 0
-6176 -6175 0
6176 6174 6175 0
-6210 6170 0
-6210 6176 0
6210 -6170 -6176 0
-6211 -6170 0
-6211 -6176 0
6211 6170 6176 0
-6212 -6210 0
-6212 -6211 0
6212 6210 6211 0
-6213 35 0
-6213 37 0
6213 -35 -37 0
-6214 -35 0
-6214 -37 0
6214 35 37 0
-6215 -6213 0
-6215 -6214 0
6215 6213 6214 0
-6216 3929 0
-6216 5192 0
6216 -3929 -5192 0
-6217 -3929 0
-6217 -5192 0
6217 3929 5192 0
-6218 -6216 0
-6218 -6217 0
6218 6216 6217 0
-6219 2608 0
-6219 6218 0
6219 -2608 -6218 0
-6220 -2608 0
-6220 -6218 0
6220 2608 6218 0
-6221 -6219 0
-6221 -6220 0
6221 6219 6220 0
-6222 24 0
-6222 4493 0
6222 -24 -4493 0
-6223 -24 0
-6223 -4493 0
6223 24 4493 0
-6224 -6222 0
-6224 -6223 0
6224 6222 6223 0
-6261 4628 0
-6261 6224 0
6261 -4628 -6224 0
-6262 -4628 0
-6262 -6224 0
6262 4628 6224 0
-6263 -6261 0
-6263 -6262 0
6263 6261 6262 0
-6264 6221 0
-6264 6263 0
6264 -6221 -6263 0
-6265 -6221 0
-6265 -6263 0
6265 6221 6263 0
-6266 -6264 0
-6266 -6265 0
6266 6264 6265 0
-6294 6215 0
-6294 6266 0
6294 -6215 -6266 0
-6295 -6215 0
-6295 -6266 0
6295 6215 6266 0
-6296 -6294 0
-6296 -6295 0
6296 6294 6295 0
-6306 36 0
-6306 3485 0
6306 -36 -3485 0
-6307 -36 0
-6307 -3485 0
6307 36 3485 0
-6308 -6306 0
-6308 -6307 0
6308 6306 6307 0
-6300 3917 0
-6300 4001 0
6300 -3917 -4001 0
-6301 -3917 0
-6301 -4001 0
6301 3917 4001 0
-6302 -6300 0
-6302 -6301 0
6302 6300 6301 0
-6309 17 0
-6309 3467 0
6309 -17 -3467 0
-6310 -17 0
-6310 -3467 0
6310 17 3467 0
-6311 -6309 0
-6311 -6310 0
6311 6309 6310 0
-6312 6302 0
-6312 6311 0
6312 -6302 -6311 0
-6313 -6302 0
-6313 -6311 0
6313 6302 6311 0
-6314 -6312 0
-6314 -6313 0
6314 6312 6313 0
-6342 3479 0
-6342 4931 0
6342 -3479 -4931 0
-6343 -3479 0
-6343 -4931 0
6343 3479 4931 0
-6344 -6342 0
-6344 -6343 0
6344 6342 6343 0
-6345 6314 0
-6345 6344 0
6345 -6314 -6344 0
-6346 -6314 0
-6346 -6344 0
6346 6314 6344 0
-6347 -6345 0
-6347 -6346 0
6347 6345 6346 0
-6357 6308 0
-6357 6347 0
6357 -6308 -6347 0
-6358 -6308 0
-6358 -6347 0
6358 6308 6347 0
-6359 -6357 0
-6359 -6358 0
6359 6357 6358 0
-6369 3653 0
-6369 5192 0
6369 -3653 -5192 0
-6370 -3653 0
-6370 -5192 0
6370 3653 5192 0
-6371 -6369 0
-6371 -6370 0
6371 6369 6370 0
-6372 3362 0
-6372 6371 0
6372 -3362 -6371 0
-6373 -3362 0
-6373 -6371 0
6373 3362 6371 0
-6374 -6372 0
-6374 -6373 0
6374 6372 6373 0
-6360 30 0
-6360 31 0
6360 -30 -31 0
-6361 -30 0
-6361 -31 0
6361 30 31 0
-6362 -6360 0
-6362 -6361 0
6362 6360 6361 0
-6405 3701 0
-6405 6362 0
6405 -3701 -6362 0
-6406 -3701 0
-6406 -6362 0
6406 3701 6362 0
-6407 -6405 0
-6407 -6406 0
6407 6405 6406 0
-6411 4931 0
-6411 6407 0
6411 -4931 -6407 0
-6412 -4931 0
-6412 -6407 0
6412 4931 6407 0
-6413 -6411 0
-6413 -6412 0
6413 6411 6412 0
-6414 6374 0
-6414 6413 0
6414 -6374 -6413 0
-6415 -6374 0
-6415 -6413 0
6415 6374 6413 0
-6416 -6414 0
-6416 -6415 0
6416 6414 6415 0
-6435 3653 0
-6435 3830 0
6435 -3653 -3830 0
-6436 -3653 0
-6436 -3830 0
6436 3653 3830 0
-6437 -6435 0
-6437 -6436 0
6437 6435 6436 0
-6438 6302 0
-6438 6437 0
6438 -6302 -6437 0
-6439 -6302 0
-6439 -6437 0
6439 6302 6437 0
-6440 -6438 0
-6440 -6439 0
6440 6438 6439 0
-6462 26 0
-6462 4229 0
6462 -26 -4229 0
-6463 -26 0
-6463 -4229 0
6463 26 4229 0
-6464 -6462 0
-6464 -6463 0
6464 6462 6463 0
-6465 6440 0
-6465 6464 0
6465 -6440 -6464 0
-6466 -6440 0
-6466 -6464 0
6466 6440 6464 0
-6467 -6465 0
-6467 -6466 0
6467 6465 6466 0
-6468 -6416 0
-6468 -6467 0
6468 6416 6467 0
-6469 -6359 0
-6469 6468 0
6469 6359 -6468 0
-6470 -6296 0
-6470 6469 0
6470 6296 -6469 0
-6471 -6212 0
-6471 6470 0
6471 6212 -6470 0
-6472 -6113 0
-6472 6471 0
6472 6113 -6471 0
-6473 -6014 0
-6473 6472 0
6473 6014 -6472 0
-6474 -5921 0
-6474 6473 0
6474 5921 -6473 0
-6475 -5870 0
-6475 6474 0
6475 5870 -6474 0
-6476 -5780 0
-6476 6475 0
6476 5780 -6475 0
-6477 -5726 0
-6477 6476 0
6477 5726 -6476 0
-6478 -5609 0
-6478 6477 0
6478 5609 -6477 0
-6479 -5531 0
-6479 6478 0
6479 5531 -6478 0
-6480 -5483 0
-6480 6479 0
6480 5483 -6479 0
-6481 -5438 0
-6481 6480 0
6481 5438 -6480 0
-6482 -5387 0
-6482 6481 0
6482 5387 -6481 0
-6483 -5336 0
-6483 6482 0
6483 5336 -6482 0
-6484 -5273 0
-6484 6483 0
6484 5273 -6483 0
-6485 -5186 0
-6485 6484 0
6485 5186 -6484 0
-6486 -5126 0
-6486 6485 0
6486 5126 -6485 0
-6487 -5060 0
-6487 6486 0
6487 5060 -6486 0
-6488 -5009 0
-6488 6487 0
6488 5009 -6487 0
-6489 -4916 0
-6489 6488 0
6489 4916 -6488 0
-6490 -4811 0
-6490 6489 0
6490 4811 -6489 0
-6491 -4748 0
-6491 6490 0
6491 4748 -6490 0
-6492 -4670 0
-6492 6491 0
6492 4670 -6491 0
-6493 -4568 0
-6493 6492 0
6493 4568 -6492 0
-6494 -4484 0
-6494 6493 0
6494 4484 -6493 0
-6495 -4388 0
-6495 6494 0
6495 4388 -6494 0
-6496 -4319 0
-6496 6495 0
6496 4319 -6495 0
-6497 -4187 0
-6497 6496 0
6497 4187 -6496 0
-6498 -4079 0
-6498 6497 0
6498 4079 -6497 0
-6499 3995 0
-6499 6498 0
6499 -3995 -6498 0
-6500 3908 0
-6500 6499 0
6500 -3908 -6499 0
-6501 3800 0
-6501 6500 0
6501 -3800 -6500 0
-6502 3620 0
-6502 6501 0
6502 -3620 -6501 0
-6503 3461 0
-6503 6502 0
6503 -3461 -6502 0
-6504 3341 0
-6504 6503 0
6504 -3341 -6503 0
-6505 3287 0
-6505 -6504 0
6505 -3287 6504 0
-6535 -120 0
-6535 127 0
6535 120 -127 0
-6530 -119 0
-6530 126 0
6530 119 -126 0
-6525 -118 0
-6525 125 0
6525 118 -125 0
-6520 -117 0
-6520 124 0
6520 117 -124 0
-6515 -116 0
-6515 123 0
6515 116 -123 0
-6510 -115 0
-6510 122 0
6510 115 -122 0
-6506 -114 0
-6506 121 0
6506 114 -121 0
-6507 114 0
-6507 -121 0
6507 -114 121 0
-6508 -6506 0
-6508 -6507 0
6508 6506 6507 0
-6509 -6506 0
-6509 -6508 0
6509 6506 6508 0
-6511 115 0
-6511 -122 0
6511 -115 122 0
-6512 -6510 0
-6512 -6511 0
6512 6510 6511 0
-6513 -6509 0
-6513 6512 0
6513 6509 -6512 0
-6514 -6510 0
-6514 -6513 0
6514 6510 6513 0
-6516 116 0
-6516 -123 0
6516 -116 123 0
-6517 -6515 0
-6517 -6516 0
6517 6515 6516 0
-6518 -6514 0
-6518 6517 0
6518 6514 -6517 0
-6519 -6515 0
-6519 -6518 0
6519 6515 6518 0
-6521 117 0
-6521 -124 0
6521 -117 124 0
-6522 -6520 0
-6522 -6521 0
6522 6520 6521 0
-6523 -6519 0
-6523 6522 0
6523 6519 -6522 0
-6524 -6520 0
-6524 -6523 0
6524 6520 6523 0
-6526 118 0
-6526 -125 0
6526 -118 125 0
-6527 -6525 0
-6527 -6526 0
6527 6525 6526 0
-6528 -6524 0
-6528 6527 0
6528 6524 -6527 0
-6529 -6525 0
-6529 -6528 0
6529 6525 6528 0
-6531 119 0
-6531 -126 0
6531 -119 126 0
-6532 -6530 0
-6532 -6531 0
6532 6530 6531 0
-6533 -6529 0
-6533 6532 0
6533 6529 -6532 0
-6534 -6530 0
-6534 -6533 0
6534 6530 6533 0
-6536 120 0
-6536 -127 0
6536 -120 127 0
-6537 -6535 0
-6537 -6536 0
6537 6535 6536 0
-6538 -6534 0
-6538 6537 0
6538 6534 -6537 0
-6539 -6535 0
-6539 -6538 0
6539 6535 6538 0
-6540 6505 0
-6540 -6539 0
6540 -6505 6539 0
-6570 -113 0
-6570 120 0
6570 113 -120 0
-6565 -112 0
-6565 119 0
6565 112 -119 0
-6560 -111 0
-6560 118 0
6560 111 -118 0
-6555 -110 0
-6555 117 0
6555 110 -117 0
-6550 -109 0
-6550 116 0
6550 109 -116 0
-6545 -108 0
-6545 115 0
6545 108 -115 0
-6541 -107 0
-6541 114 0
6541 107 -114 0
-6542 107 0
-6542 -114 0
6542 -107 114 0
-6543 -6541 0
-6543 -6542 0
6543 6541 6542 0
-6544 -6541 0
-6544 -6543 0
6544 6541 6543 0
-6546 108 0
-6546 -115 0
6546 -108 115 0
-6547 -6545 0
-6547 -6546 0
6547 6545 6546 0
-6548 -6544 0
-6548 6547 0
6548 6544 -6547 0
-6549 -6545 0
-6549 -6548 0
6549 6545 6548 0
-6551 109 0
-6551 -116 0
6551 -109 116 0
-6552 -6550 0
-6552 -6551 0
6552 6550 6551 0
-6553 -6549 0
-6553 6552 0
6553 6549 -6552 0
-6554 -6550 0
-6554 -6553 0
6554 6550 6553 0
-6556 110 0
-6556 -117 0
6556 -110 117 0
-6557 -6555 0
-6557 -6556 0
6557 6555 6556 0
-6558 -6554 0
-6558 6557 0
6558 6554 -6557 0
-6559 -6555 0
-6559 -6558 0
6559 6555 6558 0
-6561 111 0
-6561 -118 0
6561 -111 118 0
-6562 -6560 0
-6562 -6561 0
6562 6560 6561 0
-6563 -6559 0
-6563 6562 0
6563 6559 -6562 0
-6564 -6560 0
-6564 -6563 0
6564 6560 6563 0
-6566 112 0
-6566 -119 0
6566 -112 119 0
-6567 -6565 0
-6567 -6566 0
6567 6565 6566 0
-6568 -6564 0
-6568 6567 0
6568 6564 -6567 0
-6569 -6565 0
-6569 -6568 0
6569 6565 6568 0
-6571 113 0
-6571 -120 0
6571 -113 120 0
-6572 -6570 0
-6572 -6571 0
6572 6570 6571 0
-6573 -6569 0
-6573 6572 0
6573 6569 -6572 0
-6574 -6570 0
-6574 -6573 0
6574 6570 6573 0
-6575 6540 0
-6575 -6574 0
6575 -6540 6574 0
-6605 -106 0
-6605 113 0
6605 106 -113 0
-6600 -105 0
-6600 112 0
6600 105 -112 0
-6595 -104 0
-6595 111 0
6595 104 -111 0
-6590 -103 0
-6590 110 0
6590 103 -110 0
-6585 -102 0
-6585 109 0
6585 102 -109 0
-6580 -101 0
-6580 108 0
6580 101 -108 0
-6576 -100 0
-6576 107 0
6576 100 -107 0
-6577 100 0
-6577 -107 0
6577 -100 107 0
-6578 -6576 0
-6578 -6577 0
6578 6576 6577 0
-6579 -6576 0
-6579 -6578 0
6579 6576 6578 0
-6581 101 0
-6581 -108 0
6581 -101 108 0
-6582 -6580 0
-6582 -6581 0
6582 6580 6581 0
-6583 -6579 0
-6583 6582 0
6583 6579 -6582 0
-6584 -6580 0
-6584 -6583 0
6584 6580 6583 0
-6586 102 0
-6586 -109 0
6586 -102 109 0
-6587 -6585 0
-6587 -6586 0
6587 6585 6586 0
-6588 -6584 0
-6588 6587 0
6588 6584 -6587 0
-6589 -6585 0
-6589 -6588 0
6589 6585 6588 0
-6591 103 0
-6591 -110 0
6591 -103 110 0
-6592 -6590 0
-6592 -6591 0
6592 6590 6591 0
-6593 -6589 0
-6593 6592 0
6593 6589 -6592 0
-6594 -6590 0
-6594 -6593 0
6594 6590 6593 0
-6596 104 0
-6596 -111 0
6596 -104 111 0
-6597 -6595 0
-6597 -6596 0
6597 6595 6596 0
-6598 -6594 0
-6598 6597 0
6598 6594 -6597 0
-6599 -6595 0
-6599 -6598 0
6599 6595 6598 0
-6601 105 0
-6601 -112 0
6601 -105 112 0
-6602 -6600 0
-6602 -6601 0
6602 6600 6601 0
-6603 -6599 0
-6603 6602 0
6603 6599 -6602 0
-6604 -6600 0
-6604 -6603 0
6604 6600 6603 0
-6606 106 0
-6606 -113 0
6606 -106 113 0
-6607 -6605 0
-6607 -6606 0
6607 6605 6606 0
-6608 -6604 0
-6608 6607 0
6608 6604 -6607 0
-6609 -6605 0
-6609 -6608 0
6609 6605 6608 0
-6610 6575 0
-6610 -6609 0
6610 -6575 6609 0
-6640 -99 0
-6640 106 0
6640 99 -106 0
-6635 -98 0
-6635 105 0
6635 98 -105 0
-6630 -97 0
-6630 104 0
6630 97 -104 0
-6625 -96 0
-6625 103 0
6625 96 -103 0
-6620 -95 0
-6620 102 0
6620 95 -102 0
-6615 -94 0
-6615 101 0
6615 94 -101 0
-6611 -93 0
-6611 100 0
6611 93 -100 0
-6612 93 0
-6612 -100 0
6612 -93 100 0
-6613 -6611 0
-6613 -6612 0
6613 6611 6612 0
-6614 -6611 0
-6614 -6613 0
6614 6611 6613 0
-6616 94 0
-6616 -101 0
6616 -94 101 0
-6617 -6615 0
-6617 -6616 0
6617 6615 6616 0
-6618 -6614 0
-6618 6617 0
6618 6614 -6617 0
-6619 -6615 0
-6619 -6618 0
6619 6615 6618 0
-6621 95 0
-6621 -102 0
6621 -95 102 0
-6622 -6620 0
-6622 -6621 0
6622 6620 6621 0
-6623 -6619 0
-6623 6622 0
6623 6619 -6622 0
-6624 -6620 0
-6624 -6623 0
6624 6620 6623 0
-6626 96 0
-6626 -103 0
6626 -96 103 0
-6627 -6625 0
-6627 -6626 0
6627 6625 6626 0
-6628 -6624 0
-6628 6627 0
6628 6624 -6627 0
-6629 -6625 0
-6629 -6628 0
6629 6625 6628 0
-6631 97 0
-6631 -104 0
6631 -97 104 0
-6632 -6630 0
-6632 -6631 0
6632 6630 6631 0
-6633 -6629 0
-6633 6632 0
6633 6629 -6632 0
-6634 -6630 0
-6634 -6633 0
6634 6630 6633 0
-6636 98 0
-6636 -105 0
6636 -98 105 0
-6637 -6635 0
-6637 -6636 0
6637 6635 6636 0
-6638 -6634 0
-6638 6637 0
6638 6634 -6637 0
-6639 -6635 0
-6639 -6638 0
6639 6635 6638 0
-6641 99 0
-6641 -106 0
6641 -99 106 0
-6642 -6640 0
-6642 -6641 0
6642 6640 6641 0
-6643 -6639 0
-6643 6642 0
6643 6639 -6642 0
-6644 -6640 0
-6644 -6643 0
6644 6640 6643 0
-6645 6610 0
-6645 -6644 0
6645 -6610 6644 0
-6675 -92 0
-6675 99 0
6675 92 -99 0
-6670 -91 0
-6670 98 0
6670 91 -98 0
-6665 -90 0
-6665 97 0
6665 90 -97 0
-6660 -89 0
-6660 96 0
6660 89 -96 0
-6655 -88 0
-6655 95 0
6655 88 -95 0
-6650 -87 0
-6650 94 0
6650 87 -94 0
-6646 -86 0
-6646 93 0
6646 86 -93 0
-6647 86 0
-6647 -93 0
6647 -86 93 0
-6648 -6646 0
-6648 -6647 0
6648 6646 6647 0
-6649 -6646 0
-6649 -6648 0
6649 6646 6648 0
-6651 87 0
-6651 -94 0
6651 -87 94 0
-6652 -6650 0
-6652 -6651 0
6652 6650 6651 0
-6653 -6649 0
-6653 6652 0
6653 6649 -6652 0
-6654 -6650 0
-6654 -6653 0
6654 6650 6653 0
-6656 88 0
-6656 -95 0
6656 -88 95 0
-6657 -6655 0
-6657 -6656 0
6657 6655 6656 0
-6658 -6654 0
-6658 6657 0
6658 6654 -6657 0
-6659 -6655 0
-6659 -6658 0
6659 6655 6658 0
-6661 89 0
-6661 -96 0
6661 -89 96 0
-6662 -6660 0
-6662 -6661 0
6662 6660 6661 0
-6663 -6659 0
-6663 6662 0
6663 6659 -6662 0
-6664 -6660 0
-6664 -6663 0
6664 6660 6663 0
-6666 90 0
-6666 -97 0
6666 -90 97 0
-6667 -6665 0
-6667 -6666 0
6667 6665 6666 0
-6668 -6664 0
-6668 6667 0
6668 6664 -6667 0
-6669 -6665 0
-6669 -6668 0
6669 6665 6668 0
-6671 91 0
-6671 -98 0
6671 -91 98 0
-6672 -6670 0
-6672 -6671 0
6672 6670 6671 0
-6673 -6669 0
-6673 6672 0
6673 6669 -6672 0
-6674 -6670 0
-6674 -6673 0
6674 6670 6673 0
-6676 92 0
-6676 -99 0
6676 -92 99 0
-6677 -6675 0
-6677 -6676 0
6677 6675 6676 0
-6678 -6674 0
-6678 6677 0
6678 6674 -6677 0
-6679 -6675 0
-6679 -6678 0
6679 6675 6678 0
-6680 6645 0
-6680 -6679 0
6680 -6645 6679 0
-6710 -85 0
-6710 92 0
6710 85 -92 0
-6705 -84 0
-6705 91 0
6705 84 -91 0
-6700 -83 0
-6700 90 0
6700 83 -90 0
-6695 -82 0
-6695 89 0
6695 82 -89 0
-6690 -81 0
-6690 88 0
6690 81 -88 0
-6685 -80 0
-6685 87 0
6685 80 -87 0
-6681 -79 0
-6681 86 0
6681 79 -86 0
-6682 79 0
-6682 -86 0
6682 -79 86 0
-6683 -6681 0
-6683 -6682 0
6683 6681 6682 0
-6684 -6681 0
-6684 -6683 0
6684 6681 6683 0
-6686 80 0
-6686 -87 0
6686 -80 87 0
-6687 -6685 0
-6687 -6686 0
6687 6685 6686 0
-6688 -6684 0
-6688 6687 0
6688 6684 -6687 0
-6689 -6685 0
-6689 -6688 0
6689 6685 6688 0
-6691 81 0
-6691 -88 0
6691 -81 88 0
-6692 -6690 0
-6692 -6691 0
6692 6690 6691 0
-6693 -6689 0
-6693 6692 0
6693 6689 -6692 0
-6694 -6690 0
-6694 -6693 0
6694 6690 6693 0
-6696 82 0
-6696 -89 0
6696 -82 89 0
-6697 -6695 0
-6697 -6696 0
6697 6695 6696 0
-6698 -6694 0
-6698 6697 0
6698 6694 -6697 0
-6699 -6695 0
-6699 -6698 0
6699 6695 6698 0
-6701 83 0
-6701 -90 0
6701 -83 90 0
-6702 -6700 0
-6702 -6701 0
6702 6700 6701 0
-6703 -6699 0
-6703 6702 0
6703 6699 -6702 0
-6704 -6700 0
-6704 -6703 0
6704 6700 6703 0
-6706 84 0
-6706 -91 0
6706 -84 91 0
-6707 -6705 0
-6707 -6706 0
6707 6705 6706 0
-6708 -6704 0
-6708 6707 0
6708 6704 -6707 0
-6709 -6705 0
-6709 -6708 0
6709 6705 6708 0
-6711 85 0
-6711 -92 0
6711 -85 92 0
-6712 -6710 0
-6712 -6711 0
6712 6710 6711 0
-6713 -6709 0
-6713 6712 0
6713 6709 -6712 0
-6714 -6710 0
-6714 -6713 0
6714 6710 6713 0
-6715 6680 0
-6715 -6714 0
6715 -6680 6714 0
-6745 -78 0
-6745 85 0
6745 78 -85 0
-6740 -77 0
-6740 84 0
6740 77 -84 0
-6735 -76 0
-6735 83 0
6735 76 -83 0
-6730 -75 0
-6730 82 0
6730 75 -82 0
-6725 -74 0
-6725 81 0
6725 74 -81 0
-6720 -73 0
-6720 80 0
6720 73 -80 0
-6716 -72 0
-6716 79 0
6716 72 -79 0
-6717 72 0
-6717 -79 0
6717 -72 79 0
-6718 -6716 0
-6718 -6717 0
6718 6716 6717 0
-6719 -6716 0
-6719 -6718 0
6719 6716 6718 0
-6721 73 0
-6721 -80 0
6721 -73 80 0
-6722 -6720 0
-6722 -6721 0
6722 6720 6721 0
-6723 -6719 0
-6723 6722 0
6723 6719 -6722 0
-6724 -6720 0
-6724 -6723 0
6724 6720 6723 0
-6726 74 0
-6726 -81 0
6726 -74 81 0
-6727 -6725 0
-6727 -6726 0
6727 6725 6726 0
-6728 -6724 0
-6728 6727 0
6728 6724 -6727 0
-6729 -6725 0
-6729 -6728 0
6729 6725 6728 0
-6731 75 0
-6731 -82 0
6731 -75 82 0
-6732 -6730 0
-6732 -6731 0
6732 6730 6731 0
-6733 -6729 0
-6733 6732 0
6733 6729 -6732 0
-6734 -6730 0
-6734 -6733 0
6734 6730 6733 0
-6736 76 0
-6736 -83 0
6736 -76 83 0
-6737 -6735 0
-6737 -6736 0
6737 6735 6736 0
-6738 -6734 0
-6738 6737 0
6738 6734 -6737 0
-6739 -6735 0
-6739 -6738 0
6739 6735 6738 0
-6741 77 0
-6741 -84 0
6741 -77 84 0
-6742 -6740 0
-6742 -6741 0
6742 6740 6741 0
-6743 -6739 0
-6743 6742 0
6743 6739 -6742 0
-6744 -6740 0
-6744 -6743 0
6744 6740 6743 0
-6746 78 0
-6746 -85 0
6746 -78 85 0
-6747 -6745 0
-6747 -6746 0
6747 6745 6746 0
-6748 -6744 0
-6748 6747 0
6748 6744 -6747 0
-6749 -6745 0
-6749 -6748 0
6749 6745 6748 0
-6750 6715 0
-6750 -6749 0
6750 -6715 6749 0
6750 0
