p cnf 1339 3467
7 -1208 0
-7 1208 0
242 -1260 0
-242 1260 0
-245 -7 0
-245 242 0
245 7 -242 0
-243 7 0
-243 -242 0
243 -7 242 0
8 -1209 0
-8 1209 0
217 -1257 0
-217 1257 0
-220 -8 0
-220 217 0
220 8 -217 0
-218 8 0
-218 -217 0
218 -8 217 0
9 -1210 0
-9 1210 0
200 -1255 0
-200 1255 0
-203 -9 0
-203 200 0
203 9 -200 0
-201 9 0
-201 -200 0
201 -9 200 0
10 -1211 0
-10 1211 0
175 -1252 0
-175 1252 0
-178 -10 0
-178 175 0
178 10 -175 0
-176 10 0
-176 -175 0
176 -10 175 0
11 -1212 0
-11 1212 0
150 -1249 0
-150 1249 0
-153 -11 0
-153 150 0
153 11 -150 0
-151 11 0
-151 -150 0
151 -11 150 0
12 -1213 0
-12 1213 0
125 -1246 0
-125 1246 0
-128 -12 0
-128 125 0
128 12 -125 0
-126 12 0
-126 -125 0
126 -12 125 0
13 -1214 0
-13 1214 0
100 -1243 0
-100 1243 0
-103 -13 0
-103 100 0
103 13 -100 0
-101 13 0
-101 -100 0
101 -13 100 0
14 -1215 0
-14 1215 0
83 -1241 0
-83 1241 0
-86 -14 0
-86 83 0
86 14 -83 0
-84 14 0
-84 -83 0
84 -14 83 0
15 -1216 0
-15 1216 0
58 -1238 0
-58 1238 0
-61 -15 0
-61 58 0
61 15 -58 0
-59 15 0
-59 -58 0
59 -15 58 0
16 -1217 0
-16 1217 0
34 -1235 0
-34 1235 0
-36 -16 0
-36 34 0
36 16 -34 0
-35 16 0
-35 -34 0
35 -16 34 0
17 -1218 0
-17 1218 0
340 -1267 0
-340 1267 0
-343 -17 0
-343 340 0
343 17 -340 0
-341 17 0
-341 -340 0
341 -17 340 0
18 -1219 0
-18 1219 0
331 -1266 0
-331 1266 0
-334 -18 0
-334 331 0
334 18 -331 0
-332 18 0
-332 -331 0
332 -18 331 0
19 -1220 0
-19 1220 0
415 -1276 0
-415 1276 0
-418 -19 0
-418 415 0
418 19 -415 0
-416 19 0
-416 -415 0
416 -19 415 0
20 -1221 0
-20 1221 0
390 -1273 0
-390 1273 0
-393 -20 0
-393 390 0
393 20 -390 0
-391 20 0
-391 -390 0
391 -20 390 0
21 -1222 0
-21 1222 0
365 -1270 0
-365 1270 0
-368 -21 0
-368 365 0
368 21 -365 0
-366 21 0
-366 -365 0
366 -21 365 0
22 -1223 0
-22 1223 0
516 -1288 0
-516 1288 0
-519 -22 0
-519 516 0
519 22 -516 0
-517 22 0
-517 -516 0
517 -22 516 0
23 -1224 0
-23 1224 0
491 -1285 0
-491 1285 0
-494 -23 0
-494 491 0
494 23 -491 0
-492 23 0
-492 -491 0
492 -23 491 0
24 -1225 0
-24 1225 0
466 -1282 0
-466 1282 0
-469 -24 0
-469 466 0
469 24 -466 0
-467 24 0
-467 -466 0
467 -24 466 0
25 -1226 0
-25 1226 0
441 -1279 0
-441 1279 0
-444 -25 0
-444 441 0
444 25 -441 0
-442 25 0
-442 -441 0
442 -25 441 0
29 -1230 0
-29 1230 0
817 -1314 0
-817 1314 0
-820 -29 0
-820 817 0
820 29 -817 0
-818 29 0
-818 -817 0
818 -29 817 0
2 -1203 0
-2 1203 0
-247 2 0
-247 -242 0
247 -2 242 0
-248 -2 0
-248 242 0
248 2 -242 0
-249 -247 0
-249 -248 0
249 247 248 0
250 -1261 0
-250 1261 0
-253 -249 0
-253 -250 0
253 249 250 0
-251 249 0
-251 250 0
251 -249 -250 0
3 -1204 0
-3 1204 0
-222 3 0
-222 -217 0
222 -3 217 0
-223 -3 0
-223 217 0
223 3 -217 0
-224 -222 0
-224 -223 0
224 222 223 0
225 -1258 0
-225 1258 0
-228 -224 0
-228 -225 0
228 224 225 0
-226 224 0
-226 225 0
226 -224 -225 0
4 -1205 0
-4 1205 0
-205 4 0
-205 -200 0
205 -4 200 0
-206 -4 0
-206 200 0
206 4 -200 0
-207 -205 0
-207 -206 0
207 205 206 0
208 -1256 0
-208 1256 0
-211 -207 0
-211 -208 0
211 207 208 0
-209 207 0
-209 208 0
209 -207 -208 0
5 -1206 0
-5 1206 0
-180 5 0
-180 -175 0
180 -5 175 0
-181 -5 0
-181 175 0
181 5 -175 0
-182 -180 0
-182 -181 0
182 180 181 0
183 -1253 0
-183 1253 0
-186 -182 0
-186 -183 0
186 182 183 0
-184 182 0
-184 183 0
184 -182 -183 0
6 -1207 0
-6 1207 0
-155 6 0
-155 -150 0
155 -6 150 0
-156 -6 0
-156 150 0
156 6 -150 0
-157 -155 0
-157 -156 0
157 155 156 0
158 -1250 0
-158 1250 0
-161 -157 0
-161 -158 0
161 157 158 0
-159 157 0
-159 158 0
159 -157 -158 0
-37 -35 0
-37 -36 0
37 35 36 0
-38 11 0
-38 -34 0
38 -11 34 0
-39 -11 0
-39 34 0
39 11 -34 0
-40 -38 0
-40 -39 0
40 38 39 0
41 -1236 0
-41 1236 0
-42 40 0
-42 41 0
42 -40 -41 0
-43 37 0
-43 -42 0
43 -37 42 0
-44 -40 0
-44 -41 0
44 40 41 0
-45 43 0
-45 -44 0
45 -43 44 0
-46 21 0
-46 -41 0
46 -21 41 0
-47 -21 0
-47 41 0
47 21 -41 0
-48 -46 0
-48 -47 0
48 46 47 0
49 -1237 0
-49 1237 0
-50 48 0
-50 49 0
50 -48 -49 0
-51 45 0
-51 -50 0
51 -45 50 0
-52 -48 0
-52 -49 0
52 48 49 0
-53 51 0
-53 -52 0
53 -51 52 0
31 -1232 0
-31 1232 0
-54 31 0
-54 -49 0
54 -31 49 0
-55 -31 0
-55 49 0
55 31 -49 0
-56 -54 0
-56 -55 0
56 54 55 0
-57 53 0
-57 56 0
57 -53 -56 0
-60 57 0
-60 -59 0
60 -57 59 0
-62 60 0
-62 -61 0
62 -60 61 0
-63 10 0
-63 -58 0
63 -10 58 0
-64 -10 0
-64 58 0
64 10 -58 0
-65 -63 0
-65 -64 0
65 63 64 0
66 -1239 0
-66 1239 0
-67 65 0
-67 66 0
67 -65 -66 0
-68 62 0
-68 -67 0
68 -62 67 0
-69 -65 0
-69 -66 0
69 65 66 0
-70 68 0
-70 -69 0
70 -68 69 0
-71 20 0
-71 -66 0
71 -20 66 0
-72 -20 0
-72 66 0
72 20 -66 0
-73 -71 0
-73 -72 0
73 71 72 0
74 -1240 0
-74 1240 0
-75 73 0
-75 74 0
75 -73 -74 0
-76 70 0
-76 -75 0
76 -70 75 0
-77 -73 0
-77 -74 0
77 73 74 0
-78 76 0
-78 -77 0
78 -76 77 0
30 -1231 0
-30 1231 0
-79 30 0
-79 -74 0
79 -30 74 0
-80 -30 0
-80 74 0
80 30 -74 0
-81 -79 0
-81 -80 0
81 79 80 0
-82 78 0
-82 81 0
82 -78 -81 0
-85 82 0
-85 -84 0
85 -82 84 0
-87 85 0
-87 -86 0
87 -85 86 0
-88 9 0
-88 -83 0
88 -9 83 0
-89 -9 0
-89 83 0
89 9 -83 0
-90 -88 0
-90 -89 0
90 88 89 0
91 -1242 0
-91 1242 0
-92 90 0
-92 91 0
92 -90 -91 0
-93 87 0
-93 -92 0
93 -87 92 0
-94 -90 0
-94 -91 0
94 90 91 0
-95 93 0
-95 -94 0
95 -93 94 0
-96 19 0
-96 -91 0
96 -19 91 0
-97 -19 0
-97 91 0
97 19 -91 0
-98 -96 0
-98 -97 0
98 96 97 0
-99 95 0
-99 98 0
99 -95 -98 0
-102 99 0
-102 -101 0
102 -99 101 0
-104 102 0
-104 -103 0
104 -102 103 0
-105 8 0
-105 -100 0
105 -8 100 0
-106 -8 0
-106 100 0
106 8 -100 0
-107 -105 0
-107 -106 0
107 105 106 0
108 -1244 0
-108 1244 0
-109 107 0
-109 108 0
109 -107 -108 0
-110 104 0
-110 -109 0
110 -104 109 0
-111 -107 0
-111 -108 0
111 107 108 0
-112 110 0
-112 -111 0
112 -110 111 0
-113 18 0
-113 -108 0
113 -18 108 0
-114 -18 0
-114 108 0
114 18 -108 0
-115 -113 0
-115 -114 0
115 113 114 0
116 -1245 0
-116 1245 0
-117 115 0
-117 116 0
117 -115 -116 0
-118 112 0
-118 -117 0
118 -112 117 0
-119 -115 0
-119 -116 0
119 115 116 0
-120 118 0
-120 -119 0
120 -118 119 0
33 -1234 0
-33 1234 0
-121 33 0
-121 -116 0
121 -33 116 0
-122 -33 0
-122 116 0
122 33 -116 0
-123 -121 0
-123 -122 0
123 121 122 0
-124 120 0
-124 123 0
124 -120 -123 0
-127 124 0
-127 -126 0
127 -124 126 0
-129 127 0
-129 -128 0
129 -127 128 0
-130 7 0
-130 -125 0
130 -7 125 0
-131 -7 0
-131 125 0
131 7 -125 0
-132 -130 0
-132 -131 0
132 130 131 0
133 -1247 0
-133 1247 0
-134 132 0
-134 133 0
134 -132 -133 0
-135 129 0
-135 -134 0
135 -129 134 0
-136 -132 0
-136 -133 0
136 132 133 0
-137 135 0
-137 -136 0
137 -135 136 0
-138 17 0
-138 -133 0
138 -17 133 0
-139 -17 0
-139 133 0
139 17 -133 0
-140 -138 0
-140 -139 0
140 138 139 0
141 -1248 0
-141 1248 0
-142 140 0
-142 141 0
142 -140 -141 0
-143 137 0
-143 -142 0
143 -137 142 0
-144 -140 0
-144 -141 0
144 140 141 0
-145 143 0
-145 -144 0
145 -143 144 0
32 -1233 0
-32 1233 0
-146 32 0
-146 -141 0
146 -32 141 0
-147 -32 0
-147 141 0
147 32 -141 0
-148 -146 0
-148 -147 0
148 146 147 0
-149 145 0
-149 148 0
149 -145 -148 0
-152 149 0
-152 -151 0
152 -149 151 0
-154 152 0
-154 -153 0
154 -152 153 0
-160 154 0
-160 -159 0
160 -154 159 0
-162 160 0
-162 -161 0
162 -160 161 0
-163 16 0
-163 -158 0
163 -16 158 0
-164 -16 0
-164 158 0
164 16 -158 0
-165 -163 0
-165 -164 0
165 163 164 0
166 -1251 0
-166 1251 0
-167 165 0
-167 166 0
167 -165 -166 0
-168 162 0
-168 -167 0
168 -162 167 0
-169 -165 0
-169 -166 0
169 165 166 0
-170 168 0
-170 -169 0
170 -168 169 0
27 -1228 0
-27 1228 0
-171 27 0
-171 -166 0
171 -27 166 0
-172 -27 0
-172 166 0
172 27 -166 0
-173 -171 0
-173 -172 0
173 171 172 0
-174 170 0
-174 173 0
174 -170 -173 0
-177 174 0
-177 -176 0
177 -174 176 0
-179 177 0
-179 -178 0
179 -177 178 0
-185 179 0
-185 -184 0
185 -179 184 0
-187 185 0
-187 -186 0
187 -185 186 0
-188 15 0
-188 -183 0
188 -15 183 0
-189 -15 0
-189 183 0
189 15 -183 0
-190 -188 0
-190 -189 0
190 188 189 0
191 -1254 0
-191 1254 0
-192 190 0
-192 191 0
192 -190 -191 0
-193 187 0
-193 -192 0
193 -187 192 0
-194 -190 0
-194 -191 0
194 190 191 0
-195 193 0
-195 -194 0
195 -193 194 0
26 -1227 0
-26 1227 0
-196 26 0
-196 -191 0
196 -26 191 0
-197 -26 0
-197 191 0
197 26 -191 0
-198 -196 0
-198 -197 0
198 196 197 0
-199 195 0
-199 198 0
199 -195 -198 0
-202 199 0
-202 -201 0
202 -199 201 0
-204 202 0
-204 -203 0
204 -202 203 0
-210 204 0
-210 -209 0
210 -204 209 0
-212 210 0
-212 -211 0
212 -210 211 0
-213 14 0
-213 -208 0
213 -14 208 0
-214 -14 0
-214 208 0
214 14 -208 0
-215 -213 0
-215 -214 0
215 213 214 0
-216 212 0
-216 215 0
216 -212 -215 0
-219 216 0
-219 -218 0
219 -216 218 0
-221 219 0
-221 -220 0
221 -219 220 0
-227 221 0
-227 -226 0
227 -221 226 0
-229 227 0
-229 -228 0
229 -227 228 0
-230 13 0
-230 -225 0
230 -13 225 0
-231 -13 0
-231 225 0
231 13 -225 0
-232 -230 0
-232 -231 0
232 230 231 0
233 -1259 0
-233 1259 0
-234 232 0
-234 233 0
234 -232 -233 0
-235 229 0
-235 -234 0
235 -229 234 0
-236 -232 0
-236 -233 0
236 232 233 0
-237 235 0
-237 -236 0
237 -235 236 0
-238 29 0
-238 -233 0
238 -29 233 0
-239 -29 0
-239 233 0
239 29 -233 0
-240 -238 0
-240 -239 0
240 238 239 0
-241 237 0
-241 240 0
241 -237 -240 0
-244 241 0
-244 -243 0
244 -241 243 0
-246 244 0
-246 -245 0
246 -244 245 0
-252 246 0
-252 -251 0
252 -246 251 0
-254 252 0
-254 -253 0
254 -252 253 0
-255 12 0
-255 -250 0
255 -12 250 0
-256 -12 0
-256 250 0
256 12 -250 0
-257 -255 0
-257 -256 0
257 255 256 0
258 -1262 0
-258 1262 0
-259 257 0
-259 258 0
259 -257 -258 0
-260 254 0
-260 -259 0
260 -254 259 0
-261 -257 0
-261 -258 0
261 257 258 0
-262 260 0
-262 -261 0
262 -260 261 0
28 -1229 0
-28 1229 0
-263 28 0
-263 -258 0
263 -28 258 0
-264 -28 0
-264 258 0
264 28 -258 0
-265 -263 0
-265 -264 0
265 263 264 0
-266 262 0
-266 265 0
266 -262 -265 0
-267 -151 0
-267 266 0
267 151 -266 0
-268 -153 0
-268 267 0
268 153 -267 0
-269 -159 0
-269 268 0
269 159 -268 0
-270 -161 0
-270 269 0
270 161 -269 0
-271 23 0
-271 -158 0
271 -23 158 0
-272 -23 0
-272 158 0
272 23 -158 0
-273 -271 0
-273 -272 0
273 271 272 0
-274 270 0
-274 273 0
274 -270 -273 0
-275 -176 0
-275 274 0
275 176 -274 0
-276 -178 0
-276 275 0
276 178 -275 0
-277 -184 0
-277 276 0
277 184 -276 0
-278 -186 0
-278 277 0
278 186 -277 0
-279 22 0
-279 -183 0
279 -22 183 0
-280 -22 0
-280 183 0
280 22 -183 0
-281 -279 0
-281 -280 0
281 279 280 0
282 -1263 0
-282 1263 0
-283 281 0
-283 282 0
283 -281 -282 0
-284 278 0
-284 -283 0
284 -278 283 0
-285 -281 0
-285 -282 0
285 281 282 0
-286 284 0
-286 -285 0
286 -284 285 0
-287 33 0
-287 -282 0
287 -33 282 0
-288 -33 0
-288 282 0
288 33 -282 0
-289 -287 0
-289 -288 0
289 287 288 0
-290 286 0
-290 289 0
290 -286 -289 0
-291 -201 0
-291 290 0
291 201 -290 0
-292 -203 0
-292 291 0
292 203 -291 0
-293 -209 0
-293 292 0
293 209 -292 0
-294 -211 0
-294 293 0
294 211 -293 0
-295 32 0
-295 -208 0
295 -32 208 0
-296 -32 0
-296 208 0
296 32 -208 0
-297 -295 0
-297 -296 0
297 295 296 0
-298 294 0
-298 297 0
298 -294 -297 0
-299 -218 0
-299 298 0
299 218 -298 0
-300 -220 0
-300 299 0
300 220 -299 0
-301 -226 0
-301 300 0
301 226 -300 0
-302 -228 0
-302 301 0
302 228 -301 0
-303 25 0
-303 -225 0
303 -25 225 0
-304 -25 0
-304 225 0
304 25 -225 0
-305 -303 0
-305 -304 0
305 303 304 0
306 -1264 0
-306 1264 0
-307 305 0
-307 306 0
307 -305 -306 0
-308 302 0
-308 -307 0
308 -302 307 0
-309 -305 0
-309 -306 0
309 305 306 0
-310 308 0
-310 -309 0
310 -308 309 0
-311 31 0
-311 -306 0
311 -31 306 0
-312 -31 0
-312 306 0
312 31 -306 0
-313 -311 0
-313 -312 0
313 311 312 0
-314 310 0
-314 313 0
314 -310 -313 0
-315 -243 0
-315 314 0
315 243 -314 0
-316 -245 0
-316 315 0
316 245 -315 0
-317 -251 0
-317 316 0
317 251 -316 0
-318 -253 0
-318 317 0
318 253 -317 0
-319 24 0
-319 -250 0
319 -24 250 0
-320 -24 0
-320 250 0
320 24 -250 0
-321 -319 0
-321 -320 0
321 319 320 0
322 -1265 0
-322 1265 0
-323 321 0
-323 322 0
323 -321 -322 0
-324 318 0
-324 -323 0
324 -318 323 0
-325 -321 0
-325 -322 0
325 321 322 0
-326 324 0
-326 -325 0
326 -324 325 0
-327 30 0
-327 -322 0
327 -30 322 0
-328 -30 0
-328 322 0
328 30 -322 0
-329 -327 0
-329 -328 0
329 327 328 0
-330 326 0
-330 329 0
330 -326 -329 0
-333 330 0
-333 -332 0
333 -330 332 0
-335 333 0
-335 -334 0
335 -333 334 0
-336 6 0
-336 -331 0
336 -6 331 0
-337 -6 0
-337 331 0
337 6 -331 0
-338 -336 0
-338 -337 0
338 336 337 0
-339 335 0
-339 338 0
339 -335 -338 0
-342 339 0
-342 -341 0
342 -339 341 0
-344 342 0
-344 -343 0
344 -342 343 0
-345 5 0
-345 -340 0
345 -5 340 0
-346 -5 0
-346 340 0
346 5 -340 0
-347 -345 0
-347 -346 0
347 345 346 0
348 -1268 0
-348 1268 0
-349 347 0
-349 348 0
349 -347 -348 0
-350 344 0
-350 -349 0
350 -344 349 0
-351 -347 0
-351 -348 0
351 347 348 0
-352 350 0
-352 -351 0
352 -350 351 0
-353 29 0
-353 -348 0
353 -29 348 0
-354 -29 0
-354 348 0
354 29 -348 0
-355 -353 0
-355 -354 0
355 353 354 0
356 -1269 0
-356 1269 0
-357 355 0
-357 356 0
357 -355 -356 0
-358 352 0
-358 -357 0
358 -352 357 0
-359 -355 0
-359 -356 0
359 355 356 0
-360 358 0
-360 -359 0
360 -358 359 0
-361 33 0
-361 -356 0
361 -33 356 0
-362 -33 0
-362 356 0
362 33 -356 0
-363 -361 0
-363 -362 0
363 361 362 0
-364 360 0
-364 363 0
364 -360 -363 0
-367 364 0
-367 -366 0
367 -364 366 0
-369 367 0
-369 -368 0
369 -367 368 0
-370 4 0
-370 -365 0
370 -4 365 0
-371 -4 0
-371 365 0
371 4 -365 0
-372 -370 0
-372 -371 0
372 370 371 0
373 -1271 0
-373 1271 0
-374 372 0
-374 373 0
374 -372 -373 0
-375 369 0
-375 -374 0
375 -369 374 0
-376 -372 0
-376 -373 0
376 372 373 0
-377 375 0
-377 -376 0
377 -375 376 0
-378 28 0
-378 -373 0
378 -28 373 0
-379 -28 0
-379 373 0
379 28 -373 0
-380 -378 0
-380 -379 0
380 378 379 0
381 -1272 0
-381 1272 0
-382 380 0
-382 381 0
382 -380 -381 0
-383 377 0
-383 -382 0
383 -377 382 0
-384 -380 0
-384 -381 0
384 380 381 0
-385 383 0
-385 -384 0
385 -383 384 0
-386 32 0
-386 -381 0
386 -32 381 0
-387 -32 0
-387 381 0
387 32 -381 0
-388 -386 0
-388 -387 0
388 386 387 0
-389 385 0
-389 388 0
389 -385 -388 0
-392 389 0
-392 -391 0
392 -389 391 0
-394 392 0
-394 -393 0
394 -392 393 0
-395 3 0
-395 -390 0
395 -3 390 0
-396 -3 0
-396 390 0
396 3 -390 0
-397 -395 0
-397 -396 0
397 395 396 0
398 -1274 0
-398 1274 0
-399 397 0
-399 398 0
399 -397 -398 0
-400 394 0
-400 -399 0
400 -394 399 0
-401 -397 0
-401 -398 0
401 397 398 0
-402 400 0
-402 -401 0
402 -400 401 0
-403 27 0
-403 -398 0
403 -27 398 0
-404 -27 0
-404 398 0
404 27 -398 0
-405 -403 0
-405 -404 0
405 403 404 0
406 -1275 0
-406 1275 0
-407 405 0
-407 406 0
407 -405 -406 0
-408 402 0
-408 -407 0
408 -402 407 0
-409 -405 0
-409 -406 0
409 405 406 0
-410 408 0
-410 -409 0
410 -408 409 0
-411 31 0
-411 -406 0
411 -31 406 0
-412 -31 0
-412 406 0
412 31 -406 0
-413 -411 0
-413 -412 0
413 411 412 0
-414 410 0
-414 413 0
414 -410 -413 0
-417 414 0
-417 -416 0
417 -414 416 0
-419 417 0
-419 -418 0
419 -417 418 0
-420 2 0
-420 -415 0
420 -2 415 0
-421 -2 0
-421 415 0
421 2 -415 0
-422 -420 0
-422 -421 0
422 420 421 0
423 -1277 0
-423 1277 0
-424 422 0
-424 423 0
424 -422 -423 0
-425 419 0
-425 -424 0
425 -419 424 0
-426 -422 0
-426 -423 0
426 422 423 0
-427 425 0
-427 -426 0
427 -425 426 0
-428 26 0
-428 -423 0
428 -26 423 0
-429 -26 0
-429 423 0
429 26 -423 0
-430 -428 0
-430 -429 0
430 428 429 0
431 -1278 0
-431 1278 0
-432 430 0
-432 431 0
432 -430 -431 0
-433 427 0
-433 -432 0
433 -427 432 0
-434 -430 0
-434 -431 0
434 430 431 0
-435 433 0
-435 -434 0
435 -433 434 0
-436 30 0
-436 -431 0
436 -30 431 0
-437 -30 0
-437 431 0
437 30 -431 0
-438 -436 0
-438 -437 0
438 436 437 0
-439 435 0
-439 438 0
439 -435 -438 0
-440 -13 0
-440 439 0
440 13 -439 0
-443 440 0
-443 -442 0
443 -440 442 0
-445 443 0
-445 -444 0
445 -443 444 0
-446 12 0
-446 -441 0
446 -12 441 0
-447 -12 0
-447 441 0
447 12 -441 0
-448 -446 0
-448 -447 0
448 446 447 0
449 -1280 0
-449 1280 0
-450 448 0
-450 449 0
450 -448 -449 0
-451 445 0
-451 -450 0
451 -445 450 0
-452 -448 0
-452 -449 0
452 448 449 0
-453 451 0
-453 -452 0
453 -451 452 0
-454 29 0
-454 -449 0
454 -29 449 0
-455 -29 0
-455 449 0
455 29 -449 0
-456 -454 0
-456 -455 0
456 454 455 0
457 -1281 0
-457 1281 0
-458 456 0
-458 457 0
458 -456 -457 0
-459 453 0
-459 -458 0
459 -453 458 0
-460 -456 0
-460 -457 0
460 456 457 0
-461 459 0
-461 -460 0
461 -459 460 0
-462 33 0
-462 -457 0
462 -33 457 0
-463 -33 0
-463 457 0
463 33 -457 0
-464 -462 0
-464 -463 0
464 462 463 0
-465 461 0
-465 464 0
465 -461 -464 0
-468 465 0
-468 -467 0
468 -465 467 0
-470 468 0
-470 -469 0
470 -468 469 0
-471 16 0
-471 -466 0
471 -16 466 0
-472 -16 0
-472 466 0
472 16 -466 0
-473 -471 0
-473 -472 0
473 471 472 0
474 -1283 0
-474 1283 0
-475 473 0
-475 474 0
475 -473 -474 0
-476 470 0
-476 -475 0
476 -470 475 0
-477 -473 0
-477 -474 0
477 473 474 0
-478 476 0
-478 -477 0
478 -476 477 0
-479 28 0
-479 -474 0
479 -28 474 0
-480 -28 0
-480 474 0
480 28 -474 0
-481 -479 0
-481 -480 0
481 479 480 0
482 -1284 0
-482 1284 0
-483 481 0
-483 482 0
483 -481 -482 0
-484 478 0
-484 -483 0
484 -478 483 0
-485 -481 0
-485 -482 0
485 481 482 0
-486 484 0
-486 -485 0
486 -484 485 0
-487 32 0
-487 -482 0
487 -32 482 0
-488 -32 0
-488 482 0
488 32 -482 0
-489 -487 0
-489 -488 0
489 487 488 0
-490 486 0
-490 489 0
490 -486 -489 0
-493 490 0
-493 -492 0
493 -490 492 0
-495 493 0
-495 -494 0
495 -493 494 0
-496 15 0
-496 -491 0
496 -15 491 0
-497 -15 0
-497 491 0
497 15 -491 0
-498 -496 0
-498 -497 0
498 496 497 0
499 -1286 0
-499 1286 0
-500 498 0
-500 499 0
500 -498 -499 0
-501 495 0
-501 -500 0
501 -495 500 0
-502 -498 0
-502 -499 0
502 498 499 0
-503 501 0
-503 -502 0
503 -501 502 0
-504 27 0
-504 -499 0
504 -27 499 0
-505 -27 0
-505 499 0
505 27 -499 0
-506 -504 0
-506 -505 0
506 504 505 0
507 -1287 0
-507 1287 0
-508 506 0
-508 507 0
508 -506 -507 0
-509 503 0
-509 -508 0
509 -503 508 0
-510 -506 0
-510 -507 0
510 506 507 0
-511 509 0
-511 -510 0
511 -509 510 0
-512 31 0
-512 -507 0
512 -31 507 0
-513 -31 0
-513 507 0
513 31 -507 0
-514 -512 0
-514 -513 0
514 512 513 0
-515 511 0
-515 514 0
515 -511 -514 0
-518 515 0
-518 -517 0
518 -515 517 0
-520 518 0
-520 -519 0
520 -518 519 0
-521 14 0
-521 -516 0
521 -14 516 0
-522 -14 0
-522 516 0
522 14 -516 0
-523 -521 0
-523 -522 0
523 521 522 0
524 -1289 0
-524 1289 0
-525 523 0
-525 524 0
525 -523 -524 0
-526 520 0
-526 -525 0
526 -520 525 0
-527 -523 0
-527 -524 0
527 523 524 0
-528 526 0
-528 -527 0
528 -526 527 0
-529 26 0
-529 -524 0
529 -26 524 0
-530 -26 0
-530 524 0
530 26 -524 0
-531 -529 0
-531 -530 0
531 529 530 0
532 -1290 0
-532 1290 0
-533 531 0
-533 532 0
533 -531 -532 0
-534 528 0
-534 -533 0
534 -528 533 0
-535 -531 0
-535 -532 0
535 531 532 0
-536 534 0
-536 -535 0
536 -534 535 0
-537 30 0
-537 -532 0
537 -30 532 0
-538 -30 0
-538 532 0
538 30 -532 0
-539 -537 0
-539 -538 0
539 537 538 0
-540 536 0
-540 539 0
540 -536 -539 0
-541 -366 0
-541 540 0
541 366 -540 0
-542 -368 0
-542 541 0
542 368 -541 0
-543 8 0
-543 -365 0
543 -8 365 0
-544 -8 0
-544 365 0
544 8 -365 0
-545 -543 0
-545 -544 0
545 543 544 0
-546 542 0
-546 545 0
546 -542 -545 0
-547 -391 0
-547 546 0
547 391 -546 0
-548 -393 0
-548 547 0
548 393 -547 0
-549 7 0
-549 -390 0
549 -7 390 0
-550 -7 0
-550 390 0
550 7 -390 0
-551 -549 0
-551 -550 0
551 549 550 0
552 -1291 0
-552 1291 0
-553 551 0
-553 552 0
553 -551 -552 0
-554 548 0
-554 -553 0
554 -548 553 0
-555 -551 0
-555 -552 0
555 551 552 0
-556 554 0
-556 -555 0
556 -554 555 0
-557 25 0
-557 -552 0
557 -25 552 0
-558 -25 0
-558 552 0
558 25 -552 0
-559 -557 0
-559 -558 0
559 557 558 0
560 -1292 0
-560 1292 0
-561 559 0
-561 560 0
561 -559 -560 0
-562 556 0
-562 -561 0
562 -556 561 0
-563 -559 0
-563 -560 0
563 559 560 0
-564 562 0
-564 -563 0
564 -562 563 0
-565 29 0
-565 -560 0
565 -29 560 0
-566 -29 0
-566 560 0
566 29 -560 0
-567 -565 0
-567 -566 0
567 565 566 0
-568 564 0
-568 567 0
568 -564 -567 0
-569 -416 0
-569 568 0
569 416 -568 0
-570 -418 0
-570 569 0
570 418 -569 0
-571 11 0
-571 -415 0
571 -11 415 0
-572 -11 0
-572 415 0
572 11 -415 0
-573 -571 0
-573 -572 0
573 571 572 0
574 -1293 0
-574 1293 0
-575 573 0
-575 574 0
575 -573 -574 0
-576 570 0
-576 -575 0
576 -570 575 0
-577 -573 0
-577 -574 0
577 573 574 0
-578 576 0
-578 -577 0
578 -576 577 0
-579 24 0
-579 -574 0
579 -24 574 0
-580 -24 0
-580 574 0
580 24 -574 0
-581 -579 0
-581 -580 0
581 579 580 0
582 -1294 0
-582 1294 0
-583 581 0
-583 582 0
583 -581 -582 0
-584 578 0
-584 -583 0
584 -578 583 0
-585 -581 0
-585 -582 0
585 581 582 0
-586 584 0
-586 -585 0
586 -584 585 0
-587 28 0
-587 -582 0
587 -28 582 0
-588 -28 0
-588 582 0
588 28 -582 0
-589 -587 0
-589 -588 0
589 587 588 0
-590 586 0
-590 589 0
590 -586 -589 0
-591 -332 0
-591 590 0
591 332 -590 0
-592 -334 0
-592 591 0
592 334 -591 0
-593 10 0
-593 -331 0
593 -10 331 0
-594 -10 0
-594 331 0
594 10 -331 0
-595 -593 0
-595 -594 0
595 593 594 0
596 -1295 0
-596 1295 0
-597 595 0
-597 596 0
597 -595 -596 0
-598 592 0
-598 -597 0
598 -592 597 0
-599 -595 0
-599 -596 0
599 595 596 0
-600 598 0
-600 -599 0
600 -598 599 0
-601 23 0
-601 -596 0
601 -23 596 0
-602 -23 0
-602 596 0
602 23 -596 0
-603 -601 0
-603 -602 0
603 601 602 0
604 -1296 0
-604 1296 0
-605 603 0
-605 604 0
605 -603 -604 0
-606 600 0
-606 -605 0
606 -600 605 0
-607 -603 0
-607 -604 0
607 603 604 0
-608 606 0
-608 -607 0
608 -606 607 0
-609 27 0
-609 -604 0
609 -27 604 0
-610 -27 0
-610 604 0
610 27 -604 0
-611 -609 0
-611 -610 0
611 609 610 0
-612 608 0
-612 611 0
612 -608 -611 0
-613 -341 0
-613 612 0
613 341 -612 0
-614 -343 0
-614 613 0
614 343 -613 0
-615 9 0
-615 -340 0
615 -9 340 0
-616 -9 0
-616 340 0
616 9 -340 0
-617 -615 0
-617 -616 0
617 615 616 0
618 -1297 0
-618 1297 0
-619 617 0
-619 618 0
619 -617 -618 0
-620 614 0
-620 -619 0
620 -614 619 0
-621 -617 0
-621 -618 0
621 617 618 0
-622 620 0
-622 -621 0
622 -620 621 0
-623 22 0
-623 -618 0
623 -22 618 0
-624 -22 0
-624 618 0
624 22 -618 0
-625 -623 0
-625 -624 0
625 623 624 0
626 -1298 0
-626 1298 0
-627 625 0
-627 626 0
627 -625 -626 0
-628 622 0
-628 -627 0
628 -622 627 0
-629 -625 0
-629 -626 0
629 625 626 0
-630 628 0
-630 -629 0
630 -628 629 0
-631 26 0
-631 -626 0
631 -26 626 0
-632 -26 0
-632 626 0
632 26 -626 0
-633 -631 0
-633 -632 0
633 631 632 0
-634 630 0
-634 633 0
634 -630 -633 0
-635 -35 0
-635 634 0
635 35 -634 0
-636 -36 0
-636 635 0
636 36 -635 0
-637 3 0
-637 -34 0
637 -3 34 0
-638 -3 0
-638 34 0
638 3 -34 0
-639 -637 0
-639 -638 0
639 637 638 0
640 -1299 0
-640 1299 0
-641 639 0
-641 640 0
641 -639 -640 0
-642 636 0
-642 -641 0
642 -636 641 0
-643 -639 0
-643 -640 0
643 639 640 0
-644 642 0
-644 -643 0
644 -642 643 0
-645 21 0
-645 -640 0
645 -21 640 0
-646 -21 0
-646 640 0
646 21 -640 0
-647 -645 0
-647 -646 0
647 645 646 0
-648 644 0
-648 647 0
648 -644 -647 0
-649 -59 0
-649 648 0
649 59 -648 0
-650 -61 0
-650 649 0
650 61 -649 0
-651 2 0
-651 -58 0
651 -2 58 0
-652 -2 0
-652 58 0
652 2 -58 0
-653 -651 0
-653 -652 0
653 651 652 0
654 -1300 0
-654 1300 0
-655 653 0
-655 654 0
655 -653 -654 0
-656 650 0
-656 -655 0
656 -650 655 0
-657 -653 0
-657 -654 0
657 653 654 0
-658 656 0
-658 -657 0
658 -656 657 0
-659 20 0
-659 -654 0
659 -20 654 0
-660 -20 0
-660 654 0
660 20 -654 0
-661 -659 0
-661 -660 0
661 659 660 0
662 -1301 0
-662 1301 0
-663 661 0
-663 662 0
663 -661 -662 0
-664 658 0
-664 -663 0
664 -658 663 0
-665 -661 0
-665 -662 0
665 661 662 0
-666 664 0
-666 -665 0
666 -664 665 0
-667 25 0
-667 -662 0
667 -25 662 0
-668 -25 0
-668 662 0
668 25 -662 0
-669 -667 0
-669 -668 0
669 667 668 0
-670 666 0
-670 669 0
670 -666 -669 0
-671 -84 0
-671 670 0
671 84 -670 0
-672 -86 0
-672 671 0
672 86 -671 0
-673 6 0
-673 -83 0
673 -6 83 0
-674 -6 0
-674 83 0
674 6 -83 0
-675 -673 0
-675 -674 0
675 673 674 0
676 -1302 0
-676 1302 0
-677 675 0
-677 676 0
677 -675 -676 0
-678 672 0
-678 -677 0
678 -672 677 0
-679 -675 0
-679 -676 0
679 675 676 0
-680 678 0
-680 -679 0
680 -678 679 0
-681 19 0
-681 -676 0
681 -19 676 0
-682 -19 0
-682 676 0
682 19 -676 0
-683 -681 0
-683 -682 0
683 681 682 0
684 -1303 0
-684 1303 0
-685 683 0
-685 684 0
685 -683 -684 0
-686 680 0
-686 -685 0
686 -680 685 0
-687 -683 0
-687 -684 0
687 683 684 0
-688 686 0
-688 -687 0
688 -686 687 0
-689 24 0
-689 -684 0
689 -24 684 0
-690 -24 0
-690 684 0
690 24 -684 0
-691 -689 0
-691 -690 0
691 689 690 0
-692 688 0
-692 691 0
692 -688 -691 0
-693 -101 0
-693 692 0
693 101 -692 0
-694 -103 0
-694 693 0
694 103 -693 0
-695 5 0
-695 -100 0
695 -5 100 0
-696 -5 0
-696 100 0
696 5 -100 0
-697 -695 0
-697 -696 0
697 695 696 0
698 -1304 0
-698 1304 0
-699 697 0
-699 698 0
699 -697 -698 0
-700 694 0
-700 -699 0
700 -694 699 0
-701 -697 0
-701 -698 0
701 697 698 0
-702 700 0
-702 -701 0
702 -700 701 0
-703 18 0
-703 -698 0
703 -18 698 0
-704 -18 0
-704 698 0
704 18 -698 0
-705 -703 0
-705 -704 0
705 703 704 0
706 -1305 0
-706 1305 0
-707 705 0
-707 706 0
707 -705 -706 0
-708 702 0
-708 -707 0
708 -702 707 0
-709 -705 0
-709 -706 0
709 705 706 0
-710 708 0
-710 -709 0
710 -708 709 0
-711 23 0
-711 -706 0
711 -23 706 0
-712 -23 0
-712 706 0
712 23 -706 0
-713 -711 0
-713 -712 0
713 711 712 0
-714 710 0
-714 713 0
714 -710 -713 0
-715 -126 0
-715 714 0
715 126 -714 0
-716 -128 0
-716 715 0
716 128 -715 0
-717 4 0
-717 -125 0
717 -4 125 0
-718 -4 0
-718 125 0
718 4 -125 0
-719 -717 0
-719 -718 0
719 717 718 0
720 -1306 0
-720 1306 0
-721 719 0
-721 720 0
721 -719 -720 0
-722 716 0
-722 -721 0
722 -716 721 0
-723 -719 0
-723 -720 0
723 719 720 0
-724 722 0
-724 -723 0
724 -722 723 0
-725 17 0
-725 -720 0
725 -17 720 0
-726 -17 0
-726 720 0
726 17 -720 0
-727 -725 0
-727 -726 0
727 725 726 0
728 -1307 0
-728 1307 0
-729 727 0
-729 728 0
729 -727 -728 0
-730 724 0
-730 -729 0
730 -724 729 0
-731 -727 0
-731 -728 0
731 727 728 0
-732 730 0
-732 -731 0
732 -730 731 0
-733 22 0
-733 -728 0
733 -22 728 0
-734 -22 0
-734 728 0
734 22 -728 0
-735 -733 0
-735 -734 0
735 733 734 0
-736 732 0
-736 735 0
736 -732 -735 0
-737 -35 0
-737 736 0
737 35 -736 0
-738 -36 0
-738 737 0
738 36 -737 0
-739 6 0
-739 -34 0
739 -6 34 0
-740 -6 0
-740 34 0
740 6 -34 0
-741 -739 0
-741 -740 0
741 739 740 0
742 -1308 0
-742 1308 0
-743 741 0
-743 742 0
743 -741 -742 0
-744 738 0
-744 -743 0
744 -738 743 0
-745 -741 0
-745 -742 0
745 741 742 0
-746 744 0
-746 -745 0
746 -744 745 0
-747 30 0
-747 -742 0
747 -30 742 0
-748 -30 0
-748 742 0
748 30 -742 0
-749 -747 0
-749 -748 0
749 747 748 0
-750 746 0
-750 749 0
750 -746 -749 0
-751 -59 0
-751 750 0
751 59 -750 0
-752 -61 0
-752 751 0
752 61 -751 0
-753 5 0
-753 -58 0
753 -5 58 0
-754 -5 0
-754 58 0
754 5 -58 0
-755 -753 0
-755 -754 0
755 753 754 0
-756 752 0
-756 755 0
756 -752 -755 0
-757 -84 0
-757 756 0
757 84 -756 0
-758 -86 0
-758 757 0
758 86 -757 0
-759 4 0
-759 -83 0
759 -4 83 0
-760 -4 0
-760 83 0
760 4 -83 0
-761 -759 0
-761 -760 0
761 759 760 0
762 -1309 0
-762 1309 0
-763 761 0
-763 762 0
763 -761 -762 0
-764 758 0
-764 -763 0
764 -758 763 0
-765 -761 0
-765 -762 0
765 761 762 0
-766 764 0
-766 -765 0
766 -764 765 0
-767 33 0
-767 -762 0
767 -33 762 0
-768 -33 0
-768 762 0
768 33 -762 0
-769 -767 0
-769 -768 0
769 767 768 0
-770 766 0
-770 769 0
770 -766 -769 0
-771 -101 0
-771 770 0
771 101 -770 0
-772 -103 0
-772 771 0
772 103 -771 0
-773 3 0
-773 -100 0
773 -3 100 0
-774 -3 0
-774 100 0
774 3 -100 0
-775 -773 0
-775 -774 0
775 773 774 0
776 -1310 0
-776 1310 0
-777 775 0
-777 776 0
777 -775 -776 0
-778 772 0
-778 -777 0
778 -772 777 0
-779 -775 0
-779 -776 0
779 775 776 0
-780 778 0
-780 -779 0
780 -778 779 0
-781 32 0
-781 -776 0
781 -32 776 0
-782 -32 0
-782 776 0
782 32 -776 0
-783 -781 0
-783 -782 0
783 781 782 0
-784 780 0
-784 783 0
784 -780 -783 0
-785 -126 0
-785 784 0
785 126 -784 0
-786 -128 0
-786 785 0
786 128 -785 0
-787 2 0
-787 -125 0
787 -2 125 0
-788 -2 0
-788 125 0
788 2 -125 0
-789 -787 0
-789 -788 0
789 787 788 0
790 -1311 0
-790 1311 0
-791 789 0
-791 790 0
791 -789 -790 0
-792 786 0
-792 -791 0
792 -786 791 0
-793 -789 0
-793 -790 0
793 789 790 0
-794 792 0
-794 -793 0
794 -792 793 0
-795 31 0
-795 -790 0
795 -31 790 0
-796 -31 0
-796 790 0
796 31 -790 0
-797 -795 0
-797 -796 0
797 795 796 0
-798 794 0
-798 797 0
798 -794 -797 0
799 -1312 0
-799 1312 0
-800 26 0
-800 -799 0
800 -26 799 0
-801 798 0
-801 -800 0
801 -798 800 0
-802 -26 0
-802 799 0
802 26 -799 0
-803 801 0
-803 -802 0
803 -801 802 0
-804 11 0
-804 -799 0
804 -11 799 0
-805 -11 0
-805 799 0
805 11 -799 0
-806 -804 0
-806 -805 0
806 804 805 0
-807 803 0
-807 806 0
807 -803 -806 0
808 -1313 0
-808 1313 0
-809 33 0
-809 -808 0
809 -33 808 0
-810 807 0
-810 -809 0
810 -807 809 0
-811 -33 0
-811 808 0
811 33 -808 0
-812 810 0
-812 -811 0
812 -810 811 0
-813 10 0
-813 -808 0
813 -10 808 0
-814 -10 0
-814 808 0
814 10 -808 0
-815 -813 0
-815 -814 0
815 813 814 0
-816 812 0
-816 815 0
816 -812 -815 0
-819 816 0
-819 -818 0
819 -816 818 0
-821 819 0
-821 -820 0
821 -819 820 0
-822 9 0
-822 -817 0
822 -9 817 0
-823 -9 0
-823 817 0
823 9 -817 0
-824 -822 0
-824 -823 0
824 822 823 0
825 -1315 0
-825 1315 0
-826 824 0
-826 825 0
826 -824 -825 0
-827 821 0
-827 -826 0
827 -821 826 0
-828 -824 0
-828 -825 0
828 824 825 0
-829 827 0
-829 -828 0
829 -827 828 0
-830 32 0
-830 -825 0
830 -32 825 0
-831 -32 0
-831 825 0
831 32 -825 0
-832 -830 0
-832 -831 0
832 830 831 0
-833 829 0
-833 832 0
833 -829 -832 0
834 -1316 0
-834 1316 0
-835 28 0
-835 -834 0
835 -28 834 0
-836 833 0
-836 -835 0
836 -833 835 0
-837 -28 0
-837 834 0
837 28 -834 0
-838 836 0
-838 -837 0
838 -836 837 0
-839 8 0
-839 -834 0
839 -8 834 0
-840 -8 0
-840 834 0
840 8 -834 0
-841 -839 0
-841 -840 0
841 839 840 0
842 -1317 0
-842 1317 0
-843 841 0
-843 842 0
843 -841 -842 0
-844 838 0
-844 -843 0
844 -838 843 0
-845 -841 0
-845 -842 0
845 841 842 0
-846 844 0
-846 -845 0
846 -844 845 0
-847 31 0
-847 -842 0
847 -31 842 0
-848 -31 0
-848 842 0
848 31 -842 0
-849 -847 0
-849 -848 0
849 847 848 0
-850 846 0
-850 849 0
850 -846 -849 0
851 -1318 0
-851 1318 0
-852 27 0
-852 -851 0
852 -27 851 0
-853 850 0
-853 -852 0
853 -850 852 0
-854 -27 0
-854 851 0
854 27 -851 0
-855 853 0
-855 -854 0
855 -853 854 0
-856 7 0
-856 -851 0
856 -7 851 0
-857 -7 0
-857 851 0
857 7 -851 0
-858 -856 0
-858 -857 0
858 856 857 0
859 -1319 0
-859 1319 0
-860 858 0
-860 859 0
860 -858 -859 0
-861 855 0
-861 -860 0
861 -855 860 0
-862 -858 0
-862 -859 0
862 858 859 0
-863 861 0
-863 -862 0
863 -861 862 0
-864 30 0
-864 -859 0
864 -30 859 0
-865 -30 0
-865 859 0
865 30 -859 0
-866 -864 0
-866 -865 0
866 864 865 0
-867 863 0
-867 866 0
867 -863 -866 0
-868 -517 0
-868 867 0
868 517 -867 0
-869 -519 0
-869 868 0
869 519 -868 0
-870 6 0
-870 -516 0
870 -6 516 0
-871 -6 0
-871 516 0
871 6 -516 0
-872 -870 0
-872 -871 0
872 870 871 0
-873 869 0
-873 872 0
873 -869 -872 0
-874 -818 0
-874 873 0
874 818 -873 0
-875 -820 0
-875 874 0
875 820 -874 0
-876 5 0
-876 -817 0
876 -5 817 0
-877 -5 0
-877 817 0
877 5 -817 0
-878 -876 0
-878 -877 0
878 876 877 0
-879 875 0
-879 878 0
879 -875 -878 0
-880 -442 0
-880 879 0
880 442 -879 0
-881 -444 0
-881 880 0
881 444 -880 0
-882 4 0
-882 -441 0
882 -4 441 0
-883 -4 0
-883 441 0
883 4 -441 0
-884 -882 0
-884 -883 0
884 882 883 0
885 -1320 0
-885 1320 0
-886 884 0
-886 885 0
886 -884 -885 0
-887 881 0
-887 -886 0
887 -881 886 0
-888 -884 0
-888 -885 0
888 884 885 0
-889 887 0
-889 -888 0
889 -887 888 0
-890 28 0
-890 -885 0
890 -28 885 0
-891 -28 0
-891 885 0
891 28 -885 0
-892 -890 0
-892 -891 0
892 890 891 0
-893 889 0
-893 892 0
893 -889 -892 0
-894 -467 0
-894 893 0
894 467 -893 0
-895 -469 0
-895 894 0
895 469 -894 0
-896 3 0
-896 -466 0
896 -3 466 0
-897 -3 0
-897 466 0
897 3 -466 0
-898 -896 0
-898 -897 0
898 896 897 0
899 -1321 0
-899 1321 0
-900 898 0
-900 899 0
900 -898 -899 0
-901 895 0
-901 -900 0
901 -895 900 0
-902 -898 0
-902 -899 0
902 898 899 0
-903 901 0
-903 -902 0
903 -901 902 0
-904 27 0
-904 -899 0
904 -27 899 0
-905 -27 0
-905 899 0
905 27 -899 0
-906 -904 0
-906 -905 0
906 904 905 0
-907 903 0
-907 906 0
907 -903 -906 0
-908 -492 0
-908 907 0
908 492 -907 0
-909 -494 0
-909 908 0
909 494 -908 0
-910 2 0
-910 -491 0
910 -2 491 0
-911 -2 0
-911 491 0
911 2 -491 0
-912 -910 0
-912 -911 0
912 910 911 0
913 -1322 0
-913 1322 0
-914 912 0
-914 913 0
914 -912 -913 0
-915 909 0
-915 -914 0
915 -909 914 0
-916 -912 0
-916 -913 0
916 912 913 0
-917 915 0
-917 -916 0
917 -915 916 0
-918 26 0
-918 -913 0
918 -26 913 0
-919 -26 0
-919 913 0
919 26 -913 0
-920 -918 0
-920 -919 0
920 918 919 0
-921 917 0
-921 920 0
921 -917 -920 0
-922 -17 0
-922 921 0
922 17 -921 0
-923 -442 0
-923 922 0
923 442 -922 0
-924 -444 0
-924 923 0
924 444 -923 0
-925 21 0
-925 -441 0
925 -21 441 0
-926 -21 0
-926 441 0
926 21 -441 0
-927 -925 0
-927 -926 0
927 925 926 0
928 -1323 0
-928 1323 0
-929 927 0
-929 928 0
929 -927 -928 0
-930 924 0
-930 -929 0
930 -924 929 0
-931 -927 0
-931 -928 0
931 927 928 0
-932 930 0
-932 -931 0
932 -930 931 0
-933 33 0
-933 -928 0
933 -33 928 0
-934 -33 0
-934 928 0
934 33 -928 0
-935 -933 0
-935 -934 0
935 933 934 0
-936 932 0
-936 935 0
936 -932 -935 0
-937 -467 0
-937 936 0
937 467 -936 0
-938 -469 0
-938 937 0
938 469 -937 0
-939 20 0
-939 -466 0
939 -20 466 0
-940 -20 0
-940 466 0
940 20 -466 0
-941 -939 0
-941 -940 0
941 939 940 0
942 -1324 0
-942 1324 0
-943 941 0
-943 942 0
943 -941 -942 0
-944 938 0
-944 -943 0
944 -938 943 0
-945 -941 0
-945 -942 0
945 941 942 0
-946 944 0
-946 -945 0
946 -944 945 0
-947 32 0
-947 -942 0
947 -32 942 0
-948 -32 0
-948 942 0
948 32 -942 0
-949 -947 0
-949 -948 0
949 947 948 0
-950 946 0
-950 949 0
950 -946 -949 0
-951 -492 0
-951 950 0
951 492 -950 0
-952 -494 0
-952 951 0
952 494 -951 0
-953 19 0
-953 -491 0
953 -19 491 0
-954 -19 0
-954 491 0
954 19 -491 0
-955 -953 0
-955 -954 0
955 953 954 0
956 -1325 0
-956 1325 0
-957 955 0
-957 956 0
957 -955 -956 0
-958 952 0
-958 -957 0
958 -952 957 0
-959 -955 0
-959 -956 0
959 955 956 0
-960 958 0
-960 -959 0
960 -958 959 0
-961 31 0
-961 -956 0
961 -31 956 0
-962 -31 0
-962 956 0
962 31 -956 0
-963 -961 0
-963 -962 0
963 961 962 0
-964 960 0
-964 963 0
964 -960 -963 0
-965 -517 0
-965 964 0
965 517 -964 0
-966 -519 0
-966 965 0
966 519 -965 0
-967 18 0
-967 -516 0
967 -18 516 0
-968 -18 0
-968 516 0
968 18 -516 0
-969 -967 0
-969 -968 0
969 967 968 0
970 -1326 0
-970 1326 0
-971 969 0
-971 970 0
971 -969 -970 0
-972 966 0
-972 -971 0
972 -966 971 0
-973 -969 0
-973 -970 0
973 969 970 0
-974 972 0
-974 -973 0
974 -972 973 0
-975 30 0
-975 -970 0
975 -30 970 0
-976 -30 0
-976 970 0
976 30 -970 0
-977 -975 0
-977 -976 0
977 975 976 0
-978 974 0
-978 977 0
978 -974 -977 0
-979 -366 0
-979 978 0
979 366 -978 0
-980 -368 0
-980 979 0
980 368 -979 0
-981 12 0
-981 -365 0
981 -12 365 0
-982 -12 0
-982 365 0
982 12 -365 0
-983 -981 0
-983 -982 0
983 981 982 0
-984 980 0
-984 983 0
984 -980 -983 0
-985 -391 0
-985 984 0
985 391 -984 0
-986 -393 0
-986 985 0
986 393 -985 0
-987 16 0
-987 -390 0
987 -16 390 0
-988 -16 0
-988 390 0
988 16 -390 0
-989 -987 0
-989 -988 0
989 987 988 0
990 -1327 0
-990 1327 0
-991 989 0
-991 990 0
991 -989 -990 0
-992 986 0
-992 -991 0
992 -986 991 0
-993 -989 0
-993 -990 0
993 989 990 0
-994 992 0
-994 -993 0
994 -992 993 0
-995 29 0
-995 -990 0
995 -29 990 0
-996 -29 0
-996 990 0
996 29 -990 0
-997 -995 0
-997 -996 0
997 995 996 0
-998 994 0
-998 997 0
998 -994 -997 0
-999 -416 0
-999 998 0
999 416 -998 0
-1000 -418 0
-1000 999 0
1000 418 -999 0
-1001 15 0
-1001 -415 0
1001 -15 415 0
-1002 -15 0
-1002 415 0
1002 15 -415 0
-1003 -1001 0
-1003 -1002 0
1003 1001 1002 0
1004 -1328 0
-1004 1328 0
-1005 1003 0
-1005 1004 0
1005 -1003 -1004 0
-1006 1000 0
-1006 -1005 0
1006 -1000 1005 0
-1007 -1003 0
-1007 -1004 0
1007 1003 1004 0
-1008 1006 0
-1008 -1007 0
1008 -1006 1007 0
-1009 28 0
-1009 -1004 0
1009 -28 1004 0
-1010 -28 0
-1010 1004 0
1010 28 -1004 0
-1011 -1009 0
-1011 -1010 0
1011 1009 1010 0
-1012 1008 0
-1012 1011 0
1012 -1008 -1011 0
-1013 -332 0
-1013 1012 0
1013 332 -1012 0
-1014 -334 0
-1014 1013 0
1014 334 -1013 0
-1015 14 0
-1015 -331 0
1015 -14 331 0
-1016 -14 0
-1016 331 0
1016 14 -331 0
-1017 -1015 0
-1017 -1016 0
1017 1015 1016 0
1018 -1329 0
-1018 1329 0
-1019 1017 0
-1019 1018 0
1019 -1017 -1018 0
-1020 1014 0
-1020 -1019 0
1020 -1014 1019 0
-1021 -1017 0
-1021 -1018 0
1021 1017 1018 0
-1022 1020 0
-1022 -1021 0
1022 -1020 1021 0
-1023 27 0
-1023 -1018 0
1023 -27 1018 0
-1024 -27 0
-1024 1018 0
1024 27 -1018 0
-1025 -1023 0
-1025 -1024 0
1025 1023 1024 0
-1026 1022 0
-1026 1025 0
1026 -1022 -1025 0
-1027 -341 0
-1027 1026 0
1027 341 -1026 0
-1028 -343 0
-1028 1027 0
1028 343 -1027 0
-1029 13 0
-1029 -340 0
1029 -13 340 0
-1030 -13 0
-1030 340 0
1030 13 -340 0
-1031 -1029 0
-1031 -1030 0
1031 1029 1030 0
1032 -1330 0
-1032 1330 0
-1033 1031 0
-1033 1032 0
1033 -1031 -1032 0
-1034 1028 0
-1034 -1033 0
1034 -1028 1033 0
-1035 -1031 0
-1035 -1032 0
1035 1031 1032 0
-1036 1034 0
-1036 -1035 0
1036 -1034 1035 0
-1037 26 0
-1037 -1032 0
1037 -26 1032 0
-1038 -26 0
-1038 1032 0
1038 26 -1032 0
-1039 -1037 0
-1039 -1038 0
1039 1037 1038 0
-1040 1036 0
-1040 1039 0
1040 -1036 -1039 0
-1041 -35 0
-1041 1040 0
1041 35 -1040 0
-1042 -36 0
-1042 1041 0
1042 36 -1041 0
-1043 7 0
-1043 -34 0
1043 -7 34 0
-1044 -7 0
-1044 34 0
1044 7 -34 0
-1045 -1043 0
-1045 -1044 0
1045 1043 1044 0
-1046 1042 0
-1046 1045 0
1046 -1042 -1045 0
-1047 -59 0
-1047 1046 0
1047 59 -1046 0
-1048 -61 0
-1048 1047 0
1048 61 -1047 0
-1049 11 0
-1049 -58 0
1049 -11 58 0
-1050 -11 0
-1050 58 0
1050 11 -58 0
-1051 -1049 0
-1051 -1050 0
1051 1049 1050 0
1052 -1331 0
-1052 1331 0
-1053 1051 0
-1053 1052 0
1053 -1051 -1052 0
-1054 1048 0
-1054 -1053 0
1054 -1048 1053 0
-1055 -1051 0
-1055 -1052 0
1055 1051 1052 0
-1056 1054 0
-1056 -1055 0
1056 -1054 1055 0
-1057 25 0
-1057 -1052 0
1057 -25 1052 0
-1058 -25 0
-1058 1052 0
1058 25 -1052 0
-1059 -1057 0
-1059 -1058 0
1059 1057 1058 0
-1060 1056 0
-1060 1059 0
1060 -1056 -1059 0
-1061 -84 0
-1061 1060 0
1061 84 -1060 0
-1062 -86 0
-1062 1061 0
1062 86 -1061 0
-1063 10 0
-1063 -83 0
1063 -10 83 0
-1064 -10 0
-1064 83 0
1064 10 -83 0
-1065 -1063 0
-1065 -1064 0
1065 1063 1064 0
1066 -1332 0
-1066 1332 0
-1067 1065 0
-1067 1066 0
1067 -1065 -1066 0
-1068 1062 0
-1068 -1067 0
1068 -1062 1067 0
-1069 -1065 0
-1069 -1066 0
1069 1065 1066 0
-1070 1068 0
-1070 -1069 0
1070 -1068 1069 0
-1071 24 0
-1071 -1066 0
1071 -24 1066 0
-1072 -24 0
-1072 1066 0
1072 24 -1066 0
-1073 -1071 0
-1073 -1072 0
1073 1071 1072 0
-1074 1070 0
-1074 1073 0
1074 -1070 -1073 0
-1075 -101 0
-1075 1074 0
1075 101 -1074 0
-1076 -103 0
-1076 1075 0
1076 103 -1075 0
-1077 9 0
-1077 -100 0
1077 -9 100 0
-1078 -9 0
-1078 100 0
1078 9 -100 0
-1079 -1077 0
-1079 -1078 0
1079 1077 1078 0
1080 -1333 0
-1080 1333 0
-1081 1079 0
-1081 1080 0
1081 -1079 -1080 0
-1082 1076 0
-1082 -1081 0
1082 -1076 1081 0
-1083 -1079 0
-1083 -1080 0
1083 1079 1080 0
-1084 1082 0
-1084 -1083 0
1084 -1082 1083 0
-1085 23 0
-1085 -1080 0
1085 -23 1080 0
-1086 -23 0
-1086 1080 0
1086 23 -1080 0
-1087 -1085 0
-1087 -1086 0
1087 1085 1086 0
-1088 1084 0
-1088 1087 0
1088 -1084 -1087 0
-1089 -126 0
-1089 1088 0
1089 126 -1088 0
-1090 -128 0
-1090 1089 0
1090 128 -1089 0
-1091 8 0
-1091 -125 0
1091 -8 125 0
-1092 -8 0
-1092 125 0
1092 8 -125 0
-1093 -1091 0
-1093 -1092 0
1093 1091 1092 0
1094 -1334 0
-1094 1334 0
-1095 1093 0
-1095 1094 0
1095 -1093 -1094 0
-1096 1090 0
-1096 -1095 0
1096 -1090 1095 0
-1097 -1093 0
-1097 -1094 0
1097 1093 1094 0
-1098 1096 0
-1098 -1097 0
1098 -1096 1097 0
-1099 22 0
-1099 -1094 0
1099 -22 1094 0
-1100 -22 0
-1100 1094 0
1100 22 -1094 0
-1101 -1099 0
-1101 -1100 0
1101 1099 1100 0
-1102 1098 0
-1102 1101 0
1102 -1098 -1101 0
-1103 -151 0
-1103 1102 0
1103 151 -1102 0
-1104 -153 0
-1104 1103 0
1104 153 -1103 0
-1105 2 0
-1105 -150 0
1105 -2 150 0
-1106 -2 0
-1106 150 0
1106 2 -150 0
-1107 -1105 0
-1107 -1106 0
1107 1105 1106 0
1108 -1335 0
-1108 1335 0
-1109 1107 0
-1109 1108 0
1109 -1107 -1108 0
-1110 1104 0
-1110 -1109 0
1110 -1104 1109 0
-1111 -1107 0
-1111 -1108 0
1111 1107 1108 0
-1112 1110 0
-1112 -1111 0
1112 -1110 1111 0
-1113 21 0
-1113 -1108 0
1113 -21 1108 0
-1114 -21 0
-1114 1108 0
1114 21 -1108 0
-1115 -1113 0
-1115 -1114 0
1115 1113 1114 0
-1116 1112 0
-1116 1115 0
1116 -1112 -1115 0
-1117 -176 0
-1117 1116 0
1117 176 -1116 0
-1118 -178 0
-1118 1117 0
1118 178 -1117 0
-1119 6 0
-1119 -175 0
1119 -6 175 0
-1120 -6 0
-1120 175 0
1120 6 -175 0
-1121 -1119 0
-1121 -1120 0
1121 1119 1120 0
1122 -1336 0
-1122 1336 0
-1123 1121 0
-1123 1122 0
1123 -1121 -1122 0
-1124 1118 0
-1124 -1123 0
1124 -1118 1123 0
-1125 -1121 0
-1125 -1122 0
1125 1121 1122 0
-1126 1124 0
-1126 -1125 0
1126 -1124 1125 0
-1127 20 0
-1127 -1122 0
1127 -20 1122 0
-1128 -20 0
-1128 1122 0
1128 20 -1122 0
-1129 -1127 0
-1129 -1128 0
1129 1127 1128 0
-1130 1126 0
-1130 1129 0
1130 -1126 -1129 0
-1131 -201 0
-1131 1130 0
1131 201 -1130 0
-1132 -203 0
-1132 1131 0
1132 203 -1131 0
-1133 5 0
-1133 -200 0
1133 -5 200 0
-1134 -5 0
-1134 200 0
1134 5 -200 0
-1135 -1133 0
-1135 -1134 0
1135 1133 1134 0
1136 -1337 0
-1136 1337 0
-1137 1135 0
-1137 1136 0
1137 -1135 -1136 0
-1138 1132 0
-1138 -1137 0
1138 -1132 1137 0
-1139 -1135 0
-1139 -1136 0
1139 1135 1136 0
-1140 1138 0
-1140 -1139 0
1140 -1138 1139 0
-1141 19 0
-1141 -1136 0
1141 -19 1136 0
-1142 -19 0
-1142 1136 0
1142 19 -1136 0
-1143 -1141 0
-1143 -1142 0
1143 1141 1142 0
-1144 1140 0
-1144 1143 0
1144 -1140 -1143 0
-1145 -218 0
-1145 1144 0
1145 218 -1144 0
-1146 -220 0
-1146 1145 0
1146 220 -1145 0
-1147 4 0
-1147 -217 0
1147 -4 217 0
-1148 -4 0
-1148 217 0
1148 4 -217 0
-1149 -1147 0
-1149 -1148 0
1149 1147 1148 0
1150 -1338 0
-1150 1338 0
-1151 1149 0
-1151 1150 0
1151 -1149 -1150 0
-1152 1146 0
-1152 -1151 0
1152 -1146 1151 0
-1153 -1149 0
-1153 -1150 0
1153 1149 1150 0
-1154 1152 0
-1154 -1153 0
1154 -1152 1153 0
-1155 18 0
-1155 -1150 0
1155 -18 1150 0
-1156 -18 0
-1156 1150 0
1156 18 -1150 0
-1157 -1155 0
-1157 -1156 0
1157 1155 1156 0
-1158 1154 0
-1158 1157 0
1158 -1154 -1157 0
-1159 -243 0
-1159 1158 0
1159 243 -1158 0
-1160 -245 0
-1160 1159 0
1160 245 -1159 0
-1161 3 0
-1161 -242 0
1161 -3 242 0
-1162 -3 0
-1162 242 0
1162 3 -242 0
-1163 -1161 0
-1163 -1162 0
1163 1161 1162 0
1164 -1339 0
-1164 1339 0
-1165 1163 0
-1165 1164 0
1165 -1163 -1164 0
-1166 1160 0
-1166 -1165 0
1166 -1160 1165 0
-1167 -1163 0
-1167 -1164 0
1167 1163 1164 0
-1168 1166 0
-1168 -1167 0
1168 -1166 1167 0
-1169 17 0
-1169 -1164 0
1169 -17 1164 0
-1170 -17 0
-1170 1164 0
1170 17 -1164 0
-1171 -1169 0
-1171 -1170 0
1171 1169 1170 0
-1172 1168 0
-1172 1171 0
1172 -1168 -1171 0
-1173 -2 0
-1173 -3 0
1173 2 3 0
-1174 -4 0
-1174 1173 0
1174 4 -1173 0
-1175 -5 0
-1175 1174 0
1175 5 -1174 0
-1176 -6 0
-1176 1175 0
1176 6 -1175 0
-1177 -7 0
-1177 1176 0
1177 7 -1176 0
-1178 -8 0
-1178 1177 0
1178 8 -1177 0
-1179 -9 0
-1179 1178 0
1179 9 -1178 0
-1180 -10 0
-1180 1179 0
1180 10 -1179 0
-1181 -11 0
-1181 1180 0
1181 11 -1180 0
-1182 -12 0
-1182 1181 0
1182 12 -1181 0
-1183 -14 0
-1183 1182 0
1183 14 -1182 0
-1184 -15 0
-1184 1183 0
1184 15 -1183 0
-1185 -16 0
-1185 1184 0
1185 16 -1184 0
-1186 -18 0
-1186 1185 0
1186 18 -1185 0
-1187 -19 0
-1187 1186 0
1187 19 -1186 0
-1188 -20 0
-1188 1187 0
1188 20 -1187 0
-1189 -21 0
-1189 1188 0
1189 21 -1188 0
-1190 -22 0
-1190 1189 0
1190 22 -1189 0
-1191 -23 0
-1191 1190 0
1191 23 -1190 0
-1192 -24 0
-1192 1191 0
1192 24 -1191 0
-1193 -25 0
-1193 1192 0
1193 25 -1192 0
-1194 -26 0
-1194 1193 0
1194 26 -1193 0
-1195 -27 0
-1195 1194 0
1195 27 -1194 0
-1196 -28 0
-1196 1195 0
1196 28 -1195 0
-1197 -29 0
-1197 1196 0
1197 29 -1196 0
-1198 -30 0
-1198 1197 0
1198 30 -1197 0
-1199 -31 0
-1199 1198 0
1199 31 -1198 0
-1200 -32 0
-1200 1199 0
1200 32 -1199 0
-1201 -33 0
-1201 1200 0
1201 33 -1200 0
-1202 1172 0
-1202 -1201 0
1202 -1172 1201 0
1202 0
