p cnf 7038 13120
71 -6982 0
-71 6982 0
127 -7038 0
-127 7038 0
126 -7037 0
-126 7037 0
125 -7036 0
-125 7036 0
124 -7035 0
-124 7035 0
123 -7034 0
-123 7034 0
121 -7032 0
-121 7032 0
122 -7033 0
-122 7033 0
-129 121 0
-129 -122 0
129 -121 122 0
-137 123 0
-137 129 0
137 -123 -129 0
-145 -124 0
-145 137 0
145 124 -137 0
-161 -125 0
-161 145 0
161 125 -145 0
-193 -126 0
-193 161 0
193 126 -161 0
-321 127 0
-321 193 0
321 -127 -193 0
120 -7031 0
-120 7031 0
119 -7030 0
-119 7030 0
118 -7029 0
-118 7029 0
117 -7028 0
-117 7028 0
116 -7027 0
-116 7027 0
114 -7025 0
-114 7025 0
115 -7026 0
-115 7026 0
-323 114 0
-323 -115 0
323 -114 115 0
-331 116 0
-331 323 0
331 -116 -323 0
-339 -117 0
-339 331 0
339 117 -331 0
-355 -118 0
-355 339 0
355 118 -339 0
-387 -119 0
-387 355 0
387 119 -355 0
-515 120 0
-515 387 0
515 -120 -387 0
113 -7024 0
-113 7024 0
112 -7023 0
-112 7023 0
111 -7022 0
-111 7022 0
110 -7021 0
-110 7021 0
109 -7020 0
-109 7020 0
107 -7018 0
-107 7018 0
108 -7019 0
-108 7019 0
-517 107 0
-517 -108 0
517 -107 108 0
-525 109 0
-525 517 0
525 -109 -517 0
-533 -110 0
-533 525 0
533 110 -525 0
-549 -111 0
-549 533 0
549 111 -533 0
-581 -112 0
-581 549 0
581 112 -549 0
-709 113 0
-709 581 0
709 -113 -581 0
106 -7017 0
-106 7017 0
105 -7016 0
-105 7016 0
104 -7015 0
-104 7015 0
103 -7014 0
-103 7014 0
102 -7013 0
-102 7013 0
100 -7011 0
-100 7011 0
101 -7012 0
-101 7012 0
-711 100 0
-711 -101 0
711 -100 101 0
-719 102 0
-719 711 0
719 -102 -711 0
-727 -103 0
-727 719 0
727 103 -719 0
-743 -104 0
-743 727 0
743 104 -727 0
-775 -105 0
-775 743 0
775 105 -743 0
-903 106 0
-903 775 0
903 -106 -775 0
99 -7010 0
-99 7010 0
98 -7009 0
-98 7009 0
97 -7008 0
-97 7008 0
96 -7007 0
-96 7007 0
95 -7006 0
-95 7006 0
93 -7004 0
-93 7004 0
94 -7005 0
-94 7005 0
-905 93 0
-905 -94 0
905 -93 94 0
-913 95 0
-913 905 0
913 -95 -905 0
-921 -96 0
-921 913 0
921 96 -913 0
-937 -97 0
-937 921 0
937 97 -921 0
-969 -98 0
-969 937 0
969 98 -937 0
-1097 99 0
-1097 969 0
1097 -99 -969 0
92 -7003 0
-92 7003 0
91 -7002 0
-91 7002 0
90 -7001 0
-90 7001 0
89 -7000 0
-89 7000 0
88 -6999 0
-88 6999 0
86 -6997 0
-86 6997 0
87 -6998 0
-87 6998 0
-1099 86 0
-1099 -87 0
1099 -86 87 0
-1107 88 0
-1107 1099 0
1107 -88 -1099 0
-1115 -89 0
-1115 1107 0
1115 89 -1107 0
-1131 -90 0
-1131 1115 0
1131 90 -1115 0
-1163 -91 0
-1163 1131 0
1163 91 -1131 0
-1291 92 0
-1291 1163 0
1291 -92 -1163 0
85 -6996 0
-85 6996 0
84 -6995 0
-84 6995 0
83 -6994 0
-83 6994 0
82 -6993 0
-82 6993 0
81 -6992 0
-81 6992 0
79 -6990 0
-79 6990 0
80 -6991 0
-80 6991 0
-1293 79 0
-1293 -80 0
1293 -79 80 0
-1301 81 0
-1301 1293 0
1301 -81 -1293 0
-1309 -82 0
-1309 1301 0
1309 82 -1301 0
-1325 -83 0
-1325 1309 0
1325 83 -1309 0
-1357 -84 0
-1357 1325 0
1357 84 -1325 0
-1485 85 0
-1485 1357 0
1485 -85 -1357 0
78 -6989 0
-78 6989 0
77 -6988 0
-77 6988 0
76 -6987 0
-76 6987 0
75 -6986 0
-75 6986 0
74 -6985 0
-74 6985 0
72 -6983 0
-72 6983 0
73 -6984 0
-73 6984 0
-1487 72 0
-1487 -73 0
1487 -72 73 0
-1495 74 0
-1495 1487 0
1495 -74 -1487 0
-1503 -75 0
-1503 1495 0
1503 75 -1495 0
-1519 -76 0
-1519 1503 0
1519 76 -1503 0
-1551 -77 0
-1551 1519 0
1551 77 -1519 0
-1679 78 0
-1679 1551 0
1679 -78 -1551 0
-1749 -1485 0
-1749 -1679 0
1749 1485 1679 0
-1819 -1291 0
-1819 1749 0
1819 1291 -1749 0
-1889 -1097 0
-1889 1819 0
1889 1097 -1819 0
-1959 -903 0
-1959 1889 0
1959 903 -1889 0
-2029 -709 0
-2029 1959 0
2029 709 -1959 0
-2099 -515 0
-2099 2029 0
2099 515 -2029 0
-2169 -321 0
-2169 2099 0
2169 321 -2099 0
-2377 71 0
-2377 2169 0
2377 -71 -2169 0
-2378 -71 0
-2378 -2169 0
2378 71 2169 0
-2379 -2377 0
-2379 -2378 0
2379 2377 2378 0
70 -6981 0
-70 6981 0
-128 -121 0
-128 -122 0
128 121 122 0
-136 123 0
-136 128 0
136 -123 -128 0
-144 -124 0
-144 136 0
144 124 -136 0
-160 -125 0
-160 144 0
160 125 -144 0
-192 -126 0
-192 160 0
192 126 -160 0
-320 127 0
-320 192 0
320 -127 -192 0
-322 -114 0
-322 -115 0
322 114 115 0
-330 116 0
-330 322 0
330 -116 -322 0
-338 -117 0
-338 330 0
338 117 -330 0
-354 -118 0
-354 338 0
354 118 -338 0
-386 -119 0
-386 354 0
386 119 -354 0
-514 120 0
-514 386 0
514 -120 -386 0
-516 -107 0
-516 -108 0
516 107 108 0
-524 109 0
-524 516 0
524 -109 -516 0
-532 -110 0
-532 524 0
532 110 -524 0
-548 -111 0
-548 532 0
548 111 -532 0
-580 -112 0
-580 548 0
580 112 -548 0
-708 113 0
-708 580 0
708 -113 -580 0
-710 -100 0
-710 -101 0
710 100 101 0
-718 102 0
-718 710 0
718 -102 -710 0
-726 -103 0
-726 718 0
726 103 -718 0
-742 -104 0
-742 726 0
742 104 -726 0
-774 -105 0
-774 742 0
774 105 -742 0
-902 106 0
-902 774 0
902 -106 -774 0
-904 -93 0
-904 -94 0
904 93 94 0
-912 95 0
-912 904 0
912 -95 -904 0
-920 -96 0
-920 912 0
920 96 -912 0
-936 -97 0
-936 920 0
936 97 -920 0
-968 -98 0
-968 936 0
968 98 -936 0
-1096 99 0
-1096 968 0
1096 -99 -968 0
-1098 -86 0
-1098 -87 0
1098 86 87 0
-1106 88 0
-1106 1098 0
1106 -88 -1098 0
-1114 -89 0
-1114 1106 0
1114 89 -1106 0
-1130 -90 0
-1130 1114 0
1130 90 -1114 0
-1162 -91 0
-1162 1130 0
1162 91 -1130 0
-1290 92 0
-1290 1162 0
1290 -92 -1162 0
-1292 -79 0
-1292 -80 0
1292 79 80 0
-1300 81 0
-1300 1292 0
1300 -81 -1292 0
-1308 -82 0
-1308 1300 0
1308 82 -1300 0
-1324 -83 0
-1324 1308 0
1324 83 -1308 0
-1356 -84 0
-1356 1324 0
1356 84 -1324 0
-1484 85 0
-1484 1356 0
1484 -85 -1356 0
-1486 -72 0
-1486 -73 0
1486 72 73 0
-1494 74 0
-1494 1486 0
1494 -74 -1486 0
-1502 -75 0
-1502 1494 0
1502 75 -1494 0
-1518 -76 0
-1518 1502 0
1518 76 -1502 0
-1550 -77 0
-1550 1518 0
1550 77 -1518 0
-1678 78 0
-1678 1550 0
1678 -78 -1550 0
-1748 -1484 0
-1748 -1678 0
1748 1484 1678 0
-1818 -1290 0
-1818 1748 0
1818 1290 -1748 0
-1888 -1096 0
-1888 1818 0
1888 1096 -1818 0
-1958 -902 0
-1958 1888 0
1958 902 -1888 0
-2028 -708 0
-2028 1958 0
2028 708 -1958 0
-2098 -514 0
-2098 2028 0
2098 514 -2028 0
-2168 -320 0
-2168 2098 0
2168 320 -2098 0
-2374 70 0
-2374 2168 0
2374 -70 -2168 0
-2375 -70 0
-2375 -2168 0
2375 70 2168 0
-2376 -2374 0
-2376 -2375 0
2376 2374 2375 0
69 -6980 0
-69 6980 0
-131 121 0
-131 122 0
131 -121 -122 0
-135 -123 0
-135 131 0
135 123 -131 0
-143 -124 0
-143 135 0
143 124 -135 0
-159 -125 0
-159 143 0
159 125 -143 0
-191 -126 0
-191 159 0
191 126 -159 0
-319 127 0
-319 191 0
319 -127 -191 0
-325 114 0
-325 115 0
325 -114 -115 0
-329 -116 0
-329 325 0
329 116 -325 0
-337 -117 0
-337 329 0
337 117 -329 0
-353 -118 0
-353 337 0
353 118 -337 0
-385 -119 0
-385 353 0
385 119 -353 0
-513 120 0
-513 385 0
513 -120 -385 0
-519 107 0
-519 108 0
519 -107 -108 0
-523 -109 0
-523 519 0
523 109 -519 0
-531 -110 0
-531 523 0
531 110 -523 0
-547 -111 0
-547 531 0
547 111 -531 0
-579 -112 0
-579 547 0
579 112 -547 0
-707 113 0
-707 579 0
707 -113 -579 0
-713 100 0
-713 101 0
713 -100 -101 0
-717 -102 0
-717 713 0
717 102 -713 0
-725 -103 0
-725 717 0
725 103 -717 0
-741 -104 0
-741 725 0
741 104 -725 0
-773 -105 0
-773 741 0
773 105 -741 0
-901 106 0
-901 773 0
901 -106 -773 0
-907 93 0
-907 94 0
907 -93 -94 0
-911 -95 0
-911 907 0
911 95 -907 0
-919 -96 0
-919 911 0
919 96 -911 0
-935 -97 0
-935 919 0
935 97 -919 0
-967 -98 0
-967 935 0
967 98 -935 0
-1095 99 0
-1095 967 0
1095 -99 -967 0
-1101 86 0
-1101 87 0
1101 -86 -87 0
-1105 -88 0
-1105 1101 0
1105 88 -1101 0
-1113 -89 0
-1113 1105 0
1113 89 -1105 0
-1129 -90 0
-1129 1113 0
1129 90 -1113 0
-1161 -91 0
-1161 1129 0
1161 91 -1129 0
-1289 92 0
-1289 1161 0
1289 -92 -1161 0
-1295 79 0
-1295 80 0
1295 -79 -80 0
-1299 -81 0
-1299 1295 0
1299 81 -1295 0
-1307 -82 0
-1307 1299 0
1307 82 -1299 0
-1323 -83 0
-1323 1307 0
1323 83 -1307 0
-1355 -84 0
-1355 1323 0
1355 84 -1323 0
-1483 85 0
-1483 1355 0
1483 -85 -1355 0
-1489 72 0
-1489 73 0
1489 -72 -73 0
-1493 -74 0
-1493 1489 0
1493 74 -1489 0
-1501 -75 0
-1501 1493 0
1501 75 -1493 0
-1517 -76 0
-1517 1501 0
1517 76 -1501 0
-1549 -77 0
-1549 1517 0
1549 77 -1517 0
-1677 78 0
-1677 1549 0
1677 -78 -1549 0
-1747 -1483 0
-1747 -1677 0
1747 1483 1677 0
-1817 -1289 0
-1817 1747 0
1817 1289 -1747 0
-1887 -1095 0
-1887 1817 0
1887 1095 -1817 0
-1957 -901 0
-1957 1887 0
1957 901 -1887 0
-2027 -707 0
-2027 1957 0
2027 707 -1957 0
-2097 -513 0
-2097 2027 0
2097 513 -2027 0
-2167 -319 0
-2167 2097 0
2167 319 -2097 0
-2371 69 0
-2371 2167 0
2371 -69 -2167 0
-2372 -69 0
-2372 -2167 0
2372 69 2167 0
-2373 -2371 0
-2373 -2372 0
2373 2371 2372 0
68 -6979 0
-68 6979 0
-130 -121 0
-130 122 0
130 121 -122 0
-134 -123 0
-134 130 0
134 123 -130 0
-142 -124 0
-142 134 0
142 124 -134 0
-158 -125 0
-158 142 0
158 125 -142 0
-190 -126 0
-190 158 0
190 126 -158 0
-318 127 0
-318 190 0
318 -127 -190 0
-324 -114 0
-324 115 0
324 114 -115 0
-328 -116 0
-328 324 0
328 116 -324 0
-336 -117 0
-336 328 0
336 117 -328 0
-352 -118 0
-352 336 0
352 118 -336 0
-384 -119 0
-384 352 0
384 119 -352 0
-512 120 0
-512 384 0
512 -120 -384 0
-518 -107 0
-518 108 0
518 107 -108 0
-522 -109 0
-522 518 0
522 109 -518 0
-530 -110 0
-530 522 0
530 110 -522 0
-546 -111 0
-546 530 0
546 111 -530 0
-578 -112 0
-578 546 0
578 112 -546 0
-706 113 0
-706 578 0
706 -113 -578 0
-712 -100 0
-712 101 0
712 100 -101 0
-716 -102 0
-716 712 0
716 102 -712 0
-724 -103 0
-724 716 0
724 103 -716 0
-740 -104 0
-740 724 0
740 104 -724 0
-772 -105 0
-772 740 0
772 105 -740 0
-900 106 0
-900 772 0
900 -106 -772 0
-906 -93 0
-906 94 0
906 93 -94 0
-910 -95 0
-910 906 0
910 95 -906 0
-918 -96 0
-918 910 0
918 96 -910 0
-934 -97 0
-934 918 0
934 97 -918 0
-966 -98 0
-966 934 0
966 98 -934 0
-1094 99 0
-1094 966 0
1094 -99 -966 0
-1100 -86 0
-1100 87 0
1100 86 -87 0
-1104 -88 0
-1104 1100 0
1104 88 -1100 0
-1112 -89 0
-1112 1104 0
1112 89 -1104 0
-1128 -90 0
-1128 1112 0
1128 90 -1112 0
-1160 -91 0
-1160 1128 0
1160 91 -1128 0
-1288 92 0
-1288 1160 0
1288 -92 -1160 0
-1294 -79 0
-1294 80 0
1294 79 -80 0
-1298 -81 0
-1298 1294 0
1298 81 -1294 0
-1306 -82 0
-1306 1298 0
1306 82 -1298 0
-1322 -83 0
-1322 1306 0
1322 83 -1306 0
-1354 -84 0
-1354 1322 0
1354 84 -1322 0
-1482 85 0
-1482 1354 0
1482 -85 -1354 0
-1488 -72 0
-1488 73 0
1488 72 -73 0
-1492 -74 0
-1492 1488 0
1492 74 -1488 0
-1500 -75 0
-1500 1492 0
1500 75 -1492 0
-1516 -76 0
-1516 1500 0
1516 76 -1500 0
-1548 -77 0
-1548 1516 0
1548 77 -1516 0
-1676 78 0
-1676 1548 0
1676 -78 -1548 0
-1746 -1482 0
-1746 -1676 0
1746 1482 1676 0
-1816 -1288 0
-1816 1746 0
1816 1288 -1746 0
-1886 -1094 0
-1886 1816 0
1886 1094 -1816 0
-1956 -900 0
-1956 1886 0
1956 900 -1886 0
-2026 -706 0
-2026 1956 0
2026 706 -1956 0
-2096 -512 0
-2096 2026 0
2096 512 -2026 0
-2166 -318 0
-2166 2096 0
2166 318 -2096 0
-2368 68 0
-2368 2166 0
2368 -68 -2166 0
-2369 -68 0
-2369 -2166 0
2369 68 2166 0
-2370 -2368 0
-2370 -2369 0
2370 2368 2369 0
67 -6978 0
-67 6978 0
-133 -123 0
-133 129 0
133 123 -129 0
-141 -124 0
-141 133 0
141 124 -133 0
-157 -125 0
-157 141 0
157 125 -141 0
-189 -126 0
-189 157 0
189 126 -157 0
-317 127 0
-317 189 0
317 -127 -189 0
-327 -116 0
-327 323 0
327 116 -323 0
-335 -117 0
-335 327 0
335 117 -327 0
-351 -118 0
-351 335 0
351 118 -335 0
-383 -119 0
-383 351 0
383 119 -351 0
-511 120 0
-511 383 0
511 -120 -383 0
-521 -109 0
-521 517 0
521 109 -517 0
-529 -110 0
-529 521 0
529 110 -521 0
-545 -111 0
-545 529 0
545 111 -529 0
-577 -112 0
-577 545 0
577 112 -545 0
-705 113 0
-705 577 0
705 -113 -577 0
-715 -102 0
-715 711 0
715 102 -711 0
-723 -103 0
-723 715 0
723 103 -715 0
-739 -104 0
-739 723 0
739 104 -723 0
-771 -105 0
-771 739 0
771 105 -739 0
-899 106 0
-899 771 0
899 -106 -771 0
-909 -95 0
-909 905 0
909 95 -905 0
-917 -96 0
-917 909 0
917 96 -909 0
-933 -97 0
-933 917 0
933 97 -917 0
-965 -98 0
-965 933 0
965 98 -933 0
-1093 99 0
-1093 965 0
1093 -99 -965 0
-1103 -88 0
-1103 1099 0
1103 88 -1099 0
-1111 -89 0
-1111 1103 0
1111 89 -1103 0
-1127 -90 0
-1127 1111 0
1127 90 -1111 0
-1159 -91 0
-1159 1127 0
1159 91 -1127 0
-1287 92 0
-1287 1159 0
1287 -92 -1159 0
-1297 -81 0
-1297 1293 0
1297 81 -1293 0
-1305 -82 0
-1305 1297 0
1305 82 -1297 0
-1321 -83 0
-1321 1305 0
1321 83 -1305 0
-1353 -84 0
-1353 1321 0
1353 84 -1321 0
-1481 85 0
-1481 1353 0
1481 -85 -1353 0
-1491 -74 0
-1491 1487 0
1491 74 -1487 0
-1499 -75 0
-1499 1491 0
1499 75 -1491 0
-1515 -76 0
-1515 1499 0
1515 76 -1499 0
-1547 -77 0
-1547 1515 0
1547 77 -1515 0
-1675 78 0
-1675 1547 0
1675 -78 -1547 0
-1745 -1481 0
-1745 -1675 0
1745 1481 1675 0
-1815 -1287 0
-1815 1745 0
1815 1287 -1745 0
-1885 -1093 0
-1885 1815 0
1885 1093 -1815 0
-1955 -899 0
-1955 1885 0
1955 899 -1885 0
-2025 -705 0
-2025 1955 0
2025 705 -1955 0
-2095 -511 0
-2095 2025 0
2095 511 -2025 0
-2165 -317 0
-2165 2095 0
2165 317 -2095 0
-2365 67 0
-2365 2165 0
2365 -67 -2165 0
-2366 -67 0
-2366 -2165 0
2366 67 2165 0
-2367 -2365 0
-2367 -2366 0
2367 2365 2366 0
66 -6977 0
-66 6977 0
-132 -123 0
-132 128 0
132 123 -128 0
-140 -124 0
-140 132 0
140 124 -132 0
-156 -125 0
-156 140 0
156 125 -140 0
-188 -126 0
-188 156 0
188 126 -156 0
-316 127 0
-316 188 0
316 -127 -188 0
-326 -116 0
-326 322 0
326 116 -322 0
-334 -117 0
-334 326 0
334 117 -326 0
-350 -118 0
-350 334 0
350 118 -334 0
-382 -119 0
-382 350 0
382 119 -350 0
-510 120 0
-510 382 0
510 -120 -382 0
-520 -109 0
-520 516 0
520 109 -516 0
-528 -110 0
-528 520 0
528 110 -520 0
-544 -111 0
-544 528 0
544 111 -528 0
-576 -112 0
-576 544 0
576 112 -544 0
-704 113 0
-704 576 0
704 -113 -576 0
-714 -102 0
-714 710 0
714 102 -710 0
-722 -103 0
-722 714 0
722 103 -714 0
-738 -104 0
-738 722 0
738 104 -722 0
-770 -105 0
-770 738 0
770 105 -738 0
-898 106 0
-898 770 0
898 -106 -770 0
-908 -95 0
-908 904 0
908 95 -904 0
-916 -96 0
-916 908 0
916 96 -908 0
-932 -97 0
-932 916 0
932 97 -916 0
-964 -98 0
-964 932 0
964 98 -932 0
-1092 99 0
-1092 964 0
1092 -99 -964 0
-1102 -88 0
-1102 1098 0
1102 88 -1098 0
-1110 -89 0
-1110 1102 0
1110 89 -1102 0
-1126 -90 0
-1126 1110 0
1126 90 -1110 0
-1158 -91 0
-1158 1126 0
1158 91 -1126 0
-1286 92 0
-1286 1158 0
1286 -92 -1158 0
-1296 -81 0
-1296 1292 0
1296 81 -1292 0
-1304 -82 0
-1304 1296 0
1304 82 -1296 0
-1320 -83 0
-1320 1304 0
1320 83 -1304 0
-1352 -84 0
-1352 1320 0
1352 84 -1320 0
-1480 85 0
-1480 1352 0
1480 -85 -1352 0
-1490 -74 0
-1490 1486 0
1490 74 -1486 0
-1498 -75 0
-1498 1490 0
1498 75 -1490 0
-1514 -76 0
-1514 1498 0
1514 76 -1498 0
-1546 -77 0
-1546 1514 0
1546 77 -1514 0
-1674 78 0
-1674 1546 0
1674 -78 -1546 0
-1744 -1480 0
-1744 -1674 0
1744 1480 1674 0
-1814 -1286 0
-1814 1744 0
1814 1286 -1744 0
-1884 -1092 0
-1884 1814 0
1884 1092 -1814 0
-1954 -898 0
-1954 1884 0
1954 898 -1884 0
-2024 -704 0
-2024 1954 0
2024 704 -1954 0
-2094 -510 0
-2094 2024 0
2094 510 -2024 0
-2164 -316 0
-2164 2094 0
2164 316 -2094 0
-2362 66 0
-2362 2164 0
2362 -66 -2164 0
-2363 -66 0
-2363 -2164 0
2363 66 2164 0
-2364 -2362 0
-2364 -2363 0
2364 2362 2363 0
65 -6976 0
-65 6976 0
-139 123 0
-139 131 0
139 -123 -131 0
-155 124 0
-155 139 0
155 -124 -139 0
-187 125 0
-187 155 0
187 -125 -155 0
-251 126 0
-251 187 0
251 -126 -187 0
-315 -127 0
-315 251 0
315 127 -251 0
-333 116 0
-333 325 0
333 -116 -325 0
-349 117 0
-349 333 0
349 -117 -333 0
-381 118 0
-381 349 0
381 -118 -349 0
-445 119 0
-445 381 0
445 -119 -381 0
-509 -120 0
-509 445 0
509 120 -445 0
-527 109 0
-527 519 0
527 -109 -519 0
-543 110 0
-543 527 0
543 -110 -527 0
-575 111 0
-575 543 0
575 -111 -543 0
-639 112 0
-639 575 0
639 -112 -575 0
-703 -113 0
-703 639 0
703 113 -639 0
-721 102 0
-721 713 0
721 -102 -713 0
-737 103 0
-737 721 0
737 -103 -721 0
-769 104 0
-769 737 0
769 -104 -737 0
-833 105 0
-833 769 0
833 -105 -769 0
-897 -106 0
-897 833 0
897 106 -833 0
-915 95 0
-915 907 0
915 -95 -907 0
-931 96 0
-931 915 0
931 -96 -915 0
-963 97 0
-963 931 0
963 -97 -931 0
-1027 98 0
-1027 963 0
1027 -98 -963 0
-1091 -99 0
-1091 1027 0
1091 99 -1027 0
-1109 88 0
-1109 1101 0
1109 -88 -1101 0
-1125 89 0
-1125 1109 0
1125 -89 -1109 0
-1157 90 0
-1157 1125 0
1157 -90 -1125 0
-1221 91 0
-1221 1157 0
1221 -91 -1157 0
-1285 -92 0
-1285 1221 0
1285 92 -1221 0
-1303 81 0
-1303 1295 0
1303 -81 -1295 0
-1319 82 0
-1319 1303 0
1319 -82 -1303 0
-1351 83 0
-1351 1319 0
1351 -83 -1319 0
-1415 84 0
-1415 1351 0
1415 -84 -1351 0
-1479 -85 0
-1479 1415 0
1479 85 -1415 0
-1497 74 0
-1497 1489 0
1497 -74 -1489 0
-1513 75 0
-1513 1497 0
1513 -75 -1497 0
-1545 76 0
-1545 1513 0
1545 -76 -1513 0
-1609 77 0
-1609 1545 0
1609 -77 -1545 0
-1673 -78 0
-1673 1609 0
1673 78 -1609 0
-1743 -1479 0
-1743 -1673 0
1743 1479 1673 0
-1813 -1285 0
-1813 1743 0
1813 1285 -1743 0
-1883 -1091 0
-1883 1813 0
1883 1091 -1813 0
-1953 -897 0
-1953 1883 0
1953 897 -1883 0
-2023 -703 0
-2023 1953 0
2023 703 -1953 0
-2093 -509 0
-2093 2023 0
2093 509 -2023 0
-2163 -315 0
-2163 2093 0
2163 315 -2093 0
-2359 65 0
-2359 2163 0
2359 -65 -2163 0
-2360 -65 0
-2360 -2163 0
2360 65 2163 0
-2361 -2359 0
-2361 -2360 0
2361 2359 2360 0
64 -6975 0
-64 6975 0
-138 123 0
-138 130 0
138 -123 -130 0
-154 124 0
-154 138 0
154 -124 -138 0
-186 125 0
-186 154 0
186 -125 -154 0
-250 126 0
-250 186 0
250 -126 -186 0
-314 -127 0
-314 250 0
314 127 -250 0
-332 116 0
-332 324 0
332 -116 -324 0
-348 117 0
-348 332 0
348 -117 -332 0
-380 118 0
-380 348 0
380 -118 -348 0
-444 119 0
-444 380 0
444 -119 -380 0
-508 -120 0
-508 444 0
508 120 -444 0
-526 109 0
-526 518 0
526 -109 -518 0
-542 110 0
-542 526 0
542 -110 -526 0
-574 111 0
-574 542 0
574 -111 -542 0
-638 112 0
-638 574 0
638 -112 -574 0
-702 -113 0
-702 638 0
702 113 -638 0
-720 102 0
-720 712 0
720 -102 -712 0
-736 103 0
-736 720 0
736 -103 -720 0
-768 104 0
-768 736 0
768 -104 -736 0
-832 105 0
-832 768 0
832 -105 -768 0
-896 -106 0
-896 832 0
896 106 -832 0
-914 95 0
-914 906 0
914 -95 -906 0
-930 96 0
-930 914 0
930 -96 -914 0
-962 97 0
-962 930 0
962 -97 -930 0
-1026 98 0
-1026 962 0
1026 -98 -962 0
-1090 -99 0
-1090 1026 0
1090 99 -1026 0
-1108 88 0
-1108 1100 0
1108 -88 -1100 0
-1124 89 0
-1124 1108 0
1124 -89 -1108 0
-1156 90 0
-1156 1124 0
1156 -90 -1124 0
-1220 91 0
-1220 1156 0
1220 -91 -1156 0
-1284 -92 0
-1284 1220 0
1284 92 -1220 0
-1302 81 0
-1302 1294 0
1302 -81 -1294 0
-1318 82 0
-1318 1302 0
1318 -82 -1302 0
-1350 83 0
-1350 1318 0
1350 -83 -1318 0
-1414 84 0
-1414 1350 0
1414 -84 -1350 0
-1478 -85 0
-1478 1414 0
1478 85 -1414 0
-1496 74 0
-1496 1488 0
1496 -74 -1488 0
-1512 75 0
-1512 1496 0
1512 -75 -1496 0
-1544 76 0
-1544 1512 0
1544 -76 -1512 0
-1608 77 0
-1608 1544 0
1608 -77 -1544 0
-1672 -78 0
-1672 1608 0
1672 78 -1608 0
-1742 -1478 0
-1742 -1672 0
1742 1478 1672 0
-1812 -1284 0
-1812 1742 0
1812 1284 -1742 0
-1882 -1090 0
-1882 1812 0
1882 1090 -1812 0
-1952 -896 0
-1952 1882 0
1952 896 -1882 0
-2022 -702 0
-2022 1952 0
2022 702 -1952 0
-2092 -508 0
-2092 2022 0
2092 508 -2022 0
-2162 -314 0
-2162 2092 0
2162 314 -2092 0
-2356 64 0
-2356 2162 0
2356 -64 -2162 0
-2357 -64 0
-2357 -2162 0
2357 64 2162 0
-2358 -2356 0
-2358 -2357 0
2358 2356 2357 0
63 -6974 0
-63 6974 0
-153 124 0
-153 137 0
153 -124 -137 0
-185 125 0
-185 153 0
185 -125 -153 0
-249 126 0
-249 185 0
249 -126 -185 0
-313 -127 0
-313 249 0
313 127 -249 0
-347 117 0
-347 331 0
347 -117 -331 0
-379 118 0
-379 347 0
379 -118 -347 0
-443 119 0
-443 379 0
443 -119 -379 0
-507 -120 0
-507 443 0
507 120 -443 0
-541 110 0
-541 525 0
541 -110 -525 0
-573 111 0
-573 541 0
573 -111 -541 0
-637 112 0
-637 573 0
637 -112 -573 0
-701 -113 0
-701 637 0
701 113 -637 0
-735 103 0
-735 719 0
735 -103 -719 0
-767 104 0
-767 735 0
767 -104 -735 0
-831 105 0
-831 767 0
831 -105 -767 0
-895 -106 0
-895 831 0
895 106 -831 0
-929 96 0
-929 913 0
929 -96 -913 0
-961 97 0
-961 929 0
961 -97 -929 0
-1025 98 0
-1025 961 0
1025 -98 -961 0
-1089 -99 0
-1089 1025 0
1089 99 -1025 0
-1123 89 0
-1123 1107 0
1123 -89 -1107 0
-1155 90 0
-1155 1123 0
1155 -90 -1123 0
-1219 91 0
-1219 1155 0
1219 -91 -1155 0
-1283 -92 0
-1283 1219 0
1283 92 -1219 0
-1317 82 0
-1317 1301 0
1317 -82 -1301 0
-1349 83 0
-1349 1317 0
1349 -83 -1317 0
-1413 84 0
-1413 1349 0
1413 -84 -1349 0
-1477 -85 0
-1477 1413 0
1477 85 -1413 0
-1511 75 0
-1511 1495 0
1511 -75 -1495 0
-1543 76 0
-1543 1511 0
1543 -76 -1511 0
-1607 77 0
-1607 1543 0
1607 -77 -1543 0
-1671 -78 0
-1671 1607 0
1671 78 -1607 0
-1741 -1477 0
-1741 -1671 0
1741 1477 1671 0
-1811 -1283 0
-1811 1741 0
1811 1283 -1741 0
-1881 -1089 0
-1881 1811 0
1881 1089 -1811 0
-1951 -895 0
-1951 1881 0
1951 895 -1881 0
-2021 -701 0
-2021 1951 0
2021 701 -1951 0
-2091 -507 0
-2091 2021 0
2091 507 -2021 0
-2161 -313 0
-2161 2091 0
2161 313 -2091 0
-2353 63 0
-2353 2161 0
2353 -63 -2161 0
-2354 -63 0
-2354 -2161 0
2354 63 2161 0
-2355 -2353 0
-2355 -2354 0
2355 2353 2354 0
62 -6973 0
-62 6973 0
-152 124 0
-152 136 0
152 -124 -136 0
-184 125 0
-184 152 0
184 -125 -152 0
-248 126 0
-248 184 0
248 -126 -184 0
-312 -127 0
-312 248 0
312 127 -248 0
-346 117 0
-346 330 0
346 -117 -330 0
-378 118 0
-378 346 0
378 -118 -346 0
-442 119 0
-442 378 0
442 -119 -378 0
-506 -120 0
-506 442 0
506 120 -442 0
-540 110 0
-540 524 0
540 -110 -524 0
-572 111 0
-572 540 0
572 -111 -540 0
-636 112 0
-636 572 0
636 -112 -572 0
-700 -113 0
-700 636 0
700 113 -636 0
-734 103 0
-734 718 0
734 -103 -718 0
-766 104 0
-766 734 0
766 -104 -734 0
-830 105 0
-830 766 0
830 -105 -766 0
-894 -106 0
-894 830 0
894 106 -830 0
-928 96 0
-928 912 0
928 -96 -912 0
-960 97 0
-960 928 0
960 -97 -928 0
-1024 98 0
-1024 960 0
1024 -98 -960 0
-1088 -99 0
-1088 1024 0
1088 99 -1024 0
-1122 89 0
-1122 1106 0
1122 -89 -1106 0
-1154 90 0
-1154 1122 0
1154 -90 -1122 0
-1218 91 0
-1218 1154 0
1218 -91 -1154 0
-1282 -92 0
-1282 1218 0
1282 92 -1218 0
-1316 82 0
-1316 1300 0
1316 -82 -1300 0
-1348 83 0
-1348 1316 0
1348 -83 -1316 0
-1412 84 0
-1412 1348 0
1412 -84 -1348 0
-1476 -85 0
-1476 1412 0
1476 85 -1412 0
-1510 75 0
-1510 1494 0
1510 -75 -1494 0
-1542 76 0
-1542 1510 0
1542 -76 -1510 0
-1606 77 0
-1606 1542 0
1606 -77 -1542 0
-1670 -78 0
-1670 1606 0
1670 78 -1606 0
-1740 -1476 0
-1740 -1670 0
1740 1476 1670 0
-1810 -1282 0
-1810 1740 0
1810 1282 -1740 0
-1880 -1088 0
-1880 1810 0
1880 1088 -1810 0
-1950 -894 0
-1950 1880 0
1950 894 -1880 0
-2020 -700 0
-2020 1950 0
2020 700 -1950 0
-2090 -506 0
-2090 2020 0
2090 506 -2020 0
-2160 -312 0
-2160 2090 0
2160 312 -2090 0
-2350 62 0
-2350 2160 0
2350 -62 -2160 0
-2351 -62 0
-2351 -2160 0
2351 62 2160 0
-2352 -2350 0
-2352 -2351 0
2352 2350 2351 0
61 -6972 0
-61 6972 0
-151 124 0
-151 135 0
151 -124 -135 0
-183 125 0
-183 151 0
183 -125 -151 0
-247 126 0
-247 183 0
247 -126 -183 0
-311 -127 0
-311 247 0
311 127 -247 0
-345 117 0
-345 329 0
345 -117 -329 0
-377 118 0
-377 345 0
377 -118 -345 0
-441 119 0
-441 377 0
441 -119 -377 0
-505 -120 0
-505 441 0
505 120 -441 0
-539 110 0
-539 523 0
539 -110 -523 0
-571 111 0
-571 539 0
571 -111 -539 0
-635 112 0
-635 571 0
635 -112 -571 0
-699 -113 0
-699 635 0
699 113 -635 0
-733 103 0
-733 717 0
733 -103 -717 0
-765 104 0
-765 733 0
765 -104 -733 0
-829 105 0
-829 765 0
829 -105 -765 0
-893 -106 0
-893 829 0
893 106 -829 0
-927 96 0
-927 911 0
927 -96 -911 0
-959 97 0
-959 927 0
959 -97 -927 0
-1023 98 0
-1023 959 0
1023 -98 -959 0
-1087 -99 0
-1087 1023 0
1087 99 -1023 0
-1121 89 0
-1121 1105 0
1121 -89 -1105 0
-1153 90 0
-1153 1121 0
1153 -90 -1121 0
-1217 91 0
-1217 1153 0
1217 -91 -1153 0
-1281 -92 0
-1281 1217 0
1281 92 -1217 0
-1315 82 0
-1315 1299 0
1315 -82 -1299 0
-1347 83 0
-1347 1315 0
1347 -83 -1315 0
-1411 84 0
-1411 1347 0
1411 -84 -1347 0
-1475 -85 0
-1475 1411 0
1475 85 -1411 0
-1509 75 0
-1509 1493 0
1509 -75 -1493 0
-1541 76 0
-1541 1509 0
1541 -76 -1509 0
-1605 77 0
-1605 1541 0
1605 -77 -1541 0
-1669 -78 0
-1669 1605 0
1669 78 -1605 0
-1739 -1475 0
-1739 -1669 0
1739 1475 1669 0
-1809 -1281 0
-1809 1739 0
1809 1281 -1739 0
-1879 -1087 0
-1879 1809 0
1879 1087 -1809 0
-1949 -893 0
-1949 1879 0
1949 893 -1879 0
-2019 -699 0
-2019 1949 0
2019 699 -1949 0
-2089 -505 0
-2089 2019 0
2089 505 -2019 0
-2159 -311 0
-2159 2089 0
2159 311 -2089 0
-2347 61 0
-2347 2159 0
2347 -61 -2159 0
-2348 -61 0
-2348 -2159 0
2348 61 2159 0
-2349 -2347 0
-2349 -2348 0
2349 2347 2348 0
60 -6971 0
-60 6971 0
-150 124 0
-150 134 0
150 -124 -134 0
-182 125 0
-182 150 0
182 -125 -150 0
-246 126 0
-246 182 0
246 -126 -182 0
-310 -127 0
-310 246 0
310 127 -246 0
-344 117 0
-344 328 0
344 -117 -328 0
-376 118 0
-376 344 0
376 -118 -344 0
-440 119 0
-440 376 0
440 -119 -376 0
-504 -120 0
-504 440 0
504 120 -440 0
-538 110 0
-538 522 0
538 -110 -522 0
-570 111 0
-570 538 0
570 -111 -538 0
-634 112 0
-634 570 0
634 -112 -570 0
-698 -113 0
-698 634 0
698 113 -634 0
-732 103 0
-732 716 0
732 -103 -716 0
-764 104 0
-764 732 0
764 -104 -732 0
-828 105 0
-828 764 0
828 -105 -764 0
-892 -106 0
-892 828 0
892 106 -828 0
-926 96 0
-926 910 0
926 -96 -910 0
-958 97 0
-958 926 0
958 -97 -926 0
-1022 98 0
-1022 958 0
1022 -98 -958 0
-1086 -99 0
-1086 1022 0
1086 99 -1022 0
-1120 89 0
-1120 1104 0
1120 -89 -1104 0
-1152 90 0
-1152 1120 0
1152 -90 -1120 0
-1216 91 0
-1216 1152 0
1216 -91 -1152 0
-1280 -92 0
-1280 1216 0
1280 92 -1216 0
-1314 82 0
-1314 1298 0
1314 -82 -1298 0
-1346 83 0
-1346 1314 0
1346 -83 -1314 0
-1410 84 0
-1410 1346 0
1410 -84 -1346 0
-1474 -85 0
-1474 1410 0
1474 85 -1410 0
-1508 75 0
-1508 1492 0
1508 -75 -1492 0
-1540 76 0
-1540 1508 0
1540 -76 -1508 0
-1604 77 0
-1604 1540 0
1604 -77 -1540 0
-1668 -78 0
-1668 1604 0
1668 78 -1604 0
-1738 -1474 0
-1738 -1668 0
1738 1474 1668 0
-1808 -1280 0
-1808 1738 0
1808 1280 -1738 0
-1878 -1086 0
-1878 1808 0
1878 1086 -1808 0
-1948 -892 0
-1948 1878 0
1948 892 -1878 0
-2018 -698 0
-2018 1948 0
2018 698 -1948 0
-2088 -504 0
-2088 2018 0
2088 504 -2018 0
-2158 -310 0
-2158 2088 0
2158 310 -2088 0
-2344 60 0
-2344 2158 0
2344 -60 -2158 0
-2345 -60 0
-2345 -2158 0
2345 60 2158 0
-2346 -2344 0
-2346 -2345 0
2346 2344 2345 0
59 -6970 0
-59 6970 0
-149 124 0
-149 133 0
149 -124 -133 0
-181 125 0
-181 149 0
181 -125 -149 0
-245 126 0
-245 181 0
245 -126 -181 0
-309 -127 0
-309 245 0
309 127 -245 0
-343 117 0
-343 327 0
343 -117 -327 0
-375 118 0
-375 343 0
375 -118 -343 0
-439 119 0
-439 375 0
439 -119 -375 0
-503 -120 0
-503 439 0
503 120 -439 0
-537 110 0
-537 521 0
537 -110 -521 0
-569 111 0
-569 537 0
569 -111 -537 0
-633 112 0
-633 569 0
633 -112 -569 0
-697 -113 0
-697 633 0
697 113 -633 0
-731 103 0
-731 715 0
731 -103 -715 0
-763 104 0
-763 731 0
763 -104 -731 0
-827 105 0
-827 763 0
827 -105 -763 0
-891 -106 0
-891 827 0
891 106 -827 0
-925 96 0
-925 909 0
925 -96 -909 0
-957 97 0
-957 925 0
957 -97 -925 0
-1021 98 0
-1021 957 0
1021 -98 -957 0
-1085 -99 0
-1085 1021 0
1085 99 -1021 0
-1119 89 0
-1119 1103 0
1119 -89 -1103 0
-1151 90 0
-1151 1119 0
1151 -90 -1119 0
-1215 91 0
-1215 1151 0
1215 -91 -1151 0
-1279 -92 0
-1279 1215 0
1279 92 -1215 0
-1313 82 0
-1313 1297 0
1313 -82 -1297 0
-1345 83 0
-1345 1313 0
1345 -83 -1313 0
-1409 84 0
-1409 1345 0
1409 -84 -1345 0
-1473 -85 0
-1473 1409 0
1473 85 -1409 0
-1507 75 0
-1507 1491 0
1507 -75 -1491 0
-1539 76 0
-1539 1507 0
1539 -76 -1507 0
-1603 77 0
-1603 1539 0
1603 -77 -1539 0
-1667 -78 0
-1667 1603 0
1667 78 -1603 0
-1737 -1473 0
-1737 -1667 0
1737 1473 1667 0
-1807 -1279 0
-1807 1737 0
1807 1279 -1737 0
-1877 -1085 0
-1877 1807 0
1877 1085 -1807 0
-1947 -891 0
-1947 1877 0
1947 891 -1877 0
-2017 -697 0
-2017 1947 0
2017 697 -1947 0
-2087 -503 0
-2087 2017 0
2087 503 -2017 0
-2157 -309 0
-2157 2087 0
2157 309 -2087 0
-2341 59 0
-2341 2157 0
2341 -59 -2157 0
-2342 -59 0
-2342 -2157 0
2342 59 2157 0
-2343 -2341 0
-2343 -2342 0
2343 2341 2342 0
58 -6969 0
-58 6969 0
-148 124 0
-148 132 0
148 -124 -132 0
-180 125 0
-180 148 0
180 -125 -148 0
-244 126 0
-244 180 0
244 -126 -180 0
-308 -127 0
-308 244 0
308 127 -244 0
-342 117 0
-342 326 0
342 -117 -326 0
-374 118 0
-374 342 0
374 -118 -342 0
-438 119 0
-438 374 0
438 -119 -374 0
-502 -120 0
-502 438 0
502 120 -438 0
-536 110 0
-536 520 0
536 -110 -520 0
-568 111 0
-568 536 0
568 -111 -536 0
-632 112 0
-632 568 0
632 -112 -568 0
-696 -113 0
-696 632 0
696 113 -632 0
-730 103 0
-730 714 0
730 -103 -714 0
-762 104 0
-762 730 0
762 -104 -730 0
-826 105 0
-826 762 0
826 -105 -762 0
-890 -106 0
-890 826 0
890 106 -826 0
-924 96 0
-924 908 0
924 -96 -908 0
-956 97 0
-956 924 0
956 -97 -924 0
-1020 98 0
-1020 956 0
1020 -98 -956 0
-1084 -99 0
-1084 1020 0
1084 99 -1020 0
-1118 89 0
-1118 1102 0
1118 -89 -1102 0
-1150 90 0
-1150 1118 0
1150 -90 -1118 0
-1214 91 0
-1214 1150 0
1214 -91 -1150 0
-1278 -92 0
-1278 1214 0
1278 92 -1214 0
-1312 82 0
-1312 1296 0
1312 -82 -1296 0
-1344 83 0
-1344 1312 0
1344 -83 -1312 0
-1408 84 0
-1408 1344 0
1408 -84 -1344 0
-1472 -85 0
-1472 1408 0
1472 85 -1408 0
-1506 75 0
-1506 1490 0
1506 -75 -1490 0
-1538 76 0
-1538 1506 0
1538 -76 -1506 0
-1602 77 0
-1602 1538 0
1602 -77 -1538 0
-1666 -78 0
-1666 1602 0
1666 78 -1602 0
-1736 -1472 0
-1736 -1666 0
1736 1472 1666 0
-1806 -1278 0
-1806 1736 0
1806 1278 -1736 0
-1876 -1084 0
-1876 1806 0
1876 1084 -1806 0
-1946 -890 0
-1946 1876 0
1946 890 -1876 0
-2016 -696 0
-2016 1946 0
2016 696 -1946 0
-2086 -502 0
-2086 2016 0
2086 502 -2016 0
-2156 -308 0
-2156 2086 0
2156 308 -2086 0
-2338 58 0
-2338 2156 0
2338 -58 -2156 0
-2339 -58 0
-2339 -2156 0
2339 58 2156 0
-2340 -2338 0
-2340 -2339 0
2340 2338 2339 0
57 -6968 0
-57 6968 0
-147 -124 0
-147 139 0
147 124 -139 0
-179 125 0
-179 147 0
179 -125 -147 0
-243 126 0
-243 179 0
243 -126 -179 0
-307 -127 0
-307 243 0
307 127 -243 0
-341 -117 0
-341 333 0
341 117 -333 0
-373 118 0
-373 341 0
373 -118 -341 0
-437 119 0
-437 373 0
437 -119 -373 0
-501 -120 0
-501 437 0
501 120 -437 0
-535 -110 0
-535 527 0
535 110 -527 0
-567 111 0
-567 535 0
567 -111 -535 0
-631 112 0
-631 567 0
631 -112 -567 0
-695 -113 0
-695 631 0
695 113 -631 0
-729 -103 0
-729 721 0
729 103 -721 0
-761 104 0
-761 729 0
761 -104 -729 0
-825 105 0
-825 761 0
825 -105 -761 0
-889 -106 0
-889 825 0
889 106 -825 0
-923 -96 0
-923 915 0
923 96 -915 0
-955 97 0
-955 923 0
955 -97 -923 0
-1019 98 0
-1019 955 0
1019 -98 -955 0
-1083 -99 0
-1083 1019 0
1083 99 -1019 0
-1117 -89 0
-1117 1109 0
1117 89 -1109 0
-1149 90 0
-1149 1117 0
1149 -90 -1117 0
-1213 91 0
-1213 1149 0
1213 -91 -1149 0
-1277 -92 0
-1277 1213 0
1277 92 -1213 0
-1311 -82 0
-1311 1303 0
1311 82 -1303 0
-1343 83 0
-1343 1311 0
1343 -83 -1311 0
-1407 84 0
-1407 1343 0
1407 -84 -1343 0
-1471 -85 0
-1471 1407 0
1471 85 -1407 0
-1505 -75 0
-1505 1497 0
1505 75 -1497 0
-1537 76 0
-1537 1505 0
1537 -76 -1505 0
-1601 77 0
-1601 1537 0
1601 -77 -1537 0
-1665 -78 0
-1665 1601 0
1665 78 -1601 0
-1735 -1471 0
-1735 -1665 0
1735 1471 1665 0
-1805 -1277 0
-1805 1735 0
1805 1277 -1735 0
-1875 -1083 0
-1875 1805 0
1875 1083 -1805 0
-1945 -889 0
-1945 1875 0
1945 889 -1875 0
-2015 -695 0
-2015 1945 0
2015 695 -1945 0
-2085 -501 0
-2085 2015 0
2085 501 -2015 0
-2155 -307 0
-2155 2085 0
2155 307 -2085 0
-2335 57 0
-2335 2155 0
2335 -57 -2155 0
-2336 -57 0
-2336 -2155 0
2336 57 2155 0
-2337 -2335 0
-2337 -2336 0
2337 2335 2336 0
56 -6967 0
-56 6967 0
-146 -124 0
-146 138 0
146 124 -138 0
-178 125 0
-178 146 0
178 -125 -146 0
-242 126 0
-242 178 0
242 -126 -178 0
-306 -127 0
-306 242 0
306 127 -242 0
-340 -117 0
-340 332 0
340 117 -332 0
-372 118 0
-372 340 0
372 -118 -340 0
-436 119 0
-436 372 0
436 -119 -372 0
-500 -120 0
-500 436 0
500 120 -436 0
-534 -110 0
-534 526 0
534 110 -526 0
-566 111 0
-566 534 0
566 -111 -534 0
-630 112 0
-630 566 0
630 -112 -566 0
-694 -113 0
-694 630 0
694 113 -630 0
-728 -103 0
-728 720 0
728 103 -720 0
-760 104 0
-760 728 0
760 -104 -728 0
-824 105 0
-824 760 0
824 -105 -760 0
-888 -106 0
-888 824 0
888 106 -824 0
-922 -96 0
-922 914 0
922 96 -914 0
-954 97 0
-954 922 0
954 -97 -922 0
-1018 98 0
-1018 954 0
1018 -98 -954 0
-1082 -99 0
-1082 1018 0
1082 99 -1018 0
-1116 -89 0
-1116 1108 0
1116 89 -1108 0
-1148 90 0
-1148 1116 0
1148 -90 -1116 0
-1212 91 0
-1212 1148 0
1212 -91 -1148 0
-1276 -92 0
-1276 1212 0
1276 92 -1212 0
-1310 -82 0
-1310 1302 0
1310 82 -1302 0
-1342 83 0
-1342 1310 0
1342 -83 -1310 0
-1406 84 0
-1406 1342 0
1406 -84 -1342 0
-1470 -85 0
-1470 1406 0
1470 85 -1406 0
-1504 -75 0
-1504 1496 0
1504 75 -1496 0
-1536 76 0
-1536 1504 0
1536 -76 -1504 0
-1600 77 0
-1600 1536 0
1600 -77 -1536 0
-1664 -78 0
-1664 1600 0
1664 78 -1600 0
-1734 -1470 0
-1734 -1664 0
1734 1470 1664 0
-1804 -1276 0
-1804 1734 0
1804 1276 -1734 0
-1874 -1082 0
-1874 1804 0
1874 1082 -1804 0
-1944 -888 0
-1944 1874 0
1944 888 -1874 0
-2014 -694 0
-2014 1944 0
2014 694 -1944 0
-2084 -500 0
-2084 2014 0
2084 500 -2014 0
-2154 -306 0
-2154 2084 0
2154 306 -2084 0
-2332 56 0
-2332 2154 0
2332 -56 -2154 0
-2333 -56 0
-2333 -2154 0
2333 56 2154 0
-2334 -2332 0
-2334 -2333 0
2334 2332 2333 0
55 -6966 0
-55 6966 0
-177 125 0
-177 145 0
177 -125 -145 0
-241 126 0
-241 177 0
241 -126 -177 0
-305 -127 0
-305 241 0
305 127 -241 0
-371 118 0
-371 339 0
371 -118 -339 0
-435 119 0
-435 371 0
435 -119 -371 0
-499 -120 0
-499 435 0
499 120 -435 0
-565 111 0
-565 533 0
565 -111 -533 0
-629 112 0
-629 565 0
629 -112 -565 0
-693 -113 0
-693 629 0
693 113 -629 0
-759 104 0
-759 727 0
759 -104 -727 0
-823 105 0
-823 759 0
823 -105 -759 0
-887 -106 0
-887 823 0
887 106 -823 0
-953 97 0
-953 921 0
953 -97 -921 0
-1017 98 0
-1017 953 0
1017 -98 -953 0
-1081 -99 0
-1081 1017 0
1081 99 -1017 0
-1147 90 0
-1147 1115 0
1147 -90 -1115 0
-1211 91 0
-1211 1147 0
1211 -91 -1147 0
-1275 -92 0
-1275 1211 0
1275 92 -1211 0
-1341 83 0
-1341 1309 0
1341 -83 -1309 0
-1405 84 0
-1405 1341 0
1405 -84 -1341 0
-1469 -85 0
-1469 1405 0
1469 85 -1405 0
-1535 76 0
-1535 1503 0
1535 -76 -1503 0
-1599 77 0
-1599 1535 0
1599 -77 -1535 0
-1663 -78 0
-1663 1599 0
1663 78 -1599 0
-1733 -1469 0
-1733 -1663 0
1733 1469 1663 0
-1803 -1275 0
-1803 1733 0
1803 1275 -1733 0
-1873 -1081 0
-1873 1803 0
1873 1081 -1803 0
-1943 -887 0
-1943 1873 0
1943 887 -1873 0
-2013 -693 0
-2013 1943 0
2013 693 -1943 0
-2083 -499 0
-2083 2013 0
2083 499 -2013 0
-2153 -305 0
-2153 2083 0
2153 305 -2083 0
-2329 55 0
-2329 2153 0
2329 -55 -2153 0
-2330 -55 0
-2330 -2153 0
2330 55 2153 0
-2331 -2329 0
-2331 -2330 0
2331 2329 2330 0
54 -6965 0
-54 6965 0
-176 125 0
-176 144 0
176 -125 -144 0
-240 126 0
-240 176 0
240 -126 -176 0
-304 -127 0
-304 240 0
304 127 -240 0
-370 118 0
-370 338 0
370 -118 -338 0
-434 119 0
-434 370 0
434 -119 -370 0
-498 -120 0
-498 434 0
498 120 -434 0
-564 111 0
-564 532 0
564 -111 -532 0
-628 112 0
-628 564 0
628 -112 -564 0
-692 -113 0
-692 628 0
692 113 -628 0
-758 104 0
-758 726 0
758 -104 -726 0
-822 105 0
-822 758 0
822 -105 -758 0
-886 -106 0
-886 822 0
886 106 -822 0
-952 97 0
-952 920 0
952 -97 -920 0
-1016 98 0
-1016 952 0
1016 -98 -952 0
-1080 -99 0
-1080 1016 0
1080 99 -1016 0
-1146 90 0
-1146 1114 0
1146 -90 -1114 0
-1210 91 0
-1210 1146 0
1210 -91 -1146 0
-1274 -92 0
-1274 1210 0
1274 92 -1210 0
-1340 83 0
-1340 1308 0
1340 -83 -1308 0
-1404 84 0
-1404 1340 0
1404 -84 -1340 0
-1468 -85 0
-1468 1404 0
1468 85 -1404 0
-1534 76 0
-1534 1502 0
1534 -76 -1502 0
-1598 77 0
-1598 1534 0
1598 -77 -1534 0
-1662 -78 0
-1662 1598 0
1662 78 -1598 0
-1732 -1468 0
-1732 -1662 0
1732 1468 1662 0
-1802 -1274 0
-1802 1732 0
1802 1274 -1732 0
-1872 -1080 0
-1872 1802 0
1872 1080 -1802 0
-1942 -886 0
-1942 1872 0
1942 886 -1872 0
-2012 -692 0
-2012 1942 0
2012 692 -1942 0
-2082 -498 0
-2082 2012 0
2082 498 -2012 0
-2152 -304 0
-2152 2082 0
2152 304 -2082 0
-2326 54 0
-2326 2152 0
2326 -54 -2152 0
-2327 -54 0
-2327 -2152 0
2327 54 2152 0
-2328 -2326 0
-2328 -2327 0
2328 2326 2327 0
53 -6964 0
-53 6964 0
-175 125 0
-175 143 0
175 -125 -143 0
-239 126 0
-239 175 0
239 -126 -175 0
-303 -127 0
-303 239 0
303 127 -239 0
-369 118 0
-369 337 0
369 -118 -337 0
-433 119 0
-433 369 0
433 -119 -369 0
-497 -120 0
-497 433 0
497 120 -433 0
-563 111 0
-563 531 0
563 -111 -531 0
-627 112 0
-627 563 0
627 -112 -563 0
-691 -113 0
-691 627 0
691 113 -627 0
-757 104 0
-757 725 0
757 -104 -725 0
-821 105 0
-821 757 0
821 -105 -757 0
-885 -106 0
-885 821 0
885 106 -821 0
-951 97 0
-951 919 0
951 -97 -919 0
-1015 98 0
-1015 951 0
1015 -98 -951 0
-1079 -99 0
-1079 1015 0
1079 99 -1015 0
-1145 90 0
-1145 1113 0
1145 -90 -1113 0
-1209 91 0
-1209 1145 0
1209 -91 -1145 0
-1273 -92 0
-1273 1209 0
1273 92 -1209 0
-1339 83 0
-1339 1307 0
1339 -83 -1307 0
-1403 84 0
-1403 1339 0
1403 -84 -1339 0
-1467 -85 0
-1467 1403 0
1467 85 -1403 0
-1533 76 0
-1533 1501 0
1533 -76 -1501 0
-1597 77 0
-1597 1533 0
1597 -77 -1533 0
-1661 -78 0
-1661 1597 0
1661 78 -1597 0
-1731 -1467 0
-1731 -1661 0
1731 1467 1661 0
-1801 -1273 0
-1801 1731 0
1801 1273 -1731 0
-1871 -1079 0
-1871 1801 0
1871 1079 -1801 0
-1941 -885 0
-1941 1871 0
1941 885 -1871 0
-2011 -691 0
-2011 1941 0
2011 691 -1941 0
-2081 -497 0
-2081 2011 0
2081 497 -2011 0
-2151 -303 0
-2151 2081 0
2151 303 -2081 0
-2323 53 0
-2323 2151 0
2323 -53 -2151 0
-2324 -53 0
-2324 -2151 0
2324 53 2151 0
-2325 -2323 0
-2325 -2324 0
2325 2323 2324 0
52 -6963 0
-52 6963 0
-174 125 0
-174 142 0
174 -125 -142 0
-238 126 0
-238 174 0
238 -126 -174 0
-302 -127 0
-302 238 0
302 127 -238 0
-368 118 0
-368 336 0
368 -118 -336 0
-432 119 0
-432 368 0
432 -119 -368 0
-496 -120 0
-496 432 0
496 120 -432 0
-562 111 0
-562 530 0
562 -111 -530 0
-626 112 0
-626 562 0
626 -112 -562 0
-690 -113 0
-690 626 0
690 113 -626 0
-756 104 0
-756 724 0
756 -104 -724 0
-820 105 0
-820 756 0
820 -105 -756 0
-884 -106 0
-884 820 0
884 106 -820 0
-950 97 0
-950 918 0
950 -97 -918 0
-1014 98 0
-1014 950 0
1014 -98 -950 0
-1078 -99 0
-1078 1014 0
1078 99 -1014 0
-1144 90 0
-1144 1112 0
1144 -90 -1112 0
-1208 91 0
-1208 1144 0
1208 -91 -1144 0
-1272 -92 0
-1272 1208 0
1272 92 -1208 0
-1338 83 0
-1338 1306 0
1338 -83 -1306 0
-1402 84 0
-1402 1338 0
1402 -84 -1338 0
-1466 -85 0
-1466 1402 0
1466 85 -1402 0
-1532 76 0
-1532 1500 0
1532 -76 -1500 0
-1596 77 0
-1596 1532 0
1596 -77 -1532 0
-1660 -78 0
-1660 1596 0
1660 78 -1596 0
-1730 -1466 0
-1730 -1660 0
1730 1466 1660 0
-1800 -1272 0
-1800 1730 0
1800 1272 -1730 0
-1870 -1078 0
-1870 1800 0
1870 1078 -1800 0
-1940 -884 0
-1940 1870 0
1940 884 -1870 0
-2010 -690 0
-2010 1940 0
2010 690 -1940 0
-2080 -496 0
-2080 2010 0
2080 496 -2010 0
-2150 -302 0
-2150 2080 0
2150 302 -2080 0
-2320 52 0
-2320 2150 0
2320 -52 -2150 0
-2321 -52 0
-2321 -2150 0
2321 52 2150 0
-2322 -2320 0
-2322 -2321 0
2322 2320 2321 0
51 -6962 0
-51 6962 0
-173 125 0
-173 141 0
173 -125 -141 0
-237 126 0
-237 173 0
237 -126 -173 0
-301 -127 0
-301 237 0
301 127 -237 0
-367 118 0
-367 335 0
367 -118 -335 0
-431 119 0
-431 367 0
431 -119 -367 0
-495 -120 0
-495 431 0
495 120 -431 0
-561 111 0
-561 529 0
561 -111 -529 0
-625 112 0
-625 561 0
625 -112 -561 0
-689 -113 0
-689 625 0
689 113 -625 0
-755 104 0
-755 723 0
755 -104 -723 0
-819 105 0
-819 755 0
819 -105 -755 0
-883 -106 0
-883 819 0
883 106 -819 0
-949 97 0
-949 917 0
949 -97 -917 0
-1013 98 0
-1013 949 0
1013 -98 -949 0
-1077 -99 0
-1077 1013 0
1077 99 -1013 0
-1143 90 0
-1143 1111 0
1143 -90 -1111 0
-1207 91 0
-1207 1143 0
1207 -91 -1143 0
-1271 -92 0
-1271 1207 0
1271 92 -1207 0
-1337 83 0
-1337 1305 0
1337 -83 -1305 0
-1401 84 0
-1401 1337 0
1401 -84 -1337 0
-1465 -85 0
-1465 1401 0
1465 85 -1401 0
-1531 76 0
-1531 1499 0
1531 -76 -1499 0
-1595 77 0
-1595 1531 0
1595 -77 -1531 0
-1659 -78 0
-1659 1595 0
1659 78 -1595 0
-1729 -1465 0
-1729 -1659 0
1729 1465 1659 0
-1799 -1271 0
-1799 1729 0
1799 1271 -1729 0
-1869 -1077 0
-1869 1799 0
1869 1077 -1799 0
-1939 -883 0
-1939 1869 0
1939 883 -1869 0
-2009 -689 0
-2009 1939 0
2009 689 -1939 0
-2079 -495 0
-2079 2009 0
2079 495 -2009 0
-2149 -301 0
-2149 2079 0
2149 301 -2079 0
-2317 51 0
-2317 2149 0
2317 -51 -2149 0
-2318 -51 0
-2318 -2149 0
2318 51 2149 0
-2319 -2317 0
-2319 -2318 0
2319 2317 2318 0
50 -6961 0
-50 6961 0
-172 125 0
-172 140 0
172 -125 -140 0
-236 126 0
-236 172 0
236 -126 -172 0
-300 -127 0
-300 236 0
300 127 -236 0
-366 118 0
-366 334 0
366 -118 -334 0
-430 119 0
-430 366 0
430 -119 -366 0
-494 -120 0
-494 430 0
494 120 -430 0
-560 111 0
-560 528 0
560 -111 -528 0
-624 112 0
-624 560 0
624 -112 -560 0
-688 -113 0
-688 624 0
688 113 -624 0
-754 104 0
-754 722 0
754 -104 -722 0
-818 105 0
-818 754 0
818 -105 -754 0
-882 -106 0
-882 818 0
882 106 -818 0
-948 97 0
-948 916 0
948 -97 -916 0
-1012 98 0
-1012 948 0
1012 -98 -948 0
-1076 -99 0
-1076 1012 0
1076 99 -1012 0
-1142 90 0
-1142 1110 0
1142 -90 -1110 0
-1206 91 0
-1206 1142 0
1206 -91 -1142 0
-1270 -92 0
-1270 1206 0
1270 92 -1206 0
-1336 83 0
-1336 1304 0
1336 -83 -1304 0
-1400 84 0
-1400 1336 0
1400 -84 -1336 0
-1464 -85 0
-1464 1400 0
1464 85 -1400 0
-1530 76 0
-1530 1498 0
1530 -76 -1498 0
-1594 77 0
-1594 1530 0
1594 -77 -1530 0
-1658 -78 0
-1658 1594 0
1658 78 -1594 0
-1728 -1464 0
-1728 -1658 0
1728 1464 1658 0
-1798 -1270 0
-1798 1728 0
1798 1270 -1728 0
-1868 -1076 0
-1868 1798 0
1868 1076 -1798 0
-1938 -882 0
-1938 1868 0
1938 882 -1868 0
-2008 -688 0
-2008 1938 0
2008 688 -1938 0
-2078 -494 0
-2078 2008 0
2078 494 -2008 0
-2148 -300 0
-2148 2078 0
2148 300 -2078 0
-2314 50 0
-2314 2148 0
2314 -50 -2148 0
-2315 -50 0
-2315 -2148 0
2315 50 2148 0
-2316 -2314 0
-2316 -2315 0
2316 2314 2315 0
49 -6960 0
-49 6960 0
-171 -125 0
-171 155 0
171 125 -155 0
-235 126 0
-235 171 0
235 -126 -171 0
-299 -127 0
-299 235 0
299 127 -235 0
-365 -118 0
-365 349 0
365 118 -349 0
-429 119 0
-429 365 0
429 -119 -365 0
-493 -120 0
-493 429 0
493 120 -429 0
-559 -111 0
-559 543 0
559 111 -543 0
-623 112 0
-623 559 0
623 -112 -559 0
-687 -113 0
-687 623 0
687 113 -623 0
-753 -104 0
-753 737 0
753 104 -737 0
-817 105 0
-817 753 0
817 -105 -753 0
-881 -106 0
-881 817 0
881 106 -817 0
-947 -97 0
-947 931 0
947 97 -931 0
-1011 98 0
-1011 947 0
1011 -98 -947 0
-1075 -99 0
-1075 1011 0
1075 99 -1011 0
-1141 -90 0
-1141 1125 0
1141 90 -1125 0
-1205 91 0
-1205 1141 0
1205 -91 -1141 0
-1269 -92 0
-1269 1205 0
1269 92 -1205 0
-1335 -83 0
-1335 1319 0
1335 83 -1319 0
-1399 84 0
-1399 1335 0
1399 -84 -1335 0
-1463 -85 0
-1463 1399 0
1463 85 -1399 0
-1529 -76 0
-1529 1513 0
1529 76 -1513 0
-1593 77 0
-1593 1529 0
1593 -77 -1529 0
-1657 -78 0
-1657 1593 0
1657 78 -1593 0
-1727 -1463 0
-1727 -1657 0
1727 1463 1657 0
-1797 -1269 0
-1797 1727 0
1797 1269 -1727 0
-1867 -1075 0
-1867 1797 0
1867 1075 -1797 0
-1937 -881 0
-1937 1867 0
1937 881 -1867 0
-2007 -687 0
-2007 1937 0
2007 687 -1937 0
-2077 -493 0
-2077 2007 0
2077 493 -2007 0
-2147 -299 0
-2147 2077 0
2147 299 -2077 0
-2311 49 0
-2311 2147 0
2311 -49 -2147 0
-2312 -49 0
-2312 -2147 0
2312 49 2147 0
-2313 -2311 0
-2313 -2312 0
2313 2311 2312 0
48 -6959 0
-48 6959 0
-170 -125 0
-170 154 0
170 125 -154 0
-234 126 0
-234 170 0
234 -126 -170 0
-298 -127 0
-298 234 0
298 127 -234 0
-364 -118 0
-364 348 0
364 118 -348 0
-428 119 0
-428 364 0
428 -119 -364 0
-492 -120 0
-492 428 0
492 120 -428 0
-558 -111 0
-558 542 0
558 111 -542 0
-622 112 0
-622 558 0
622 -112 -558 0
-686 -113 0
-686 622 0
686 113 -622 0
-752 -104 0
-752 736 0
752 104 -736 0
-816 105 0
-816 752 0
816 -105 -752 0
-880 -106 0
-880 816 0
880 106 -816 0
-946 -97 0
-946 930 0
946 97 -930 0
-1010 98 0
-1010 946 0
1010 -98 -946 0
-1074 -99 0
-1074 1010 0
1074 99 -1010 0
-1140 -90 0
-1140 1124 0
1140 90 -1124 0
-1204 91 0
-1204 1140 0
1204 -91 -1140 0
-1268 -92 0
-1268 1204 0
1268 92 -1204 0
-1334 -83 0
-1334 1318 0
1334 83 -1318 0
-1398 84 0
-1398 1334 0
1398 -84 -1334 0
-1462 -85 0
-1462 1398 0
1462 85 -1398 0
-1528 -76 0
-1528 1512 0
1528 76 -1512 0
-1592 77 0
-1592 1528 0
1592 -77 -1528 0
-1656 -78 0
-1656 1592 0
1656 78 -1592 0
-1726 -1462 0
-1726 -1656 0
1726 1462 1656 0
-1796 -1268 0
-1796 1726 0
1796 1268 -1726 0
-1866 -1074 0
-1866 1796 0
1866 1074 -1796 0
-1936 -880 0
-1936 1866 0
1936 880 -1866 0
-2006 -686 0
-2006 1936 0
2006 686 -1936 0
-2076 -492 0
-2076 2006 0
2076 492 -2006 0
-2146 -298 0
-2146 2076 0
2146 298 -2076 0
-2308 48 0
-2308 2146 0
2308 -48 -2146 0
-2309 -48 0
-2309 -2146 0
2309 48 2146 0
-2310 -2308 0
-2310 -2309 0
2310 2308 2309 0
47 -6958 0
-47 6958 0
-169 -125 0
-169 153 0
169 125 -153 0
-233 126 0
-233 169 0
233 -126 -169 0
-297 -127 0
-297 233 0
297 127 -233 0
-363 -118 0
-363 347 0
363 118 -347 0
-427 119 0
-427 363 0
427 -119 -363 0
-491 -120 0
-491 427 0
491 120 -427 0
-557 -111 0
-557 541 0
557 111 -541 0
-621 112 0
-621 557 0
621 -112 -557 0
-685 -113 0
-685 621 0
685 113 -621 0
-751 -104 0
-751 735 0
751 104 -735 0
-815 105 0
-815 751 0
815 -105 -751 0
-879 -106 0
-879 815 0
879 106 -815 0
-945 -97 0
-945 929 0
945 97 -929 0
-1009 98 0
-1009 945 0
1009 -98 -945 0
-1073 -99 0
-1073 1009 0
1073 99 -1009 0
-1139 -90 0
-1139 1123 0
1139 90 -1123 0
-1203 91 0
-1203 1139 0
1203 -91 -1139 0
-1267 -92 0
-1267 1203 0
1267 92 -1203 0
-1333 -83 0
-1333 1317 0
1333 83 -1317 0
-1397 84 0
-1397 1333 0
1397 -84 -1333 0
-1461 -85 0
-1461 1397 0
1461 85 -1397 0
-1527 -76 0
-1527 1511 0
1527 76 -1511 0
-1591 77 0
-1591 1527 0
1591 -77 -1527 0
-1655 -78 0
-1655 1591 0
1655 78 -1591 0
-1725 -1461 0
-1725 -1655 0
1725 1461 1655 0
-1795 -1267 0
-1795 1725 0
1795 1267 -1725 0
-1865 -1073 0
-1865 1795 0
1865 1073 -1795 0
-1935 -879 0
-1935 1865 0
1935 879 -1865 0
-2005 -685 0
-2005 1935 0
2005 685 -1935 0
-2075 -491 0
-2075 2005 0
2075 491 -2005 0
-2145 -297 0
-2145 2075 0
2145 297 -2075 0
-2305 47 0
-2305 2145 0
2305 -47 -2145 0
-2306 -47 0
-2306 -2145 0
2306 47 2145 0
-2307 -2305 0
-2307 -2306 0
2307 2305 2306 0
46 -6957 0
-46 6957 0
-168 -125 0
-168 152 0
168 125 -152 0
-232 126 0
-232 168 0
232 -126 -168 0
-296 -127 0
-296 232 0
296 127 -232 0
-362 -118 0
-362 346 0
362 118 -346 0
-426 119 0
-426 362 0
426 -119 -362 0
-490 -120 0
-490 426 0
490 120 -426 0
-556 -111 0
-556 540 0
556 111 -540 0
-620 112 0
-620 556 0
620 -112 -556 0
-684 -113 0
-684 620 0
684 113 -620 0
-750 -104 0
-750 734 0
750 104 -734 0
-814 105 0
-814 750 0
814 -105 -750 0
-878 -106 0
-878 814 0
878 106 -814 0
-944 -97 0
-944 928 0
944 97 -928 0
-1008 98 0
-1008 944 0
1008 -98 -944 0
-1072 -99 0
-1072 1008 0
1072 99 -1008 0
-1138 -90 0
-1138 1122 0
1138 90 -1122 0
-1202 91 0
-1202 1138 0
1202 -91 -1138 0
-1266 -92 0
-1266 1202 0
1266 92 -1202 0
-1332 -83 0
-1332 1316 0
1332 83 -1316 0
-1396 84 0
-1396 1332 0
1396 -84 -1332 0
-1460 -85 0
-1460 1396 0
1460 85 -1396 0
-1526 -76 0
-1526 1510 0
1526 76 -1510 0
-1590 77 0
-1590 1526 0
1590 -77 -1526 0
-1654 -78 0
-1654 1590 0
1654 78 -1590 0
-1724 -1460 0
-1724 -1654 0
1724 1460 1654 0
-1794 -1266 0
-1794 1724 0
1794 1266 -1724 0
-1864 -1072 0
-1864 1794 0
1864 1072 -1794 0
-1934 -878 0
-1934 1864 0
1934 878 -1864 0
-2004 -684 0
-2004 1934 0
2004 684 -1934 0
-2074 -490 0
-2074 2004 0
2074 490 -2004 0
-2144 -296 0
-2144 2074 0
2144 296 -2074 0
-2302 46 0
-2302 2144 0
2302 -46 -2144 0
-2303 -46 0
-2303 -2144 0
2303 46 2144 0
-2304 -2302 0
-2304 -2303 0
2304 2302 2303 0
45 -6956 0
-45 6956 0
-167 -125 0
-167 151 0
167 125 -151 0
-231 126 0
-231 167 0
231 -126 -167 0
-295 -127 0
-295 231 0
295 127 -231 0
-361 -118 0
-361 345 0
361 118 -345 0
-425 119 0
-425 361 0
425 -119 -361 0
-489 -120 0
-489 425 0
489 120 -425 0
-555 -111 0
-555 539 0
555 111 -539 0
-619 112 0
-619 555 0
619 -112 -555 0
-683 -113 0
-683 619 0
683 113 -619 0
-749 -104 0
-749 733 0
749 104 -733 0
-813 105 0
-813 749 0
813 -105 -749 0
-877 -106 0
-877 813 0
877 106 -813 0
-943 -97 0
-943 927 0
943 97 -927 0
-1007 98 0
-1007 943 0
1007 -98 -943 0
-1071 -99 0
-1071 1007 0
1071 99 -1007 0
-1137 -90 0
-1137 1121 0
1137 90 -1121 0
-1201 91 0
-1201 1137 0
1201 -91 -1137 0
-1265 -92 0
-1265 1201 0
1265 92 -1201 0
-1331 -83 0
-1331 1315 0
1331 83 -1315 0
-1395 84 0
-1395 1331 0
1395 -84 -1331 0
-1459 -85 0
-1459 1395 0
1459 85 -1395 0
-1525 -76 0
-1525 1509 0
1525 76 -1509 0
-1589 77 0
-1589 1525 0
1589 -77 -1525 0
-1653 -78 0
-1653 1589 0
1653 78 -1589 0
-1723 -1459 0
-1723 -1653 0
1723 1459 1653 0
-1793 -1265 0
-1793 1723 0
1793 1265 -1723 0
-1863 -1071 0
-1863 1793 0
1863 1071 -1793 0
-1933 -877 0
-1933 1863 0
1933 877 -1863 0
-2003 -683 0
-2003 1933 0
2003 683 -1933 0
-2073 -489 0
-2073 2003 0
2073 489 -2003 0
-2143 -295 0
-2143 2073 0
2143 295 -2073 0
-2299 45 0
-2299 2143 0
2299 -45 -2143 0
-2300 -45 0
-2300 -2143 0
2300 45 2143 0
-2301 -2299 0
-2301 -2300 0
2301 2299 2300 0
44 -6955 0
-44 6955 0
-166 -125 0
-166 150 0
166 125 -150 0
-230 126 0
-230 166 0
230 -126 -166 0
-294 -127 0
-294 230 0
294 127 -230 0
-360 -118 0
-360 344 0
360 118 -344 0
-424 119 0
-424 360 0
424 -119 -360 0
-488 -120 0
-488 424 0
488 120 -424 0
-554 -111 0
-554 538 0
554 111 -538 0
-618 112 0
-618 554 0
618 -112 -554 0
-682 -113 0
-682 618 0
682 113 -618 0
-748 -104 0
-748 732 0
748 104 -732 0
-812 105 0
-812 748 0
812 -105 -748 0
-876 -106 0
-876 812 0
876 106 -812 0
-942 -97 0
-942 926 0
942 97 -926 0
-1006 98 0
-1006 942 0
1006 -98 -942 0
-1070 -99 0
-1070 1006 0
1070 99 -1006 0
-1136 -90 0
-1136 1120 0
1136 90 -1120 0
-1200 91 0
-1200 1136 0
1200 -91 -1136 0
-1264 -92 0
-1264 1200 0
1264 92 -1200 0
-1330 -83 0
-1330 1314 0
1330 83 -1314 0
-1394 84 0
-1394 1330 0
1394 -84 -1330 0
-1458 -85 0
-1458 1394 0
1458 85 -1394 0
-1524 -76 0
-1524 1508 0
1524 76 -1508 0
-1588 77 0
-1588 1524 0
1588 -77 -1524 0
-1652 -78 0
-1652 1588 0
1652 78 -1588 0
-1722 -1458 0
-1722 -1652 0
1722 1458 1652 0
-1792 -1264 0
-1792 1722 0
1792 1264 -1722 0
-1862 -1070 0
-1862 1792 0
1862 1070 -1792 0
-1932 -876 0
-1932 1862 0
1932 876 -1862 0
-2002 -682 0
-2002 1932 0
2002 682 -1932 0
-2072 -488 0
-2072 2002 0
2072 488 -2002 0
-2142 -294 0
-2142 2072 0
2142 294 -2072 0
-2296 44 0
-2296 2142 0
2296 -44 -2142 0
-2297 -44 0
-2297 -2142 0
2297 44 2142 0
-2298 -2296 0
-2298 -2297 0
2298 2296 2297 0
43 -6954 0
-43 6954 0
-165 -125 0
-165 149 0
165 125 -149 0
-229 126 0
-229 165 0
229 -126 -165 0
-293 -127 0
-293 229 0
293 127 -229 0
-359 -118 0
-359 343 0
359 118 -343 0
-423 119 0
-423 359 0
423 -119 -359 0
-487 -120 0
-487 423 0
487 120 -423 0
-553 -111 0
-553 537 0
553 111 -537 0
-617 112 0
-617 553 0
617 -112 -553 0
-681 -113 0
-681 617 0
681 113 -617 0
-747 -104 0
-747 731 0
747 104 -731 0
-811 105 0
-811 747 0
811 -105 -747 0
-875 -106 0
-875 811 0
875 106 -811 0
-941 -97 0
-941 925 0
941 97 -925 0
-1005 98 0
-1005 941 0
1005 -98 -941 0
-1069 -99 0
-1069 1005 0
1069 99 -1005 0
-1135 -90 0
-1135 1119 0
1135 90 -1119 0
-1199 91 0
-1199 1135 0
1199 -91 -1135 0
-1263 -92 0
-1263 1199 0
1263 92 -1199 0
-1329 -83 0
-1329 1313 0
1329 83 -1313 0
-1393 84 0
-1393 1329 0
1393 -84 -1329 0
-1457 -85 0
-1457 1393 0
1457 85 -1393 0
-1523 -76 0
-1523 1507 0
1523 76 -1507 0
-1587 77 0
-1587 1523 0
1587 -77 -1523 0
-1651 -78 0
-1651 1587 0
1651 78 -1587 0
-1721 -1457 0
-1721 -1651 0
1721 1457 1651 0
-1791 -1263 0
-1791 1721 0
1791 1263 -1721 0
-1861 -1069 0
-1861 1791 0
1861 1069 -1791 0
-1931 -875 0
-1931 1861 0
1931 875 -1861 0
-2001 -681 0
-2001 1931 0
2001 681 -1931 0
-2071 -487 0
-2071 2001 0
2071 487 -2001 0
-2141 -293 0
-2141 2071 0
2141 293 -2071 0
-2293 43 0
-2293 2141 0
2293 -43 -2141 0
-2294 -43 0
-2294 -2141 0
2294 43 2141 0
-2295 -2293 0
-2295 -2294 0
2295 2293 2294 0
42 -6953 0
-42 6953 0
-164 -125 0
-164 148 0
164 125 -148 0
-228 126 0
-228 164 0
228 -126 -164 0
-292 -127 0
-292 228 0
292 127 -228 0
-358 -118 0
-358 342 0
358 118 -342 0
-422 119 0
-422 358 0
422 -119 -358 0
-486 -120 0
-486 422 0
486 120 -422 0
-552 -111 0
-552 536 0
552 111 -536 0
-616 112 0
-616 552 0
616 -112 -552 0
-680 -113 0
-680 616 0
680 113 -616 0
-746 -104 0
-746 730 0
746 104 -730 0
-810 105 0
-810 746 0
810 -105 -746 0
-874 -106 0
-874 810 0
874 106 -810 0
-940 -97 0
-940 924 0
940 97 -924 0
-1004 98 0
-1004 940 0
1004 -98 -940 0
-1068 -99 0
-1068 1004 0
1068 99 -1004 0
-1134 -90 0
-1134 1118 0
1134 90 -1118 0
-1198 91 0
-1198 1134 0
1198 -91 -1134 0
-1262 -92 0
-1262 1198 0
1262 92 -1198 0
-1328 -83 0
-1328 1312 0
1328 83 -1312 0
-1392 84 0
-1392 1328 0
1392 -84 -1328 0
-1456 -85 0
-1456 1392 0
1456 85 -1392 0
-1522 -76 0
-1522 1506 0
1522 76 -1506 0
-1586 77 0
-1586 1522 0
1586 -77 -1522 0
-1650 -78 0
-1650 1586 0
1650 78 -1586 0
-1720 -1456 0
-1720 -1650 0
1720 1456 1650 0
-1790 -1262 0
-1790 1720 0
1790 1262 -1720 0
-1860 -1068 0
-1860 1790 0
1860 1068 -1790 0
-1930 -874 0
-1930 1860 0
1930 874 -1860 0
-2000 -680 0
-2000 1930 0
2000 680 -1930 0
-2070 -486 0
-2070 2000 0
2070 486 -2000 0
-2140 -292 0
-2140 2070 0
2140 292 -2070 0
-2290 42 0
-2290 2140 0
2290 -42 -2140 0
-2291 -42 0
-2291 -2140 0
2291 42 2140 0
-2292 -2290 0
-2292 -2291 0
2292 2290 2291 0
41 -6952 0
-41 6952 0
-163 -125 0
-163 147 0
163 125 -147 0
-227 126 0
-227 163 0
227 -126 -163 0
-291 -127 0
-291 227 0
291 127 -227 0
-357 -118 0
-357 341 0
357 118 -341 0
-421 119 0
-421 357 0
421 -119 -357 0
-485 -120 0
-485 421 0
485 120 -421 0
-551 -111 0
-551 535 0
551 111 -535 0
-615 112 0
-615 551 0
615 -112 -551 0
-679 -113 0
-679 615 0
679 113 -615 0
-745 -104 0
-745 729 0
745 104 -729 0
-809 105 0
-809 745 0
809 -105 -745 0
-873 -106 0
-873 809 0
873 106 -809 0
-939 -97 0
-939 923 0
939 97 -923 0
-1003 98 0
-1003 939 0
1003 -98 -939 0
-1067 -99 0
-1067 1003 0
1067 99 -1003 0
-1133 -90 0
-1133 1117 0
1133 90 -1117 0
-1197 91 0
-1197 1133 0
1197 -91 -1133 0
-1261 -92 0
-1261 1197 0
1261 92 -1197 0
-1327 -83 0
-1327 1311 0
1327 83 -1311 0
-1391 84 0
-1391 1327 0
1391 -84 -1327 0
-1455 -85 0
-1455 1391 0
1455 85 -1391 0
-1521 -76 0
-1521 1505 0
1521 76 -1505 0
-1585 77 0
-1585 1521 0
1585 -77 -1521 0
-1649 -78 0
-1649 1585 0
1649 78 -1585 0
-1719 -1455 0
-1719 -1649 0
1719 1455 1649 0
-1789 -1261 0
-1789 1719 0
1789 1261 -1719 0
-1859 -1067 0
-1859 1789 0
1859 1067 -1789 0
-1929 -873 0
-1929 1859 0
1929 873 -1859 0
-1999 -679 0
-1999 1929 0
1999 679 -1929 0
-2069 -485 0
-2069 1999 0
2069 485 -1999 0
-2139 -291 0
-2139 2069 0
2139 291 -2069 0
-2287 41 0
-2287 2139 0
2287 -41 -2139 0
-2288 -41 0
-2288 -2139 0
2288 41 2139 0
-2289 -2287 0
-2289 -2288 0
2289 2287 2288 0
40 -6951 0
-40 6951 0
-162 -125 0
-162 146 0
162 125 -146 0
-226 126 0
-226 162 0
226 -126 -162 0
-290 -127 0
-290 226 0
290 127 -226 0
-356 -118 0
-356 340 0
356 118 -340 0
-420 119 0
-420 356 0
420 -119 -356 0
-484 -120 0
-484 420 0
484 120 -420 0
-550 -111 0
-550 534 0
550 111 -534 0
-614 112 0
-614 550 0
614 -112 -550 0
-678 -113 0
-678 614 0
678 113 -614 0
-744 -104 0
-744 728 0
744 104 -728 0
-808 105 0
-808 744 0
808 -105 -744 0
-872 -106 0
-872 808 0
872 106 -808 0
-938 -97 0
-938 922 0
938 97 -922 0
-1002 98 0
-1002 938 0
1002 -98 -938 0
-1066 -99 0
-1066 1002 0
1066 99 -1002 0
-1132 -90 0
-1132 1116 0
1132 90 -1116 0
-1196 91 0
-1196 1132 0
1196 -91 -1132 0
-1260 -92 0
-1260 1196 0
1260 92 -1196 0
-1326 -83 0
-1326 1310 0
1326 83 -1310 0
-1390 84 0
-1390 1326 0
1390 -84 -1326 0
-1454 -85 0
-1454 1390 0
1454 85 -1390 0
-1520 -76 0
-1520 1504 0
1520 76 -1504 0
-1584 77 0
-1584 1520 0
1584 -77 -1520 0
-1648 -78 0
-1648 1584 0
1648 78 -1584 0
-1718 -1454 0
-1718 -1648 0
1718 1454 1648 0
-1788 -1260 0
-1788 1718 0
1788 1260 -1718 0
-1858 -1066 0
-1858 1788 0
1858 1066 -1788 0
-1928 -872 0
-1928 1858 0
1928 872 -1858 0
-1998 -678 0
-1998 1928 0
1998 678 -1928 0
-2068 -484 0
-2068 1998 0
2068 484 -1998 0
-2138 -290 0
-2138 2068 0
2138 290 -2068 0
-2284 40 0
-2284 2138 0
2284 -40 -2138 0
-2285 -40 0
-2285 -2138 0
2285 40 2138 0
-2286 -2284 0
-2286 -2285 0
2286 2284 2285 0
39 -6950 0
-39 6950 0
-225 126 0
-225 161 0
225 -126 -161 0
-289 -127 0
-289 225 0
289 127 -225 0
-419 119 0
-419 355 0
419 -119 -355 0
-483 -120 0
-483 419 0
483 120 -419 0
-613 112 0
-613 549 0
613 -112 -549 0
-677 -113 0
-677 613 0
677 113 -613 0
-807 105 0
-807 743 0
807 -105 -743 0
-871 -106 0
-871 807 0
871 106 -807 0
-1001 98 0
-1001 937 0
1001 -98 -937 0
-1065 -99 0
-1065 1001 0
1065 99 -1001 0
-1195 91 0
-1195 1131 0
1195 -91 -1131 0
-1259 -92 0
-1259 1195 0
1259 92 -1195 0
-1389 84 0
-1389 1325 0
1389 -84 -1325 0
-1453 -85 0
-1453 1389 0
1453 85 -1389 0
-1583 77 0
-1583 1519 0
1583 -77 -1519 0
-1647 -78 0
-1647 1583 0
1647 78 -1583 0
-1717 -1453 0
-1717 -1647 0
1717 1453 1647 0
-1787 -1259 0
-1787 1717 0
1787 1259 -1717 0
-1857 -1065 0
-1857 1787 0
1857 1065 -1787 0
-1927 -871 0
-1927 1857 0
1927 871 -1857 0
-1997 -677 0
-1997 1927 0
1997 677 -1927 0
-2067 -483 0
-2067 1997 0
2067 483 -1997 0
-2137 -289 0
-2137 2067 0
2137 289 -2067 0
-2281 39 0
-2281 2137 0
2281 -39 -2137 0
-2282 -39 0
-2282 -2137 0
2282 39 2137 0
-2283 -2281 0
-2283 -2282 0
2283 2281 2282 0
38 -6949 0
-38 6949 0
-224 126 0
-224 160 0
224 -126 -160 0
-288 -127 0
-288 224 0
288 127 -224 0
-418 119 0
-418 354 0
418 -119 -354 0
-482 -120 0
-482 418 0
482 120 -418 0
-612 112 0
-612 548 0
612 -112 -548 0
-676 -113 0
-676 612 0
676 113 -612 0
-806 105 0
-806 742 0
806 -105 -742 0
-870 -106 0
-870 806 0
870 106 -806 0
-1000 98 0
-1000 936 0
1000 -98 -936 0
-1064 -99 0
-1064 1000 0
1064 99 -1000 0
-1194 91 0
-1194 1130 0
1194 -91 -1130 0
-1258 -92 0
-1258 1194 0
1258 92 -1194 0
-1388 84 0
-1388 1324 0
1388 -84 -1324 0
-1452 -85 0
-1452 1388 0
1452 85 -1388 0
-1582 77 0
-1582 1518 0
1582 -77 -1518 0
-1646 -78 0
-1646 1582 0
1646 78 -1582 0
-1716 -1452 0
-1716 -1646 0
1716 1452 1646 0
-1786 -1258 0
-1786 1716 0
1786 1258 -1716 0
-1856 -1064 0
-1856 1786 0
1856 1064 -1786 0
-1926 -870 0
-1926 1856 0
1926 870 -1856 0
-1996 -676 0
-1996 1926 0
1996 676 -1926 0
-2066 -482 0
-2066 1996 0
2066 482 -1996 0
-2136 -288 0
-2136 2066 0
2136 288 -2066 0
-2278 38 0
-2278 2136 0
2278 -38 -2136 0
-2279 -38 0
-2279 -2136 0
2279 38 2136 0
-2280 -2278 0
-2280 -2279 0
2280 2278 2279 0
37 -6948 0
-37 6948 0
-223 126 0
-223 159 0
223 -126 -159 0
-287 -127 0
-287 223 0
287 127 -223 0
-417 119 0
-417 353 0
417 -119 -353 0
-481 -120 0
-481 417 0
481 120 -417 0
-611 112 0
-611 547 0
611 -112 -547 0
-675 -113 0
-675 611 0
675 113 -611 0
-805 105 0
-805 741 0
805 -105 -741 0
-869 -106 0
-869 805 0
869 106 -805 0
-999 98 0
-999 935 0
999 -98 -935 0
-1063 -99 0
-1063 999 0
1063 99 -999 0
-1193 91 0
-1193 1129 0
1193 -91 -1129 0
-1257 -92 0
-1257 1193 0
1257 92 -1193 0
-1387 84 0
-1387 1323 0
1387 -84 -1323 0
-1451 -85 0
-1451 1387 0
1451 85 -1387 0
-1581 77 0
-1581 1517 0
1581 -77 -1517 0
-1645 -78 0
-1645 1581 0
1645 78 -1581 0
-1715 -1451 0
-1715 -1645 0
1715 1451 1645 0
-1785 -1257 0
-1785 1715 0
1785 1257 -1715 0
-1855 -1063 0
-1855 1785 0
1855 1063 -1785 0
-1925 -869 0
-1925 1855 0
1925 869 -1855 0
-1995 -675 0
-1995 1925 0
1995 675 -1925 0
-2065 -481 0
-2065 1995 0
2065 481 -1995 0
-2135 -287 0
-2135 2065 0
2135 287 -2065 0
-2275 37 0
-2275 2135 0
2275 -37 -2135 0
-2276 -37 0
-2276 -2135 0
2276 37 2135 0
-2277 -2275 0
-2277 -2276 0
2277 2275 2276 0
36 -6947 0
-36 6947 0
-222 126 0
-222 158 0
222 -126 -158 0
-286 -127 0
-286 222 0
286 127 -222 0
-416 119 0
-416 352 0
416 -119 -352 0
-480 -120 0
-480 416 0
480 120 -416 0
-610 112 0
-610 546 0
610 -112 -546 0
-674 -113 0
-674 610 0
674 113 -610 0
-804 105 0
-804 740 0
804 -105 -740 0
-868 -106 0
-868 804 0
868 106 -804 0
-998 98 0
-998 934 0
998 -98 -934 0
-1062 -99 0
-1062 998 0
1062 99 -998 0
-1192 91 0
-1192 1128 0
1192 -91 -1128 0
-1256 -92 0
-1256 1192 0
1256 92 -1192 0
-1386 84 0
-1386 1322 0
1386 -84 -1322 0
-1450 -85 0
-1450 1386 0
1450 85 -1386 0
-1580 77 0
-1580 1516 0
1580 -77 -1516 0
-1644 -78 0
-1644 1580 0
1644 78 -1580 0
-1714 -1450 0
-1714 -1644 0
1714 1450 1644 0
-1784 -1256 0
-1784 1714 0
1784 1256 -1714 0
-1854 -1062 0
-1854 1784 0
1854 1062 -1784 0
-1924 -868 0
-1924 1854 0
1924 868 -1854 0
-1994 -674 0
-1994 1924 0
1994 674 -1924 0
-2064 -480 0
-2064 1994 0
2064 480 -1994 0
-2134 -286 0
-2134 2064 0
2134 286 -2064 0
-2272 36 0
-2272 2134 0
2272 -36 -2134 0
-2273 -36 0
-2273 -2134 0
2273 36 2134 0
-2274 -2272 0
-2274 -2273 0
2274 2272 2273 0
35 -6946 0
-35 6946 0
-221 126 0
-221 157 0
221 -126 -157 0
-285 -127 0
-285 221 0
285 127 -221 0
-415 119 0
-415 351 0
415 -119 -351 0
-479 -120 0
-479 415 0
479 120 -415 0
-609 112 0
-609 545 0
609 -112 -545 0
-673 -113 0
-673 609 0
673 113 -609 0
-803 105 0
-803 739 0
803 -105 -739 0
-867 -106 0
-867 803 0
867 106 -803 0
-997 98 0
-997 933 0
997 -98 -933 0
-1061 -99 0
-1061 997 0
1061 99 -997 0
-1191 91 0
-1191 1127 0
1191 -91 -1127 0
-1255 -92 0
-1255 1191 0
1255 92 -1191 0
-1385 84 0
-1385 1321 0
1385 -84 -1321 0
-1449 -85 0
-1449 1385 0
1449 85 -1385 0
-1579 77 0
-1579 1515 0
1579 -77 -1515 0
-1643 -78 0
-1643 1579 0
1643 78 -1579 0
-1713 -1449 0
-1713 -1643 0
1713 1449 1643 0
-1783 -1255 0
-1783 1713 0
1783 1255 -1713 0
-1853 -1061 0
-1853 1783 0
1853 1061 -1783 0
-1923 -867 0
-1923 1853 0
1923 867 -1853 0
-1993 -673 0
-1993 1923 0
1993 673 -1923 0
-2063 -479 0
-2063 1993 0
2063 479 -1993 0
-2133 -285 0
-2133 2063 0
2133 285 -2063 0
-2269 35 0
-2269 2133 0
2269 -35 -2133 0
-2270 -35 0
-2270 -2133 0
2270 35 2133 0
-2271 -2269 0
-2271 -2270 0
2271 2269 2270 0
34 -6945 0
-34 6945 0
-220 126 0
-220 156 0
220 -126 -156 0
-284 -127 0
-284 220 0
284 127 -220 0
-414 119 0
-414 350 0
414 -119 -350 0
-478 -120 0
-478 414 0
478 120 -414 0
-608 112 0
-608 544 0
608 -112 -544 0
-672 -113 0
-672 608 0
672 113 -608 0
-802 105 0
-802 738 0
802 -105 -738 0
-866 -106 0
-866 802 0
866 106 -802 0
-996 98 0
-996 932 0
996 -98 -932 0
-1060 -99 0
-1060 996 0
1060 99 -996 0
-1190 91 0
-1190 1126 0
1190 -91 -1126 0
-1254 -92 0
-1254 1190 0
1254 92 -1190 0
-1384 84 0
-1384 1320 0
1384 -84 -1320 0
-1448 -85 0
-1448 1384 0
1448 85 -1384 0
-1578 77 0
-1578 1514 0
1578 -77 -1514 0
-1642 -78 0
-1642 1578 0
1642 78 -1578 0
-1712 -1448 0
-1712 -1642 0
1712 1448 1642 0
-1782 -1254 0
-1782 1712 0
1782 1254 -1712 0
-1852 -1060 0
-1852 1782 0
1852 1060 -1782 0
-1922 -866 0
-1922 1852 0
1922 866 -1852 0
-1992 -672 0
-1992 1922 0
1992 672 -1922 0
-2062 -478 0
-2062 1992 0
2062 478 -1992 0
-2132 -284 0
-2132 2062 0
2132 284 -2062 0
-2266 34 0
-2266 2132 0
2266 -34 -2132 0
-2267 -34 0
-2267 -2132 0
2267 34 2132 0
-2268 -2266 0
-2268 -2267 0
2268 2266 2267 0
33 -6944 0
-33 6944 0
-219 -126 0
-219 187 0
219 126 -187 0
-283 -127 0
-283 219 0
283 127 -219 0
-413 -119 0
-413 381 0
413 119 -381 0
-477 -120 0
-477 413 0
477 120 -413 0
-607 -112 0
-607 575 0
607 112 -575 0
-671 -113 0
-671 607 0
671 113 -607 0
-801 -105 0
-801 769 0
801 105 -769 0
-865 -106 0
-865 801 0
865 106 -801 0
-995 -98 0
-995 963 0
995 98 -963 0
-1059 -99 0
-1059 995 0
1059 99 -995 0
-1189 -91 0
-1189 1157 0
1189 91 -1157 0
-1253 -92 0
-1253 1189 0
1253 92 -1189 0
-1383 -84 0
-1383 1351 0
1383 84 -1351 0
-1447 -85 0
-1447 1383 0
1447 85 -1383 0
-1577 -77 0
-1577 1545 0
1577 77 -1545 0
-1641 -78 0
-1641 1577 0
1641 78 -1577 0
-1711 -1447 0
-1711 -1641 0
1711 1447 1641 0
-1781 -1253 0
-1781 1711 0
1781 1253 -1711 0
-1851 -1059 0
-1851 1781 0
1851 1059 -1781 0
-1921 -865 0
-1921 1851 0
1921 865 -1851 0
-1991 -671 0
-1991 1921 0
1991 671 -1921 0
-2061 -477 0
-2061 1991 0
2061 477 -1991 0
-2131 -283 0
-2131 2061 0
2131 283 -2061 0
-2263 33 0
-2263 2131 0
2263 -33 -2131 0
-2264 -33 0
-2264 -2131 0
2264 33 2131 0
-2265 -2263 0
-2265 -2264 0
2265 2263 2264 0
32 -6943 0
-32 6943 0
-218 -126 0
-218 186 0
218 126 -186 0
-282 -127 0
-282 218 0
282 127 -218 0
-412 -119 0
-412 380 0
412 119 -380 0
-476 -120 0
-476 412 0
476 120 -412 0
-606 -112 0
-606 574 0
606 112 -574 0
-670 -113 0
-670 606 0
670 113 -606 0
-800 -105 0
-800 768 0
800 105 -768 0
-864 -106 0
-864 800 0
864 106 -800 0
-994 -98 0
-994 962 0
994 98 -962 0
-1058 -99 0
-1058 994 0
1058 99 -994 0
-1188 -91 0
-1188 1156 0
1188 91 -1156 0
-1252 -92 0
-1252 1188 0
1252 92 -1188 0
-1382 -84 0
-1382 1350 0
1382 84 -1350 0
-1446 -85 0
-1446 1382 0
1446 85 -1382 0
-1576 -77 0
-1576 1544 0
1576 77 -1544 0
-1640 -78 0
-1640 1576 0
1640 78 -1576 0
-1710 -1446 0
-1710 -1640 0
1710 1446 1640 0
-1780 -1252 0
-1780 1710 0
1780 1252 -1710 0
-1850 -1058 0
-1850 1780 0
1850 1058 -1780 0
-1920 -864 0
-1920 1850 0
1920 864 -1850 0
-1990 -670 0
-1990 1920 0
1990 670 -1920 0
-2060 -476 0
-2060 1990 0
2060 476 -1990 0
-2130 -282 0
-2130 2060 0
2130 282 -2060 0
-2260 32 0
-2260 2130 0
2260 -32 -2130 0
-2261 -32 0
-2261 -2130 0
2261 32 2130 0
-2262 -2260 0
-2262 -2261 0
2262 2260 2261 0
31 -6942 0
-31 6942 0
-217 -126 0
-217 185 0
217 126 -185 0
-281 -127 0
-281 217 0
281 127 -217 0
-411 -119 0
-411 379 0
411 119 -379 0
-475 -120 0
-475 411 0
475 120 -411 0
-605 -112 0
-605 573 0
605 112 -573 0
-669 -113 0
-669 605 0
669 113 -605 0
-799 -105 0
-799 767 0
799 105 -767 0
-863 -106 0
-863 799 0
863 106 -799 0
-993 -98 0
-993 961 0
993 98 -961 0
-1057 -99 0
-1057 993 0
1057 99 -993 0
-1187 -91 0
-1187 1155 0
1187 91 -1155 0
-1251 -92 0
-1251 1187 0
1251 92 -1187 0
-1381 -84 0
-1381 1349 0
1381 84 -1349 0
-1445 -85 0
-1445 1381 0
1445 85 -1381 0
-1575 -77 0
-1575 1543 0
1575 77 -1543 0
-1639 -78 0
-1639 1575 0
1639 78 -1575 0
-1709 -1445 0
-1709 -1639 0
1709 1445 1639 0
-1779 -1251 0
-1779 1709 0
1779 1251 -1709 0
-1849 -1057 0
-1849 1779 0
1849 1057 -1779 0
-1919 -863 0
-1919 1849 0
1919 863 -1849 0
-1989 -669 0
-1989 1919 0
1989 669 -1919 0
-2059 -475 0
-2059 1989 0
2059 475 -1989 0
-2129 -281 0
-2129 2059 0
2129 281 -2059 0
-2257 31 0
-2257 2129 0
2257 -31 -2129 0
-2258 -31 0
-2258 -2129 0
2258 31 2129 0
-2259 -2257 0
-2259 -2258 0
2259 2257 2258 0
30 -6941 0
-30 6941 0
-216 -126 0
-216 184 0
216 126 -184 0
-280 -127 0
-280 216 0
280 127 -216 0
-410 -119 0
-410 378 0
410 119 -378 0
-474 -120 0
-474 410 0
474 120 -410 0
-604 -112 0
-604 572 0
604 112 -572 0
-668 -113 0
-668 604 0
668 113 -604 0
-798 -105 0
-798 766 0
798 105 -766 0
-862 -106 0
-862 798 0
862 106 -798 0
-992 -98 0
-992 960 0
992 98 -960 0
-1056 -99 0
-1056 992 0
1056 99 -992 0
-1186 -91 0
-1186 1154 0
1186 91 -1154 0
-1250 -92 0
-1250 1186 0
1250 92 -1186 0
-1380 -84 0
-1380 1348 0
1380 84 -1348 0
-1444 -85 0
-1444 1380 0
1444 85 -1380 0
-1574 -77 0
-1574 1542 0
1574 77 -1542 0
-1638 -78 0
-1638 1574 0
1638 78 -1574 0
-1708 -1444 0
-1708 -1638 0
1708 1444 1638 0
-1778 -1250 0
-1778 1708 0
1778 1250 -1708 0
-1848 -1056 0
-1848 1778 0
1848 1056 -1778 0
-1918 -862 0
-1918 1848 0
1918 862 -1848 0
-1988 -668 0
-1988 1918 0
1988 668 -1918 0
-2058 -474 0
-2058 1988 0
2058 474 -1988 0
-2128 -280 0
-2128 2058 0
2128 280 -2058 0
-2254 30 0
-2254 2128 0
2254 -30 -2128 0
-2255 -30 0
-2255 -2128 0
2255 30 2128 0
-2256 -2254 0
-2256 -2255 0
2256 2254 2255 0
29 -6940 0
-29 6940 0
-215 -126 0
-215 183 0
215 126 -183 0
-279 -127 0
-279 215 0
279 127 -215 0
-409 -119 0
-409 377 0
409 119 -377 0
-473 -120 0
-473 409 0
473 120 -409 0
-603 -112 0
-603 571 0
603 112 -571 0
-667 -113 0
-667 603 0
667 113 -603 0
-797 -105 0
-797 765 0
797 105 -765 0
-861 -106 0
-861 797 0
861 106 -797 0
-991 -98 0
-991 959 0
991 98 -959 0
-1055 -99 0
-1055 991 0
1055 99 -991 0
-1185 -91 0
-1185 1153 0
1185 91 -1153 0
-1249 -92 0
-1249 1185 0
1249 92 -1185 0
-1379 -84 0
-1379 1347 0
1379 84 -1347 0
-1443 -85 0
-1443 1379 0
1443 85 -1379 0
-1573 -77 0
-1573 1541 0
1573 77 -1541 0
-1637 -78 0
-1637 1573 0
1637 78 -1573 0
-1707 -1443 0
-1707 -1637 0
1707 1443 1637 0
-1777 -1249 0
-1777 1707 0
1777 1249 -1707 0
-1847 -1055 0
-1847 1777 0
1847 1055 -1777 0
-1917 -861 0
-1917 1847 0
1917 861 -1847 0
-1987 -667 0
-1987 1917 0
1987 667 -1917 0
-2057 -473 0
-2057 1987 0
2057 473 -1987 0
-2127 -279 0
-2127 2057 0
2127 279 -2057 0
-2251 29 0
-2251 2127 0
2251 -29 -2127 0
-2252 -29 0
-2252 -2127 0
2252 29 2127 0
-2253 -2251 0
-2253 -2252 0
2253 2251 2252 0
28 -6939 0
-28 6939 0
-214 -126 0
-214 182 0
214 126 -182 0
-278 -127 0
-278 214 0
278 127 -214 0
-408 -119 0
-408 376 0
408 119 -376 0
-472 -120 0
-472 408 0
472 120 -408 0
-602 -112 0
-602 570 0
602 112 -570 0
-666 -113 0
-666 602 0
666 113 -602 0
-796 -105 0
-796 764 0
796 105 -764 0
-860 -106 0
-860 796 0
860 106 -796 0
-990 -98 0
-990 958 0
990 98 -958 0
-1054 -99 0
-1054 990 0
1054 99 -990 0
-1184 -91 0
-1184 1152 0
1184 91 -1152 0
-1248 -92 0
-1248 1184 0
1248 92 -1184 0
-1378 -84 0
-1378 1346 0
1378 84 -1346 0
-1442 -85 0
-1442 1378 0
1442 85 -1378 0
-1572 -77 0
-1572 1540 0
1572 77 -1540 0
-1636 -78 0
-1636 1572 0
1636 78 -1572 0
-1706 -1442 0
-1706 -1636 0
1706 1442 1636 0
-1776 -1248 0
-1776 1706 0
1776 1248 -1706 0
-1846 -1054 0
-1846 1776 0
1846 1054 -1776 0
-1916 -860 0
-1916 1846 0
1916 860 -1846 0
-1986 -666 0
-1986 1916 0
1986 666 -1916 0
-2056 -472 0
-2056 1986 0
2056 472 -1986 0
-2126 -278 0
-2126 2056 0
2126 278 -2056 0
-2248 28 0
-2248 2126 0
2248 -28 -2126 0
-2249 -28 0
-2249 -2126 0
2249 28 2126 0
-2250 -2248 0
-2250 -2249 0
2250 2248 2249 0
27 -6938 0
-27 6938 0
-213 -126 0
-213 181 0
213 126 -181 0
-277 -127 0
-277 213 0
277 127 -213 0
-407 -119 0
-407 375 0
407 119 -375 0
-471 -120 0
-471 407 0
471 120 -407 0
-601 -112 0
-601 569 0
601 112 -569 0
-665 -113 0
-665 601 0
665 113 -601 0
-795 -105 0
-795 763 0
795 105 -763 0
-859 -106 0
-859 795 0
859 106 -795 0
-989 -98 0
-989 957 0
989 98 -957 0
-1053 -99 0
-1053 989 0
1053 99 -989 0
-1183 -91 0
-1183 1151 0
1183 91 -1151 0
-1247 -92 0
-1247 1183 0
1247 92 -1183 0
-1377 -84 0
-1377 1345 0
1377 84 -1345 0
-1441 -85 0
-1441 1377 0
1441 85 -1377 0
-1571 -77 0
-1571 1539 0
1571 77 -1539 0
-1635 -78 0
-1635 1571 0
1635 78 -1571 0
-1705 -1441 0
-1705 -1635 0
1705 1441 1635 0
-1775 -1247 0
-1775 1705 0
1775 1247 -1705 0
-1845 -1053 0
-1845 1775 0
1845 1053 -1775 0
-1915 -859 0
-1915 1845 0
1915 859 -1845 0
-1985 -665 0
-1985 1915 0
1985 665 -1915 0
-2055 -471 0
-2055 1985 0
2055 471 -1985 0
-2125 -277 0
-2125 2055 0
2125 277 -2055 0
-2245 27 0
-2245 2125 0
2245 -27 -2125 0
-2246 -27 0
-2246 -2125 0
2246 27 2125 0
-2247 -2245 0
-2247 -2246 0
2247 2245 2246 0
26 -6937 0
-26 6937 0
-212 -126 0
-212 180 0
212 126 -180 0
-276 -127 0
-276 212 0
276 127 -212 0
-406 -119 0
-406 374 0
406 119 -374 0
-470 -120 0
-470 406 0
470 120 -406 0
-600 -112 0
-600 568 0
600 112 -568 0
-664 -113 0
-664 600 0
664 113 -600 0
-794 -105 0
-794 762 0
794 105 -762 0
-858 -106 0
-858 794 0
858 106 -794 0
-988 -98 0
-988 956 0
988 98 -956 0
-1052 -99 0
-1052 988 0
1052 99 -988 0
-1182 -91 0
-1182 1150 0
1182 91 -1150 0
-1246 -92 0
-1246 1182 0
1246 92 -1182 0
-1376 -84 0
-1376 1344 0
1376 84 -1344 0
-1440 -85 0
-1440 1376 0
1440 85 -1376 0
-1570 -77 0
-1570 1538 0
1570 77 -1538 0
-1634 -78 0
-1634 1570 0
1634 78 -1570 0
-1704 -1440 0
-1704 -1634 0
1704 1440 1634 0
-1774 -1246 0
-1774 1704 0
1774 1246 -1704 0
-1844 -1052 0
-1844 1774 0
1844 1052 -1774 0
-1914 -858 0
-1914 1844 0
1914 858 -1844 0
-1984 -664 0
-1984 1914 0
1984 664 -1914 0
-2054 -470 0
-2054 1984 0
2054 470 -1984 0
-2124 -276 0
-2124 2054 0
2124 276 -2054 0
-2242 26 0
-2242 2124 0
2242 -26 -2124 0
-2243 -26 0
-2243 -2124 0
2243 26 2124 0
-2244 -2242 0
-2244 -2243 0
2244 2242 2243 0
25 -6936 0
-25 6936 0
-211 -126 0
-211 179 0
211 126 -179 0
-275 -127 0
-275 211 0
275 127 -211 0
-405 -119 0
-405 373 0
405 119 -373 0
-469 -120 0
-469 405 0
469 120 -405 0
-599 -112 0
-599 567 0
599 112 -567 0
-663 -113 0
-663 599 0
663 113 -599 0
-793 -105 0
-793 761 0
793 105 -761 0
-857 -106 0
-857 793 0
857 106 -793 0
-987 -98 0
-987 955 0
987 98 -955 0
-1051 -99 0
-1051 987 0
1051 99 -987 0
-1181 -91 0
-1181 1149 0
1181 91 -1149 0
-1245 -92 0
-1245 1181 0
1245 92 -1181 0
-1375 -84 0
-1375 1343 0
1375 84 -1343 0
-1439 -85 0
-1439 1375 0
1439 85 -1375 0
-1569 -77 0
-1569 1537 0
1569 77 -1537 0
-1633 -78 0
-1633 1569 0
1633 78 -1569 0
-1703 -1439 0
-1703 -1633 0
1703 1439 1633 0
-1773 -1245 0
-1773 1703 0
1773 1245 -1703 0
-1843 -1051 0
-1843 1773 0
1843 1051 -1773 0
-1913 -857 0
-1913 1843 0
1913 857 -1843 0
-1983 -663 0
-1983 1913 0
1983 663 -1913 0
-2053 -469 0
-2053 1983 0
2053 469 -1983 0
-2123 -275 0
-2123 2053 0
2123 275 -2053 0
-2239 25 0
-2239 2123 0
2239 -25 -2123 0
-2240 -25 0
-2240 -2123 0
2240 25 2123 0
-2241 -2239 0
-2241 -2240 0
2241 2239 2240 0
24 -6935 0
-24 6935 0
-210 -126 0
-210 178 0
210 126 -178 0
-274 -127 0
-274 210 0
274 127 -210 0
-404 -119 0
-404 372 0
404 119 -372 0
-468 -120 0
-468 404 0
468 120 -404 0
-598 -112 0
-598 566 0
598 112 -566 0
-662 -113 0
-662 598 0
662 113 -598 0
-792 -105 0
-792 760 0
792 105 -760 0
-856 -106 0
-856 792 0
856 106 -792 0
-986 -98 0
-986 954 0
986 98 -954 0
-1050 -99 0
-1050 986 0
1050 99 -986 0
-1180 -91 0
-1180 1148 0
1180 91 -1148 0
-1244 -92 0
-1244 1180 0
1244 92 -1180 0
-1374 -84 0
-1374 1342 0
1374 84 -1342 0
-1438 -85 0
-1438 1374 0
1438 85 -1374 0
-1568 -77 0
-1568 1536 0
1568 77 -1536 0
-1632 -78 0
-1632 1568 0
1632 78 -1568 0
-1702 -1438 0
-1702 -1632 0
1702 1438 1632 0
-1772 -1244 0
-1772 1702 0
1772 1244 -1702 0
-1842 -1050 0
-1842 1772 0
1842 1050 -1772 0
-1912 -856 0
-1912 1842 0
1912 856 -1842 0
-1982 -662 0
-1982 1912 0
1982 662 -1912 0
-2052 -468 0
-2052 1982 0
2052 468 -1982 0
-2122 -274 0
-2122 2052 0
2122 274 -2052 0
-2236 24 0
-2236 2122 0
2236 -24 -2122 0
-2237 -24 0
-2237 -2122 0
2237 24 2122 0
-2238 -2236 0
-2238 -2237 0
2238 2236 2237 0
23 -6934 0
-23 6934 0
-209 -126 0
-209 177 0
209 126 -177 0
-273 -127 0
-273 209 0
273 127 -209 0
-403 -119 0
-403 371 0
403 119 -371 0
-467 -120 0
-467 403 0
467 120 -403 0
-597 -112 0
-597 565 0
597 112 -565 0
-661 -113 0
-661 597 0
661 113 -597 0
-791 -105 0
-791 759 0
791 105 -759 0
-855 -106 0
-855 791 0
855 106 -791 0
-985 -98 0
-985 953 0
985 98 -953 0
-1049 -99 0
-1049 985 0
1049 99 -985 0
-1179 -91 0
-1179 1147 0
1179 91 -1147 0
-1243 -92 0
-1243 1179 0
1243 92 -1179 0
-1373 -84 0
-1373 1341 0
1373 84 -1341 0
-1437 -85 0
-1437 1373 0
1437 85 -1373 0
-1567 -77 0
-1567 1535 0
1567 77 -1535 0
-1631 -78 0
-1631 1567 0
1631 78 -1567 0
-1701 -1437 0
-1701 -1631 0
1701 1437 1631 0
-1771 -1243 0
-1771 1701 0
1771 1243 -1701 0
-1841 -1049 0
-1841 1771 0
1841 1049 -1771 0
-1911 -855 0
-1911 1841 0
1911 855 -1841 0
-1981 -661 0
-1981 1911 0
1981 661 -1911 0
-2051 -467 0
-2051 1981 0
2051 467 -1981 0
-2121 -273 0
-2121 2051 0
2121 273 -2051 0
-2233 23 0
-2233 2121 0
2233 -23 -2121 0
-2234 -23 0
-2234 -2121 0
2234 23 2121 0
-2235 -2233 0
-2235 -2234 0
2235 2233 2234 0
22 -6933 0
-22 6933 0
-208 -126 0
-208 176 0
208 126 -176 0
-272 -127 0
-272 208 0
272 127 -208 0
-402 -119 0
-402 370 0
402 119 -370 0
-466 -120 0
-466 402 0
466 120 -402 0
-596 -112 0
-596 564 0
596 112 -564 0
-660 -113 0
-660 596 0
660 113 -596 0
-790 -105 0
-790 758 0
790 105 -758 0
-854 -106 0
-854 790 0
854 106 -790 0
-984 -98 0
-984 952 0
984 98 -952 0
-1048 -99 0
-1048 984 0
1048 99 -984 0
-1178 -91 0
-1178 1146 0
1178 91 -1146 0
-1242 -92 0
-1242 1178 0
1242 92 -1178 0
-1372 -84 0
-1372 1340 0
1372 84 -1340 0
-1436 -85 0
-1436 1372 0
1436 85 -1372 0
-1566 -77 0
-1566 1534 0
1566 77 -1534 0
-1630 -78 0
-1630 1566 0
1630 78 -1566 0
-1700 -1436 0
-1700 -1630 0
1700 1436 1630 0
-1770 -1242 0
-1770 1700 0
1770 1242 -1700 0
-1840 -1048 0
-1840 1770 0
1840 1048 -1770 0
-1910 -854 0
-1910 1840 0
1910 854 -1840 0
-1980 -660 0
-1980 1910 0
1980 660 -1910 0
-2050 -466 0
-2050 1980 0
2050 466 -1980 0
-2120 -272 0
-2120 2050 0
2120 272 -2050 0
-2230 22 0
-2230 2120 0
2230 -22 -2120 0
-2231 -22 0
-2231 -2120 0
2231 22 2120 0
-2232 -2230 0
-2232 -2231 0
2232 2230 2231 0
21 -6932 0
-21 6932 0
-207 -126 0
-207 175 0
207 126 -175 0
-271 -127 0
-271 207 0
271 127 -207 0
-401 -119 0
-401 369 0
401 119 -369 0
-465 -120 0
-465 401 0
465 120 -401 0
-595 -112 0
-595 563 0
595 112 -563 0
-659 -113 0
-659 595 0
659 113 -595 0
-789 -105 0
-789 757 0
789 105 -757 0
-853 -106 0
-853 789 0
853 106 -789 0
-983 -98 0
-983 951 0
983 98 -951 0
-1047 -99 0
-1047 983 0
1047 99 -983 0
-1177 -91 0
-1177 1145 0
1177 91 -1145 0
-1241 -92 0
-1241 1177 0
1241 92 -1177 0
-1371 -84 0
-1371 1339 0
1371 84 -1339 0
-1435 -85 0
-1435 1371 0
1435 85 -1371 0
-1565 -77 0
-1565 1533 0
1565 77 -1533 0
-1629 -78 0
-1629 1565 0
1629 78 -1565 0
-1699 -1435 0
-1699 -1629 0
1699 1435 1629 0
-1769 -1241 0
-1769 1699 0
1769 1241 -1699 0
-1839 -1047 0
-1839 1769 0
1839 1047 -1769 0
-1909 -853 0
-1909 1839 0
1909 853 -1839 0
-1979 -659 0
-1979 1909 0
1979 659 -1909 0
-2049 -465 0
-2049 1979 0
2049 465 -1979 0
-2119 -271 0
-2119 2049 0
2119 271 -2049 0
-2227 21 0
-2227 2119 0
2227 -21 -2119 0
-2228 -21 0
-2228 -2119 0
2228 21 2119 0
-2229 -2227 0
-2229 -2228 0
2229 2227 2228 0
20 -6931 0
-20 6931 0
-206 -126 0
-206 174 0
206 126 -174 0
-270 -127 0
-270 206 0
270 127 -206 0
-400 -119 0
-400 368 0
400 119 -368 0
-464 -120 0
-464 400 0
464 120 -400 0
-594 -112 0
-594 562 0
594 112 -562 0
-658 -113 0
-658 594 0
658 113 -594 0
-788 -105 0
-788 756 0
788 105 -756 0
-852 -106 0
-852 788 0
852 106 -788 0
-982 -98 0
-982 950 0
982 98 -950 0
-1046 -99 0
-1046 982 0
1046 99 -982 0
-1176 -91 0
-1176 1144 0
1176 91 -1144 0
-1240 -92 0
-1240 1176 0
1240 92 -1176 0
-1370 -84 0
-1370 1338 0
1370 84 -1338 0
-1434 -85 0
-1434 1370 0
1434 85 -1370 0
-1564 -77 0
-1564 1532 0
1564 77 -1532 0
-1628 -78 0
-1628 1564 0
1628 78 -1564 0
-1698 -1434 0
-1698 -1628 0
1698 1434 1628 0
-1768 -1240 0
-1768 1698 0
1768 1240 -1698 0
-1838 -1046 0
-1838 1768 0
1838 1046 -1768 0
-1908 -852 0
-1908 1838 0
1908 852 -1838 0
-1978 -658 0
-1978 1908 0
1978 658 -1908 0
-2048 -464 0
-2048 1978 0
2048 464 -1978 0
-2118 -270 0
-2118 2048 0
2118 270 -2048 0
-2224 20 0
-2224 2118 0
2224 -20 -2118 0
-2225 -20 0
-2225 -2118 0
2225 20 2118 0
-2226 -2224 0
-2226 -2225 0
2226 2224 2225 0
19 -6930 0
-19 6930 0
-205 -126 0
-205 173 0
205 126 -173 0
-269 -127 0
-269 205 0
269 127 -205 0
-399 -119 0
-399 367 0
399 119 -367 0
-463 -120 0
-463 399 0
463 120 -399 0
-593 -112 0
-593 561 0
593 112 -561 0
-657 -113 0
-657 593 0
657 113 -593 0
-787 -105 0
-787 755 0
787 105 -755 0
-851 -106 0
-851 787 0
851 106 -787 0
-981 -98 0
-981 949 0
981 98 -949 0
-1045 -99 0
-1045 981 0
1045 99 -981 0
-1175 -91 0
-1175 1143 0
1175 91 -1143 0
-1239 -92 0
-1239 1175 0
1239 92 -1175 0
-1369 -84 0
-1369 1337 0
1369 84 -1337 0
-1433 -85 0
-1433 1369 0
1433 85 -1369 0
-1563 -77 0
-1563 1531 0
1563 77 -1531 0
-1627 -78 0
-1627 1563 0
1627 78 -1563 0
-1697 -1433 0
-1697 -1627 0
1697 1433 1627 0
-1767 -1239 0
-1767 1697 0
1767 1239 -1697 0
-1837 -1045 0
-1837 1767 0
1837 1045 -1767 0
-1907 -851 0
-1907 1837 0
1907 851 -1837 0
-1977 -657 0
-1977 1907 0
1977 657 -1907 0
-2047 -463 0
-2047 1977 0
2047 463 -1977 0
-2117 -269 0
-2117 2047 0
2117 269 -2047 0
-2221 19 0
-2221 2117 0
2221 -19 -2117 0
-2222 -19 0
-2222 -2117 0
2222 19 2117 0
-2223 -2221 0
-2223 -2222 0
2223 2221 2222 0
18 -6929 0
-18 6929 0
-204 -126 0
-204 172 0
204 126 -172 0
-268 -127 0
-268 204 0
268 127 -204 0
-398 -119 0
-398 366 0
398 119 -366 0
-462 -120 0
-462 398 0
462 120 -398 0
-592 -112 0
-592 560 0
592 112 -560 0
-656 -113 0
-656 592 0
656 113 -592 0
-786 -105 0
-786 754 0
786 105 -754 0
-850 -106 0
-850 786 0
850 106 -786 0
-980 -98 0
-980 948 0
980 98 -948 0
-1044 -99 0
-1044 980 0
1044 99 -980 0
-1174 -91 0
-1174 1142 0
1174 91 -1142 0
-1238 -92 0
-1238 1174 0
1238 92 -1174 0
-1368 -84 0
-1368 1336 0
1368 84 -1336 0
-1432 -85 0
-1432 1368 0
1432 85 -1368 0
-1562 -77 0
-1562 1530 0
1562 77 -1530 0
-1626 -78 0
-1626 1562 0
1626 78 -1562 0
-1696 -1432 0
-1696 -1626 0
1696 1432 1626 0
-1766 -1238 0
-1766 1696 0
1766 1238 -1696 0
-1836 -1044 0
-1836 1766 0
1836 1044 -1766 0
-1906 -850 0
-1906 1836 0
1906 850 -1836 0
-1976 -656 0
-1976 1906 0
1976 656 -1906 0
-2046 -462 0
-2046 1976 0
2046 462 -1976 0
-2116 -268 0
-2116 2046 0
2116 268 -2046 0
-2218 18 0
-2218 2116 0
2218 -18 -2116 0
-2219 -18 0
-2219 -2116 0
2219 18 2116 0
-2220 -2218 0
-2220 -2219 0
2220 2218 2219 0
17 -6928 0
-17 6928 0
-203 -126 0
-203 171 0
203 126 -171 0
-267 -127 0
-267 203 0
267 127 -203 0
-397 -119 0
-397 365 0
397 119 -365 0
-461 -120 0
-461 397 0
461 120 -397 0
-591 -112 0
-591 559 0
591 112 -559 0
-655 -113 0
-655 591 0
655 113 -591 0
-785 -105 0
-785 753 0
785 105 -753 0
-849 -106 0
-849 785 0
849 106 -785 0
-979 -98 0
-979 947 0
979 98 -947 0
-1043 -99 0
-1043 979 0
1043 99 -979 0
-1173 -91 0
-1173 1141 0
1173 91 -1141 0
-1237 -92 0
-1237 1173 0
1237 92 -1173 0
-1367 -84 0
-1367 1335 0
1367 84 -1335 0
-1431 -85 0
-1431 1367 0
1431 85 -1367 0
-1561 -77 0
-1561 1529 0
1561 77 -1529 0
-1625 -78 0
-1625 1561 0
1625 78 -1561 0
-1695 -1431 0
-1695 -1625 0
1695 1431 1625 0
-1765 -1237 0
-1765 1695 0
1765 1237 -1695 0
-1835 -1043 0
-1835 1765 0
1835 1043 -1765 0
-1905 -849 0
-1905 1835 0
1905 849 -1835 0
-1975 -655 0
-1975 1905 0
1975 655 -1905 0
-2045 -461 0
-2045 1975 0
2045 461 -1975 0
-2115 -267 0
-2115 2045 0
2115 267 -2045 0
-2215 17 0
-2215 2115 0
2215 -17 -2115 0
-2216 -17 0
-2216 -2115 0
2216 17 2115 0
-2217 -2215 0
-2217 -2216 0
2217 2215 2216 0
16 -6927 0
-16 6927 0
-202 -126 0
-202 170 0
202 126 -170 0
-266 -127 0
-266 202 0
266 127 -202 0
-396 -119 0
-396 364 0
396 119 -364 0
-460 -120 0
-460 396 0
460 120 -396 0
-590 -112 0
-590 558 0
590 112 -558 0
-654 -113 0
-654 590 0
654 113 -590 0
-784 -105 0
-784 752 0
784 105 -752 0
-848 -106 0
-848 784 0
848 106 -784 0
-978 -98 0
-978 946 0
978 98 -946 0
-1042 -99 0
-1042 978 0
1042 99 -978 0
-1172 -91 0
-1172 1140 0
1172 91 -1140 0
-1236 -92 0
-1236 1172 0
1236 92 -1172 0
-1366 -84 0
-1366 1334 0
1366 84 -1334 0
-1430 -85 0
-1430 1366 0
1430 85 -1366 0
-1560 -77 0
-1560 1528 0
1560 77 -1528 0
-1624 -78 0
-1624 1560 0
1624 78 -1560 0
-1694 -1430 0
-1694 -1624 0
1694 1430 1624 0
-1764 -1236 0
-1764 1694 0
1764 1236 -1694 0
-1834 -1042 0
-1834 1764 0
1834 1042 -1764 0
-1904 -848 0
-1904 1834 0
1904 848 -1834 0
-1974 -654 0
-1974 1904 0
1974 654 -1904 0
-2044 -460 0
-2044 1974 0
2044 460 -1974 0
-2114 -266 0
-2114 2044 0
2114 266 -2044 0
-2212 16 0
-2212 2114 0
2212 -16 -2114 0
-2213 -16 0
-2213 -2114 0
2213 16 2114 0
-2214 -2212 0
-2214 -2213 0
2214 2212 2213 0
15 -6926 0
-15 6926 0
-201 -126 0
-201 169 0
201 126 -169 0
-265 -127 0
-265 201 0
265 127 -201 0
-395 -119 0
-395 363 0
395 119 -363 0
-459 -120 0
-459 395 0
459 120 -395 0
-589 -112 0
-589 557 0
589 112 -557 0
-653 -113 0
-653 589 0
653 113 -589 0
-783 -105 0
-783 751 0
783 105 -751 0
-847 -106 0
-847 783 0
847 106 -783 0
-977 -98 0
-977 945 0
977 98 -945 0
-1041 -99 0
-1041 977 0
1041 99 -977 0
-1171 -91 0
-1171 1139 0
1171 91 -1139 0
-1235 -92 0
-1235 1171 0
1235 92 -1171 0
-1365 -84 0
-1365 1333 0
1365 84 -1333 0
-1429 -85 0
-1429 1365 0
1429 85 -1365 0
-1559 -77 0
-1559 1527 0
1559 77 -1527 0
-1623 -78 0
-1623 1559 0
1623 78 -1559 0
-1693 -1429 0
-1693 -1623 0
1693 1429 1623 0
-1763 -1235 0
-1763 1693 0
1763 1235 -1693 0
-1833 -1041 0
-1833 1763 0
1833 1041 -1763 0
-1903 -847 0
-1903 1833 0
1903 847 -1833 0
-1973 -653 0
-1973 1903 0
1973 653 -1903 0
-2043 -459 0
-2043 1973 0
2043 459 -1973 0
-2113 -265 0
-2113 2043 0
2113 265 -2043 0
-2209 15 0
-2209 2113 0
2209 -15 -2113 0
-2210 -15 0
-2210 -2113 0
2210 15 2113 0
-2211 -2209 0
-2211 -2210 0
2211 2209 2210 0
14 -6925 0
-14 6925 0
-200 -126 0
-200 168 0
200 126 -168 0
-264 -127 0
-264 200 0
264 127 -200 0
-394 -119 0
-394 362 0
394 119 -362 0
-458 -120 0
-458 394 0
458 120 -394 0
-588 -112 0
-588 556 0
588 112 -556 0
-652 -113 0
-652 588 0
652 113 -588 0
-782 -105 0
-782 750 0
782 105 -750 0
-846 -106 0
-846 782 0
846 106 -782 0
-976 -98 0
-976 944 0
976 98 -944 0
-1040 -99 0
-1040 976 0
1040 99 -976 0
-1170 -91 0
-1170 1138 0
1170 91 -1138 0
-1234 -92 0
-1234 1170 0
1234 92 -1170 0
-1364 -84 0
-1364 1332 0
1364 84 -1332 0
-1428 -85 0
-1428 1364 0
1428 85 -1364 0
-1558 -77 0
-1558 1526 0
1558 77 -1526 0
-1622 -78 0
-1622 1558 0
1622 78 -1558 0
-1692 -1428 0
-1692 -1622 0
1692 1428 1622 0
-1762 -1234 0
-1762 1692 0
1762 1234 -1692 0
-1832 -1040 0
-1832 1762 0
1832 1040 -1762 0
-1902 -846 0
-1902 1832 0
1902 846 -1832 0
-1972 -652 0
-1972 1902 0
1972 652 -1902 0
-2042 -458 0
-2042 1972 0
2042 458 -1972 0
-2112 -264 0
-2112 2042 0
2112 264 -2042 0
-2206 14 0
-2206 2112 0
2206 -14 -2112 0
-2207 -14 0
-2207 -2112 0
2207 14 2112 0
-2208 -2206 0
-2208 -2207 0
2208 2206 2207 0
13 -6924 0
-13 6924 0
-199 -126 0
-199 167 0
199 126 -167 0
-263 -127 0
-263 199 0
263 127 -199 0
-393 -119 0
-393 361 0
393 119 -361 0
-457 -120 0
-457 393 0
457 120 -393 0
-587 -112 0
-587 555 0
587 112 -555 0
-651 -113 0
-651 587 0
651 113 -587 0
-781 -105 0
-781 749 0
781 105 -749 0
-845 -106 0
-845 781 0
845 106 -781 0
-975 -98 0
-975 943 0
975 98 -943 0
-1039 -99 0
-1039 975 0
1039 99 -975 0
-1169 -91 0
-1169 1137 0
1169 91 -1137 0
-1233 -92 0
-1233 1169 0
1233 92 -1169 0
-1363 -84 0
-1363 1331 0
1363 84 -1331 0
-1427 -85 0
-1427 1363 0
1427 85 -1363 0
-1557 -77 0
-1557 1525 0
1557 77 -1525 0
-1621 -78 0
-1621 1557 0
1621 78 -1557 0
-1691 -1427 0
-1691 -1621 0
1691 1427 1621 0
-1761 -1233 0
-1761 1691 0
1761 1233 -1691 0
-1831 -1039 0
-1831 1761 0
1831 1039 -1761 0
-1901 -845 0
-1901 1831 0
1901 845 -1831 0
-1971 -651 0
-1971 1901 0
1971 651 -1901 0
-2041 -457 0
-2041 1971 0
2041 457 -1971 0
-2111 -263 0
-2111 2041 0
2111 263 -2041 0
-2203 13 0
-2203 2111 0
2203 -13 -2111 0
-2204 -13 0
-2204 -2111 0
2204 13 2111 0
-2205 -2203 0
-2205 -2204 0
2205 2203 2204 0
12 -6923 0
-12 6923 0
-198 -126 0
-198 166 0
198 126 -166 0
-262 -127 0
-262 198 0
262 127 -198 0
-392 -119 0
-392 360 0
392 119 -360 0
-456 -120 0
-456 392 0
456 120 -392 0
-586 -112 0
-586 554 0
586 112 -554 0
-650 -113 0
-650 586 0
650 113 -586 0
-780 -105 0
-780 748 0
780 105 -748 0
-844 -106 0
-844 780 0
844 106 -780 0
-974 -98 0
-974 942 0
974 98 -942 0
-1038 -99 0
-1038 974 0
1038 99 -974 0
-1168 -91 0
-1168 1136 0
1168 91 -1136 0
-1232 -92 0
-1232 1168 0
1232 92 -1168 0
-1362 -84 0
-1362 1330 0
1362 84 -1330 0
-1426 -85 0
-1426 1362 0
1426 85 -1362 0
-1556 -77 0
-1556 1524 0
1556 77 -1524 0
-1620 -78 0
-1620 1556 0
1620 78 -1556 0
-1690 -1426 0
-1690 -1620 0
1690 1426 1620 0
-1760 -1232 0
-1760 1690 0
1760 1232 -1690 0
-1830 -1038 0
-1830 1760 0
1830 1038 -1760 0
-1900 -844 0
-1900 1830 0
1900 844 -1830 0
-1970 -650 0
-1970 1900 0
1970 650 -1900 0
-2040 -456 0
-2040 1970 0
2040 456 -1970 0
-2110 -262 0
-2110 2040 0
2110 262 -2040 0
-2200 12 0
-2200 2110 0
2200 -12 -2110 0
-2201 -12 0
-2201 -2110 0
2201 12 2110 0
-2202 -2200 0
-2202 -2201 0
2202 2200 2201 0
11 -6922 0
-11 6922 0
-197 -126 0
-197 165 0
197 126 -165 0
-261 -127 0
-261 197 0
261 127 -197 0
-391 -119 0
-391 359 0
391 119 -359 0
-455 -120 0
-455 391 0
455 120 -391 0
-585 -112 0
-585 553 0
585 112 -553 0
-649 -113 0
-649 585 0
649 113 -585 0
-779 -105 0
-779 747 0
779 105 -747 0
-843 -106 0
-843 779 0
843 106 -779 0
-973 -98 0
-973 941 0
973 98 -941 0
-1037 -99 0
-1037 973 0
1037 99 -973 0
-1167 -91 0
-1167 1135 0
1167 91 -1135 0
-1231 -92 0
-1231 1167 0
1231 92 -1167 0
-1361 -84 0
-1361 1329 0
1361 84 -1329 0
-1425 -85 0
-1425 1361 0
1425 85 -1361 0
-1555 -77 0
-1555 1523 0
1555 77 -1523 0
-1619 -78 0
-1619 1555 0
1619 78 -1555 0
-1689 -1425 0
-1689 -1619 0
1689 1425 1619 0
-1759 -1231 0
-1759 1689 0
1759 1231 -1689 0
-1829 -1037 0
-1829 1759 0
1829 1037 -1759 0
-1899 -843 0
-1899 1829 0
1899 843 -1829 0
-1969 -649 0
-1969 1899 0
1969 649 -1899 0
-2039 -455 0
-2039 1969 0
2039 455 -1969 0
-2109 -261 0
-2109 2039 0
2109 261 -2039 0
-2197 11 0
-2197 2109 0
2197 -11 -2109 0
-2198 -11 0
-2198 -2109 0
2198 11 2109 0
-2199 -2197 0
-2199 -2198 0
2199 2197 2198 0
10 -6921 0
-10 6921 0
-196 -126 0
-196 164 0
196 126 -164 0
-260 -127 0
-260 196 0
260 127 -196 0
-390 -119 0
-390 358 0
390 119 -358 0
-454 -120 0
-454 390 0
454 120 -390 0
-584 -112 0
-584 552 0
584 112 -552 0
-648 -113 0
-648 584 0
648 113 -584 0
-778 -105 0
-778 746 0
778 105 -746 0
-842 -106 0
-842 778 0
842 106 -778 0
-972 -98 0
-972 940 0
972 98 -940 0
-1036 -99 0
-1036 972 0
1036 99 -972 0
-1166 -91 0
-1166 1134 0
1166 91 -1134 0
-1230 -92 0
-1230 1166 0
1230 92 -1166 0
-1360 -84 0
-1360 1328 0
1360 84 -1328 0
-1424 -85 0
-1424 1360 0
1424 85 -1360 0
-1554 -77 0
-1554 1522 0
1554 77 -1522 0
-1618 -78 0
-1618 1554 0
1618 78 -1554 0
-1688 -1424 0
-1688 -1618 0
1688 1424 1618 0
-1758 -1230 0
-1758 1688 0
1758 1230 -1688 0
-1828 -1036 0
-1828 1758 0
1828 1036 -1758 0
-1898 -842 0
-1898 1828 0
1898 842 -1828 0
-1968 -648 0
-1968 1898 0
1968 648 -1898 0
-2038 -454 0
-2038 1968 0
2038 454 -1968 0
-2108 -260 0
-2108 2038 0
2108 260 -2038 0
-2194 10 0
-2194 2108 0
2194 -10 -2108 0
-2195 -10 0
-2195 -2108 0
2195 10 2108 0
-2196 -2194 0
-2196 -2195 0
2196 2194 2195 0
9 -6920 0
-9 6920 0
-195 -126 0
-195 163 0
195 126 -163 0
-259 -127 0
-259 195 0
259 127 -195 0
-389 -119 0
-389 357 0
389 119 -357 0
-453 -120 0
-453 389 0
453 120 -389 0
-583 -112 0
-583 551 0
583 112 -551 0
-647 -113 0
-647 583 0
647 113 -583 0
-777 -105 0
-777 745 0
777 105 -745 0
-841 -106 0
-841 777 0
841 106 -777 0
-971 -98 0
-971 939 0
971 98 -939 0
-1035 -99 0
-1035 971 0
1035 99 -971 0
-1165 -91 0
-1165 1133 0
1165 91 -1133 0
-1229 -92 0
-1229 1165 0
1229 92 -1165 0
-1359 -84 0
-1359 1327 0
1359 84 -1327 0
-1423 -85 0
-1423 1359 0
1423 85 -1359 0
-1553 -77 0
-1553 1521 0
1553 77 -1521 0
-1617 -78 0
-1617 1553 0
1617 78 -1553 0
-1687 -1423 0
-1687 -1617 0
1687 1423 1617 0
-1757 -1229 0
-1757 1687 0
1757 1229 -1687 0
-1827 -1035 0
-1827 1757 0
1827 1035 -1757 0
-1897 -841 0
-1897 1827 0
1897 841 -1827 0
-1967 -647 0
-1967 1897 0
1967 647 -1897 0
-2037 -453 0
-2037 1967 0
2037 453 -1967 0
-2107 -259 0
-2107 2037 0
2107 259 -2037 0
-2191 9 0
-2191 2107 0
2191 -9 -2107 0
-2192 -9 0
-2192 -2107 0
2192 9 2107 0
-2193 -2191 0
-2193 -2192 0
2193 2191 2192 0
8 -6919 0
-8 6919 0
-194 -126 0
-194 162 0
194 126 -162 0
-258 -127 0
-258 194 0
258 127 -194 0
-388 -119 0
-388 356 0
388 119 -356 0
-452 -120 0
-452 388 0
452 120 -388 0
-582 -112 0
-582 550 0
582 112 -550 0
-646 -113 0
-646 582 0
646 113 -582 0
-776 -105 0
-776 744 0
776 105 -744 0
-840 -106 0
-840 776 0
840 106 -776 0
-970 -98 0
-970 938 0
970 98 -938 0
-1034 -99 0
-1034 970 0
1034 99 -970 0
-1164 -91 0
-1164 1132 0
1164 91 -1132 0
-1228 -92 0
-1228 1164 0
1228 92 -1164 0
-1358 -84 0
-1358 1326 0
1358 84 -1326 0
-1422 -85 0
-1422 1358 0
1422 85 -1358 0
-1552 -77 0
-1552 1520 0
1552 77 -1520 0
-1616 -78 0
-1616 1552 0
1616 78 -1552 0
-1686 -1422 0
-1686 -1616 0
1686 1422 1616 0
-1756 -1228 0
-1756 1686 0
1756 1228 -1686 0
-1826 -1034 0
-1826 1756 0
1826 1034 -1756 0
-1896 -840 0
-1896 1826 0
1896 840 -1826 0
-1966 -646 0
-1966 1896 0
1966 646 -1896 0
-2036 -452 0
-2036 1966 0
2036 452 -1966 0
-2106 -258 0
-2106 2036 0
2106 258 -2036 0
-2188 8 0
-2188 2106 0
2188 -8 -2106 0
-2189 -8 0
-2189 -2106 0
2189 8 2106 0
-2190 -2188 0
-2190 -2189 0
2190 2188 2189 0
7 -6918 0
-7 6918 0
-257 -127 0
-257 193 0
257 127 -193 0
-451 -120 0
-451 387 0
451 120 -387 0
-645 -113 0
-645 581 0
645 113 -581 0
-839 -106 0
-839 775 0
839 106 -775 0
-1033 -99 0
-1033 969 0
1033 99 -969 0
-1227 -92 0
-1227 1163 0
1227 92 -1163 0
-1421 -85 0
-1421 1357 0
1421 85 -1357 0
-1615 -78 0
-1615 1551 0
1615 78 -1551 0
-1685 -1421 0
-1685 -1615 0
1685 1421 1615 0
-1755 -1227 0
-1755 1685 0
1755 1227 -1685 0
-1825 -1033 0
-1825 1755 0
1825 1033 -1755 0
-1895 -839 0
-1895 1825 0
1895 839 -1825 0
-1965 -645 0
-1965 1895 0
1965 645 -1895 0
-2035 -451 0
-2035 1965 0
2035 451 -1965 0
-2105 -257 0
-2105 2035 0
2105 257 -2035 0
-2185 7 0
-2185 2105 0
2185 -7 -2105 0
-2186 -7 0
-2186 -2105 0
2186 7 2105 0
-2187 -2185 0
-2187 -2186 0
2187 2185 2186 0
6 -6917 0
-6 6917 0
-256 -127 0
-256 192 0
256 127 -192 0
-450 -120 0
-450 386 0
450 120 -386 0
-644 -113 0
-644 580 0
644 113 -580 0
-838 -106 0
-838 774 0
838 106 -774 0
-1032 -99 0
-1032 968 0
1032 99 -968 0
-1226 -92 0
-1226 1162 0
1226 92 -1162 0
-1420 -85 0
-1420 1356 0
1420 85 -1356 0
-1614 -78 0
-1614 1550 0
1614 78 -1550 0
-1684 -1420 0
-1684 -1614 0
1684 1420 1614 0
-1754 -1226 0
-1754 1684 0
1754 1226 -1684 0
-1824 -1032 0
-1824 1754 0
1824 1032 -1754 0
-1894 -838 0
-1894 1824 0
1894 838 -1824 0
-1964 -644 0
-1964 1894 0
1964 644 -1894 0
-2034 -450 0
-2034 1964 0
2034 450 -1964 0
-2104 -256 0
-2104 2034 0
2104 256 -2034 0
-2182 6 0
-2182 2104 0
2182 -6 -2104 0
-2183 -6 0
-2183 -2104 0
2183 6 2104 0
-2184 -2182 0
-2184 -2183 0
2184 2182 2183 0
5 -6916 0
-5 6916 0
-255 -127 0
-255 191 0
255 127 -191 0
-449 -120 0
-449 385 0
449 120 -385 0
-643 -113 0
-643 579 0
643 113 -579 0
-837 -106 0
-837 773 0
837 106 -773 0
-1031 -99 0
-1031 967 0
1031 99 -967 0
-1225 -92 0
-1225 1161 0
1225 92 -1161 0
-1419 -85 0
-1419 1355 0
1419 85 -1355 0
-1613 -78 0
-1613 1549 0
1613 78 -1549 0
-1683 -1419 0
-1683 -1613 0
1683 1419 1613 0
-1753 -1225 0
-1753 1683 0
1753 1225 -1683 0
-1823 -1031 0
-1823 1753 0
1823 1031 -1753 0
-1893 -837 0
-1893 1823 0
1893 837 -1823 0
-1963 -643 0
-1963 1893 0
1963 643 -1893 0
-2033 -449 0
-2033 1963 0
2033 449 -1963 0
-2103 -255 0
-2103 2033 0
2103 255 -2033 0
-2179 5 0
-2179 2103 0
2179 -5 -2103 0
-2180 -5 0
-2180 -2103 0
2180 5 2103 0
-2181 -2179 0
-2181 -2180 0
2181 2179 2180 0
4 -6915 0
-4 6915 0
-254 -127 0
-254 190 0
254 127 -190 0
-448 -120 0
-448 384 0
448 120 -384 0
-642 -113 0
-642 578 0
642 113 -578 0
-836 -106 0
-836 772 0
836 106 -772 0
-1030 -99 0
-1030 966 0
1030 99 -966 0
-1224 -92 0
-1224 1160 0
1224 92 -1160 0
-1418 -85 0
-1418 1354 0
1418 85 -1354 0
-1612 -78 0
-1612 1548 0
1612 78 -1548 0
-1682 -1418 0
-1682 -1612 0
1682 1418 1612 0
-1752 -1224 0
-1752 1682 0
1752 1224 -1682 0
-1822 -1030 0
-1822 1752 0
1822 1030 -1752 0
-1892 -836 0
-1892 1822 0
1892 836 -1822 0
-1962 -642 0
-1962 1892 0
1962 642 -1892 0
-2032 -448 0
-2032 1962 0
2032 448 -1962 0
-2102 -254 0
-2102 2032 0
2102 254 -2032 0
-2176 4 0
-2176 2102 0
2176 -4 -2102 0
-2177 -4 0
-2177 -2102 0
2177 4 2102 0
-2178 -2176 0
-2178 -2177 0
2178 2176 2177 0
2 -6913 0
-2 6913 0
-252 -127 0
-252 188 0
252 127 -188 0
-446 -120 0
-446 382 0
446 120 -382 0
-640 -113 0
-640 576 0
640 113 -576 0
-834 -106 0
-834 770 0
834 106 -770 0
-1028 -99 0
-1028 964 0
1028 99 -964 0
-1222 -92 0
-1222 1158 0
1222 92 -1158 0
-1416 -85 0
-1416 1352 0
1416 85 -1352 0
-1610 -78 0
-1610 1546 0
1610 78 -1546 0
-1680 -1416 0
-1680 -1610 0
1680 1416 1610 0
-1750 -1222 0
-1750 1680 0
1750 1222 -1680 0
-1820 -1028 0
-1820 1750 0
1820 1028 -1750 0
-1890 -834 0
-1890 1820 0
1890 834 -1820 0
-1960 -640 0
-1960 1890 0
1960 640 -1890 0
-2030 -446 0
-2030 1960 0
2030 446 -1960 0
-2100 -252 0
-2100 2030 0
2100 252 -2030 0
-2170 2 0
-2170 2100 0
2170 -2 -2100 0
-2171 -2 0
-2171 -2100 0
2171 2 2100 0
-2172 -2170 0
-2172 -2171 0
2172 2170 2171 0
3 -6914 0
-3 6914 0
-253 -127 0
-253 189 0
253 127 -189 0
-447 -120 0
-447 383 0
447 120 -383 0
-641 -113 0
-641 577 0
641 113 -577 0
-835 -106 0
-835 771 0
835 106 -771 0
-1029 -99 0
-1029 965 0
1029 99 -965 0
-1223 -92 0
-1223 1159 0
1223 92 -1159 0
-1417 -85 0
-1417 1353 0
1417 85 -1353 0
-1611 -78 0
-1611 1547 0
1611 78 -1547 0
-1681 -1417 0
-1681 -1611 0
1681 1417 1611 0
-1751 -1223 0
-1751 1681 0
1751 1223 -1681 0
-1821 -1029 0
-1821 1751 0
1821 1029 -1751 0
-1891 -835 0
-1891 1821 0
1891 835 -1821 0
-1961 -641 0
-1961 1891 0
1961 641 -1891 0
-2031 -447 0
-2031 1961 0
2031 447 -1961 0
-2101 -253 0
-2101 2031 0
2101 253 -2031 0
-2173 3 0
-2173 2101 0
2173 -3 -2101 0
-2174 -3 0
-2174 -2101 0
2174 3 2101 0
-2175 -2173 0
-2175 -2174 0
2175 2173 2174 0
-2380 2172 0
-2380 2175 0
2380 -2172 -2175 0
-2381 2178 0
-2381 2380 0
2381 -2178 -2380 0
-2382 2181 0
-2382 2381 0
2382 -2181 -2381 0
-2383 2184 0
-2383 2382 0
2383 -2184 -2382 0
-2384 2187 0
-2384 2383 0
2384 -2187 -2383 0
-2385 2190 0
-2385 2384 0
2385 -2190 -2384 0
-2386 2193 0
-2386 2385 0
2386 -2193 -2385 0
-2387 2196 0
-2387 2386 0
2387 -2196 -2386 0
-2388 2199 0
-2388 2387 0
2388 -2199 -2387 0
-2389 2202 0
-2389 2388 0
2389 -2202 -2388 0
-2390 2205 0
-2390 2389 0
2390 -2205 -2389 0
-2391 2208 0
-2391 2390 0
2391 -2208 -2390 0
-2392 2211 0
-2392 2391 0
2392 -2211 -2391 0
-2393 2214 0
-2393 2392 0
2393 -2214 -2392 0
-2394 2217 0
-2394 2393 0
2394 -2217 -2393 0
-2395 2220 0
-2395 2394 0
2395 -2220 -2394 0
-2396 2223 0
-2396 2395 0
2396 -2223 -2395 0
-2397 2226 0
-2397 2396 0
2397 -2226 -2396 0
-2398 2229 0
-2398 2397 0
2398 -2229 -2397 0
-2399 2232 0
-2399 2398 0
2399 -2232 -2398 0
-2400 2235 0
-2400 2399 0
2400 -2235 -2399 0
-2401 2238 0
-2401 2400 0
2401 -2238 -2400 0
-2402 2241 0
-2402 2401 0
2402 -2241 -2401 0
-2403 2244 0
-2403 2402 0
2403 -2244 -2402 0
-2404 2247 0
-2404 2403 0
2404 -2247 -2403 0
-2405 2250 0
-2405 2404 0
2405 -2250 -2404 0
-2406 2253 0
-2406 2405 0
2406 -2253 -2405 0
-2407 2256 0
-2407 2406 0
2407 -2256 -2406 0
-2408 2259 0
-2408 2407 0
2408 -2259 -2407 0
-2409 2262 0
-2409 2408 0
2409 -2262 -2408 0
-2410 2265 0
-2410 2409 0
2410 -2265 -2409 0
-2411 2268 0
-2411 2410 0
2411 -2268 -2410 0
-2412 2271 0
-2412 2411 0
2412 -2271 -2411 0
-2413 2274 0
-2413 2412 0
2413 -2274 -2412 0
-2414 2277 0
-2414 2413 0
2414 -2277 -2413 0
-2415 2280 0
-2415 2414 0
2415 -2280 -2414 0
-2416 2283 0
-2416 2415 0
2416 -2283 -2415 0
-2417 2286 0
-2417 2416 0
2417 -2286 -2416 0
-2418 2289 0
-2418 2417 0
2418 -2289 -2417 0
-2419 2292 0
-2419 2418 0
2419 -2292 -2418 0
-2420 2295 0
-2420 2419 0
2420 -2295 -2419 0
-2421 2298 0
-2421 2420 0
2421 -2298 -2420 0
-2422 2301 0
-2422 2421 0
2422 -2301 -2421 0
-2423 2304 0
-2423 2422 0
2423 -2304 -2422 0
-2424 2307 0
-2424 2423 0
2424 -2307 -2423 0
-2425 2310 0
-2425 2424 0
2425 -2310 -2424 0
-2426 2313 0
-2426 2425 0
2426 -2313 -2425 0
-2427 2316 0
-2427 2426 0
2427 -2316 -2426 0
-2428 2319 0
-2428 2427 0
2428 -2319 -2427 0
-2429 2322 0
-2429 2428 0
2429 -2322 -2428 0
-2430 2325 0
-2430 2429 0
2430 -2325 -2429 0
-2431 2328 0
-2431 2430 0
2431 -2328 -2430 0
-2432 2331 0
-2432 2431 0
2432 -2331 -2431 0
-2433 2334 0
-2433 2432 0
2433 -2334 -2432 0
-2434 2337 0
-2434 2433 0
2434 -2337 -2433 0
-2435 2340 0
-2435 2434 0
2435 -2340 -2434 0
-2436 2343 0
-2436 2435 0
2436 -2343 -2435 0
-2437 2346 0
-2437 2436 0
2437 -2346 -2436 0
-2438 2349 0
-2438 2437 0
2438 -2349 -2437 0
-2439 2352 0
-2439 2438 0
2439 -2352 -2438 0
-2440 2355 0
-2440 2439 0
2440 -2355 -2439 0
-2441 2358 0
-2441 2440 0
2441 -2358 -2440 0
-2442 2361 0
-2442 2441 0
2442 -2361 -2441 0
-2443 2364 0
-2443 2442 0
2443 -2364 -2442 0
-2444 2367 0
-2444 2443 0
2444 -2367 -2443 0
-2445 2370 0
-2445 2444 0
2445 -2370 -2444 0
-2446 2373 0
-2446 2445 0
2446 -2373 -2445 0
-2447 2376 0
-2447 2446 0
2447 -2376 -2446 0
-2448 2379 0
-2448 2447 0
2448 -2379 -2447 0
-2458 21 0
-2458 31 0
2458 -21 -31 0
-2459 -21 0
-2459 -31 0
2459 21 31 0
-2460 -2458 0
-2460 -2459 0
2460 2458 2459 0
-2452 51 0
-2452 56 0
2452 -51 -56 0
-2453 -51 0
-2453 -56 0
2453 51 56 0
-2454 -2452 0
-2454 -2453 0
2454 2452 2453 0
-2467 61 0
-2467 2454 0
2467 -61 -2454 0
-2468 -61 0
-2468 -2454 0
2468 61 2454 0
-2469 -2467 0
-2469 -2468 0
2469 2467 2468 0
-2476 35 0
-2476 2469 0
2476 -35 -2469 0
-2477 -35 0
-2477 -2469 0
2477 35 2469 0
-2478 -2476 0
-2478 -2477 0
2478 2476 2477 0
-2479 2460 0
-2479 2478 0
2479 -2460 -2478 0
-2480 -2460 0
-2480 -2478 0
2480 2460 2478 0
-2481 -2479 0
-2481 -2480 0
2481 2479 2480 0
-2482 69 0
-2482 2481 0
2482 -69 -2481 0
-2483 -69 0
-2483 -2481 0
2483 69 2481 0
-2484 -2482 0
-2484 -2483 0
2484 2482 2483 0
-2485 2448 0
-2485 -2484 0
2485 -2448 2484 0
-2495 20 0
-2495 30 0
2495 -20 -30 0
-2496 -20 0
-2496 -30 0
2496 20 30 0
-2497 -2495 0
-2497 -2496 0
2497 2495 2496 0
-2489 50 0
-2489 55 0
2489 -50 -55 0
-2490 -50 0
-2490 -55 0
2490 50 55 0
-2491 -2489 0
-2491 -2490 0
2491 2489 2490 0
-2504 60 0
-2504 2491 0
2504 -60 -2491 0
-2505 -60 0
-2505 -2491 0
2505 60 2491 0
-2506 -2504 0
-2506 -2505 0
2506 2504 2505 0
-2513 34 0
-2513 2506 0
2513 -34 -2506 0
-2514 -34 0
-2514 -2506 0
2514 34 2506 0
-2515 -2513 0
-2515 -2514 0
2515 2513 2514 0
-2516 2497 0
-2516 2515 0
2516 -2497 -2515 0
-2517 -2497 0
-2517 -2515 0
2517 2497 2515 0
-2518 -2516 0
-2518 -2517 0
2518 2516 2517 0
-2519 68 0
-2519 2518 0
2519 -68 -2518 0
-2520 -68 0
-2520 -2518 0
2520 68 2518 0
-2521 -2519 0
-2521 -2520 0
2521 2519 2520 0
-2522 2485 0
-2522 -2521 0
2522 -2485 2521 0
-2523 29 0
-2523 33 0
2523 -29 -33 0
-2524 -29 0
-2524 -33 0
2524 29 33 0
-2525 -2523 0
-2525 -2524 0
2525 2523 2524 0
-2532 19 0
-2532 2525 0
2532 -19 -2525 0
-2533 -19 0
-2533 -2525 0
2533 19 2525 0
-2534 -2532 0
-2534 -2533 0
2534 2532 2533 0
-2529 54 0
-2529 59 0
2529 -54 -59 0
-2530 -54 0
-2530 -59 0
2530 54 59 0
-2531 -2529 0
-2531 -2530 0
2531 2529 2530 0
-2535 49 0
-2535 2531 0
2535 -49 -2531 0
-2536 -49 0
-2536 -2531 0
2536 49 2531 0
-2537 -2535 0
-2537 -2536 0
2537 2535 2536 0
-2547 2534 0
-2547 2537 0
2547 -2534 -2537 0
-2548 -2534 0
-2548 -2537 0
2548 2534 2537 0
-2549 -2547 0
-2549 -2548 0
2549 2547 2548 0
-2550 67 0
-2550 2549 0
2550 -67 -2549 0
-2551 -67 0
-2551 -2549 0
2551 67 2549 0
-2552 -2550 0
-2552 -2551 0
2552 2550 2551 0
-2553 2522 0
-2553 -2552 0
2553 -2522 2552 0
-2554 28 0
-2554 32 0
2554 -28 -32 0
-2555 -28 0
-2555 -32 0
2555 28 32 0
-2556 -2554 0
-2556 -2555 0
2556 2554 2555 0
-2563 18 0
-2563 2556 0
2563 -18 -2556 0
-2564 -18 0
-2564 -2556 0
2564 18 2556 0
-2565 -2563 0
-2565 -2564 0
2565 2563 2564 0
-2560 53 0
-2560 58 0
2560 -53 -58 0
-2561 -53 0
-2561 -58 0
2561 53 58 0
-2562 -2560 0
-2562 -2561 0
2562 2560 2561 0
-2566 48 0
-2566 2562 0
2566 -48 -2562 0
-2567 -48 0
-2567 -2562 0
2567 48 2562 0
-2568 -2566 0
-2568 -2567 0
2568 2566 2567 0
-2575 2565 0
-2575 2568 0
2575 -2565 -2568 0
-2576 -2565 0
-2576 -2568 0
2576 2565 2568 0
-2577 -2575 0
-2577 -2576 0
2577 2575 2576 0
-2578 71 0
-2578 2577 0
2578 -71 -2577 0
-2579 -71 0
-2579 -2577 0
2579 71 2577 0
-2580 -2578 0
-2580 -2579 0
2580 2578 2579 0
-2581 2553 0
-2581 -2580 0
2581 -2553 2580 0
-2588 17 0
-2588 27 0
2588 -17 -27 0
-2589 -17 0
-2589 -27 0
2589 17 27 0
-2590 -2588 0
-2590 -2589 0
2590 2588 2589 0
-2585 52 0
-2585 57 0
2585 -52 -57 0
-2586 -52 0
-2586 -57 0
2586 52 57 0
-2587 -2585 0
-2587 -2586 0
2587 2585 2586 0
-2591 36 0
-2591 47 0
2591 -36 -47 0
-2592 -36 0
-2592 -47 0
2592 36 47 0
-2593 -2591 0
-2593 -2592 0
2593 2591 2592 0
-2606 2587 0
-2606 2593 0
2606 -2587 -2593 0
-2607 -2587 0
-2607 -2593 0
2607 2587 2593 0
-2608 -2606 0
-2608 -2607 0
2608 2606 2607 0
-2609 2590 0
-2609 2608 0
2609 -2590 -2608 0
-2610 -2590 0
-2610 -2608 0
2610 2590 2608 0
-2611 -2609 0
-2611 -2610 0
2611 2609 2610 0
-2612 70 0
-2612 2611 0
2612 -70 -2611 0
-2613 -70 0
-2613 -2611 0
2613 70 2611 0
-2614 -2612 0
-2614 -2613 0
2614 2612 2613 0
-2615 2581 0
-2615 -2614 0
2615 -2581 2614 0
-2616 26 0
-2616 30 0
2616 -26 -30 0
-2617 -26 0
-2617 -30 0
2617 26 30 0
-2618 -2616 0
-2618 -2617 0
2618 2616 2617 0
-2622 16 0
-2622 2618 0
2622 -16 -2618 0
-2623 -16 0
-2623 -2618 0
2623 16 2618 0
-2624 -2622 0
-2624 -2623 0
2624 2622 2623 0
-2631 64 0
-2631 2454 0
2631 -64 -2454 0
-2632 -64 0
-2632 -2454 0
2632 64 2454 0
-2633 -2631 0
-2633 -2632 0
2633 2631 2632 0
-2637 46 0
-2637 2633 0
2637 -46 -2633 0
-2638 -46 0
-2638 -2633 0
2638 46 2633 0
-2639 -2637 0
-2639 -2638 0
2639 2637 2638 0
-2640 2624 0
-2640 2639 0
2640 -2624 -2639 0
-2641 -2624 0
-2641 -2639 0
2641 2624 2639 0
-2642 -2640 0
-2642 -2641 0
2642 2640 2641 0
-2643 2615 0
-2643 -2642 0
2643 -2615 2642 0
-2644 25 0
-2644 29 0
2644 -25 -29 0
-2645 -25 0
-2645 -29 0
2645 25 29 0
-2646 -2644 0
-2646 -2645 0
2646 2644 2645 0
-2650 15 0
-2650 2646 0
2650 -15 -2646 0
-2651 -15 0
-2651 -2646 0
2651 15 2646 0
-2652 -2650 0
-2652 -2651 0
2652 2650 2651 0
-2659 63 0
-2659 2491 0
2659 -63 -2491 0
-2660 -63 0
-2660 -2491 0
2660 63 2491 0
-2661 -2659 0
-2661 -2660 0
2661 2659 2660 0
-2665 45 0
-2665 2661 0
2665 -45 -2661 0
-2666 -45 0
-2666 -2661 0
2666 45 2661 0
-2667 -2665 0
-2667 -2666 0
2667 2665 2666 0
-2668 2652 0
-2668 2667 0
2668 -2652 -2667 0
-2669 -2652 0
-2669 -2667 0
2669 2652 2667 0
-2670 -2668 0
-2670 -2669 0
2670 2668 2669 0
-2671 2643 0
-2671 -2670 0
2671 -2643 2670 0
-2672 24 0
-2672 28 0
2672 -24 -28 0
-2673 -24 0
-2673 -28 0
2673 24 28 0
-2674 -2672 0
-2674 -2673 0
2674 2672 2673 0
-2678 14 0
-2678 2674 0
2678 -14 -2674 0
-2679 -14 0
-2679 -2674 0
2679 14 2674 0
-2680 -2678 0
-2680 -2679 0
2680 2678 2679 0
-2675 44 0
-2675 49 0
2675 -44 -49 0
-2676 -44 0
-2676 -49 0
2676 44 49 0
-2677 -2675 0
-2677 -2676 0
2677 2675 2676 0
-2690 54 0
-2690 62 0
2690 -54 -62 0
-2691 -54 0
-2691 -62 0
2691 54 62 0
-2692 -2690 0
-2692 -2691 0
2692 2690 2691 0
-2693 2677 0
-2693 2692 0
2693 -2677 -2692 0
-2694 -2677 0
-2694 -2692 0
2694 2677 2692 0
-2695 -2693 0
-2695 -2694 0
2695 2693 2694 0
-2696 2680 0
-2696 2695 0
2696 -2680 -2695 0
-2697 -2680 0
-2697 -2695 0
2697 2680 2695 0
-2698 -2696 0
-2698 -2697 0
2698 2696 2697 0
-2699 2671 0
-2699 -2698 0
2699 -2671 2698 0
-2700 23 0
-2700 27 0
2700 -23 -27 0
-2701 -23 0
-2701 -27 0
2701 23 27 0
-2702 -2700 0
-2702 -2701 0
2702 2700 2701 0
-2706 13 0
-2706 2702 0
2706 -13 -2702 0
-2707 -13 0
-2707 -2702 0
2707 13 2702 0
-2708 -2706 0
-2708 -2707 0
2708 2706 2707 0
-2703 43 0
-2703 48 0
2703 -43 -48 0
-2704 -43 0
-2704 -48 0
2704 43 48 0
-2705 -2703 0
-2705 -2704 0
2705 2703 2704 0
-2712 53 0
-2712 2705 0
2712 -53 -2705 0
-2713 -53 0
-2713 -2705 0
2713 53 2705 0
-2714 -2712 0
-2714 -2713 0
2714 2712 2713 0
-2718 2708 0
-2718 2714 0
2718 -2708 -2714 0
-2719 -2708 0
-2719 -2714 0
2719 2708 2714 0
-2720 -2718 0
-2720 -2719 0
2720 2718 2719 0
-2721 66 0
-2721 2720 0
2721 -66 -2720 0
-2722 -66 0
-2722 -2720 0
2722 66 2720 0
-2723 -2721 0
-2723 -2722 0
2723 2721 2722 0
-2724 2699 0
-2724 -2723 0
2724 -2699 2723 0
-2728 22 0
-2728 31 0
2728 -22 -31 0
-2729 -22 0
-2729 -31 0
2729 22 31 0
-2730 -2728 0
-2730 -2729 0
2730 2728 2729 0
-2731 12 0
-2731 2730 0
2731 -12 -2730 0
-2732 -12 0
-2732 -2730 0
2732 12 2730 0
-2733 -2731 0
-2733 -2732 0
2733 2731 2732 0
-2725 42 0
-2725 47 0
2725 -42 -47 0
-2726 -42 0
-2726 -47 0
2726 42 47 0
-2727 -2725 0
-2727 -2726 0
2727 2725 2726 0
-2743 52 0
-2743 65 0
2743 -52 -65 0
-2744 -52 0
-2744 -65 0
2744 52 65 0
-2745 -2743 0
-2745 -2744 0
2745 2743 2744 0
-2746 2727 0
-2746 2745 0
2746 -2727 -2745 0
-2747 -2727 0
-2747 -2745 0
2747 2727 2745 0
-2748 -2746 0
-2748 -2747 0
2748 2746 2747 0
-2749 2733 0
-2749 2748 0
2749 -2733 -2748 0
-2750 -2733 0
-2750 -2748 0
2750 2733 2748 0
-2751 -2749 0
-2751 -2750 0
2751 2749 2750 0
-2752 2724 0
-2752 -2751 0
2752 -2724 2751 0
-2753 21 0
-2753 25 0
2753 -21 -25 0
-2754 -21 0
-2754 -25 0
2754 21 25 0
-2755 -2753 0
-2755 -2754 0
2755 2753 2754 0
-2759 11 0
-2759 2755 0
2759 -11 -2755 0
-2760 -11 0
-2760 -2755 0
2760 11 2755 0
-2761 -2759 0
-2761 -2760 0
2761 2759 2760 0
-2756 41 0
-2756 46 0
2756 -41 -46 0
-2757 -41 0
-2757 -46 0
2757 41 46 0
-2758 -2756 0
-2758 -2757 0
2758 2756 2757 0
-2771 51 0
-2771 59 0
2771 -51 -59 0
-2772 -51 0
-2772 -59 0
2772 51 59 0
-2773 -2771 0
-2773 -2772 0
2773 2771 2772 0
-2774 2758 0
-2774 2773 0
2774 -2758 -2773 0
-2775 -2758 0
-2775 -2773 0
2775 2758 2773 0
-2776 -2774 0
-2776 -2775 0
2776 2774 2775 0
-2777 2761 0
-2777 2776 0
2777 -2761 -2776 0
-2778 -2761 0
-2778 -2776 0
2778 2761 2776 0
-2779 -2777 0
-2779 -2778 0
2779 2777 2778 0
-2780 2752 0
-2780 -2779 0
2780 -2752 2779 0
-2781 20 0
-2781 24 0
2781 -20 -24 0
-2782 -20 0
-2782 -24 0
2782 20 24 0
-2783 -2781 0
-2783 -2782 0
2783 2781 2782 0
-2787 10 0
-2787 2783 0
2787 -10 -2783 0
-2788 -10 0
-2788 -2783 0
2788 10 2783 0
-2789 -2787 0
-2789 -2788 0
2789 2787 2788 0
-2784 40 0
-2784 45 0
2784 -40 -45 0
-2785 -40 0
-2785 -45 0
2785 40 45 0
-2786 -2784 0
-2786 -2785 0
2786 2784 2785 0
-2799 50 0
-2799 58 0
2799 -50 -58 0
-2800 -50 0
-2800 -58 0
2800 50 58 0
-2801 -2799 0
-2801 -2800 0
2801 2799 2800 0
-2802 2786 0
-2802 2801 0
2802 -2786 -2801 0
-2803 -2786 0
-2803 -2801 0
2803 2786 2801 0
-2804 -2802 0
-2804 -2803 0
2804 2802 2803 0
-2805 2789 0
-2805 2804 0
2805 -2789 -2804 0
-2806 -2789 0
-2806 -2804 0
2806 2789 2804 0
-2807 -2805 0
-2807 -2806 0
2807 2805 2806 0
-2808 2780 0
-2808 -2807 0
2808 -2780 2807 0
-2809 19 0
-2809 23 0
2809 -19 -23 0
-2810 -19 0
-2810 -23 0
2810 19 23 0
-2811 -2809 0
-2811 -2810 0
2811 2809 2810 0
-2815 9 0
-2815 2811 0
2815 -9 -2811 0
-2816 -9 0
-2816 -2811 0
2816 9 2811 0
-2817 -2815 0
-2817 -2816 0
2817 2815 2816 0
-2818 39 0
-2818 2677 0
2818 -39 -2677 0
-2819 -39 0
-2819 -2677 0
2819 39 2677 0
-2820 -2818 0
-2820 -2819 0
2820 2818 2819 0
-2830 57 0
-2830 2820 0
2830 -57 -2820 0
-2831 -57 0
-2831 -2820 0
2831 57 2820 0
-2832 -2830 0
-2832 -2831 0
2832 2830 2831 0
-2833 2817 0
-2833 2832 0
2833 -2817 -2832 0
-2834 -2817 0
-2834 -2832 0
2834 2817 2832 0
-2835 -2833 0
-2835 -2834 0
2835 2833 2834 0
-2836 2808 0
-2836 -2835 0
2836 -2808 2835 0
-2837 18 0
-2837 22 0
2837 -18 -22 0
-2838 -18 0
-2838 -22 0
2838 18 22 0
-2839 -2837 0
-2839 -2838 0
2839 2837 2838 0
-2843 8 0
-2843 2839 0
2843 -8 -2839 0
-2844 -8 0
-2844 -2839 0
2844 8 2839 0
-2845 -2843 0
-2845 -2844 0
2845 2843 2844 0
-2846 38 0
-2846 2705 0
2846 -38 -2705 0
-2847 -38 0
-2847 -2705 0
2847 38 2705 0
-2848 -2846 0
-2848 -2847 0
2848 2846 2847 0
-2855 61 0
-2855 2848 0
2855 -61 -2848 0
-2856 -61 0
-2856 -2848 0
2856 61 2848 0
-2857 -2855 0
-2857 -2856 0
2857 2855 2856 0
-2858 2845 0
-2858 2857 0
2858 -2845 -2857 0
-2859 -2845 0
-2859 -2857 0
2859 2845 2857 0
-2860 -2858 0
-2860 -2859 0
2860 2858 2859 0
-2861 2836 0
-2861 -2860 0
2861 -2836 2860 0
-2862 7 0
-2862 17 0
2862 -7 -17 0
-2863 -7 0
-2863 -17 0
2863 7 17 0
-2864 -2862 0
-2864 -2863 0
2864 2862 2863 0
-2868 26 0
-2868 2864 0
2868 -26 -2864 0
-2869 -26 0
-2869 -2864 0
2869 26 2864 0
-2870 -2868 0
-2870 -2869 0
2870 2868 2869 0
-2871 37 0
-2871 2727 0
2871 -37 -2727 0
-2872 -37 0
-2872 -2727 0
2872 37 2727 0
-2873 -2871 0
-2873 -2872 0
2873 2871 2872 0
-2883 60 0
-2883 2873 0
2883 -60 -2873 0
-2884 -60 0
-2884 -2873 0
2884 60 2873 0
-2885 -2883 0
-2885 -2884 0
2885 2883 2884 0
-2886 2870 0
-2886 2885 0
2886 -2870 -2885 0
-2887 -2870 0
-2887 -2885 0
2887 2870 2885 0
-2888 -2886 0
-2888 -2887 0
2888 2886 2887 0
-2889 2861 0
-2889 -2888 0
2889 -2861 2888 0
-2890 6 0
-2890 16 0
2890 -6 -16 0
-2891 -6 0
-2891 -16 0
2891 6 16 0
-2892 -2890 0
-2892 -2891 0
2892 2890 2891 0
-2896 20 0
-2896 2892 0
2896 -20 -2892 0
-2897 -20 0
-2897 -2892 0
2897 20 2892 0
-2898 -2896 0
-2898 -2897 0
2898 2896 2897 0
-2899 54 0
-2899 2758 0
2899 -54 -2758 0
-2900 -54 0
-2900 -2758 0
2900 54 2758 0
-2901 -2899 0
-2901 -2900 0
2901 2899 2900 0
-2905 2898 0
-2905 2901 0
2905 -2898 -2901 0
-2906 -2898 0
-2906 -2901 0
2906 2898 2901 0
-2907 -2905 0
-2907 -2906 0
2907 2905 2906 0
-2908 71 0
-2908 2907 0
2908 -71 -2907 0
-2909 -71 0
-2909 -2907 0
2909 71 2907 0
-2910 -2908 0
-2910 -2909 0
2910 2908 2909 0
-2911 2889 0
-2911 -2910 0
2911 -2889 2910 0
-2912 5 0
-2912 15 0
2912 -5 -15 0
-2913 -5 0
-2913 -15 0
2913 5 15 0
-2914 -2912 0
-2914 -2913 0
2914 2912 2913 0
-2918 19 0
-2918 2914 0
2918 -19 -2914 0
-2919 -19 0
-2919 -2914 0
2919 19 2914 0
-2920 -2918 0
-2920 -2919 0
2920 2918 2919 0
-2921 53 0
-2921 2786 0
2921 -53 -2786 0
-2922 -53 0
-2922 -2786 0
2922 53 2786 0
-2923 -2921 0
-2923 -2922 0
2923 2921 2922 0
-2927 2920 0
-2927 2923 0
2927 -2920 -2923 0
-2928 -2920 0
-2928 -2923 0
2928 2920 2923 0
-2929 -2927 0
-2929 -2928 0
2929 2927 2928 0
-2930 70 0
-2930 2929 0
2930 -70 -2929 0
-2931 -70 0
-2931 -2929 0
2931 70 2929 0
-2932 -2930 0
-2932 -2931 0
2932 2930 2931 0
-2933 2911 0
-2933 -2932 0
2933 -2911 2932 0
-2934 4 0
-2934 14 0
2934 -4 -14 0
-2935 -4 0
-2935 -14 0
2935 4 14 0
-2936 -2934 0
-2936 -2935 0
2936 2934 2935 0
-2940 18 0
-2940 2936 0
2940 -18 -2936 0
-2941 -18 0
-2941 -2936 0
2941 18 2936 0
-2942 -2940 0
-2942 -2941 0
2942 2940 2941 0
-2812 39 0
-2812 44 0
2812 -39 -44 0
-2813 -39 0
-2813 -44 0
2813 39 44 0
-2814 -2812 0
-2814 -2813 0
2814 2812 2813 0
-2943 52 0
-2943 2814 0
2943 -52 -2814 0
-2944 -52 0
-2944 -2814 0
2944 52 2814 0
-2945 -2943 0
-2945 -2944 0
2945 2943 2944 0
-2949 2942 0
-2949 2945 0
2949 -2942 -2945 0
-2950 -2942 0
-2950 -2945 0
2950 2942 2945 0
-2951 -2949 0
-2951 -2950 0
2951 2949 2950 0
-2952 69 0
-2952 2951 0
2952 -69 -2951 0
-2953 -69 0
-2953 -2951 0
2953 69 2951 0
-2954 -2952 0
-2954 -2953 0
2954 2952 2953 0
-2955 2933 0
-2955 -2954 0
2955 -2933 2954 0
-2956 13 0
-2956 17 0
2956 -13 -17 0
-2957 -13 0
-2957 -17 0
2957 13 17 0
-2958 -2956 0
-2958 -2957 0
2958 2956 2957 0
-2959 3 0
-2959 2958 0
2959 -3 -2958 0
-2960 -3 0
-2960 -2958 0
2960 3 2958 0
-2961 -2959 0
-2961 -2960 0
2961 2959 2960 0
-2840 38 0
-2840 43 0
2840 -38 -43 0
-2841 -38 0
-2841 -43 0
2841 38 43 0
-2842 -2840 0
-2842 -2841 0
2842 2840 2841 0
-2968 56 0
-2968 2842 0
2968 -56 -2842 0
-2969 -56 0
-2969 -2842 0
2969 56 2842 0
-2970 -2968 0
-2970 -2969 0
2970 2968 2969 0
-2971 2961 0
-2971 2970 0
2971 -2961 -2970 0
-2972 -2961 0
-2972 -2970 0
2972 2961 2970 0
-2973 -2971 0
-2973 -2972 0
2973 2971 2972 0
-2974 68 0
-2974 2973 0
2974 -68 -2973 0
-2975 -68 0
-2975 -2973 0
2975 68 2973 0
-2976 -2974 0
-2976 -2975 0
2976 2974 2975 0
-2977 2955 0
-2977 -2976 0
2977 -2955 2976 0
-2978 2 0
-2978 12 0
2978 -2 -12 0
-2979 -2 0
-2979 -12 0
2979 2 12 0
-2980 -2978 0
-2980 -2979 0
2980 2978 2979 0
-2981 21 0
-2981 2980 0
2981 -21 -2980 0
-2982 -21 0
-2982 -2980 0
2982 21 2980 0
-2983 -2981 0
-2983 -2982 0
2983 2981 2982 0
-2865 37 0
-2865 42 0
2865 -37 -42 0
-2866 -37 0
-2866 -42 0
2866 37 42 0
-2867 -2865 0
-2867 -2866 0
2867 2865 2866 0
-2990 55 0
-2990 2867 0
2990 -55 -2867 0
-2991 -55 0
-2991 -2867 0
2991 55 2867 0
-2992 -2990 0
-2992 -2991 0
2992 2990 2991 0
-2993 2983 0
-2993 2992 0
2993 -2983 -2992 0
-2994 -2983 0
-2994 -2992 0
2994 2983 2992 0
-2995 -2993 0
-2995 -2994 0
2995 2993 2994 0
-2996 67 0
-2996 2995 0
2996 -67 -2995 0
-2997 -67 0
-2997 -2995 0
2997 67 2995 0
-2998 -2996 0
-2998 -2997 0
2998 2996 2997 0
-2999 2977 0
-2999 -2998 0
2999 -2977 2998 0
-3006 66 0
-3006 71 0
3006 -66 -71 0
-3007 -66 0
-3007 -71 0
3007 66 71 0
-3008 -3006 0
-3008 -3007 0
3008 3006 3007 0
-3000 11 0
-3000 15 0
3000 -11 -15 0
-3001 -11 0
-3001 -15 0
3001 11 15 0
-3002 -3000 0
-3002 -3001 0
3002 3000 3001 0
-3003 36 0
-3003 41 0
3003 -36 -41 0
-3004 -36 0
-3004 -41 0
3004 36 41 0
-3005 -3003 0
-3005 -3004 0
3005 3003 3004 0
-3009 49 0
-3009 3005 0
3009 -49 -3005 0
-3010 -49 0
-3010 -3005 0
3010 49 3005 0
-3011 -3009 0
-3011 -3010 0
3011 3009 3010 0
-3015 3002 0
-3015 3011 0
3015 -3002 -3011 0
-3016 -3002 0
-3016 -3011 0
3016 3002 3011 0
-3017 -3015 0
-3017 -3016 0
3017 3015 3016 0
-3018 3008 0
-3018 3017 0
3018 -3008 -3017 0
-3019 -3008 0
-3019 -3017 0
3019 3008 3017 0
-3020 -3018 0
-3020 -3019 0
3020 3018 3019 0
-3021 2999 0
-3021 -3020 0
3021 -2999 3020 0
-3022 10 0
-3022 14 0
3022 -10 -14 0
-3023 -10 0
-3023 -14 0
3023 10 14 0
-3024 -3022 0
-3024 -3023 0
3024 3022 3023 0
-3025 35 0
-3025 40 0
3025 -35 -40 0
-3026 -35 0
-3026 -40 0
3026 35 40 0
-3027 -3025 0
-3027 -3026 0
3027 3025 3026 0
-3031 48 0
-3031 3027 0
3031 -48 -3027 0
-3032 -48 0
-3032 -3027 0
3032 48 3027 0
-3033 -3031 0
-3033 -3032 0
3033 3031 3032 0
-3037 65 0
-3037 3033 0
3037 -65 -3033 0
-3038 -65 0
-3038 -3033 0
3038 65 3033 0
-3039 -3037 0
-3039 -3038 0
3039 3037 3038 0
-3040 3024 0
-3040 3039 0
3040 -3024 -3039 0
-3041 -3024 0
-3041 -3039 0
3041 3024 3039 0
-3042 -3040 0
-3042 -3041 0
3042 3040 3041 0
-3043 70 0
-3043 3042 0
3043 -70 -3042 0
-3044 -70 0
-3044 -3042 0
3044 70 3042 0
-3045 -3043 0
-3045 -3044 0
3045 3043 3044 0
-3046 3021 0
-3046 -3045 0
3046 -3021 3045 0
-3047 9 0
-3047 13 0
3047 -9 -13 0
-3048 -9 0
-3048 -13 0
3048 9 13 0
-3049 -3047 0
-3049 -3048 0
3049 3047 3048 0
-3050 34 0
-3050 39 0
3050 -34 -39 0
-3051 -34 0
-3051 -39 0
3051 34 39 0
-3052 -3050 0
-3052 -3051 0
3052 3050 3051 0
-3056 47 0
-3056 3052 0
3056 -47 -3052 0
-3057 -47 0
-3057 -3052 0
3057 47 3052 0
-3058 -3056 0
-3058 -3057 0
3058 3056 3057 0
-3062 64 0
-3062 3058 0
3062 -64 -3058 0
-3063 -64 0
-3063 -3058 0
3063 64 3058 0
-3064 -3062 0
-3064 -3063 0
3064 3062 3063 0
-3065 3049 0
-3065 3064 0
3065 -3049 -3064 0
-3066 -3049 0
-3066 -3064 0
3066 3049 3064 0
-3067 -3065 0
-3067 -3066 0
3067 3065 3066 0
-3068 69 0
-3068 3067 0
3068 -69 -3067 0
-3069 -69 0
-3069 -3067 0
3069 69 3067 0
-3070 -3068 0
-3070 -3069 0
3070 3068 3069 0
-3071 3046 0
-3071 -3070 0
3071 -3046 3070 0
-3072 8 0
-3072 12 0
3072 -8 -12 0
-3073 -8 0
-3073 -12 0
3073 8 12 0
-3074 -3072 0
-3074 -3073 0
3074 3072 3073 0
-3081 33 0
-3081 3074 0
3081 -33 -3074 0
-3082 -33 0
-3082 -3074 0
3082 33 3074 0
-3083 -3081 0
-3083 -3082 0
3083 3081 3082 0
-3087 51 0
-3087 63 0
3087 -51 -63 0
-3088 -51 0
-3088 -63 0
3088 51 63 0
-3089 -3087 0
-3089 -3088 0
3089 3087 3088 0
-3090 38 0
-3090 3089 0
3090 -38 -3089 0
-3091 -38 0
-3091 -3089 0
3091 38 3089 0
-3092 -3090 0
-3092 -3091 0
3092 3090 3091 0
-3093 3083 0
-3093 3092 0
3093 -3083 -3092 0
-3094 -3083 0
-3094 -3092 0
3094 3083 3092 0
-3095 -3093 0
-3095 -3094 0
3095 3093 3094 0
-3096 68 0
-3096 3095 0
3096 -68 -3095 0
-3097 -68 0
-3097 -3095 0
3097 68 3095 0
-3098 -3096 0
-3098 -3097 0
3098 3096 3097 0
-3099 3071 0
-3099 -3098 0
3099 -3071 3098 0
-3100 7 0
-3100 16 0
3100 -7 -16 0
-3101 -7 0
-3101 -16 0
3101 7 16 0
-3102 -3100 0
-3102 -3101 0
3102 3100 3101 0
-3109 32 0
-3109 3102 0
3109 -32 -3102 0
-3110 -32 0
-3110 -3102 0
3110 32 3102 0
-3111 -3109 0
-3111 -3110 0
3111 3109 3110 0
-3115 50 0
-3115 62 0
3115 -50 -62 0
-3116 -50 0
-3116 -62 0
3116 50 62 0
-3117 -3115 0
-3117 -3116 0
3117 3115 3116 0
-3118 37 0
-3118 3117 0
3118 -37 -3117 0
-3119 -37 0
-3119 -3117 0
3119 37 3117 0
-3120 -3118 0
-3120 -3119 0
3120 3118 3119 0
-3121 3111 0
-3121 3120 0
3121 -3111 -3120 0
-3122 -3111 0
-3122 -3120 0
3122 3111 3120 0
-3123 -3121 0
-3123 -3122 0
3123 3121 3122 0
-3124 67 0
-3124 3123 0
3124 -67 -3123 0
-3125 -67 0
-3125 -3123 0
3125 67 3123 0
-3126 -3124 0
-3126 -3125 0
3126 3124 3125 0
-3127 3099 0
-3127 -3126 0
3127 -3099 3126 0
-3128 6 0
-3128 10 0
3128 -6 -10 0
-3129 -6 0
-3129 -10 0
3129 6 10 0
-3130 -3128 0
-3130 -3129 0
3130 3128 3129 0
-3134 31 0
-3134 3130 0
3134 -31 -3130 0
-3135 -31 0
-3135 -3130 0
3135 31 3130 0
-3136 -3134 0
-3136 -3135 0
3136 3134 3135 0
-3146 44 0
-3146 61 0
3146 -44 -61 0
-3147 -44 0
-3147 -61 0
3147 44 61 0
-3148 -3146 0
-3148 -3147 0
3148 3146 3147 0
-3149 3136 0
-3149 3148 0
3149 -3136 -3148 0
-3150 -3136 0
-3150 -3148 0
3150 3136 3148 0
-3151 -3149 0
-3151 -3150 0
3151 3149 3150 0
-3152 3008 0
-3152 3151 0
3152 -3008 -3151 0
-3153 -3008 0
-3153 -3151 0
3153 3008 3151 0
-3154 -3152 0
-3154 -3153 0
3154 3152 3153 0
-3155 3127 0
-3155 -3154 0
3155 -3127 3154 0
-3156 5 0
-3156 9 0
3156 -5 -9 0
-3157 -5 0
-3157 -9 0
3157 5 9 0
-3158 -3156 0
-3158 -3157 0
3158 3156 3157 0
-3162 30 0
-3162 3158 0
3162 -30 -3158 0
-3163 -30 0
-3163 -3158 0
3163 30 3158 0
-3164 -3162 0
-3164 -3163 0
3164 3162 3163 0
-3159 60 0
-3159 65 0
3159 -60 -65 0
-3160 -60 0
-3160 -65 0
3160 60 65 0
-3161 -3159 0
-3161 -3160 0
3161 3159 3160 0
-3174 43 0
-3174 3161 0
3174 -43 -3161 0
-3175 -43 0
-3175 -3161 0
3175 43 3161 0
-3176 -3174 0
-3176 -3175 0
3176 3174 3175 0
-3177 3164 0
-3177 3176 0
3177 -3164 -3176 0
-3178 -3164 0
-3178 -3176 0
3178 3164 3176 0
-3179 -3177 0
-3179 -3178 0
3179 3177 3178 0
-3180 70 0
-3180 3179 0
3180 -70 -3179 0
-3181 -70 0
-3181 -3179 0
3181 70 3179 0
-3182 -3180 0
-3182 -3181 0
3182 3180 3181 0
-3183 3155 0
-3183 -3182 0
3183 -3155 3182 0
-3184 4 0
-3184 8 0
3184 -4 -8 0
-3185 -4 0
-3185 -8 0
3185 4 8 0
-3186 -3184 0
-3186 -3185 0
3186 3184 3185 0
-3190 29 0
-3190 3186 0
3190 -29 -3186 0
-3191 -29 0
-3191 -3186 0
3191 29 3186 0
-3192 -3190 0
-3192 -3191 0
3192 3190 3191 0
-3187 59 0
-3187 64 0
3187 -59 -64 0
-3188 -59 0
-3188 -64 0
3188 59 64 0
-3189 -3187 0
-3189 -3188 0
3189 3187 3188 0
-3202 42 0
-3202 3189 0
3202 -42 -3189 0
-3203 -42 0
-3203 -3189 0
3203 42 3189 0
-3204 -3202 0
-3204 -3203 0
3204 3202 3203 0
-3205 3192 0
-3205 3204 0
3205 -3192 -3204 0
-3206 -3192 0
-3206 -3204 0
3206 3192 3204 0
-3207 -3205 0
-3207 -3206 0
3207 3205 3206 0
-3208 69 0
-3208 3207 0
3208 -69 -3207 0
-3209 -69 0
-3209 -3207 0
3209 69 3207 0
-3210 -3208 0
-3210 -3209 0
3210 3208 3209 0
-3211 3183 0
-3211 -3210 0
3211 -3183 3210 0
-3212 3 0
-3212 7 0
3212 -3 -7 0
-3213 -3 0
-3213 -7 0
3213 3 7 0
-3214 -3212 0
-3214 -3213 0
3214 3212 3213 0
-3218 28 0
-3218 3214 0
3218 -28 -3214 0
-3219 -28 0
-3219 -3214 0
3219 28 3214 0
-3220 -3218 0
-3220 -3219 0
3220 3218 3219 0
-3215 58 0
-3215 63 0
3215 -58 -63 0
-3216 -58 0
-3216 -63 0
3216 58 63 0
-3217 -3215 0
-3217 -3216 0
3217 3215 3216 0
-3230 46 0
-3230 3217 0
3230 -46 -3217 0
-3231 -46 0
-3231 -3217 0
3231 46 3217 0
-3232 -3230 0
-3232 -3231 0
3232 3230 3231 0
-3233 3220 0
-3233 3232 0
3233 -3220 -3232 0
-3234 -3220 0
-3234 -3232 0
3234 3220 3232 0
-3235 -3233 0
-3235 -3234 0
3235 3233 3234 0
-3236 68 0
-3236 3235 0
3236 -68 -3235 0
-3237 -68 0
-3237 -3235 0
3237 68 3235 0
-3238 -3236 0
-3238 -3237 0
3238 3236 3237 0
-3239 3211 0
-3239 -3238 0
3239 -3211 3238 0
-3240 2 0
-3240 11 0
3240 -2 -11 0
-3241 -2 0
-3241 -11 0
3241 2 11 0
-3242 -3240 0
-3242 -3241 0
3242 3240 3241 0
-3246 27 0
-3246 3242 0
3246 -27 -3242 0
-3247 -27 0
-3247 -3242 0
3247 27 3242 0
-3248 -3246 0
-3248 -3247 0
3248 3246 3247 0
-3243 57 0
-3243 62 0
3243 -57 -62 0
-3244 -57 0
-3244 -62 0
3244 57 62 0
-3245 -3243 0
-3245 -3244 0
3245 3243 3244 0
-3258 45 0
-3258 3245 0
3258 -45 -3245 0
-3259 -45 0
-3259 -3245 0
3259 45 3245 0
-3260 -3258 0
-3260 -3259 0
3260 3258 3259 0
-3261 3248 0
-3261 3260 0
3261 -3248 -3260 0
-3262 -3248 0
-3262 -3260 0
3262 3248 3260 0
-3263 -3261 0
-3263 -3262 0
3263 3261 3262 0
-3264 67 0
-3264 3263 0
3264 -67 -3263 0
-3265 -67 0
-3265 -3263 0
3265 67 3263 0
-3266 -3264 0
-3266 -3265 0
3266 3264 3265 0
-3267 3239 0
-3267 -3266 0
3267 -3239 3266 0
-3271 5 0
-3271 26 0
3271 -5 -26 0
-3272 -5 0
-3272 -26 0
3272 5 26 0
-3273 -3271 0
-3273 -3272 0
3273 3271 3272 0
-2455 56 0
-2455 61 0
2455 -56 -61 0
-2456 -56 0
-2456 -61 0
2456 56 61 0
-2457 -2455 0
-2457 -2456 0
2457 2455 2456 0
-3268 36 0
-3268 39 0
3268 -36 -39 0
-3269 -36 0
-3269 -39 0
3269 36 39 0
-3270 -3268 0
-3270 -3269 0
3270 3268 3269 0
-3286 2457 0
-3286 3270 0
3286 -2457 -3270 0
-3287 -2457 0
-3287 -3270 0
3287 2457 3270 0
-3288 -3286 0
-3288 -3287 0
3288 3286 3287 0
-3289 3273 0
-3289 3288 0
3289 -3273 -3288 0
-3290 -3273 0
-3290 -3288 0
3290 3273 3288 0
-3291 -3289 0
-3291 -3290 0
3291 3289 3290 0
-3292 66 0
-3292 3291 0
3292 -66 -3291 0
-3293 -66 0
-3293 -3291 0
3293 66 3291 0
-3294 -3292 0
-3294 -3293 0
3294 3292 3293 0
-3295 3267 0
-3295 -3294 0
3295 -3267 3294 0
-3299 4 0
-3299 25 0
3299 -4 -25 0
-3300 -4 0
-3300 -25 0
3300 4 25 0
-3301 -3299 0
-3301 -3300 0
3301 3299 3300 0
-3296 35 0
-3296 38 0
3296 -35 -38 0
-3297 -35 0
-3297 -38 0
3297 35 38 0
-3298 -3296 0
-3298 -3297 0
3298 3296 3297 0
-3308 55 0
-3308 3161 0
3308 -55 -3161 0
-3309 -55 0
-3309 -3161 0
3309 55 3161 0
-3310 -3308 0
-3310 -3309 0
3310 3308 3309 0
-3314 3298 0
-3314 3310 0
3314 -3298 -3310 0
-3315 -3298 0
-3315 -3310 0
3315 3298 3310 0
-3316 -3314 0
-3316 -3315 0
3316 3314 3315 0
-3317 3301 0
-3317 3316 0
3317 -3301 -3316 0
-3318 -3301 0
-3318 -3316 0
3318 3301 3316 0
-3319 -3317 0
-3319 -3318 0
3319 3317 3318 0
-3320 3295 0
-3320 -3319 0
3320 -3295 3319 0
-3324 3 0
-3324 24 0
3324 -3 -24 0
-3325 -3 0
-3325 -24 0
3325 3 24 0
-3326 -3324 0
-3326 -3325 0
3326 3324 3325 0
-3321 34 0
-3321 37 0
3321 -34 -37 0
-3322 -34 0
-3322 -37 0
3322 34 37 0
-3323 -3321 0
-3323 -3322 0
3323 3321 3322 0
-3333 54 0
-3333 3189 0
3333 -54 -3189 0
-3334 -54 0
-3334 -3189 0
3334 54 3189 0
-3335 -3333 0
-3335 -3334 0
3335 3333 3334 0
-3339 3323 0
-3339 3335 0
3339 -3323 -3335 0
-3340 -3323 0
-3340 -3335 0
3340 3323 3335 0
-3341 -3339 0
-3341 -3340 0
3341 3339 3340 0
-3342 3326 0
-3342 3341 0
3342 -3326 -3341 0
-3343 -3326 0
-3343 -3341 0
3343 3326 3341 0
-3344 -3342 0
-3344 -3343 0
3344 3342 3343 0
-3345 3320 0
-3345 -3344 0
3345 -3320 3344 0
-3346 23 0
-3346 33 0
3346 -23 -33 0
-3347 -23 0
-3347 -33 0
3347 23 33 0
-3348 -3346 0
-3348 -3347 0
3348 3346 3347 0
-3349 2 0
-3349 3348 0
3349 -2 -3348 0
-3350 -2 0
-3350 -3348 0
3350 2 3348 0
-3351 -3349 0
-3351 -3350 0
3351 3349 3350 0
-3358 53 0
-3358 3217 0
3358 -53 -3217 0
-3359 -53 0
-3359 -3217 0
3359 53 3217 0
-3360 -3358 0
-3360 -3359 0
3360 3358 3359 0
-3364 41 0
-3364 3360 0
3364 -41 -3360 0
-3365 -41 0
-3365 -3360 0
3365 41 3360 0
-3366 -3364 0
-3366 -3365 0
3366 3364 3365 0
-3367 3351 0
-3367 3366 0
3367 -3351 -3366 0
-3368 -3351 0
-3368 -3366 0
3368 3351 3366 0
-3369 -3367 0
-3369 -3368 0
3369 3367 3368 0
-3370 3345 0
-3370 -3369 0
3370 -3345 3369 0
-3371 22 0
-3371 32 0
3371 -22 -32 0
-3372 -22 0
-3372 -32 0
3372 22 32 0
-3373 -3371 0
-3373 -3372 0
3373 3371 3372 0
-3374 6 0
-3374 3373 0
3374 -6 -3373 0
-3375 -6 0
-3375 -3373 0
3375 6 3373 0
-3376 -3374 0
-3376 -3375 0
3376 3374 3375 0
-3386 62 0
-3386 2587 0
3386 -62 -2587 0
-3387 -62 0
-3387 -2587 0
3387 62 2587 0
-3388 -3386 0
-3388 -3387 0
3388 3386 3387 0
-3389 40 0
-3389 3388 0
3389 -40 -3388 0
-3390 -40 0
-3390 -3388 0
3390 40 3388 0
-3391 -3389 0
-3391 -3390 0
3391 3389 3390 0
-3392 3376 0
-3392 3391 0
3392 -3376 -3391 0
-3393 -3376 0
-3393 -3391 0
3393 3376 3391 0
-3394 -3392 0
-3394 -3393 0
3394 3392 3393 0
-3395 3370 0
-3395 -3394 0
3395 -3370 3394 0
-3444 35 0
-3444 37 0
3444 -35 -37 0
-3445 -35 0
-3445 -37 0
3445 35 37 0
-3446 -3444 0
-3446 -3445 0
3446 3444 3445 0
-3396 3 0
-3396 4 0
3396 -3 -4 0
-3397 -3 0
-3397 -4 0
3397 3 4 0
-3398 -3396 0
-3398 -3397 0
3398 3396 3397 0
-3414 7 0
-3414 9 0
3414 -7 -9 0
-3415 -7 0
-3415 -9 0
3415 7 9 0
-3416 -3414 0
-3416 -3415 0
3416 3414 3415 0
-3417 3398 0
-3417 3416 0
3417 -3398 -3416 0
-3418 -3398 0
-3418 -3416 0
3418 3398 3416 0
-3419 -3417 0
-3419 -3418 0
3419 3417 3418 0
-3447 11 0
-3447 3419 0
3447 -11 -3419 0
-3448 -11 0
-3448 -3419 0
3448 11 3419 0
-3449 -3447 0
-3449 -3448 0
3449 3447 3448 0
-3399 18 0
-3399 19 0
3399 -18 -19 0
-3400 -18 0
-3400 -19 0
3400 18 19 0
-3401 -3399 0
-3401 -3400 0
3401 3399 3400 0
-3402 22 0
-3402 23 0
3402 -22 -23 0
-3403 -22 0
-3403 -23 0
3403 22 23 0
-3404 -3402 0
-3404 -3403 0
3404 3402 3403 0
-3429 24 0
-3429 3404 0
3429 -24 -3404 0
-3430 -24 0
-3430 -3404 0
3430 24 3404 0
-3431 -3429 0
-3431 -3430 0
3431 3429 3430 0
-3450 3401 0
-3450 3431 0
3450 -3401 -3431 0
-3451 -3401 0
-3451 -3431 0
3451 3401 3431 0
-3452 -3450 0
-3452 -3451 0
3452 3450 3451 0
-3411 32 0
-3411 33 0
3411 -32 -33 0
-3412 -32 0
-3412 -33 0
3412 32 33 0
-3413 -3411 0
-3413 -3412 0
3413 3411 3412 0
-3435 30 0
-3435 3413 0
3435 -30 -3413 0
-3436 -30 0
-3436 -3413 0
3436 30 3413 0
-3437 -3435 0
-3437 -3436 0
3437 3435 3436 0
-3477 29 0
-3477 3437 0
3477 -29 -3437 0
-3478 -29 0
-3478 -3437 0
3478 29 3437 0
-3479 -3477 0
-3479 -3478 0
3479 3477 3478 0
-3501 3452 0
-3501 3479 0
3501 -3452 -3479 0
-3502 -3452 0
-3502 -3479 0
3502 3452 3479 0
-3503 -3501 0
-3503 -3502 0
3503 3501 3502 0
-3504 3449 0
-3504 3503 0
3504 -3449 -3503 0
-3505 -3449 0
-3505 -3503 0
3505 3449 3503 0
-3506 -3504 0
-3506 -3505 0
3506 3504 3505 0
-3540 3446 0
-3540 3506 0
3540 -3446 -3506 0
-3541 -3446 0
-3541 -3506 0
3541 3446 3506 0
-3542 -3540 0
-3542 -3541 0
3542 3540 3541 0
-3543 -71 0
-3543 3542 0
3543 71 -3542 0
-3544 71 0
-3544 -3542 0
3544 -71 3542 0
-3545 -3543 0
-3545 -3544 0
3545 3543 3544 0
-3549 34 0
-3549 35 0
3549 -34 -35 0
-3550 -34 0
-3550 -35 0
3550 34 35 0
-3551 -3549 0
-3551 -3550 0
3551 3549 3550 0
-3588 37 0
-3588 3551 0
3588 -37 -3551 0
-3589 -37 0
-3589 -3551 0
3589 37 3551 0
-3590 -3588 0
-3590 -3589 0
3590 3588 3589 0
-3552 4 0
-3552 6 0
3552 -4 -6 0
-3553 -4 0
-3553 -6 0
3553 4 6 0
-3554 -3552 0
-3554 -3553 0
3554 3552 3553 0
-3555 14 0
-3555 16 0
3555 -14 -16 0
-3556 -14 0
-3556 -16 0
3556 14 16 0
-3557 -3555 0
-3557 -3556 0
3557 3555 3556 0
-3591 3554 0
-3591 3557 0
3591 -3554 -3557 0
-3592 -3554 0
-3592 -3557 0
3592 3554 3557 0
-3593 -3591 0
-3593 -3592 0
3593 3591 3592 0
-3561 18 0
-3561 20 0
3561 -18 -20 0
-3562 -18 0
-3562 -20 0
3562 18 20 0
-3563 -3561 0
-3563 -3562 0
3563 3561 3562 0
-3570 25 0
-3570 3404 0
3570 -25 -3404 0
-3571 -25 0
-3571 -3404 0
3571 25 3404 0
-3572 -3570 0
-3572 -3571 0
3572 3570 3571 0
-3594 3563 0
-3594 3572 0
3594 -3563 -3572 0
-3595 -3563 0
-3595 -3572 0
3595 3563 3572 0
-3596 -3594 0
-3596 -3595 0
3596 3594 3595 0
-3630 27 0
-3630 3413 0
3630 -27 -3413 0
-3631 -27 0
-3631 -3413 0
3631 27 3413 0
-3632 -3630 0
-3632 -3631 0
3632 3630 3631 0
-3651 3596 0
-3651 3632 0
3651 -3596 -3632 0
-3652 -3596 0
-3652 -3632 0
3652 3596 3632 0
-3653 -3651 0
-3653 -3652 0
3653 3651 3652 0
-3654 3593 0
-3654 3653 0
3654 -3593 -3653 0
-3655 -3593 0
-3655 -3653 0
3655 3593 3653 0
-3656 -3654 0
-3656 -3655 0
3656 3654 3655 0
-3687 3590 0
-3687 3656 0
3687 -3590 -3656 0
-3688 -3590 0
-3688 -3656 0
3688 3590 3656 0
-3689 -3687 0
-3689 -3688 0
3689 3687 3688 0
-3690 -70 0
-3690 3689 0
3690 70 -3689 0
-3691 70 0
-3691 -3689 0
3691 -70 3689 0
-3692 -3690 0
-3692 -3691 0
3692 3690 3691 0
-3699 3 0
-3699 3416 0
3699 -3 -3416 0
-3700 -3 0
-3700 -3416 0
3700 3 3416 0
-3701 -3699 0
-3701 -3700 0
3701 3699 3700 0
-3723 12 0
-3723 3701 0
3723 -12 -3701 0
-3724 -12 0
-3724 -3701 0
3724 12 3701 0
-3725 -3723 0
-3725 -3724 0
3725 3723 3724 0
-3714 30 0
-3714 32 0
3714 -30 -32 0
-3715 -30 0
-3715 -32 0
3715 30 32 0
-3716 -3714 0
-3716 -3715 0
3716 3714 3715 0
-3693 19 0
-3693 20 0
3693 -19 -20 0
-3694 -19 0
-3694 -20 0
3694 19 20 0
-3695 -3693 0
-3695 -3694 0
3695 3693 3694 0
-3696 24 0
-3696 25 0
3696 -24 -25 0
-3697 -24 0
-3697 -25 0
3697 24 25 0
-3698 -3696 0
-3698 -3697 0
3698 3696 3697 0
-3711 22 0
-3711 3698 0
3711 -22 -3698 0
-3712 -22 0
-3712 -3698 0
3712 22 3698 0
-3713 -3711 0
-3713 -3712 0
3713 3711 3712 0
-3726 3695 0
-3726 3713 0
3726 -3695 -3713 0
-3727 -3695 0
-3727 -3713 0
3727 3695 3713 0
-3728 -3726 0
-3728 -3727 0
3728 3726 3727 0
-3771 3716 0
-3771 3728 0
3771 -3716 -3728 0
-3772 -3716 0
-3772 -3728 0
3772 3716 3728 0
-3773 -3771 0
-3773 -3772 0
3773 3771 3772 0
-3774 3725 0
-3774 3773 0
3774 -3725 -3773 0
-3775 -3725 0
-3775 -3773 0
3775 3725 3773 0
-3776 -3774 0
-3776 -3775 0
3776 3774 3775 0
-3807 3590 0
-3807 3776 0
3807 -3590 -3776 0
-3808 -3590 0
-3808 -3776 0
3808 3590 3776 0
-3809 -3807 0
-3809 -3808 0
3809 3807 3808 0
-3810 -69 0
-3810 3809 0
3810 69 -3809 0
-3811 69 0
-3811 -3809 0
3811 -69 3809 0
-3812 -3810 0
-3812 -3811 0
3812 3810 3811 0
-3819 6 0
-3819 3398 0
3819 -6 -3398 0
-3820 -6 0
-3820 -3398 0
3820 6 3398 0
-3821 -3819 0
-3821 -3820 0
3821 3819 3820 0
-3822 14 0
-3822 17 0
3822 -14 -17 0
-3823 -14 0
-3823 -17 0
3823 14 17 0
-3824 -3822 0
-3824 -3823 0
3824 3822 3823 0
-3849 10 0
-3849 3824 0
3849 -10 -3824 0
-3850 -10 0
-3850 -3824 0
3850 10 3824 0
-3851 -3849 0
-3851 -3850 0
3851 3849 3850 0
-3852 3821 0
-3852 3851 0
3852 -3821 -3851 0
-3853 -3821 0
-3853 -3851 0
3853 3821 3851 0
-3854 -3852 0
-3854 -3853 0
3854 3852 3853 0
-3816 27 0
-3816 28 0
3816 -27 -28 0
-3817 -27 0
-3817 -28 0
3817 27 28 0
-3818 -3816 0
-3818 -3817 0
3818 3816 3817 0
-3831 20 0
-3831 3401 0
3831 -20 -3401 0
-3832 -20 0
-3832 -3401 0
3832 20 3401 0
-3833 -3831 0
-3833 -3832 0
3833 3831 3832 0
-3837 23 0
-3837 3698 0
3837 -23 -3698 0
-3838 -23 0
-3838 -3698 0
3838 23 3698 0
-3839 -3837 0
-3839 -3838 0
3839 3837 3838 0
-3855 3833 0
-3855 3839 0
3855 -3833 -3839 0
-3856 -3833 0
-3856 -3839 0
3856 3833 3839 0
-3857 -3855 0
-3857 -3856 0
3857 3855 3856 0
-3903 3818 0
-3903 3857 0
3903 -3818 -3857 0
-3904 -3818 0
-3904 -3857 0
3904 3818 3857 0
-3905 -3903 0
-3905 -3904 0
3905 3903 3904 0
-3906 3854 0
-3906 3905 0
3906 -3854 -3905 0
-3907 -3854 0
-3907 -3905 0
3907 3854 3905 0
-3908 -3906 0
-3908 -3907 0
3908 3906 3907 0
-3939 3590 0
-3939 3908 0
3939 -3590 -3908 0
-3940 -3590 0
-3940 -3908 0
3940 3590 3908 0
-3941 -3939 0
-3941 -3940 0
3941 3939 3940 0
-3942 -68 0
-3942 3941 0
3942 68 -3941 0
-3943 68 0
-3943 -3941 0
3943 -68 3941 0
-3944 -3942 0
-3944 -3943 0
3944 3942 3943 0
-3945 2 0
-3945 3 0
3945 -2 -3 0
-3946 -2 0
-3946 -3 0
3946 2 3 0
-3947 -3945 0
-3947 -3946 0
3947 3945 3946 0
-3948 7 0
-3948 3947 0
3948 -7 -3947 0
-3949 -7 0
-3949 -3947 0
3949 7 3947 0
-3950 -3948 0
-3950 -3949 0
3950 3948 3949 0
-3954 15 0
-3954 17 0
3954 -15 -17 0
-3955 -15 0
-3955 -17 0
3955 15 17 0
-3956 -3954 0
-3956 -3955 0
3956 3954 3955 0
-3960 12 0
-3960 3956 0
3960 -12 -3956 0
-3961 -12 0
-3961 -3956 0
3961 12 3956 0
-3962 -3960 0
-3962 -3961 0
3962 3960 3961 0
-3963 3950 0
-3963 3962 0
3963 -3950 -3962 0
-3964 -3950 0
-3964 -3962 0
3964 3950 3962 0
-3965 -3963 0
-3965 -3964 0
3965 3963 3964 0
-3972 27 0
-3972 3437 0
3972 -27 -3437 0
-3973 -27 0
-3973 -3437 0
3973 27 3437 0
-3974 -3972 0
-3974 -3973 0
3974 3972 3973 0
-3990 3965 0
-3990 3974 0
3990 -3965 -3974 0
-3991 -3965 0
-3991 -3974 0
3991 3965 3974 0
-3992 -3990 0
-3992 -3991 0
3992 3990 3991 0
-4014 37 0
-4014 3992 0
4014 -37 -3992 0
-4015 -37 0
-4015 -3992 0
4015 37 3992 0
-4016 -4014 0
-4016 -4015 0
4016 4014 4015 0
-4017 -67 0
-4017 4016 0
4017 67 -4016 0
-4018 67 0
-4018 -4016 0
4018 -67 4016 0
-4019 -4017 0
-4019 -4018 0
4019 4017 4018 0
-4020 6 0
-4020 7 0
4020 -6 -7 0
-4021 -6 0
-4021 -7 0
4021 6 7 0
-4022 -4020 0
-4022 -4021 0
4022 4020 4021 0
-4032 3398 0
-4032 4022 0
4032 -3398 -4022 0
-4033 -3398 0
-4033 -4022 0
4033 3398 4022 0
-4034 -4032 0
-4034 -4033 0
4034 4032 4033 0
-4023 12 0
-4023 13 0
4023 -12 -13 0
-4024 -12 0
-4024 -13 0
4024 12 13 0
-4025 -4023 0
-4025 -4024 0
4025 4023 4024 0
-4029 14 0
-4029 15 0
4029 -14 -15 0
-4030 -14 0
-4030 -15 0
4030 14 15 0
-4031 -4029 0
-4031 -4030 0
4031 4029 4030 0
-4038 4025 0
-4038 4031 0
4038 -4025 -4031 0
-4039 -4025 0
-4039 -4031 0
4039 4025 4031 0
-4040 -4038 0
-4040 -4039 0
4040 4038 4039 0
-4050 4034 0
-4050 4040 0
4050 -4034 -4040 0
-4051 -4034 0
-4051 -4040 0
4051 4034 4040 0
-4052 -4050 0
-4052 -4051 0
4052 4050 4051 0
-4053 3401 0
-4053 3698 0
4053 -3401 -3698 0
-4054 -3401 0
-4054 -3698 0
4054 3401 3698 0
-4055 -4053 0
-4055 -4054 0
4055 4053 4054 0
-4095 2556 0
-4095 4055 0
4095 -2556 -4055 0
-4096 -2556 0
-4096 -4055 0
4096 2556 4055 0
-4097 -4095 0
-4097 -4096 0
4097 4095 4096 0
-4098 4052 0
-4098 4097 0
4098 -4052 -4097 0
-4099 -4052 0
-4099 -4097 0
4099 4052 4097 0
-4100 -4098 0
-4100 -4099 0
4100 4098 4099 0
-4125 3323 0
-4125 4100 0
4125 -3323 -4100 0
-4126 -3323 0
-4126 -4100 0
4126 3323 4100 0
-4127 -4125 0
-4127 -4126 0
4127 4125 4126 0
-4128 -66 0
-4128 4127 0
4128 66 -4127 0
-4129 66 0
-4129 -4127 0
4129 -66 4127 0
-4130 -4128 0
-4130 -4129 0
4130 4128 4129 0
-4131 4 0
-4131 5 0
4131 -4 -5 0
-4132 -4 0
-4132 -5 0
4132 4 5 0
-4133 -4131 0
-4133 -4132 0
4133 4131 4132 0
-4143 9 0
-4143 4022 0
4143 -9 -4022 0
-4144 -9 0
-4144 -4022 0
4144 9 4022 0
-4145 -4143 0
-4145 -4144 0
4145 4143 4144 0
-4146 4133 0
-4146 4145 0
4146 -4133 -4145 0
-4147 -4133 0
-4147 -4145 0
4147 4133 4145 0
-4148 -4146 0
-4148 -4147 0
4148 4146 4147 0
-4155 16 0
-4155 4031 0
4155 -16 -4031 0
-4156 -16 0
-4156 -4031 0
4156 16 4031 0
-4157 -4155 0
-4157 -4156 0
4157 4155 4156 0
-4161 11 0
-4161 4157 0
4161 -11 -4157 0
-4162 -11 0
-4162 -4157 0
4162 11 4157 0
-4163 -4161 0
-4163 -4162 0
4163 4161 4162 0
-4164 4148 0
-4164 4163 0
4164 -4148 -4163 0
-4165 -4148 0
-4165 -4163 0
4165 4148 4163 0
-4166 -4164 0
-4166 -4165 0
4166 4164 4165 0
-4140 28 0
-4140 29 0
4140 -28 -29 0
-4141 -28 0
-4141 -29 0
4141 28 29 0
-4142 -4140 0
-4142 -4141 0
4142 4140 4141 0
-4167 22 0
-4167 3563 0
4167 -22 -3563 0
-4168 -22 0
-4168 -3563 0
4168 22 3563 0
-4169 -4167 0
-4169 -4168 0
4169 4167 4168 0
-4197 4142 0
-4197 4169 0
4197 -4142 -4169 0
-4198 -4142 0
-4198 -4169 0
4198 4142 4169 0
-4199 -4197 0
-4199 -4198 0
4199 4197 4198 0
-4200 4166 0
-4200 4199 0
4200 -4166 -4199 0
-4201 -4166 0
-4201 -4199 0
4201 4166 4199 0
-4202 -4200 0
-4202 -4201 0
4202 4200 4201 0
-4224 65 0
-4224 3446 0
4224 -65 -3446 0
-4225 -65 0
-4225 -3446 0
4225 65 3446 0
-4226 -4224 0
-4226 -4225 0
4226 4224 4225 0
-4227 4202 0
-4227 4226 0
4227 -4202 -4226 0
-4228 -4202 0
-4228 -4226 0
4228 4202 4226 0
-4229 -4227 0
-4229 -4228 0
4229 4227 4228 0
-4230 12 0
-4230 14 0
4230 -12 -14 0
-4231 -12 0
-4231 -14 0
4231 12 14 0
-4232 -4230 0
-4232 -4231 0
4232 4230 4231 0
-4236 3398 0
-4236 4232 0
4236 -3398 -4232 0
-4237 -3398 0
-4237 -4232 0
4237 3398 4232 0
-4238 -4236 0
-4238 -4237 0
4238 4236 4237 0
-4233 29 0
-4233 32 0
4233 -29 -32 0
-4234 -29 0
-4234 -32 0
4234 29 32 0
-4235 -4233 0
-4235 -4234 0
4235 4233 4234 0
-4239 25 0
-4239 3695 0
4239 -25 -3695 0
-4240 -25 0
-4240 -3695 0
4240 25 3695 0
-4241 -4239 0
-4241 -4240 0
4241 4239 4240 0
-4254 4235 0
-4254 4241 0
4254 -4235 -4241 0
-4255 -4235 0
-4255 -4241 0
4255 4235 4241 0
-4256 -4254 0
-4256 -4255 0
4256 4254 4255 0
-4257 4238 0
-4257 4256 0
4257 -4238 -4256 0
-4258 -4238 0
-4258 -4256 0
4258 4238 4256 0
-4259 -4257 0
-4259 -4258 0
4259 4257 4258 0
-4272 37 0
-4272 64 0
4272 -37 -64 0
-4273 -37 0
-4273 -64 0
4273 37 64 0
-4274 -4272 0
-4274 -4273 0
4274 4272 4273 0
-4275 4259 0
-4275 4274 0
4275 -4259 -4274 0
-4276 -4259 0
-4276 -4274 0
4276 4259 4274 0
-4277 -4275 0
-4277 -4276 0
4277 4275 4276 0
-4281 4 0
-4281 4145 0
4281 -4 -4145 0
-4282 -4 0
-4282 -4145 0
4282 4 4145 0
-4283 -4281 0
-4283 -4282 0
4283 4281 4282 0
-4278 16 0
-4278 17 0
4278 -16 -17 0
-4279 -16 0
-4279 -17 0
4279 16 17 0
-4280 -4278 0
-4280 -4279 0
4280 4278 4279 0
-4284 15 0
-4284 4280 0
4284 -15 -4280 0
-4285 -15 0
-4285 -4280 0
4285 15 4280 0
-4286 -4284 0
-4286 -4285 0
4286 4284 4285 0
-4296 12 0
-4296 4286 0
4296 -12 -4286 0
-4297 -12 0
-4297 -4286 0
4297 12 4286 0
-4298 -4296 0
-4298 -4297 0
4298 4296 4297 0
-4299 4283 0
-4299 4298 0
4299 -4283 -4298 0
-4300 -4283 0
-4300 -4298 0
4300 4283 4298 0
-4301 -4299 0
-4301 -4300 0
4301 4299 4300 0
-4302 3404 0
-4302 3833 0
4302 -3404 -3833 0
-4303 -3404 0
-4303 -3833 0
4303 3404 3833 0
-4304 -4302 0
-4304 -4303 0
4304 4302 4303 0
-4293 27 0
-4293 29 0
4293 -27 -29 0
-4294 -27 0
-4294 -29 0
4294 27 29 0
-4295 -4293 0
-4295 -4294 0
4295 4293 4294 0
-4341 33 0
-4341 4295 0
4341 -33 -4295 0
-4342 -33 0
-4342 -4295 0
4342 33 4295 0
-4343 -4341 0
-4343 -4342 0
4343 4341 4342 0
-4350 4304 0
-4350 4343 0
4350 -4304 -4343 0
-4351 -4304 0
-4351 -4343 0
4351 4304 4343 0
-4352 -4350 0
-4352 -4351 0
4352 4350 4351 0
-4353 4301 0
-4353 4352 0
4353 -4301 -4352 0
-4354 -4301 0
-4354 -4352 0
4354 4301 4352 0
-4355 -4353 0
-4355 -4354 0
4355 4353 4354 0
-4380 63 0
-4380 3446 0
4380 -63 -3446 0
-4381 -63 0
-4381 -3446 0
4381 63 3446 0
-4382 -4380 0
-4382 -4381 0
4382 4380 4381 0
-4383 4355 0
-4383 4382 0
4383 -4355 -4382 0
-4384 -4355 0
-4384 -4382 0
4384 4355 4382 0
-4385 -4383 0
-4385 -4384 0
4385 4383 4384 0
-4392 10 0
-4392 3956 0
4392 -10 -3956 0
-4393 -10 0
-4393 -3956 0
4393 10 3956 0
-4394 -4392 0
-4394 -4393 0
4394 4392 4393 0
-4395 3 0
-4395 4394 0
4395 -3 -4394 0
-4396 -3 0
-4396 -4394 0
4396 3 4394 0
-4397 -4395 0
-4397 -4396 0
4397 4395 4396 0
-4386 22 0
-4386 25 0
4386 -22 -25 0
-4387 -22 0
-4387 -25 0
4387 22 25 0
-4388 -4386 0
-4388 -4387 0
4388 4386 4387 0
-4389 28 0
-4389 30 0
4389 -28 -30 0
-4390 -28 0
-4390 -30 0
4390 28 30 0
-4391 -4389 0
-4391 -4390 0
4391 4389 4390 0
-4419 4388 0
-4419 4391 0
4419 -4388 -4391 0
-4420 -4388 0
-4420 -4391 0
4420 4388 4391 0
-4421 -4419 0
-4421 -4420 0
4421 4419 4420 0
-4422 4397 0
-4422 4421 0
4422 -4397 -4421 0
-4423 -4397 0
-4423 -4421 0
4423 4397 4421 0
-4424 -4422 0
-4424 -4423 0
4424 4422 4423 0
-4440 37 0
-4440 62 0
4440 -37 -62 0
-4441 -37 0
-4441 -62 0
4441 37 62 0
-4442 -4440 0
-4442 -4441 0
4442 4440 4441 0
-4443 4424 0
-4443 4442 0
4443 -4424 -4442 0
-4444 -4424 0
-4444 -4442 0
4444 4424 4442 0
-4445 -4443 0
-4445 -4444 0
4445 4443 4444 0
-4446 2 0
-4446 4133 0
4446 -2 -4133 0
-4447 -2 0
-4447 -4133 0
4447 2 4133 0
-4448 -4446 0
-4448 -4447 0
4448 4446 4447 0
-4449 8 0
-4449 9 0
4449 -8 -9 0
-4450 -8 0
-4450 -9 0
4450 8 9 0
-4451 -4449 0
-4451 -4450 0
4451 4449 4450 0
-4455 6 0
-4455 4451 0
4455 -6 -4451 0
-4456 -6 0
-4456 -4451 0
4456 6 4451 0
-4457 -4455 0
-4457 -4456 0
4457 4455 4456 0
-4458 4448 0
-4458 4457 0
4458 -4448 -4457 0
-4459 -4448 0
-4459 -4457 0
4459 4448 4457 0
-4460 -4458 0
-4460 -4459 0
4460 4458 4459 0
-4476 10 0
-4476 4280 0
4476 -10 -4280 0
-4477 -10 0
-4477 -4280 0
4477 10 4280 0
-4478 -4476 0
-4478 -4477 0
4478 4476 4477 0
-4479 4460 0
-4479 4478 0
4479 -4460 -4478 0
-4480 -4460 0
-4480 -4478 0
4480 4460 4478 0
-4481 -4479 0
-4481 -4480 0
4481 4479 4480 0
-4482 23 0
-4482 3695 0
4482 -23 -3695 0
-4483 -23 0
-4483 -3695 0
4483 23 3695 0
-4484 -4482 0
-4484 -4483 0
4484 4482 4483 0
-4473 30 0
-4473 33 0
4473 -30 -33 0
-4474 -30 0
-4474 -33 0
4474 30 33 0
-4475 -4473 0
-4475 -4474 0
4475 4473 4474 0
-4503 29 0
-4503 4475 0
4503 -29 -4475 0
-4504 -29 0
-4504 -4475 0
4504 29 4475 0
-4505 -4503 0
-4505 -4504 0
4505 4503 4504 0
-4515 4484 0
-4515 4505 0
4515 -4484 -4505 0
-4516 -4484 0
-4516 -4505 0
4516 4484 4505 0
-4517 -4515 0
-4517 -4516 0
4517 4515 4516 0
-4518 4481 0
-4518 4517 0
4518 -4481 -4517 0
-4519 -4481 0
-4519 -4517 0
4519 4481 4517 0
-4520 -4518 0
-4520 -4519 0
4520 4518 4519 0
-4548 61 0
-4548 3446 0
4548 -61 -3446 0
-4549 -61 0
-4549 -3446 0
4549 61 3446 0
-4550 -4548 0
-4550 -4549 0
4550 4548 4549 0
-4551 4520 0
-4551 4550 0
4551 -4520 -4550 0
-4552 -4520 0
-4552 -4550 0
4552 4520 4550 0
-4553 -4551 0
-4553 -4552 0
4553 4551 4552 0
-4554 2 0
-4554 5 0
4554 -2 -5 0
-4555 -2 0
-4555 -5 0
4555 2 5 0
-4556 -4554 0
-4556 -4555 0
4556 4554 4555 0
-4560 3416 0
-4560 4556 0
4560 -3416 -4556 0
-4561 -3416 0
-4561 -4556 0
4561 3416 4556 0
-4562 -4560 0
-4562 -4561 0
4562 4560 4561 0
-4557 10 0
-4557 11 0
4557 -10 -11 0
-4558 -10 0
-4558 -11 0
4558 10 11 0
-4559 -4557 0
-4559 -4558 0
4559 4557 4558 0
-4575 4157 0
-4575 4559 0
4575 -4157 -4559 0
-4576 -4157 0
-4576 -4559 0
4576 4157 4559 0
-4577 -4575 0
-4577 -4576 0
4577 4575 4576 0
-4578 4562 0
-4578 4577 0
4578 -4562 -4577 0
-4579 -4562 0
-4579 -4577 0
4579 4562 4577 0
-4580 -4578 0
-4580 -4579 0
4580 4578 4579 0
-3405 23 0
-3405 24 0
3405 -23 -24 0
-3406 -23 0
-3406 -24 0
3406 23 24 0
-3407 -3405 0
-3407 -3406 0
3407 3405 3406 0
-4590 27 0
-4590 3407 0
4590 -27 -3407 0
-4591 -27 0
-4591 -3407 0
4591 27 3407 0
-4592 -4590 0
-4592 -4591 0
4592 4590 4591 0
-4593 4580 0
-4593 4592 0
4593 -4580 -4592 0
-4594 -4580 0
-4594 -4592 0
4594 4580 4592 0
-4595 -4593 0
-4595 -4594 0
4595 4593 4594 0
-4605 37 0
-4605 60 0
4605 -37 -60 0
-4606 -37 0
-4606 -60 0
4606 37 60 0
-4607 -4605 0
-4607 -4606 0
4607 4605 4606 0
-4608 4595 0
-4608 4607 0
4608 -4595 -4607 0
-4609 -4595 0
-4609 -4607 0
4609 4595 4607 0
-4610 -4608 0
-4610 -4609 0
4610 4608 4609 0
-4611 9 0
-4611 3947 0
4611 -9 -3947 0
-4612 -9 0
-4612 -3947 0
4612 9 3947 0
-4613 -4611 0
-4613 -4612 0
4613 4611 4612 0
-4617 12 0
-4617 3824 0
4617 -12 -3824 0
-4618 -12 0
-4618 -3824 0
4618 12 3824 0
-4619 -4617 0
-4619 -4618 0
4619 4617 4618 0
-4620 4613 0
-4620 4619 0
4620 -4613 -4619 0
-4621 -4613 0
-4621 -4619 0
4621 4613 4619 0
-4622 -4620 0
-4622 -4621 0
4622 4620 4621 0
-4644 2783 0
-4644 3716 0
4644 -2783 -3716 0
-4645 -2783 0
-4645 -3716 0
4645 2783 3716 0
-4646 -4644 0
-4646 -4645 0
4646 4644 4645 0
-4647 4622 0
-4647 4646 0
4647 -4622 -4646 0
-4648 -4622 0
-4648 -4646 0
4648 4622 4646 0
-4649 -4647 0
-4649 -4648 0
4649 4647 4648 0
-4668 59 0
-4668 3323 0
4668 -59 -3323 0
-4669 -59 0
-4669 -3323 0
4669 59 3323 0
-4670 -4668 0
-4670 -4669 0
4670 4668 4669 0
-4671 4649 0
-4671 4670 0
4671 -4649 -4670 0
-4672 -4649 0
-4672 -4670 0
4672 4649 4670 0
-4673 -4671 0
-4673 -4672 0
4673 4671 4672 0
-4677 6 0
-4677 4556 0
4677 -6 -4556 0
-4678 -6 0
-4678 -4556 0
4678 6 4556 0
-4679 -4677 0
-4679 -4678 0
4679 4677 4678 0
-4137 15 0
-4137 16 0
4137 -15 -16 0
-4138 -15 0
-4138 -16 0
4138 15 16 0
-4139 -4137 0
-4139 -4138 0
4139 4137 4138 0
-4680 12 0
-4680 4559 0
4680 -12 -4559 0
-4681 -12 0
-4681 -4559 0
4681 12 4559 0
-4682 -4680 0
-4682 -4681 0
4682 4680 4681 0
-4686 4139 0
-4686 4682 0
4686 -4139 -4682 0
-4687 -4139 0
-4687 -4682 0
4687 4139 4682 0
-4688 -4686 0
-4688 -4687 0
4688 4686 4687 0
-4689 4679 0
-4689 4688 0
4689 -4679 -4688 0
-4690 -4679 0
-4690 -4688 0
4690 4679 4688 0
-4691 -4689 0
-4691 -4690 0
4691 4689 4690 0
-3708 22 0
-3708 24 0
3708 -22 -24 0
-3709 -22 0
-3709 -24 0
3709 22 24 0
-3710 -3708 0
-3710 -3709 0
3710 3708 3709 0
-4692 18 0
-4692 3710 0
4692 -18 -3710 0
-4693 -18 0
-4693 -3710 0
4693 18 3710 0
-4694 -4692 0
-4694 -4693 0
4694 4692 4693 0
-4722 3818 0
-4722 4694 0
4722 -3818 -4694 0
-4723 -3818 0
-4723 -4694 0
4723 3818 4694 0
-4724 -4722 0
-4724 -4723 0
4724 4722 4723 0
-4725 4691 0
-4725 4724 0
4725 -4691 -4724 0
-4726 -4691 0
-4726 -4724 0
4726 4691 4724 0
-4727 -4725 0
-4727 -4726 0
4727 4725 4726 0
-4749 58 0
-4749 3446 0
4749 -58 -3446 0
-4750 -58 0
-4750 -3446 0
4750 58 3446 0
-4751 -4749 0
-4751 -4750 0
4751 4749 4750 0
-4752 4727 0
-4752 4751 0
4752 -4727 -4751 0
-4753 -4727 0
-4753 -4751 0
4753 4727 4751 0
-4754 -4752 0
-4754 -4753 0
4754 4752 4753 0
-4755 5 0
-4755 3947 0
4755 -5 -3947 0
-4756 -5 0
-4756 -3947 0
4756 5 3947 0
-4757 -4755 0
-4757 -4756 0
4757 4755 4756 0
-4758 7 0
-4758 4757 0
4758 -7 -4757 0
-4759 -7 0
-4759 -4757 0
4759 7 4757 0
-4760 -4758 0
-4760 -4759 0
4760 4758 4759 0
-4764 10 0
-4764 15 0
4764 -10 -15 0
-4765 -10 0
-4765 -15 0
4765 10 15 0
-4766 -4764 0
-4766 -4765 0
4766 4764 4765 0
-4767 4760 0
-4767 4766 0
4767 -4760 -4766 0
-4768 -4760 0
-4768 -4766 0
4768 4760 4766 0
-4769 -4767 0
-4769 -4768 0
4769 4767 4768 0
-3969 27 0
-3969 3716 0
3969 -27 -3716 0
-3970 -27 0
-3970 -3716 0
3970 27 3716 0
-3971 -3969 0
-3971 -3970 0
3971 3969 3970 0
-3573 23 0
-3573 25 0
3573 -23 -25 0
-3574 -23 0
-3574 -25 0
3574 23 25 0
-3575 -3573 0
-3575 -3574 0
3575 3573 3574 0
-4770 20 0
-4770 3575 0
4770 -20 -3575 0
-4771 -20 0
-4771 -3575 0
4771 20 3575 0
-4772 -4770 0
-4772 -4771 0
4772 4770 4771 0
-4797 3971 0
-4797 4772 0
4797 -3971 -4772 0
-4798 -3971 0
-4798 -4772 0
4798 3971 4772 0
-4799 -4797 0
-4799 -4798 0
4799 4797 4798 0
-4800 4769 0
-4800 4799 0
4800 -4769 -4799 0
-4801 -4769 0
-4801 -4799 0
4801 4769 4799 0
-4802 -4800 0
-4802 -4801 0
4802 4800 4801 0
-4830 37 0
-4830 57 0
4830 -37 -57 0
-4831 -37 0
-4831 -57 0
4831 37 57 0
-4832 -4830 0
-4832 -4831 0
4832 4830 4831 0
-4833 4802 0
-4833 4832 0
4833 -4802 -4832 0
-4834 -4802 0
-4834 -4832 0
4834 4802 4832 0
-4835 -4833 0
-4835 -4834 0
4835 4833 4834 0
-4836 3 0
-4836 4022 0
4836 -3 -4022 0
-4837 -3 0
-4837 -4022 0
4837 3 4022 0
-4838 -4836 0
-4838 -4837 0
4838 4836 4837 0
-4839 11 0
-4839 4025 0
4839 -11 -4025 0
-4840 -11 0
-4840 -4025 0
4840 11 4025 0
-4841 -4839 0
-4841 -4840 0
4841 4839 4840 0
-4854 4286 0
-4854 4841 0
4854 -4286 -4841 0
-4855 -4286 0
-4855 -4841 0
4855 4286 4841 0
-4856 -4854 0
-4856 -4855 0
4856 4854 4855 0
-4857 4838 0
-4857 4856 0
4857 -4838 -4856 0
-4858 -4838 0
-4858 -4856 0
4858 4838 4856 0
-4859 -4857 0
-4859 -4858 0
4859 4857 4858 0
-4860 18 0
-4860 3698 0
4860 -18 -3698 0
-4861 -18 0
-4861 -3698 0
4861 18 3698 0
-4862 -4860 0
-4862 -4861 0
4862 4860 4861 0
-4887 32 0
-4887 3818 0
4887 -32 -3818 0
-4888 -32 0
-4888 -3818 0
4888 32 3818 0
-4889 -4887 0
-4889 -4888 0
4889 4887 4888 0
-4890 4862 0
-4890 4889 0
4890 -4862 -4889 0
-4891 -4862 0
-4891 -4889 0
4891 4862 4889 0
-4892 -4890 0
-4892 -4891 0
4892 4890 4891 0
-4893 4859 0
-4893 4892 0
4893 -4859 -4892 0
-4894 -4859 0
-4894 -4892 0
4894 4859 4892 0
-4895 -4893 0
-4895 -4894 0
4895 4893 4894 0
-4920 37 0
-4920 56 0
4920 -37 -56 0
-4921 -37 0
-4921 -56 0
4921 37 56 0
-4922 -4920 0
-4922 -4921 0
4922 4920 4921 0
-4923 4895 0
-4923 4922 0
4923 -4895 -4922 0
-4924 -4895 0
-4924 -4922 0
4924 4895 4922 0
-4925 -4923 0
-4925 -4924 0
4925 4923 4924 0
-4926 3 0
-4926 4133 0
4926 -3 -4133 0
-4927 -3 0
-4927 -4133 0
4927 3 4133 0
-4928 -4926 0
-4928 -4927 0
4928 4926 4927 0
-4929 4145 0
-4929 4928 0
4929 -4145 -4928 0
-4930 -4145 0
-4930 -4928 0
4930 4145 4928 0
-4931 -4929 0
-4931 -4930 0
4931 4929 4930 0
-4941 3956 0
-4941 4682 0
4941 -3956 -4682 0
-4942 -3956 0
-4942 -4682 0
4942 3956 4682 0
-4943 -4941 0
-4943 -4942 0
4943 4941 4942 0
-4944 4931 0
-4944 4943 0
4944 -4931 -4943 0
-4945 -4931 0
-4945 -4943 0
4945 4931 4943 0
-4946 -4944 0
-4946 -4945 0
4946 4944 4945 0
-4947 22 0
-4947 3401 0
4947 -22 -3401 0
-4948 -22 0
-4948 -3401 0
4948 22 3401 0
-4949 -4947 0
-4949 -4948 0
4949 4947 4948 0
-4974 27 0
-4974 4475 0
4974 -27 -4475 0
-4975 -27 0
-4975 -4475 0
4975 27 4475 0
-4976 -4974 0
-4976 -4975 0
4976 4974 4975 0
-4983 4949 0
-4983 4976 0
4983 -4949 -4976 0
-4984 -4949 0
-4984 -4976 0
4984 4949 4976 0
-4985 -4983 0
-4985 -4984 0
4985 4983 4984 0
-4986 4946 0
-4986 4985 0
4986 -4946 -4985 0
-4987 -4946 0
-4987 -4985 0
4987 4946 4985 0
-4988 -4986 0
-4988 -4987 0
4988 4986 4987 0
-5013 55 0
-5013 3446 0
5013 -55 -3446 0
-5014 -55 0
-5014 -3446 0
5014 55 3446 0
-5015 -5013 0
-5015 -5014 0
5015 5013 5014 0
-5016 4988 0
-5016 5015 0
5016 -4988 -5015 0
-5017 -4988 0
-5017 -5015 0
5017 4988 5015 0
-5018 -5016 0
-5018 -5017 0
5018 5016 5017 0
-5019 4 0
-5019 3947 0
5019 -4 -3947 0
-5020 -4 0
-5020 -3947 0
5020 4 3947 0
-5021 -5019 0
-5021 -5020 0
5021 5019 5020 0
-5022 9 0
-5022 5021 0
5022 -9 -5021 0
-5023 -9 0
-5023 -5021 0
5023 9 5021 0
-5024 -5022 0
-5024 -5023 0
5024 5022 5023 0
-5028 17 0
-5028 5024 0
5028 -17 -5024 0
-5029 -17 0
-5029 -5024 0
5029 17 5024 0
-5030 -5028 0
-5030 -5029 0
5030 5028 5029 0
-3408 29 0
-3408 30 0
3408 -29 -30 0
-3409 -29 0
-3409 -30 0
3409 29 30 0
-3410 -3408 0
-3410 -3409 0
3410 3408 3409 0
-5031 19 0
-5031 25 0
5031 -19 -25 0
-5032 -19 0
-5032 -25 0
5032 19 25 0
-5033 -5031 0
-5033 -5032 0
5033 5031 5032 0
-5037 3410 0
-5037 5033 0
5037 -3410 -5033 0
-5038 -3410 0
-5038 -5033 0
5038 3410 5033 0
-5039 -5037 0
-5039 -5038 0
5039 5037 5038 0
-5040 5030 0
-5040 5039 0
5040 -5030 -5039 0
-5041 -5030 0
-5041 -5039 0
5041 5030 5039 0
-5042 -5040 0
-5042 -5041 0
5042 5040 5041 0
-5052 37 0
-5052 54 0
5052 -37 -54 0
-5053 -37 0
-5053 -54 0
5053 37 54 0
-5054 -5052 0
-5054 -5053 0
5054 5052 5053 0
-5055 5042 0
-5055 5054 0
5055 -5042 -5054 0
-5056 -5042 0
-5056 -5054 0
5056 5042 5054 0
-5057 -5055 0
-5057 -5056 0
5057 5055 5056 0
-5061 3557 0
-5061 4559 0
5061 -3557 -4559 0
-5062 -3557 0
-5062 -4559 0
5062 3557 4559 0
-5063 -5061 0
-5063 -5062 0
5063 5061 5062 0
-5064 4 0
-5064 5063 0
5064 -4 -5063 0
-5065 -4 0
-5065 -5063 0
5065 4 5063 0
-5066 -5064 0
-5066 -5065 0
5066 5064 5065 0
-5067 19 0
-5067 3404 0
5067 -19 -3404 0
-5068 -19 0
-5068 -3404 0
5068 19 3404 0
-5069 -5067 0
-5069 -5068 0
5069 5067 5068 0
-5088 27 0
-5088 32 0
5088 -27 -32 0
-5089 -27 0
-5089 -32 0
5089 27 32 0
-5090 -5088 0
-5090 -5089 0
5090 5088 5089 0
-5094 5069 0
-5094 5090 0
5094 -5069 -5090 0
-5095 -5069 0
-5095 -5090 0
5095 5069 5090 0
-5096 -5094 0
-5096 -5095 0
5096 5094 5095 0
-5097 5066 0
-5097 5096 0
5097 -5066 -5096 0
-5098 -5066 0
-5098 -5096 0
5098 5066 5096 0
-5099 -5097 0
-5099 -5098 0
5099 5097 5098 0
-5121 53 0
-5121 3323 0
5121 -53 -3323 0
-5122 -53 0
-5122 -3323 0
5122 53 3323 0
-5123 -5121 0
-5123 -5122 0
5123 5121 5122 0
-5124 5099 0
-5124 5123 0
5124 -5099 -5123 0
-5125 -5099 0
-5125 -5123 0
5125 5099 5123 0
-5126 -5124 0
-5126 -5125 0
5126 5124 5125 0
-5127 3 0
-5127 5 0
5127 -3 -5 0
-5128 -3 0
-5128 -5 0
5128 3 5 0
-5129 -5127 0
-5129 -5128 0
5129 5127 5128 0
-5130 7 0
-5130 5129 0
5130 -7 -5129 0
-5131 -7 0
-5131 -5129 0
5131 7 5129 0
-5132 -5130 0
-5132 -5131 0
5132 5130 5131 0
-5133 10 0
-5133 12 0
5133 -10 -12 0
-5134 -10 0
-5134 -12 0
5134 10 12 0
-5135 -5133 0
-5135 -5134 0
5135 5133 5134 0
-5139 17 0
-5139 5135 0
5139 -17 -5135 0
-5140 -17 0
-5140 -5135 0
5140 17 5135 0
-5141 -5139 0
-5141 -5140 0
5141 5139 5140 0
-5142 5132 0
-5142 5141 0
5142 -5132 -5141 0
-5143 -5132 0
-5143 -5141 0
5143 5132 5141 0
-5144 -5142 0
-5144 -5143 0
5144 5142 5143 0
-5145 3563 0
-5145 4388 0
5145 -3563 -4388 0
-5146 -3563 0
-5146 -4388 0
5146 3563 4388 0
-5147 -5145 0
-5147 -5146 0
5147 5145 5146 0
-5172 30 0
-5172 5147 0
5172 -30 -5147 0
-5173 -30 0
-5173 -5147 0
5173 30 5147 0
-5174 -5172 0
-5174 -5173 0
5174 5172 5173 0
-5175 5144 0
-5175 5174 0
5175 -5144 -5174 0
-5176 -5144 0
-5176 -5174 0
5176 5144 5174 0
-5177 -5175 0
-5177 -5176 0
5177 5175 5176 0
-5199 52 0
-5199 3446 0
5199 -52 -3446 0
-5200 -52 0
-5200 -3446 0
5200 52 3446 0
-5201 -5199 0
-5201 -5200 0
5201 5199 5200 0
-5202 5177 0
-5202 5201 0
5202 -5177 -5201 0
-5203 -5177 0
-5203 -5201 0
5203 5177 5201 0
-5204 -5202 0
-5204 -5203 0
5204 5202 5203 0
-5205 8 0
-5205 4448 0
5205 -8 -4448 0
-5206 -8 0
-5206 -4448 0
5206 8 4448 0
-5207 -5205 0
-5207 -5206 0
5207 5205 5206 0
-5217 14 0
-5217 4280 0
5217 -14 -4280 0
-5218 -14 0
-5218 -4280 0
5218 14 4280 0
-5219 -5217 0
-5219 -5218 0
5219 5217 5218 0
-5223 4682 0
-5223 5219 0
5223 -4682 -5219 0
-5224 -4682 0
-5224 -5219 0
5224 4682 5219 0
-5225 -5223 0
-5225 -5224 0
5225 5223 5224 0
-5226 5207 0
-5226 5225 0
5226 -5207 -5225 0
-5227 -5207 0
-5227 -5225 0
5227 5207 5225 0
-5228 -5226 0
-5228 -5227 0
5228 5226 5227 0
-5229 3404 0
-5229 3695 0
5229 -3404 -3695 0
-5230 -3404 0
-5230 -3695 0
5230 3404 3695 0
-5231 -5229 0
-5231 -5230 0
5231 5229 5230 0
-5274 4475 0
-5274 5231 0
5274 -4475 -5231 0
-5275 -4475 0
-5275 -5231 0
5275 4475 5231 0
-5276 -5274 0
-5276 -5275 0
5276 5274 5275 0
-5277 5228 0
-5277 5276 0
5277 -5228 -5276 0
-5278 -5228 0
-5278 -5276 0
5278 5228 5276 0
-5279 -5277 0
-5279 -5278 0
5279 5277 5278 0
-5313 51 0
-5313 3590 0
5313 -51 -3590 0
-5314 -51 0
-5314 -3590 0
5314 51 3590 0
-5315 -5313 0
-5315 -5314 0
5315 5313 5314 0
-5316 5279 0
-5316 5315 0
5316 -5279 -5315 0
-5317 -5279 0
-5317 -5315 0
5317 5279 5315 0
-5318 -5316 0
-5318 -5317 0
5318 5316 5317 0
-3112 37 0
-3112 50 0
3112 -37 -50 0
-3113 -37 0
-3113 -50 0
3113 37 50 0
-3114 -3112 0
-3114 -3113 0
3114 3112 3113 0
-5319 16 0
-5319 5135 0
5319 -16 -5135 0
-5320 -16 0
-5320 -5135 0
5320 16 5135 0
-5321 -5319 0
-5321 -5320 0
5321 5319 5320 0
-5322 2 0
-5322 5321 0
5322 -2 -5321 0
-5323 -2 0
-5323 -5321 0
5323 2 5321 0
-5324 -5322 0
-5324 -5323 0
5324 5322 5323 0
-5343 33 0
-5343 3818 0
5343 -33 -3818 0
-5344 -33 0
-5344 -3818 0
5344 33 3818 0
-5345 -5343 0
-5345 -5344 0
5345 5343 5344 0
-5349 4388 0
-5349 5345 0
5349 -4388 -5345 0
-5350 -4388 0
-5350 -5345 0
5350 4388 5345 0
-5351 -5349 0
-5351 -5350 0
5351 5349 5350 0
-5352 5324 0
-5352 5351 0
5352 -5324 -5351 0
-5353 -5324 0
-5353 -5351 0
5353 5324 5351 0
-5354 -5352 0
-5354 -5353 0
5354 5352 5353 0
-5376 3114 0
-5376 5354 0
5376 -3114 -5354 0
-5377 -3114 0
-5377 -5354 0
5377 3114 5354 0
-5378 -5376 0
-5378 -5377 0
5378 5376 5377 0
-5379 7 0
-5379 5021 0
5379 -7 -5021 0
-5380 -7 0
-5380 -5021 0
5380 7 5021 0
-5381 -5379 0
-5381 -5380 0
5381 5379 5380 0
-5382 17 0
-5382 4031 0
5382 -17 -4031 0
-5383 -17 0
-5383 -4031 0
5383 17 4031 0
-5384 -5382 0
-5384 -5383 0
5384 5382 5383 0
-5385 5381 0
-5385 5384 0
5385 -5381 -5384 0
-5386 -5381 0
-5386 -5384 0
5386 5381 5384 0
-5387 -5385 0
-5387 -5386 0
5387 5385 5386 0
-3957 27 0
-3957 30 0
3957 -27 -30 0
-3958 -27 0
-3958 -30 0
3958 27 30 0
-3959 -3957 0
-3959 -3958 0
3959 3957 3958 0
-5388 20 0
-5388 3698 0
5388 -20 -3698 0
-5389 -20 0
-5389 -3698 0
5389 20 3698 0
-5390 -5388 0
-5390 -5389 0
5390 5388 5389 0
-5421 3959 0
-5421 5390 0
5421 -3959 -5390 0
-5422 -3959 0
-5422 -5390 0
5422 3959 5390 0
-5423 -5421 0
-5423 -5422 0
5423 5421 5422 0
-5424 5387 0
-5424 5423 0
5424 -5387 -5423 0
-5425 -5387 0
-5425 -5423 0
5425 5387 5423 0
-5426 -5424 0
-5426 -5425 0
5426 5424 5425 0
-5427 49 0
-5427 3323 0
5427 -49 -3323 0
-5428 -49 0
-5428 -3323 0
5428 49 3323 0
-5429 -5427 0
-5429 -5428 0
5429 5427 5428 0
-5463 5426 0
-5463 5429 0
5463 -5426 -5429 0
-5464 -5426 0
-5464 -5429 0
5464 5426 5429 0
-5465 -5463 0
-5465 -5464 0
5465 5463 5464 0
-5466 4145 0
-5466 4757 0
5466 -4145 -4757 0
-5467 -4145 0
-5467 -4757 0
5467 4145 4757 0
-5468 -5466 0
-5468 -5467 0
5468 5466 5467 0
-4674 11 0
-4674 12 0
4674 -11 -12 0
-4675 -11 0
-4675 -12 0
4675 11 12 0
-4676 -4674 0
-4676 -4675 0
4676 4674 4675 0
-5478 4031 0
-5478 4676 0
5478 -4031 -4676 0
-5479 -4031 0
-5479 -4676 0
5479 4031 4676 0
-5480 -5478 0
-5480 -5479 0
5480 5478 5479 0
-5481 5468 0
-5481 5480 0
5481 -5468 -5480 0
-5482 -5468 0
-5482 -5480 0
5482 5468 5480 0
-5483 -5481 0
-5483 -5482 0
5483 5481 5482 0
-5520 2839 0
-5520 3479 0
5520 -2839 -3479 0
-5521 -2839 0
-5521 -3479 0
5521 2839 3479 0
-5522 -5520 0
-5522 -5521 0
5522 5520 5521 0
-5523 5483 0
-5523 5522 0
5523 -5483 -5522 0
-5524 -5483 0
-5524 -5522 0
5524 5483 5522 0
-5525 -5523 0
-5525 -5524 0
5525 5523 5524 0
-5526 48 0
-5526 3323 0
5526 -48 -3323 0
-5527 -48 0
-5527 -3323 0
5527 48 3323 0
-5528 -5526 0
-5528 -5527 0
5528 5526 5527 0
-5568 5525 0
-5568 5528 0
5568 -5525 -5528 0
-5569 -5525 0
-5569 -5528 0
5569 5525 5528 0
-5570 -5568 0
-5570 -5569 0
5570 5568 5569 0
-5574 13 0
-5574 5129 0
5574 -13 -5129 0
-5575 -13 0
-5575 -5129 0
5575 13 5129 0
-5576 -5574 0
-5576 -5575 0
5576 5574 5575 0
-4248 20 0
-4248 25 0
4248 -20 -25 0
-4249 -20 0
-4249 -25 0
4249 20 25 0
-4250 -4248 0
-4250 -4249 0
4250 4248 4249 0
-5589 4250 0
-5589 5090 0
5589 -4250 -5090 0
-5590 -4250 0
-5590 -5090 0
5590 4250 5090 0
-5591 -5589 0
-5591 -5590 0
5591 5589 5590 0
-5592 5576 0
-5592 5591 0
5592 -5576 -5591 0
-5593 -5576 0
-5593 -5591 0
5593 5576 5591 0
-5594 -5592 0
-5594 -5593 0
5594 5592 5593 0
-5595 47 0
-5595 3446 0
5595 -47 -3446 0
-5596 -47 0
-5596 -3446 0
5596 47 3446 0
-5597 -5595 0
-5597 -5596 0
5597 5595 5596 0
-5622 5594 0
-5622 5597 0
5622 -5594 -5597 0
-5623 -5594 0
-5623 -5597 0
5623 5594 5597 0
-5624 -5622 0
-5624 -5623 0
5624 5622 5623 0
-4149 11 0
-4149 14 0
4149 -11 -14 0
-4150 -11 0
-4150 -14 0
4150 11 14 0
-4151 -4149 0
-4151 -4150 0
4151 4149 4150 0
-5625 6 0
-5625 9 0
5625 -6 -9 0
-5626 -6 0
-5626 -9 0
5626 6 9 0
-5627 -5625 0
-5627 -5626 0
5627 5625 5626 0
-5628 4556 0
-5628 5627 0
5628 -4556 -5627 0
-5629 -4556 0
-5629 -5627 0
5629 4556 5627 0
-5630 -5628 0
-5630 -5629 0
5630 5628 5629 0
-5637 4151 0
-5637 5630 0
5637 -4151 -5630 0
-5638 -4151 0
-5638 -5630 0
5638 4151 5630 0
-5639 -5637 0
-5639 -5638 0
5639 5637 5638 0
-5640 18 0
-5640 25 0
5640 -18 -25 0
-5641 -18 0
-5641 -25 0
5641 18 25 0
-5642 -5640 0
-5642 -5641 0
5642 5640 5641 0
-5631 27 0
-5631 4142 0
5631 -27 -4142 0
-5632 -27 0
-5632 -4142 0
5632 27 4142 0
-5633 -5631 0
-5633 -5632 0
5633 5631 5632 0
-5658 33 0
-5658 5633 0
5658 -33 -5633 0
-5659 -33 0
-5659 -5633 0
5659 33 5633 0
-5660 -5658 0
-5660 -5659 0
5660 5658 5659 0
-5673 5642 0
-5673 5660 0
5673 -5642 -5660 0
-5674 -5642 0
-5674 -5660 0
5674 5642 5660 0
-5675 -5673 0
-5675 -5674 0
5675 5673 5674 0
-5676 5639 0
-5676 5675 0
5676 -5639 -5675 0
-5677 -5639 0
-5677 -5675 0
5677 5639 5675 0
-5678 -5676 0
-5678 -5677 0
5678 5676 5677 0
-5679 46 0
-5679 3590 0
5679 -46 -3590 0
-5680 -46 0
-5680 -3590 0
5680 46 3590 0
-5681 -5679 0
-5681 -5680 0
5681 5679 5680 0
-5730 5678 0
-5730 5681 0
5730 -5678 -5681 0
-5731 -5678 0
-5731 -5681 0
5731 5678 5681 0
-5732 -5730 0
-5732 -5731 0
5732 5730 5731 0
-5736 15 0
-5736 4676 0
5736 -15 -4676 0
-5737 -15 0
-5737 -4676 0
5737 15 4676 0
-5738 -5736 0
-5738 -5737 0
5738 5736 5737 0
-5739 4757 0
-5739 5738 0
5739 -4757 -5738 0
-5740 -4757 0
-5740 -5738 0
5740 4757 5738 0
-5741 -5739 0
-5741 -5740 0
5741 5739 5740 0
-3567 20 0
-3567 3404 0
3567 -20 -3404 0
-3568 -20 0
-3568 -3404 0
3568 20 3404 0
-3569 -3567 0
-3569 -3568 0
3569 3567 3568 0
-5757 3818 0
-5757 4475 0
5757 -3818 -4475 0
-5758 -3818 0
-5758 -4475 0
5758 3818 4475 0
-5759 -5757 0
-5759 -5758 0
5759 5757 5758 0
-5769 3569 0
-5769 5759 0
5769 -3569 -5759 0
-5770 -3569 0
-5770 -5759 0
5770 3569 5759 0
-5771 -5769 0
-5771 -5770 0
5771 5769 5770 0
-5772 5741 0
-5772 5771 0
5772 -5741 -5771 0
-5773 -5741 0
-5773 -5771 0
5773 5741 5771 0
-5774 -5772 0
-5774 -5773 0
5774 5772 5773 0
-5775 37 0
-5775 45 0
5775 -37 -45 0
-5776 -37 0
-5776 -45 0
5776 37 45 0
-5777 -5775 0
-5777 -5776 0
5777 5775 5776 0
-5814 5774 0
-5814 5777 0
5814 -5774 -5777 0
-5815 -5774 0
-5815 -5777 0
5815 5774 5777 0
-5816 -5814 0
-5816 -5815 0
5816 5814 5815 0
-5820 10 0
-5820 17 0
5820 -10 -17 0
-5821 -10 0
-5821 -17 0
5821 10 17 0
-5822 -5820 0
-5822 -5821 0
5822 5820 5821 0
-5823 3701 0
-5823 5822 0
5823 -3701 -5822 0
-5824 -3701 0
-5824 -5822 0
5824 3701 5822 0
-5825 -5823 0
-5825 -5824 0
5825 5823 5824 0
-5826 3695 0
-5826 4388 0
5826 -3695 -4388 0
-5827 -3695 0
-5827 -4388 0
5827 3695 4388 0
-5828 -5826 0
-5828 -5827 0
5828 5826 5827 0
-5853 30 0
-5853 4295 0
5853 -30 -4295 0
-5854 -30 0
-5854 -4295 0
5854 30 4295 0
-5855 -5853 0
-5855 -5854 0
5855 5853 5854 0
-5865 5828 0
-5865 5855 0
5865 -5828 -5855 0
-5866 -5828 0
-5866 -5855 0
5866 5828 5855 0
-5867 -5865 0
-5867 -5866 0
5867 5865 5866 0
-5868 5825 0
-5868 5867 0
5868 -5825 -5867 0
-5869 -5825 0
-5869 -5867 0
5869 5825 5867 0
-5870 -5868 0
-5870 -5869 0
5870 5868 5869 0
-5871 44 0
-5871 3323 0
5871 -44 -3323 0
-5872 -44 0
-5872 -3323 0
5872 44 3323 0
-5873 -5871 0
-5873 -5872 0
5873 5871 5872 0
-5907 5870 0
-5907 5873 0
5907 -5870 -5873 0
-5908 -5870 0
-5908 -5873 0
5908 5870 5873 0
-5909 -5907 0
-5909 -5908 0
5909 5907 5908 0
-5910 9 0
-5910 4556 0
5910 -9 -4556 0
-5911 -9 0
-5911 -4556 0
5911 9 4556 0
-5912 -5910 0
-5912 -5911 0
5912 5910 5911 0
-5919 10 0
-5919 3557 0
5919 -10 -3557 0
-5920 -10 0
-5920 -3557 0
5920 10 3557 0
-5921 -5919 0
-5921 -5920 0
5921 5919 5920 0
-5922 5912 0
-5922 5921 0
5922 -5912 -5921 0
-5923 -5912 0
-5923 -5921 0
5923 5912 5921 0
-5924 -5922 0
-5924 -5923 0
5924 5922 5923 0
-5937 3437 0
-5937 4142 0
5937 -3437 -4142 0
-5938 -3437 0
-5938 -4142 0
5938 3437 4142 0
-5939 -5937 0
-5939 -5938 0
5939 5937 5938 0
-5949 3698 0
-5949 5939 0
5949 -3698 -5939 0
-5950 -3698 0
-5950 -5939 0
5950 3698 5939 0
-5951 -5949 0
-5951 -5950 0
5951 5949 5950 0
-5952 5924 0
-5952 5951 0
5952 -5924 -5951 0
-5953 -5924 0
-5953 -5951 0
5953 5924 5951 0
-5954 -5952 0
-5954 -5953 0
5954 5952 5953 0
-5955 43 0
-5955 3323 0
5955 -43 -3323 0
-5956 -43 0
-5956 -3323 0
5956 43 3323 0
-5957 -5955 0
-5957 -5956 0
5957 5955 5956 0
-6003 5954 0
-6003 5957 0
6003 -5954 -5957 0
-6004 -5954 0
-6004 -5957 0
6004 5954 5957 0
-6005 -6003 0
-6005 -6004 0
6005 6003 6004 0
-6024 42 0
-6024 3446 0
6024 -42 -3446 0
-6025 -42 0
-6025 -3446 0
6025 42 3446 0
-6026 -6024 0
-6026 -6025 0
6026 6024 6025 0
-6006 7 0
-6006 8 0
6006 -7 -8 0
-6007 -7 0
-6007 -8 0
6007 7 8 0
-6008 -6006 0
-6008 -6007 0
6008 6006 6007 0
-6009 3947 0
-6009 6008 0
6009 -3947 -6008 0
-6010 -3947 0
-6010 -6008 0
6010 3947 6008 0
-6011 -6009 0
-6011 -6010 0
6011 6009 6010 0
-6012 12 0
-6012 17 0
6012 -12 -17 0
-6013 -12 0
-6013 -17 0
6013 12 17 0
-6014 -6012 0
-6014 -6013 0
6014 6012 6013 0
-6015 6011 0
-6015 6014 0
6015 -6011 -6014 0
-6016 -6011 0
-6016 -6014 0
6016 6011 6014 0
-6017 -6015 0
-6017 -6016 0
6017 6015 6016 0
-3564 20 0
-3564 22 0
3564 -20 -22 0
-3565 -20 0
-3565 -22 0
3565 20 22 0
-3566 -3564 0
-3566 -3565 0
3566 3564 3565 0
-6027 32 0
-6027 3566 0
6027 -32 -3566 0
-6028 -32 0
-6028 -3566 0
6028 32 3566 0
-6029 -6027 0
-6029 -6028 0
6029 6027 6028 0
-6030 6017 0
-6030 6029 0
6030 -6017 -6029 0
-6031 -6017 0
-6031 -6029 0
6031 6017 6029 0
-6032 -6030 0
-6032 -6031 0
6032 6030 6031 0
-6054 6026 0
-6054 6032 0
6054 -6026 -6032 0
-6055 -6026 0
-6055 -6032 0
6055 6026 6032 0
-6056 -6054 0
-6056 -6055 0
6056 6054 6055 0
-6114 41 0
-6114 3323 0
6114 -41 -3323 0
-6115 -41 0
-6115 -3323 0
6115 41 3323 0
-6116 -6114 0
-6116 -6115 0
6116 6114 6115 0
-6057 5 0
-6057 3416 0
6057 -5 -3416 0
-6058 -5 0
-6058 -3416 0
6058 5 3416 0
-6059 -6057 0
-6059 -6058 0
6059 6057 6058 0
-6060 5219 0
-6060 6059 0
6060 -5219 -6059 0
-6061 -5219 0
-6061 -6059 0
6061 5219 6059 0
-6062 -6060 0
-6062 -6061 0
6062 6060 6061 0
-6063 20 0
-6063 3431 0
6063 -20 -3431 0
-6064 -20 0
-6064 -3431 0
6064 20 3431 0
-6065 -6063 0
-6065 -6064 0
6065 6063 6064 0
-6102 32 0
-6102 5633 0
6102 -32 -5633 0
-6103 -32 0
-6103 -5633 0
6103 32 5633 0
-6104 -6102 0
-6104 -6103 0
6104 6102 6103 0
-6120 6065 0
-6120 6104 0
6120 -6065 -6104 0
-6121 -6065 0
-6121 -6104 0
6121 6065 6104 0
-6122 -6120 0
-6122 -6121 0
6122 6120 6121 0
-6123 6062 0
-6123 6122 0
6123 -6062 -6122 0
-6124 -6062 0
-6124 -6122 0
6124 6062 6122 0
-6125 -6123 0
-6125 -6124 0
6125 6123 6124 0
-6165 6116 0
-6165 6125 0
6165 -6116 -6125 0
-6166 -6116 0
-6166 -6125 0
6166 6116 6125 0
-6167 -6165 0
-6167 -6166 0
6167 6165 6166 0
-6210 40 0
-6210 3446 0
6210 -40 -3446 0
-6211 -40 0
-6211 -3446 0
6211 40 3446 0
-6212 -6210 0
-6212 -6211 0
6212 6210 6211 0
-6168 6 0
-6168 3947 0
6168 -6 -3947 0
-6169 -6 0
-6169 -3947 0
6169 6 3947 0
-6170 -6168 0
-6170 -6169 0
6170 6168 6169 0
-6174 5135 0
-6174 6170 0
6174 -5135 -6170 0
-6175 -5135 0
-6175 -6170 0
6175 5135 6170 0
-6176 -6174 0
-6176 -6175 0
6176 6174 6175 0
-5733 30 0
-5733 3818 0
5733 -30 -3818 0
-5734 -30 0
-5734 -3818 0
5734 30 3818 0
-5735 -5733 0
-5735 -5734 0
5735 5733 5734 0
-6177 18 0
-6177 3572 0
6177 -18 -3572 0
-6178 -18 0
-6178 -3572 0
6178 18 3572 0
-6179 -6177 0
-6179 -6178 0
6179 6177 6178 0
-6213 5735 0
-6213 6179 0
6213 -5735 -6179 0
-6214 -5735 0
-6214 -6179 0
6214 5735 6179 0
-6215 -6213 0
-6215 -6214 0
6215 6213 6214 0
-6216 6176 0
-6216 6215 0
6216 -6176 -6215 0
-6217 -6176 0
-6217 -6215 0
6217 6176 6215 0
-6218 -6216 0
-6218 -6217 0
6218 6216 6217 0
-6252 6212 0
-6252 6218 0
6252 -6212 -6218 0
-6253 -6212 0
-6253 -6218 0
6253 6212 6218 0
-6254 -6252 0
-6254 -6253 0
6254 6252 6253 0
-6258 37 0
-6258 39 0
6258 -37 -39 0
-6259 -37 0
-6259 -39 0
6259 37 39 0
-6260 -6258 0
-6260 -6259 0
6260 6258 6259 0
-6255 7 0
-6255 4928 0
6255 -7 -4928 0
-6256 -7 0
-6256 -4928 0
6256 7 4928 0
-6257 -6255 0
-6257 -6256 0
6257 6255 6256 0
-6261 14 0
-6261 6257 0
6261 -14 -6257 0
-6262 -14 0
-6262 -6257 0
6262 14 6257 0
-6263 -6261 0
-6263 -6262 0
6263 6261 6262 0
-6264 20 0
-6264 3713 0
6264 -20 -3713 0
-6265 -20 0
-6265 -3713 0
6265 20 3713 0
-6266 -6264 0
-6266 -6265 0
6266 6264 6265 0
-6291 3716 0
-6291 4295 0
6291 -3716 -4295 0
-6292 -3716 0
-6292 -4295 0
6292 3716 4295 0
-6293 -6291 0
-6293 -6292 0
6293 6291 6292 0
-6300 6266 0
-6300 6293 0
6300 -6266 -6293 0
-6301 -6266 0
-6301 -6293 0
6301 6266 6293 0
-6302 -6300 0
-6302 -6301 0
6302 6300 6301 0
-6303 6263 0
-6303 6302 0
6303 -6263 -6302 0
-6304 -6263 0
-6304 -6302 0
6304 6263 6302 0
-6305 -6303 0
-6305 -6304 0
6305 6303 6304 0
-6342 6260 0
-6342 6305 0
6342 -6260 -6305 0
-6343 -6260 0
-6343 -6305 0
6343 6260 6305 0
-6344 -6342 0
-6344 -6343 0
6344 6342 6343 0
-6411 38 0
-6411 3446 0
6411 -38 -3446 0
-6412 -38 0
-6412 -3446 0
6412 38 3446 0
-6413 -6411 0
-6413 -6412 0
6413 6411 6412 0
-6345 3947 0
-6345 4133 0
6345 -3947 -4133 0
-6346 -3947 0
-6346 -4133 0
6346 3947 4133 0
-6347 -6345 0
-6347 -6346 0
6347 6345 6346 0
-6351 3416 0
-6351 6347 0
6351 -3416 -6347 0
-6352 -3416 0
-6352 -6347 0
6352 3416 6347 0
-6353 -6351 0
-6353 -6352 0
6353 6351 6352 0
-6357 3956 0
-6357 4676 0
6357 -3956 -4676 0
-6358 -3956 0
-6358 -4676 0
6358 3956 4676 0
-6359 -6357 0
-6359 -6358 0
6359 6357 6358 0
-6360 6353 0
-6360 6359 0
6360 -6353 -6359 0
-6361 -6353 0
-6361 -6359 0
6361 6353 6359 0
-6362 -6360 0
-6362 -6361 0
6362 6360 6361 0
-6363 3695 0
-6363 3839 0
6363 -3695 -3839 0
-6364 -3695 0
-6364 -3839 0
6364 3695 3839 0
-6365 -6363 0
-6365 -6364 0
6365 6363 6364 0
-6396 4142 0
-6396 4475 0
6396 -4142 -4475 0
-6397 -4142 0
-6397 -4475 0
6397 4142 4475 0
-6398 -6396 0
-6398 -6397 0
6398 6396 6397 0
-6414 6365 0
-6414 6398 0
6414 -6365 -6398 0
-6415 -6365 0
-6415 -6398 0
6415 6365 6398 0
-6416 -6414 0
-6416 -6415 0
6416 6414 6415 0
-6417 6362 0
-6417 6416 0
6417 -6362 -6416 0
-6418 -6362 0
-6418 -6416 0
6418 6362 6416 0
-6419 -6417 0
-6419 -6418 0
6419 6417 6418 0
-6456 6413 0
-6456 6419 0
6456 -6413 -6419 0
-6457 -6413 0
-6457 -6419 0
6457 6413 6419 0
-6458 -6456 0
-6458 -6457 0
6458 6456 6457 0
-6471 36 0
-6471 3551 0
6471 -36 -3551 0
-6472 -36 0
-6472 -3551 0
6472 36 3551 0
-6473 -6471 0
-6473 -6472 0
6473 6471 6472 0
-6462 6 0
-6462 6347 0
6462 -6 -6347 0
-6463 -6 0
-6463 -6347 0
6463 6 6347 0
-6464 -6462 0
-6464 -6463 0
6464 6462 6463 0
-6474 4025 0
-6474 4157 0
6474 -4025 -4157 0
-6475 -4025 0
-6475 -4157 0
6475 4025 4157 0
-6476 -6474 0
-6476 -6475 0
6476 6474 6475 0
-6477 6464 0
-6477 6476 0
6477 -6464 -6476 0
-6478 -6464 0
-6478 -6476 0
6478 6464 6476 0
-6479 -6477 0
-6479 -6478 0
6479 6477 6478 0
-6498 3413 0
-6498 6479 0
6498 -3413 -6479 0
-6499 -3413 0
-6499 -6479 0
6499 3413 6479 0
-6500 -6498 0
-6500 -6499 0
6500 6498 6499 0
-6501 6473 0
-6501 6500 0
6501 -6473 -6500 0
-6502 -6473 0
-6502 -6500 0
6502 6473 6500 0
-6503 -6501 0
-6503 -6502 0
6503 6501 6502 0
-6507 4022 0
-6507 4451 0
6507 -4022 -4451 0
-6508 -4022 0
-6508 -4451 0
6508 4022 4451 0
-6509 -6507 0
-6509 -6508 0
6509 6507 6508 0
-6510 6347 0
-6510 6509 0
6510 -6347 -6509 0
-6511 -6347 0
-6511 -6509 0
6511 6347 6509 0
-6512 -6510 0
-6512 -6511 0
6512 6510 6511 0
-6513 4025 0
-6513 4559 0
6513 -4025 -4559 0
-6514 -4025 0
-6514 -4559 0
6514 4025 4559 0
-6515 -6513 0
-6515 -6514 0
6515 6513 6514 0
-6534 4157 0
-6534 6515 0
6534 -4157 -6515 0
-6535 -4157 0
-6535 -6515 0
6535 4157 6515 0
-6536 -6534 0
-6536 -6535 0
6536 6534 6535 0
-6537 6512 0
-6537 6536 0
6537 -6512 -6536 0
-6538 -6512 0
-6538 -6536 0
6538 6512 6536 0
-6539 -6537 0
-6539 -6538 0
6539 6537 6538 0
-6504 30 0
-6504 31 0
6504 -30 -31 0
-6505 -30 0
-6505 -31 0
6505 30 31 0
-6506 -6504 0
-6506 -6505 0
6506 6504 6505 0
-6549 5633 0
-6549 6506 0
6549 -5633 -6506 0
-6550 -5633 0
-6550 -6506 0
6550 5633 6506 0
-6551 -6549 0
-6551 -6550 0
6551 6549 6550 0
-6555 6539 0
-6555 6551 0
6555 -6539 -6551 0
-6556 -6539 0
-6556 -6551 0
6556 6539 6551 0
-6557 -6555 0
-6557 -6556 0
6557 6555 6556 0
-6561 7 0
-6561 4451 0
6561 -7 -4451 0
-6562 -7 0
-6562 -4451 0
6562 7 4451 0
-6563 -6561 0
-6563 -6562 0
6563 6561 6562 0
-6573 6536 0
-6573 6563 0
6573 -6536 -6563 0
-6574 -6536 0
-6574 -6563 0
6574 6536 6563 0
-6575 -6573 0
-6575 -6574 0
6575 6573 6574 0
-6564 3404 0
-6564 3698 0
6564 -3404 -3698 0
-6565 -3404 0
-6565 -3698 0
6565 3404 3698 0
-6566 -6564 0
-6566 -6565 0
6566 6564 6565 0
-6591 26 0
-6591 6566 0
6591 -26 -6566 0
-6592 -26 0
-6592 -6566 0
6592 26 6566 0
-6593 -6591 0
-6593 -6592 0
6593 6591 6592 0
-6594 6575 0
-6594 6593 0
6594 -6575 -6593 0
-6595 -6575 0
-6595 -6593 0
6595 6575 6593 0
-6596 -6594 0
-6596 -6595 0
6596 6594 6595 0
-6597 20 0
-6597 21 0
6597 -20 -21 0
-6598 -20 0
-6598 -21 0
6598 20 21 0
-6599 -6597 0
-6599 -6598 0
6599 6597 6598 0
-6600 3401 0
-6600 6599 0
6600 -3401 -6599 0
-6601 -3401 0
-6601 -6599 0
6601 3401 6599 0
-6602 -6600 0
-6602 -6601 0
6602 6600 6601 0
-6606 17 0
-6606 4559 0
6606 -17 -4559 0
-6607 -17 0
-6607 -4559 0
6607 17 4559 0
-6608 -6606 0
-6608 -6607 0
6608 6606 6607 0
-6609 6512 0
-6609 6608 0
6609 -6512 -6608 0
-6610 -6512 0
-6610 -6608 0
6610 6512 6608 0
-6611 -6609 0
-6611 -6610 0
6611 6609 6610 0
-6627 6602 0
-6627 6611 0
6627 -6602 -6611 0
-6628 -6602 0
-6628 -6611 0
6628 6602 6611 0
-6629 -6627 0
-6629 -6628 0
6629 6627 6628 0
-6630 -6596 0
-6630 -6629 0
6630 6596 6629 0
-6631 -6557 0
-6631 6630 0
6631 6557 -6630 0
-6632 -6503 0
-6632 6631 0
6632 6503 -6631 0
-6633 -6458 0
-6633 6632 0
6633 6458 -6632 0
-6634 -6344 0
-6634 6633 0
6634 6344 -6633 0
-6635 -6254 0
-6635 6634 0
6635 6254 -6634 0
-6636 -6167 0
-6636 6635 0
6636 6167 -6635 0
-6637 -6056 0
-6637 6636 0
6637 6056 -6636 0
-6638 -6005 0
-6638 6637 0
6638 6005 -6637 0
-6639 -5909 0
-6639 6638 0
6639 5909 -6638 0
-6640 -5816 0
-6640 6639 0
6640 5816 -6639 0
-6641 -5732 0
-6641 6640 0
6641 5732 -6640 0
-6642 -5624 0
-6642 6641 0
6642 5624 -6641 0
-6643 -5570 0
-6643 6642 0
6643 5570 -6642 0
-6644 -5465 0
-6644 6643 0
6644 5465 -6643 0
-6645 -5378 0
-6645 6644 0
6645 5378 -6644 0
-6646 -5318 0
-6646 6645 0
6646 5318 -6645 0
-6647 -5204 0
-6647 6646 0
6647 5204 -6646 0
-6648 -5126 0
-6648 6647 0
6648 5126 -6647 0
-6649 -5057 0
-6649 6648 0
6649 5057 -6648 0
-6650 -5018 0
-6650 6649 0
6650 5018 -6649 0
-6651 -4925 0
-6651 6650 0
6651 4925 -6650 0
-6652 -4835 0
-6652 6651 0
6652 4835 -6651 0
-6653 -4754 0
-6653 6652 0
6653 4754 -6652 0
-6654 -4673 0
-6654 6653 0
6654 4673 -6653 0
-6655 -4610 0
-6655 6654 0
6655 4610 -6654 0
-6656 -4553 0
-6656 6655 0
6656 4553 -6655 0
-6657 -4445 0
-6657 6656 0
6657 4445 -6656 0
-6658 -4385 0
-6658 6657 0
6658 4385 -6657 0
-6659 -4277 0
-6659 6658 0
6659 4277 -6658 0
-6660 -4229 0
-6660 6659 0
6660 4229 -6659 0
-6661 4130 0
-6661 6660 0
6661 -4130 -6660 0
-6662 4019 0
-6662 6661 0
6662 -4019 -6661 0
-6663 3944 0
-6663 6662 0
6663 -3944 -6662 0
-6664 3812 0
-6664 6663 0
6664 -3812 -6663 0
-6665 3692 0
-6665 6664 0
6665 -3692 -6664 0
-6666 3545 0
-6666 6665 0
6666 -3545 -6665 0
-6667 3395 0
-6667 -6666 0
6667 -3395 6666 0
-6697 -120 0
-6697 127 0
6697 120 -127 0
-6692 -119 0
-6692 126 0
6692 119 -126 0
-6687 -118 0
-6687 125 0
6687 118 -125 0
-6682 -117 0
-6682 124 0
6682 117 -124 0
-6677 -116 0
-6677 123 0
6677 116 -123 0
-6672 -115 0
-6672 122 0
6672 115 -122 0
-6668 -114 0
-6668 121 0
6668 114 -121 0
-6669 114 0
-6669 -121 0
6669 -114 121 0
-6670 -6668 0
-6670 -6669 0
6670 6668 6669 0
-6671 -6668 0
-6671 -6670 0
6671 6668 6670 0
-6673 115 0
-6673 -122 0
6673 -115 122 0
-6674 -6672 0
-6674 -6673 0
6674 6672 6673 0
-6675 -6671 0
-6675 6674 0
6675 6671 -6674 0
-6676 -6672 0
-6676 -6675 0
6676 6672 6675 0
-6678 116 0
-6678 -123 0
6678 -116 123 0
-6679 -6677 0
-6679 -6678 0
6679 6677 6678 0
-6680 -6676 0
-6680 6679 0
6680 6676 -6679 0
-6681 -6677 0
-6681 -6680 0
6681 6677 6680 0
-6683 117 0
-6683 -124 0
6683 -117 124 0
-6684 -6682 0
-6684 -6683 0
6684 6682 6683 0
-6685 -6681 0
-6685 6684 0
6685 6681 -6684 0
-6686 -6682 0
-6686 -6685 0
6686 6682 6685 0
-6688 118 0
-6688 -125 0
6688 -118 125 0
-6689 -6687 0
-6689 -6688 0
6689 6687 6688 0
-6690 -6686 0
-6690 6689 0
6690 6686 -6689 0
-6691 -6687 0
-6691 -6690 0
6691 6687 6690 0
-6693 119 0
-6693 -126 0
6693 -119 126 0
-6694 -6692 0
-6694 -6693 0
6694 6692 6693 0
-6695 -6691 0
-6695 6694 0
6695 6691 -6694 0
-6696 -6692 0
-6696 -6695 0
6696 6692 6695 0
-6698 120 0
-6698 -127 0
6698 -120 127 0
-6699 -6697 0
-6699 -6698 0
6699 6697 6698 0
-6700 -6696 0
-6700 6699 0
6700 6696 -6699 0
-6701 -6697 0
-6701 -6700 0
6701 6697 6700 0
-6702 6667 0
-6702 -6701 0
6702 -6667 6701 0
-6732 -113 0
-6732 120 0
6732 113 -120 0
-6727 -112 0
-6727 119 0
6727 112 -119 0
-6722 -111 0
-6722 118 0
6722 111 -118 0
-6717 -110 0
-6717 117 0
6717 110 -117 0
-6712 -109 0
-6712 116 0
6712 109 -116 0
-6707 -108 0
-6707 115 0
6707 108 -115 0
-6703 -107 0
-6703 114 0
6703 107 -114 0
-6704 107 0
-6704 -114 0
6704 -107 114 0
-6705 -6703 0
-6705 -6704 0
6705 6703 6704 0
-6706 -6703 0
-6706 -6705 0
6706 6703 6705 0
-6708 108 0
-6708 -115 0
6708 -108 115 0
-6709 -6707 0
-6709 -6708 0
6709 6707 6708 0
-6710 -6706 0
-6710 6709 0
6710 6706 -6709 0
-6711 -6707 0
-6711 -6710 0
6711 6707 6710 0
-6713 109 0
-6713 -116 0
6713 -109 116 0
-6714 -6712 0
-6714 -6713 0
6714 6712 6713 0
-6715 -6711 0
-6715 6714 0
6715 6711 -6714 0
-6716 -6712 0
-6716 -6715 0
6716 6712 6715 0
-6718 110 0
-6718 -117 0
6718 -110 117 0
-6719 -6717 0
-6719 -6718 0
6719 6717 6718 0
-6720 -6716 0
-6720 6719 0
6720 6716 -6719 0
-6721 -6717 0
-6721 -6720 0
6721 6717 6720 0
-6723 111 0
-6723 -118 0
6723 -111 118 0
-6724 -6722 0
-6724 -6723 0
6724 6722 6723 0
-6725 -6721 0
-6725 6724 0
6725 6721 -6724 0
-6726 -6722 0
-6726 -6725 0
6726 6722 6725 0
-6728 112 0
-6728 -119 0
6728 -112 119 0
-6729 -6727 0
-6729 -6728 0
6729 6727 6728 0
-6730 -6726 0
-6730 6729 0
6730 6726 -6729 0
-6731 -6727 0
-6731 -6730 0
6731 6727 6730 0
-6733 113 0
-6733 -120 0
6733 -113 120 0
-6734 -6732 0
-6734 -6733 0
6734 6732 6733 0
-6735 -6731 0
-6735 6734 0
6735 6731 -6734 0
-6736 -6732 0
-6736 -6735 0
6736 6732 6735 0
-6737 6702 0
-6737 -6736 0
6737 -6702 6736 0
-6767 -106 0
-6767 113 0
6767 106 -113 0
-6762 -105 0
-6762 112 0
6762 105 -112 0
-6757 -104 0
-6757 111 0
6757 104 -111 0
-6752 -103 0
-6752 110 0
6752 103 -110 0
-6747 -102 0
-6747 109 0
6747 102 -109 0
-6742 -101 0
-6742 108 0
6742 101 -108 0
-6738 -100 0
-6738 107 0
6738 100 -107 0
-6739 100 0
-6739 -107 0
6739 -100 107 0
-6740 -6738 0
-6740 -6739 0
6740 6738 6739 0
-6741 -6738 0
-6741 -6740 0
6741 6738 6740 0
-6743 101 0
-6743 -108 0
6743 -101 108 0
-6744 -6742 0
-6744 -6743 0
6744 6742 6743 0
-6745 -6741 0
-6745 6744 0
6745 6741 -6744 0
-6746 -6742 0
-6746 -6745 0
6746 6742 6745 0
-6748 102 0
-6748 -109 0
6748 -102 109 0
-6749 -6747 0
-6749 -6748 0
6749 6747 6748 0
-6750 -6746 0
-6750 6749 0
6750 6746 -6749 0
-6751 -6747 0
-6751 -6750 0
6751 6747 6750 0
-6753 103 0
-6753 -110 0
6753 -103 110 0
-6754 -6752 0
-6754 -6753 0
6754 6752 6753 0
-6755 -6751 0
-6755 6754 0
6755 6751 -6754 0
-6756 -6752 0
-6756 -6755 0
6756 6752 6755 0
-6758 104 0
-6758 -111 0
6758 -104 111 0
-6759 -6757 0
-6759 -6758 0
6759 6757 6758 0
-6760 -6756 0
-6760 6759 0
6760 6756 -6759 0
-6761 -6757 0
-6761 -6760 0
6761 6757 6760 0
-6763 105 0
-6763 -112 0
6763 -105 112 0
-6764 -6762 0
-6764 -6763 0
6764 6762 6763 0
-6765 -6761 0
-6765 6764 0
6765 6761 -6764 0
-6766 -6762 0
-6766 -6765 0
6766 6762 6765 0
-6768 106 0
-6768 -113 0
6768 -106 113 0
-6769 -6767 0
-6769 -6768 0
6769 6767 6768 0
-6770 -6766 0
-6770 6769 0
6770 6766 -6769 0
-6771 -6767 0
-6771 -6770 0
6771 6767 6770 0
-6772 6737 0
-6772 -6771 0
6772 -6737 6771 0
-6802 -99 0
-6802 106 0
6802 99 -106 0
-6797 -98 0
-6797 105 0
6797 98 -105 0
-6792 -97 0
-6792 104 0
6792 97 -104 0
-6787 -96 0
-6787 103 0
6787 96 -103 0
-6782 -95 0
-6782 102 0
6782 95 -102 0
-6777 -94 0
-6777 101 0
6777 94 -101 0
-6773 -93 0
-6773 100 0
6773 93 -100 0
-6774 93 0
-6774 -100 0
6774 -93 100 0
-6775 -6773 0
-6775 -6774 0
6775 6773 6774 0
-6776 -6773 0
-6776 -6775 0
6776 6773 6775 0
-6778 94 0
-6778 -101 0
6778 -94 101 0
-6779 -6777 0
-6779 -6778 0
6779 6777 6778 0
-6780 -6776 0
-6780 6779 0
6780 6776 -6779 0
-6781 -6777 0
-6781 -6780 0
6781 6777 6780 0
-6783 95 0
-6783 -102 0
6783 -95 102 0
-6784 -6782 0
-6784 -6783 0
6784 6782 6783 0
-6785 -6781 0
-6785 6784 0
6785 6781 -6784 0
-6786 -6782 0
-6786 -6785 0
6786 6782 6785 0
-6788 96 0
-6788 -103 0
6788 -96 103 0
-6789 -6787 0
-6789 -6788 0
6789 6787 6788 0
-6790 -6786 0
-6790 6789 0
6790 6786 -6789 0
-6791 -6787 0
-6791 -6790 0
6791 6787 6790 0
-6793 97 0
-6793 -104 0
6793 -97 104 0
-6794 -6792 0
-6794 -6793 0
6794 6792 6793 0
-6795 -6791 0
-6795 6794 0
6795 6791 -6794 0
-6796 -6792 0
-6796 -6795 0
6796 6792 6795 0
-6798 98 0
-6798 -105 0
6798 -98 105 0
-6799 -6797 0
-6799 -6798 0
6799 6797 6798 0
-6800 -6796 0
-6800 6799 0
6800 6796 -6799 0
-6801 -6797 0
-6801 -6800 0
6801 6797 6800 0
-6803 99 0
-6803 -106 0
6803 -99 106 0
-6804 -6802 0
-6804 -6803 0
6804 6802 6803 0
-6805 -6801 0
-6805 6804 0
6805 6801 -6804 0
-6806 -6802 0
-6806 -6805 0
6806 6802 6805 0
-6807 6772 0
-6807 -6806 0
6807 -6772 6806 0
-6837 -92 0
-6837 99 0
6837 92 -99 0
-6832 -91 0
-6832 98 0
6832 91 -98 0
-6827 -90 0
-6827 97 0
6827 90 -97 0
-6822 -89 0
-6822 96 0
6822 89 -96 0
-6817 -88 0
-6817 95 0
6817 88 -95 0
-6812 -87 0
-6812 94 0
6812 87 -94 0
-6808 -86 0
-6808 93 0
6808 86 -93 0
-6809 86 0
-6809 -93 0
6809 -86 93 0
-6810 -6808 0
-6810 -6809 0
6810 6808 6809 0
-6811 -6808 0
-6811 -6810 0
6811 6808 6810 0
-6813 87 0
-6813 -94 0
6813 -87 94 0
-6814 -6812 0
-6814 -6813 0
6814 6812 6813 0
-6815 -6811 0
-6815 6814 0
6815 6811 -6814 0
-6816 -6812 0
-6816 -6815 0
6816 6812 6815 0
-6818 88 0
-6818 -95 0
6818 -88 95 0
-6819 -6817 0
-6819 -6818 0
6819 6817 6818 0
-6820 -6816 0
-6820 6819 0
6820 6816 -6819 0
-6821 -6817 0
-6821 -6820 0
6821 6817 6820 0
-6823 89 0
-6823 -96 0
6823 -89 96 0
-6824 -6822 0
-6824 -6823 0
6824 6822 6823 0
-6825 -6821 0
-6825 6824 0
6825 6821 -6824 0
-6826 -6822 0
-6826 -6825 0
6826 6822 6825 0
-6828 90 0
-6828 -97 0
6828 -90 97 0
-6829 -6827 0
-6829 -6828 0
6829 6827 6828 0
-6830 -6826 0
-6830 6829 0
6830 6826 -6829 0
-6831 -6827 0
-6831 -6830 0
6831 6827 6830 0
-6833 91 0
-6833 -98 0
6833 -91 98 0
-6834 -6832 0
-6834 -6833 0
6834 6832 6833 0
-6835 -6831 0
-6835 6834 0
6835 6831 -6834 0
-6836 -6832 0
-6836 -6835 0
6836 6832 6835 0
-6838 92 0
-6838 -99 0
6838 -92 99 0
-6839 -6837 0
-6839 -6838 0
6839 6837 6838 0
-6840 -6836 0
-6840 6839 0
6840 6836 -6839 0
-6841 -6837 0
-6841 -6840 0
6841 6837 6840 0
-6842 6807 0
-6842 -6841 0
6842 -6807 6841 0
-6872 -85 0
-6872 92 0
6872 85 -92 0
-6867 -84 0
-6867 91 0
6867 84 -91 0
-6862 -83 0
-6862 90 0
6862 83 -90 0
-6857 -82 0
-6857 89 0
6857 82 -89 0
-6852 -81 0
-6852 88 0
6852 81 -88 0
-6847 -80 0
-6847 87 0
6847 80 -87 0
-6843 -79 0
-6843 86 0
6843 79 -86 0
-6844 79 0
-6844 -86 0
6844 -79 86 0
-6845 -6843 0
-6845 -6844 0
6845 6843 6844 0
-6846 -6843 0
-6846 -6845 0
6846 6843 6845 0
-6848 80 0
-6848 -87 0
6848 -80 87 0
-6849 -6847 0
-6849 -6848 0
6849 6847 6848 0
-6850 -6846 0
-6850 6849 0
6850 6846 -6849 0
-6851 -6847 0
-6851 -6850 0
6851 6847 6850 0
-6853 81 0
-6853 -88 0
6853 -81 88 0
-6854 -6852 0
-6854 -6853 0
6854 6852 6853 0
-6855 -6851 0
-6855 6854 0
6855 6851 -6854 0
-6856 -6852 0
-6856 -6855 0
6856 6852 6855 0
-6858 82 0
-6858 -89 0
6858 -82 89 0
-6859 -6857 0
-6859 -6858 0
6859 6857 6858 0
-6860 -6856 0
-6860 6859 0
6860 6856 -6859 0
-6861 -6857 0
-6861 -6860 0
6861 6857 6860 0
-6863 83 0
-6863 -90 0
6863 -83 90 0
-6864 -6862 0
-6864 -6863 0
6864 6862 6863 0
-6865 -6861 0
-6865 6864 0
6865 6861 -6864 0
-6866 -6862 0
-6866 -6865 0
6866 6862 6865 0
-6868 84 0
-6868 -91 0
6868 -84 91 0
-6869 -6867 0
-6869 -6868 0
6869 6867 6868 0
-6870 -6866 0
-6870 6869 0
6870 6866 -6869 0
-6871 -6867 0
-6871 -6870 0
6871 6867 6870 0
-6873 85 0
-6873 -92 0
6873 -85 92 0
-6874 -6872 0
-6874 -6873 0
6874 6872 6873 0
-6875 -6871 0
-6875 6874 0
6875 6871 -6874 0
-6876 -6872 0
-6876 -6875 0
6876 6872 6875 0
-6877 6842 0
-6877 -6876 0
6877 -6842 6876 0
-6907 -78 0
-6907 85 0
6907 78 -85 0
-6902 -77 0
-6902 84 0
6902 77 -84 0
-6897 -76 0
-6897 83 0
6897 76 -83 0
-6892 -75 0
-6892 82 0
6892 75 -82 0
-6887 -74 0
-6887 81 0
6887 74 -81 0
-6882 -73 0
-6882 80 0
6882 73 -80 0
-6878 -72 0
-6878 79 0
6878 72 -79 0
-6879 72 0
-6879 -79 0
6879 -72 79 0
-6880 -6878 0
-6880 -6879 0
6880 6878 6879 0
-6881 -6878 0
-6881 -6880 0
6881 6878 6880 0
-6883 73 0
-6883 -80 0
6883 -73 80 0
-6884 -6882 0
-6884 -6883 0
6884 6882 6883 0
-6885 -6881 0
-6885 6884 0
6885 6881 -6884 0
-6886 -6882 0
-6886 -6885 0
6886 6882 6885 0
-6888 74 0
-6888 -81 0
6888 -74 81 0
-6889 -6887 0
-6889 -6888 0
6889 6887 6888 0
-6890 -6886 0
-6890 6889 0
6890 6886 -6889 0
-6891 -6887 0
-6891 -6890 0
6891 6887 6890 0
-6893 75 0
-6893 -82 0
6893 -75 82 0
-6894 -6892 0
-6894 -6893 0
6894 6892 6893 0
-6895 -6891 0
-6895 6894 0
6895 6891 -6894 0
-6896 -6892 0
-6896 -6895 0
6896 6892 6895 0
-6898 76 0
-6898 -83 0
6898 -76 83 0
-6899 -6897 0
-6899 -6898 0
6899 6897 6898 0
-6900 -6896 0
-6900 6899 0
6900 6896 -6899 0
-6901 -6897 0
-6901 -6900 0
6901 6897 6900 0
-6903 77 0
-6903 -84 0
6903 -77 84 0
-6904 -6902 0
-6904 -6903 0
6904 6902 6903 0
-6905 -6901 0
-6905 6904 0
6905 6901 -6904 0
-6906 -6902 0
-6906 -6905 0
6906 6902 6905 0
-6908 78 0
-6908 -85 0
6908 -78 85 0
-6909 -6907 0
-6909 -6908 0
6909 6907 6908 0
-6910 -6906 0
-6910 6909 0
6910 6906 -6909 0
-6911 -6907 0
-6911 -6910 0
6911 6907 6910 0
-6912 6877 0
-6912 -6911 0
6912 -6877 6911 0
6912 0
