p cnf 1339 3467
17 -1218 0
-17 1218 0
236 -1258 0
-236 1258 0
-239 -17 0
-239 236 0
239 17 -236 0
-237 17 0
-237 -236 0
237 -17 236 0
18 -1219 0
-18 1219 0
219 -1256 0
-219 1256 0
-222 -18 0
-222 219 0
222 18 -219 0
-220 18 0
-220 -219 0
220 -18 219 0
19 -1220 0
-19 1220 0
202 -1254 0
-202 1254 0
-205 -19 0
-205 202 0
205 19 -202 0
-203 19 0
-203 -202 0
203 -19 202 0
20 -1221 0
-20 1221 0
185 -1252 0
-185 1252 0
-188 -20 0
-188 185 0
188 20 -185 0
-186 20 0
-186 -185 0
186 -20 185 0
21 -1222 0
-21 1222 0
168 -1250 0
-168 1250 0
-171 -21 0
-171 168 0
171 21 -168 0
-169 21 0
-169 -168 0
169 -21 168 0
22 -1223 0
-22 1223 0
159 -1249 0
-159 1249 0
-162 -22 0
-162 159 0
162 22 -159 0
-160 22 0
-160 -159 0
160 -22 159 0
23 -1224 0
-23 1224 0
142 -1247 0
-142 1247 0
-145 -23 0
-145 142 0
145 23 -142 0
-143 23 0
-143 -142 0
143 -23 142 0
24 -1225 0
-24 1225 0
125 -1245 0
-125 1245 0
-128 -24 0
-128 125 0
128 24 -125 0
-126 24 0
-126 -125 0
126 -24 125 0
25 -1226 0
-25 1226 0
108 -1243 0
-108 1243 0
-111 -25 0
-111 108 0
111 25 -108 0
-109 25 0
-109 -108 0
109 -25 108 0
9 -1210 0
-9 1210 0
15 -1216 0
-15 1216 0
262 -1261 0
-262 1261 0
-265 -15 0
-265 262 0
265 15 -262 0
-263 15 0
-263 -262 0
263 -15 262 0
16 -1217 0
-16 1217 0
245 -1259 0
-245 1259 0
-248 -16 0
-248 245 0
248 16 -245 0
-246 16 0
-246 -245 0
246 -16 245 0
12 -1213 0
-12 1213 0
313 -1267 0
-313 1267 0
-316 -12 0
-316 313 0
316 12 -313 0
-314 12 0
-314 -313 0
314 -12 313 0
13 -1214 0
-13 1214 0
296 -1265 0
-296 1265 0
-299 -13 0
-299 296 0
299 13 -296 0
-297 13 0
-297 -296 0
297 -13 296 0
14 -1215 0
-14 1215 0
279 -1263 0
-279 1263 0
-282 -14 0
-282 279 0
282 14 -279 0
-280 14 0
-280 -279 0
280 -14 279 0
2 -1203 0
-2 1203 0
435 -1278 0
-435 1278 0
-804 2 0
-804 -435 0
804 -2 435 0
-805 -2 0
-805 435 0
805 2 -435 0
-806 -804 0
-806 -805 0
806 804 805 0
807 -1310 0
-807 1310 0
-810 -806 0
-810 -807 0
810 806 807 0
-808 806 0
-808 807 0
808 -806 -807 0
7 -1208 0
-7 1208 0
-438 -7 0
-438 435 0
438 7 -435 0
-436 7 0
-436 -435 0
436 -7 435 0
3 -1204 0
-3 1204 0
418 -1276 0
-418 1276 0
-790 3 0
-790 -418 0
790 -3 418 0
-791 -3 0
-791 418 0
791 3 -418 0
-792 -790 0
-792 -791 0
792 790 791 0
793 -1309 0
-793 1309 0
-796 -792 0
-796 -793 0
796 792 793 0
-794 792 0
-794 793 0
794 -792 -793 0
8 -1209 0
-8 1209 0
-421 -8 0
-421 418 0
421 8 -418 0
-419 8 0
-419 -418 0
419 -8 418 0
4 -1205 0
-4 1205 0
401 -1274 0
-401 1274 0
-768 4 0
-768 -401 0
768 -4 401 0
-769 -4 0
-769 401 0
769 4 -401 0
-770 -768 0
-770 -769 0
770 768 769 0
771 -1307 0
-771 1307 0
-774 -770 0
-774 -771 0
774 770 771 0
-772 770 0
-772 771 0
772 -770 -771 0
-404 -9 0
-404 401 0
404 9 -401 0
-402 9 0
-402 -401 0
402 -9 401 0
5 -1206 0
-5 1206 0
392 -1273 0
-392 1273 0
-746 5 0
-746 -392 0
746 -5 392 0
-747 -5 0
-747 392 0
747 5 -392 0
-748 -746 0
-748 -747 0
748 746 747 0
749 -1305 0
-749 1305 0
-752 -748 0
-752 -749 0
752 748 749 0
-750 748 0
-750 749 0
750 -748 -749 0
10 -1211 0
-10 1211 0
-395 -10 0
-395 392 0
395 10 -392 0
-393 10 0
-393 -392 0
393 -10 392 0
6 -1207 0
-6 1207 0
452 -1280 0
-452 1280 0
-724 6 0
-724 -452 0
724 -6 452 0
-725 -6 0
-725 452 0
725 6 -452 0
-726 -724 0
-726 -725 0
726 724 725 0
727 -1303 0
-727 1303 0
-730 -726 0
-730 -727 0
730 726 727 0
-728 726 0
-728 727 0
728 -726 -727 0
11 -1212 0
-11 1212 0
-455 -11 0
-455 452 0
455 11 -452 0
-453 11 0
-453 -452 0
453 -11 452 0
29 -1230 0
-29 1230 0
42 -1236 0
-42 1236 0
-45 -29 0
-45 42 0
45 29 -42 0
-43 29 0
-43 -42 0
43 -29 42 0
33 -1234 0
-33 1234 0
34 -1235 0
-34 1235 0
-35 33 0
-35 -34 0
35 -33 34 0
-36 -33 0
-36 34 0
36 33 -34 0
-37 -35 0
-37 -36 0
37 35 36 0
-38 21 0
-38 -34 0
38 -21 34 0
-39 -21 0
-39 34 0
39 21 -34 0
-40 -38 0
-40 -39 0
40 38 39 0
-41 37 0
-41 40 0
41 -37 -40 0
-44 41 0
-44 -43 0
44 -41 43 0
-46 44 0
-46 -45 0
46 -44 45 0
-47 20 0
-47 -42 0
47 -20 42 0
-48 -20 0
-48 42 0
48 20 -42 0
-49 -47 0
-49 -48 0
49 47 48 0
50 -1237 0
-50 1237 0
-51 49 0
-51 50 0
51 -49 -50 0
-52 46 0
-52 -51 0
52 -46 51 0
-53 -49 0
-53 -50 0
53 49 50 0
-54 52 0
-54 -53 0
54 -52 53 0
32 -1233 0
-32 1233 0
-55 32 0
-55 -50 0
55 -32 50 0
-56 -32 0
-56 50 0
56 32 -50 0
-57 -55 0
-57 -56 0
57 55 56 0
-58 54 0
-58 57 0
58 -54 -57 0
28 -1229 0
-28 1229 0
59 -1238 0
-59 1238 0
-60 28 0
-60 -59 0
60 -28 59 0
-61 58 0
-61 -60 0
61 -58 60 0
-62 -28 0
-62 59 0
62 28 -59 0
-63 61 0
-63 -62 0
63 -61 62 0
-64 19 0
-64 -59 0
64 -19 59 0
-65 -19 0
-65 59 0
65 19 -59 0
-66 -64 0
-66 -65 0
66 64 65 0
67 -1239 0
-67 1239 0
-68 66 0
-68 67 0
68 -66 -67 0
-69 63 0
-69 -68 0
69 -63 68 0
-70 -66 0
-70 -67 0
70 66 67 0
-71 69 0
-71 -70 0
71 -69 70 0
31 -1232 0
-31 1232 0
-72 31 0
-72 -67 0
72 -31 67 0
-73 -31 0
-73 67 0
73 31 -67 0
-74 -72 0
-74 -73 0
74 72 73 0
-75 71 0
-75 74 0
75 -71 -74 0
27 -1228 0
-27 1228 0
76 -1240 0
-76 1240 0
-77 27 0
-77 -76 0
77 -27 76 0
-78 75 0
-78 -77 0
78 -75 77 0
-79 -27 0
-79 76 0
79 27 -76 0
-80 78 0
-80 -79 0
80 -78 79 0
-81 18 0
-81 -76 0
81 -18 76 0
-82 -18 0
-82 76 0
82 18 -76 0
-83 -81 0
-83 -82 0
83 81 82 0
84 -1241 0
-84 1241 0
-85 83 0
-85 84 0
85 -83 -84 0
-86 80 0
-86 -85 0
86 -80 85 0
-87 -83 0
-87 -84 0
87 83 84 0
-88 86 0
-88 -87 0
88 -86 87 0
30 -1231 0
-30 1231 0
-89 30 0
-89 -84 0
89 -30 84 0
-90 -30 0
-90 84 0
90 30 -84 0
-91 -89 0
-91 -90 0
91 89 90 0
-92 88 0
-92 91 0
92 -88 -91 0
26 -1227 0
-26 1227 0
93 -1242 0
-93 1242 0
-94 26 0
-94 -93 0
94 -26 93 0
-95 92 0
-95 -94 0
95 -92 94 0
-96 -26 0
-96 93 0
96 26 -93 0
-97 95 0
-97 -96 0
97 -95 96 0
-98 17 0
-98 -93 0
98 -17 93 0
-99 -17 0
-99 93 0
99 17 -93 0
-100 -98 0
-100 -99 0
100 98 99 0
-101 97 0
-101 100 0
101 -97 -100 0
-102 -43 0
-102 101 0
102 43 -101 0
-103 -45 0
-103 102 0
103 45 -102 0
-104 16 0
-104 -42 0
104 -16 42 0
-105 -16 0
-105 42 0
105 16 -42 0
-106 -104 0
-106 -105 0
106 104 105 0
-107 103 0
-107 106 0
107 -103 -106 0
-110 107 0
-110 -109 0
110 -107 109 0
-112 110 0
-112 -111 0
112 -110 111 0
-113 15 0
-113 -108 0
113 -15 108 0
-114 -15 0
-114 108 0
114 15 -108 0
-115 -113 0
-115 -114 0
115 113 114 0
116 -1244 0
-116 1244 0
-117 115 0
-117 116 0
117 -115 -116 0
-118 112 0
-118 -117 0
118 -112 117 0
-119 -115 0
-119 -116 0
119 115 116 0
-120 118 0
-120 -119 0
120 -118 119 0
-121 28 0
-121 -116 0
121 -28 116 0
-122 -28 0
-122 116 0
122 28 -116 0
-123 -121 0
-123 -122 0
123 121 122 0
-124 120 0
-124 123 0
124 -120 -123 0
-127 124 0
-127 -126 0
127 -124 126 0
-129 127 0
-129 -128 0
129 -127 128 0
-130 14 0
-130 -125 0
130 -14 125 0
-131 -14 0
-131 125 0
131 14 -125 0
-132 -130 0
-132 -131 0
132 130 131 0
133 -1246 0
-133 1246 0
-134 132 0
-134 133 0
134 -132 -133 0
-135 129 0
-135 -134 0
135 -129 134 0
-136 -132 0
-136 -133 0
136 132 133 0
-137 135 0
-137 -136 0
137 -135 136 0
-138 27 0
-138 -133 0
138 -27 133 0
-139 -27 0
-139 133 0
139 27 -133 0
-140 -138 0
-140 -139 0
140 138 139 0
-141 137 0
-141 140 0
141 -137 -140 0
-144 141 0
-144 -143 0
144 -141 143 0
-146 144 0
-146 -145 0
146 -144 145 0
-147 13 0
-147 -142 0
147 -13 142 0
-148 -13 0
-148 142 0
148 13 -142 0
-149 -147 0
-149 -148 0
149 147 148 0
150 -1248 0
-150 1248 0
-151 149 0
-151 150 0
151 -149 -150 0
-152 146 0
-152 -151 0
152 -146 151 0
-153 -149 0
-153 -150 0
153 149 150 0
-154 152 0
-154 -153 0
154 -152 153 0
-155 26 0
-155 -150 0
155 -26 150 0
-156 -26 0
-156 150 0
156 26 -150 0
-157 -155 0
-157 -156 0
157 155 156 0
-158 154 0
-158 157 0
158 -154 -157 0
-161 158 0
-161 -160 0
161 -158 160 0
-163 161 0
-163 -162 0
163 -161 162 0
-164 12 0
-164 -159 0
164 -12 159 0
-165 -12 0
-165 159 0
165 12 -159 0
-166 -164 0
-166 -165 0
166 164 165 0
-167 163 0
-167 166 0
167 -163 -166 0
-170 167 0
-170 -169 0
170 -167 169 0
-172 170 0
-172 -171 0
172 -170 171 0
-173 11 0
-173 -168 0
173 -11 168 0
-174 -11 0
-174 168 0
174 11 -168 0
-175 -173 0
-175 -174 0
175 173 174 0
176 -1251 0
-176 1251 0
-177 175 0
-177 176 0
177 -175 -176 0
-178 172 0
-178 -177 0
178 -172 177 0
-179 -175 0
-179 -176 0
179 175 176 0
-180 178 0
-180 -179 0
180 -178 179 0
-181 25 0
-181 -176 0
181 -25 176 0
-182 -25 0
-182 176 0
182 25 -176 0
-183 -181 0
-183 -182 0
183 181 182 0
-184 180 0
-184 183 0
184 -180 -183 0
-187 184 0
-187 -186 0
187 -184 186 0
-189 187 0
-189 -188 0
189 -187 188 0
-190 10 0
-190 -185 0
190 -10 185 0
-191 -10 0
-191 185 0
191 10 -185 0
-192 -190 0
-192 -191 0
192 190 191 0
193 -1253 0
-193 1253 0
-194 192 0
-194 193 0
194 -192 -193 0
-195 189 0
-195 -194 0
195 -189 194 0
-196 -192 0
-196 -193 0
196 192 193 0
-197 195 0
-197 -196 0
197 -195 196 0
-198 24 0
-198 -193 0
198 -24 193 0
-199 -24 0
-199 193 0
199 24 -193 0
-200 -198 0
-200 -199 0
200 198 199 0
-201 197 0
-201 200 0
201 -197 -200 0
-204 201 0
-204 -203 0
204 -201 203 0
-206 204 0
-206 -205 0
206 -204 205 0
-207 9 0
-207 -202 0
207 -9 202 0
-208 -9 0
-208 202 0
208 9 -202 0
-209 -207 0
-209 -208 0
209 207 208 0
210 -1255 0
-210 1255 0
-211 209 0
-211 210 0
211 -209 -210 0
-212 206 0
-212 -211 0
212 -206 211 0
-213 -209 0
-213 -210 0
213 209 210 0
-214 212 0
-214 -213 0
214 -212 213 0
-215 23 0
-215 -210 0
215 -23 210 0
-216 -23 0
-216 210 0
216 23 -210 0
-217 -215 0
-217 -216 0
217 215 216 0
-218 214 0
-218 217 0
218 -214 -217 0
-221 218 0
-221 -220 0
221 -218 220 0
-223 221 0
-223 -222 0
223 -221 222 0
-224 8 0
-224 -219 0
224 -8 219 0
-225 -8 0
-225 219 0
225 8 -219 0
-226 -224 0
-226 -225 0
226 224 225 0
227 -1257 0
-227 1257 0
-228 226 0
-228 227 0
228 -226 -227 0
-229 223 0
-229 -228 0
229 -223 228 0
-230 -226 0
-230 -227 0
230 226 227 0
-231 229 0
-231 -230 0
231 -229 230 0
-232 22 0
-232 -227 0
232 -22 227 0
-233 -22 0
-233 227 0
233 22 -227 0
-234 -232 0
-234 -233 0
234 232 233 0
-235 231 0
-235 234 0
235 -231 -234 0
-238 235 0
-238 -237 0
238 -235 237 0
-240 238 0
-240 -239 0
240 -238 239 0
-241 7 0
-241 -236 0
241 -7 236 0
-242 -7 0
-242 236 0
242 7 -236 0
-243 -241 0
-243 -242 0
243 241 242 0
-244 240 0
-244 243 0
244 -240 -243 0
-247 244 0
-247 -246 0
247 -244 246 0
-249 247 0
-249 -248 0
249 -247 248 0
-250 6 0
-250 -245 0
250 -6 245 0
-251 -6 0
-251 245 0
251 6 -245 0
-252 -250 0
-252 -251 0
252 250 251 0
253 -1260 0
-253 1260 0
-254 252 0
-254 253 0
254 -252 -253 0
-255 249 0
-255 -254 0
255 -249 254 0
-256 -252 0
-256 -253 0
256 252 253 0
-257 255 0
-257 -256 0
257 -255 256 0
-258 20 0
-258 -253 0
258 -20 253 0
-259 -20 0
-259 253 0
259 20 -253 0
-260 -258 0
-260 -259 0
260 258 259 0
-261 257 0
-261 260 0
261 -257 -260 0
-264 261 0
-264 -263 0
264 -261 263 0
-266 264 0
-266 -265 0
266 -264 265 0
-267 5 0
-267 -262 0
267 -5 262 0
-268 -5 0
-268 262 0
268 5 -262 0
-269 -267 0
-269 -268 0
269 267 268 0
270 -1262 0
-270 1262 0
-271 269 0
-271 270 0
271 -269 -270 0
-272 266 0
-272 -271 0
272 -266 271 0
-273 -269 0
-273 -270 0
273 269 270 0
-274 272 0
-274 -273 0
274 -272 273 0
-275 19 0
-275 -270 0
275 -19 270 0
-276 -19 0
-276 270 0
276 19 -270 0
-277 -275 0
-277 -276 0
277 275 276 0
-278 274 0
-278 277 0
278 -274 -277 0
-281 278 0
-281 -280 0
281 -278 280 0
-283 281 0
-283 -282 0
283 -281 282 0
-284 4 0
-284 -279 0
284 -4 279 0
-285 -4 0
-285 279 0
285 4 -279 0
-286 -284 0
-286 -285 0
286 284 285 0
287 -1264 0
-287 1264 0
-288 286 0
-288 287 0
288 -286 -287 0
-289 283 0
-289 -288 0
289 -283 288 0
-290 -286 0
-290 -287 0
290 286 287 0
-291 289 0
-291 -290 0
291 -289 290 0
-292 18 0
-292 -287 0
292 -18 287 0
-293 -18 0
-293 287 0
293 18 -287 0
-294 -292 0
-294 -293 0
294 292 293 0
-295 291 0
-295 294 0
295 -291 -294 0
-298 295 0
-298 -297 0
298 -295 297 0
-300 298 0
-300 -299 0
300 -298 299 0
-301 3 0
-301 -296 0
301 -3 296 0
-302 -3 0
-302 296 0
302 3 -296 0
-303 -301 0
-303 -302 0
303 301 302 0
304 -1266 0
-304 1266 0
-305 303 0
-305 304 0
305 -303 -304 0
-306 300 0
-306 -305 0
306 -300 305 0
-307 -303 0
-307 -304 0
307 303 304 0
-308 306 0
-308 -307 0
308 -306 307 0
-309 17 0
-309 -304 0
309 -17 304 0
-310 -17 0
-310 304 0
310 17 -304 0
-311 -309 0
-311 -310 0
311 309 310 0
-312 308 0
-312 311 0
312 -308 -311 0
-315 312 0
-315 -314 0
315 -312 314 0
-317 315 0
-317 -316 0
317 -315 316 0
-318 2 0
-318 -313 0
318 -2 313 0
-319 -2 0
-319 313 0
319 2 -313 0
-320 -318 0
-320 -319 0
320 318 319 0
321 -1268 0
-321 1268 0
-322 320 0
-322 321 0
322 -320 -321 0
-323 317 0
-323 -322 0
323 -317 322 0
-324 -320 0
-324 -321 0
324 320 321 0
-325 323 0
-325 -324 0
325 -323 324 0
-326 21 0
-326 -321 0
326 -21 321 0
-327 -21 0
-327 321 0
327 21 -321 0
-328 -326 0
-328 -327 0
328 326 327 0
-329 325 0
-329 328 0
329 -325 -328 0
-330 -263 0
-330 329 0
330 263 -329 0
-331 -265 0
-331 330 0
331 265 -330 0
-332 11 0
-332 -262 0
332 -11 262 0
-333 -11 0
-333 262 0
333 11 -262 0
-334 -332 0
-334 -333 0
334 332 333 0
-335 331 0
-335 334 0
335 -331 -334 0
-336 -280 0
-336 335 0
336 280 -335 0
-337 -282 0
-337 336 0
337 282 -336 0
-338 10 0
-338 -279 0
338 -10 279 0
-339 -10 0
-339 279 0
339 10 -279 0
-340 -338 0
-340 -339 0
340 338 339 0
341 -1269 0
-341 1269 0
-342 340 0
-342 341 0
342 -340 -341 0
-343 337 0
-343 -342 0
343 -337 342 0
-344 -340 0
-344 -341 0
344 340 341 0
-345 343 0
-345 -344 0
345 -343 344 0
-346 33 0
-346 -341 0
346 -33 341 0
-347 -33 0
-347 341 0
347 33 -341 0
-348 -346 0
-348 -347 0
348 346 347 0
-349 345 0
-349 348 0
349 -345 -348 0
-350 -297 0
-350 349 0
350 297 -349 0
-351 -299 0
-351 350 0
351 299 -350 0
-352 9 0
-352 -296 0
352 -9 296 0
-353 -9 0
-353 296 0
353 9 -296 0
-354 -352 0
-354 -353 0
354 352 353 0
355 -1270 0
-355 1270 0
-356 354 0
-356 355 0
356 -354 -355 0
-357 351 0
-357 -356 0
357 -351 356 0
-358 -354 0
-358 -355 0
358 354 355 0
-359 357 0
-359 -358 0
359 -357 358 0
-360 32 0
-360 -355 0
360 -32 355 0
-361 -32 0
-361 355 0
361 32 -355 0
-362 -360 0
-362 -361 0
362 360 361 0
-363 359 0
-363 362 0
363 -359 -362 0
-364 -314 0
-364 363 0
364 314 -363 0
-365 -316 0
-365 364 0
365 316 -364 0
-366 8 0
-366 -313 0
366 -8 313 0
-367 -8 0
-367 313 0
367 8 -313 0
-368 -366 0
-368 -367 0
368 366 367 0
369 -1271 0
-369 1271 0
-370 368 0
-370 369 0
370 -368 -369 0
-371 365 0
-371 -370 0
371 -365 370 0
-372 -368 0
-372 -369 0
372 368 369 0
-373 371 0
-373 -372 0
373 -371 372 0
-374 31 0
-374 -369 0
374 -31 369 0
-375 -31 0
-375 369 0
375 31 -369 0
-376 -374 0
-376 -375 0
376 374 375 0
-377 373 0
-377 376 0
377 -373 -376 0
-378 -246 0
-378 377 0
378 246 -377 0
-379 -248 0
-379 378 0
379 248 -378 0
-380 7 0
-380 -245 0
380 -7 245 0
-381 -7 0
-381 245 0
381 7 -245 0
-382 -380 0
-382 -381 0
382 380 381 0
383 -1272 0
-383 1272 0
-384 382 0
-384 383 0
384 -382 -383 0
-385 379 0
-385 -384 0
385 -379 384 0
-386 -382 0
-386 -383 0
386 382 383 0
-387 385 0
-387 -386 0
387 -385 386 0
-388 30 0
-388 -383 0
388 -30 383 0
-389 -30 0
-389 383 0
389 30 -383 0
-390 -388 0
-390 -389 0
390 388 389 0
-391 387 0
-391 390 0
391 -387 -390 0
-394 391 0
-394 -393 0
394 -391 393 0
-396 394 0
-396 -395 0
396 -394 395 0
-397 6 0
-397 -392 0
397 -6 392 0
-398 -6 0
-398 392 0
398 6 -392 0
-399 -397 0
-399 -398 0
399 397 398 0
-400 396 0
-400 399 0
400 -396 -399 0
-403 400 0
-403 -402 0
403 -400 402 0
-405 403 0
-405 -404 0
405 -403 404 0
-406 5 0
-406 -401 0
406 -5 401 0
-407 -5 0
-407 401 0
407 5 -401 0
-408 -406 0
-408 -407 0
408 406 407 0
409 -1275 0
-409 1275 0
-410 408 0
-410 409 0
410 -408 -409 0
-411 405 0
-411 -410 0
411 -405 410 0
-412 -408 0
-412 -409 0
412 408 409 0
-413 411 0
-413 -412 0
413 -411 412 0
-414 29 0
-414 -409 0
414 -29 409 0
-415 -29 0
-415 409 0
415 29 -409 0
-416 -414 0
-416 -415 0
416 414 415 0
-417 413 0
-417 416 0
417 -413 -416 0
-420 417 0
-420 -419 0
420 -417 419 0
-422 420 0
-422 -421 0
422 -420 421 0
-423 4 0
-423 -418 0
423 -4 418 0
-424 -4 0
-424 418 0
424 4 -418 0
-425 -423 0
-425 -424 0
425 423 424 0
426 -1277 0
-426 1277 0
-427 425 0
-427 426 0
427 -425 -426 0
-428 422 0
-428 -427 0
428 -422 427 0
-429 -425 0
-429 -426 0
429 425 426 0
-430 428 0
-430 -429 0
430 -428 429 0
-431 28 0
-431 -426 0
431 -28 426 0
-432 -28 0
-432 426 0
432 28 -426 0
-433 -431 0
-433 -432 0
433 431 432 0
-434 430 0
-434 433 0
434 -430 -433 0
-437 434 0
-437 -436 0
437 -434 436 0
-439 437 0
-439 -438 0
439 -437 438 0
-440 3 0
-440 -435 0
440 -3 435 0
-441 -3 0
-441 435 0
441 3 -435 0
-442 -440 0
-442 -441 0
442 440 441 0
443 -1279 0
-443 1279 0
-444 442 0
-444 443 0
444 -442 -443 0
-445 439 0
-445 -444 0
445 -439 444 0
-446 -442 0
-446 -443 0
446 442 443 0
-447 445 0
-447 -446 0
447 -445 446 0
-448 27 0
-448 -443 0
448 -27 443 0
-449 -27 0
-449 443 0
449 27 -443 0
-450 -448 0
-450 -449 0
450 448 449 0
-451 447 0
-451 450 0
451 -447 -450 0
-454 451 0
-454 -453 0
454 -451 453 0
-456 454 0
-456 -455 0
456 -454 455 0
-457 2 0
-457 -452 0
457 -2 452 0
-458 -2 0
-458 452 0
458 2 -452 0
-459 -457 0
-459 -458 0
459 457 458 0
460 -1281 0
-460 1281 0
-461 459 0
-461 460 0
461 -459 -460 0
-462 456 0
-462 -461 0
462 -456 461 0
-463 -459 0
-463 -460 0
463 459 460 0
-464 462 0
-464 -463 0
464 -462 463 0
-465 26 0
-465 -460 0
465 -26 460 0
-466 -26 0
-466 460 0
466 26 -460 0
-467 -465 0
-467 -466 0
467 465 466 0
-468 464 0
-468 467 0
468 -464 -467 0
-469 -5 0
-469 468 0
469 5 -468 0
-470 -109 0
-470 469 0
470 109 -469 0
-471 -111 0
-471 470 0
471 111 -470 0
-472 4 0
-472 -108 0
472 -4 108 0
-473 -4 0
-473 108 0
473 4 -108 0
-474 -472 0
-474 -473 0
474 472 473 0
475 -1282 0
-475 1282 0
-476 474 0
-476 475 0
476 -474 -475 0
-477 471 0
-477 -476 0
477 -471 476 0
-478 -474 0
-478 -475 0
478 474 475 0
-479 477 0
-479 -478 0
479 -477 478 0
-480 33 0
-480 -475 0
480 -33 475 0
-481 -33 0
-481 475 0
481 33 -475 0
-482 -480 0
-482 -481 0
482 480 481 0
-483 479 0
-483 482 0
483 -479 -482 0
-484 -126 0
-484 483 0
484 126 -483 0
-485 -128 0
-485 484 0
485 128 -484 0
-486 3 0
-486 -125 0
486 -3 125 0
-487 -3 0
-487 125 0
487 3 -125 0
-488 -486 0
-488 -487 0
488 486 487 0
489 -1283 0
-489 1283 0
-490 488 0
-490 489 0
490 -488 -489 0
-491 485 0
-491 -490 0
491 -485 490 0
-492 -488 0
-492 -489 0
492 488 489 0
-493 491 0
-493 -492 0
493 -491 492 0
-494 32 0
-494 -489 0
494 -32 489 0
-495 -32 0
-495 489 0
495 32 -489 0
-496 -494 0
-496 -495 0
496 494 495 0
-497 493 0
-497 496 0
497 -493 -496 0
-498 -143 0
-498 497 0
498 143 -497 0
-499 -145 0
-499 498 0
499 145 -498 0
-500 2 0
-500 -142 0
500 -2 142 0
-501 -2 0
-501 142 0
501 2 -142 0
-502 -500 0
-502 -501 0
502 500 501 0
503 -1284 0
-503 1284 0
-504 502 0
-504 503 0
504 -502 -503 0
-505 499 0
-505 -504 0
505 -499 504 0
-506 -502 0
-506 -503 0
506 502 503 0
-507 505 0
-507 -506 0
507 -505 506 0
-508 31 0
-508 -503 0
508 -31 503 0
-509 -31 0
-509 503 0
509 31 -503 0
-510 -508 0
-510 -509 0
510 508 509 0
-511 507 0
-511 510 0
511 -507 -510 0
-512 -160 0
-512 511 0
512 160 -511 0
-513 -162 0
-513 512 0
513 162 -512 0
-514 6 0
-514 -159 0
514 -6 159 0
-515 -6 0
-515 159 0
515 6 -159 0
-516 -514 0
-516 -515 0
516 514 515 0
517 -1285 0
-517 1285 0
-518 516 0
-518 517 0
518 -516 -517 0
-519 513 0
-519 -518 0
519 -513 518 0
-520 -516 0
-520 -517 0
520 516 517 0
-521 519 0
-521 -520 0
521 -519 520 0
-522 30 0
-522 -517 0
522 -30 517 0
-523 -30 0
-523 517 0
523 30 -517 0
-524 -522 0
-524 -523 0
524 522 523 0
-525 521 0
-525 524 0
525 -521 -524 0
-526 -169 0
-526 525 0
526 169 -525 0
-527 -171 0
-527 526 0
527 171 -526 0
-528 16 0
-528 -168 0
528 -16 168 0
-529 -16 0
-529 168 0
529 16 -168 0
-530 -528 0
-530 -529 0
530 528 529 0
531 -1286 0
-531 1286 0
-532 530 0
-532 531 0
532 -530 -531 0
-533 527 0
-533 -532 0
533 -527 532 0
-534 -530 0
-534 -531 0
534 530 531 0
-535 533 0
-535 -534 0
535 -533 534 0
-536 32 0
-536 -531 0
536 -32 531 0
-537 -32 0
-537 531 0
537 32 -531 0
-538 -536 0
-538 -537 0
538 536 537 0
-539 535 0
-539 538 0
539 -535 -538 0
-540 -186 0
-540 539 0
540 186 -539 0
-541 -188 0
-541 540 0
541 188 -540 0
-542 15 0
-542 -185 0
542 -15 185 0
-543 -15 0
-543 185 0
543 15 -185 0
-544 -542 0
-544 -543 0
544 542 543 0
545 -1287 0
-545 1287 0
-546 544 0
-546 545 0
546 -544 -545 0
-547 541 0
-547 -546 0
547 -541 546 0
-548 -544 0
-548 -545 0
548 544 545 0
-549 547 0
-549 -548 0
549 -547 548 0
-550 25 0
-550 -545 0
550 -25 545 0
-551 -25 0
-551 545 0
551 25 -545 0
-552 -550 0
-552 -551 0
552 550 551 0
553 -1288 0
-553 1288 0
-554 552 0
-554 553 0
554 -552 -553 0
-555 549 0
-555 -554 0
555 -549 554 0
-556 -552 0
-556 -553 0
556 552 553 0
-557 555 0
-557 -556 0
557 -555 556 0
-558 31 0
-558 -553 0
558 -31 553 0
-559 -31 0
-559 553 0
559 31 -553 0
-560 -558 0
-560 -559 0
560 558 559 0
-561 557 0
-561 560 0
561 -557 -560 0
-562 -203 0
-562 561 0
562 203 -561 0
-563 -205 0
-563 562 0
563 205 -562 0
-564 14 0
-564 -202 0
564 -14 202 0
-565 -14 0
-565 202 0
565 14 -202 0
-566 -564 0
-566 -565 0
566 564 565 0
567 -1289 0
-567 1289 0
-568 566 0
-568 567 0
568 -566 -567 0
-569 563 0
-569 -568 0
569 -563 568 0
-570 -566 0
-570 -567 0
570 566 567 0
-571 569 0
-571 -570 0
571 -569 570 0
-572 24 0
-572 -567 0
572 -24 567 0
-573 -24 0
-573 567 0
573 24 -567 0
-574 -572 0
-574 -573 0
574 572 573 0
575 -1290 0
-575 1290 0
-576 574 0
-576 575 0
576 -574 -575 0
-577 571 0
-577 -576 0
577 -571 576 0
-578 -574 0
-578 -575 0
578 574 575 0
-579 577 0
-579 -578 0
579 -577 578 0
-580 30 0
-580 -575 0
580 -30 575 0
-581 -30 0
-581 575 0
581 30 -575 0
-582 -580 0
-582 -581 0
582 580 581 0
-583 579 0
-583 582 0
583 -579 -582 0
-584 -220 0
-584 583 0
584 220 -583 0
-585 -222 0
-585 584 0
585 222 -584 0
-586 13 0
-586 -219 0
586 -13 219 0
-587 -13 0
-587 219 0
587 13 -219 0
-588 -586 0
-588 -587 0
588 586 587 0
589 -1291 0
-589 1291 0
-590 588 0
-590 589 0
590 -588 -589 0
-591 585 0
-591 -590 0
591 -585 590 0
-592 -588 0
-592 -589 0
592 588 589 0
-593 591 0
-593 -592 0
593 -591 592 0
-594 23 0
-594 -589 0
594 -23 589 0
-595 -23 0
-595 589 0
595 23 -589 0
-596 -594 0
-596 -595 0
596 594 595 0
-597 593 0
-597 596 0
597 -593 -596 0
-598 -237 0
-598 597 0
598 237 -597 0
-599 -239 0
-599 598 0
599 239 -598 0
-600 12 0
-600 -236 0
600 -12 236 0
-601 -12 0
-601 236 0
601 12 -236 0
-602 -600 0
-602 -601 0
602 600 601 0
603 -1292 0
-603 1292 0
-604 602 0
-604 603 0
604 -602 -603 0
-605 599 0
-605 -604 0
605 -599 604 0
-606 -602 0
-606 -603 0
606 602 603 0
-607 605 0
-607 -606 0
607 -605 606 0
-608 22 0
-608 -603 0
608 -22 603 0
-609 -22 0
-609 603 0
609 22 -603 0
-610 -608 0
-610 -609 0
610 608 609 0
611 -1293 0
-611 1293 0
-612 610 0
-612 611 0
612 -610 -611 0
-613 607 0
-613 -612 0
613 -607 612 0
-614 -610 0
-614 -611 0
614 610 611 0
-615 613 0
-615 -614 0
615 -613 614 0
-616 33 0
-616 -611 0
616 -33 611 0
-617 -33 0
-617 611 0
617 33 -611 0
-618 -616 0
-618 -617 0
618 616 617 0
-619 615 0
-619 618 0
619 -615 -618 0
-620 -246 0
-620 619 0
620 246 -619 0
-621 -248 0
-621 620 0
621 248 -620 0
-622 11 0
-622 -245 0
622 -11 245 0
-623 -11 0
-623 245 0
623 11 -245 0
-624 -622 0
-624 -623 0
624 622 623 0
625 -1294 0
-625 1294 0
-626 624 0
-626 625 0
626 -624 -625 0
-627 621 0
-627 -626 0
627 -621 626 0
-628 -624 0
-628 -625 0
628 624 625 0
-629 627 0
-629 -628 0
629 -627 628 0
-630 21 0
-630 -625 0
630 -21 625 0
-631 -21 0
-631 625 0
631 21 -625 0
-632 -630 0
-632 -631 0
632 630 631 0
633 -1295 0
-633 1295 0
-634 632 0
-634 633 0
634 -632 -633 0
-635 629 0
-635 -634 0
635 -629 634 0
-636 -632 0
-636 -633 0
636 632 633 0
-637 635 0
-637 -636 0
637 -635 636 0
-638 28 0
-638 -633 0
638 -28 633 0
-639 -28 0
-639 633 0
639 28 -633 0
-640 -638 0
-640 -639 0
640 638 639 0
-641 637 0
-641 640 0
641 -637 -640 0
-642 -263 0
-642 641 0
642 263 -641 0
-643 -265 0
-643 642 0
643 265 -642 0
-644 10 0
-644 -262 0
644 -10 262 0
-645 -10 0
-645 262 0
645 10 -262 0
-646 -644 0
-646 -645 0
646 644 645 0
647 -1296 0
-647 1296 0
-648 646 0
-648 647 0
648 -646 -647 0
-649 643 0
-649 -648 0
649 -643 648 0
-650 -646 0
-650 -647 0
650 646 647 0
-651 649 0
-651 -650 0
651 -649 650 0
-652 20 0
-652 -647 0
652 -20 647 0
-653 -20 0
-653 647 0
653 20 -647 0
-654 -652 0
-654 -653 0
654 652 653 0
655 -1297 0
-655 1297 0
-656 654 0
-656 655 0
656 -654 -655 0
-657 651 0
-657 -656 0
657 -651 656 0
-658 -654 0
-658 -655 0
658 654 655 0
-659 657 0
-659 -658 0
659 -657 658 0
-660 27 0
-660 -655 0
660 -27 655 0
-661 -27 0
-661 655 0
661 27 -655 0
-662 -660 0
-662 -661 0
662 660 661 0
-663 659 0
-663 662 0
663 -659 -662 0
-664 -280 0
-664 663 0
664 280 -663 0
-665 -282 0
-665 664 0
665 282 -664 0
-666 9 0
-666 -279 0
666 -9 279 0
-667 -9 0
-667 279 0
667 9 -279 0
-668 -666 0
-668 -667 0
668 666 667 0
669 -1298 0
-669 1298 0
-670 668 0
-670 669 0
670 -668 -669 0
-671 665 0
-671 -670 0
671 -665 670 0
-672 -668 0
-672 -669 0
672 668 669 0
-673 671 0
-673 -672 0
673 -671 672 0
-674 19 0
-674 -669 0
674 -19 669 0
-675 -19 0
-675 669 0
675 19 -669 0
-676 -674 0
-676 -675 0
676 674 675 0
677 -1299 0
-677 1299 0
-678 676 0
-678 677 0
678 -676 -677 0
-679 673 0
-679 -678 0
679 -673 678 0
-680 -676 0
-680 -677 0
680 676 677 0
-681 679 0
-681 -680 0
681 -679 680 0
-682 26 0
-682 -677 0
682 -26 677 0
-683 -26 0
-683 677 0
683 26 -677 0
-684 -682 0
-684 -683 0
684 682 683 0
-685 681 0
-685 684 0
685 -681 -684 0
-686 -297 0
-686 685 0
686 297 -685 0
-687 -299 0
-687 686 0
687 299 -686 0
-688 8 0
-688 -296 0
688 -8 296 0
-689 -8 0
-689 296 0
689 8 -296 0
-690 -688 0
-690 -689 0
690 688 689 0
691 -1300 0
-691 1300 0
-692 690 0
-692 691 0
692 -690 -691 0
-693 687 0
-693 -692 0
693 -687 692 0
-694 -690 0
-694 -691 0
694 690 691 0
-695 693 0
-695 -694 0
695 -693 694 0
-696 18 0
-696 -691 0
696 -18 691 0
-697 -18 0
-697 691 0
697 18 -691 0
-698 -696 0
-698 -697 0
698 696 697 0
-699 695 0
-699 698 0
699 -695 -698 0
-700 -314 0
-700 699 0
700 314 -699 0
-701 -316 0
-701 700 0
701 316 -700 0
-702 7 0
-702 -313 0
702 -7 313 0
-703 -7 0
-703 313 0
703 7 -313 0
-704 -702 0
-704 -703 0
704 702 703 0
705 -1301 0
-705 1301 0
-706 704 0
-706 705 0
706 -704 -705 0
-707 701 0
-707 -706 0
707 -701 706 0
-708 -704 0
-708 -705 0
708 704 705 0
-709 707 0
-709 -708 0
709 -707 708 0
-710 17 0
-710 -705 0
710 -17 705 0
-711 -17 0
-711 705 0
711 17 -705 0
-712 -710 0
-712 -711 0
712 710 711 0
713 -1302 0
-713 1302 0
-714 712 0
-714 713 0
714 -712 -713 0
-715 709 0
-715 -714 0
715 -709 714 0
-716 -712 0
-716 -713 0
716 712 713 0
-717 715 0
-717 -716 0
717 -715 716 0
-718 29 0
-718 -713 0
718 -29 713 0
-719 -29 0
-719 713 0
719 29 -713 0
-720 -718 0
-720 -719 0
720 718 719 0
-721 717 0
-721 720 0
721 -717 -720 0
-722 -453 0
-722 721 0
722 453 -721 0
-723 -455 0
-723 722 0
723 455 -722 0
-729 723 0
-729 -728 0
729 -723 728 0
-731 729 0
-731 -730 0
731 -729 730 0
-732 16 0
-732 -727 0
732 -16 727 0
-733 -16 0
-733 727 0
733 16 -727 0
-734 -732 0
-734 -733 0
734 732 733 0
735 -1304 0
-735 1304 0
-736 734 0
-736 735 0
736 -734 -735 0
-737 731 0
-737 -736 0
737 -731 736 0
-738 -734 0
-738 -735 0
738 734 735 0
-739 737 0
-739 -738 0
739 -737 738 0
-740 24 0
-740 -735 0
740 -24 735 0
-741 -24 0
-741 735 0
741 24 -735 0
-742 -740 0
-742 -741 0
742 740 741 0
-743 739 0
-743 742 0
743 -739 -742 0
-744 -393 0
-744 743 0
744 393 -743 0
-745 -395 0
-745 744 0
745 395 -744 0
-751 745 0
-751 -750 0
751 -745 750 0
-753 751 0
-753 -752 0
753 -751 752 0
-754 15 0
-754 -749 0
754 -15 749 0
-755 -15 0
-755 749 0
755 15 -749 0
-756 -754 0
-756 -755 0
756 754 755 0
757 -1306 0
-757 1306 0
-758 756 0
-758 757 0
758 -756 -757 0
-759 753 0
-759 -758 0
759 -753 758 0
-760 -756 0
-760 -757 0
760 756 757 0
-761 759 0
-761 -760 0
761 -759 760 0
-762 23 0
-762 -757 0
762 -23 757 0
-763 -23 0
-763 757 0
763 23 -757 0
-764 -762 0
-764 -763 0
764 762 763 0
-765 761 0
-765 764 0
765 -761 -764 0
-766 -402 0
-766 765 0
766 402 -765 0
-767 -404 0
-767 766 0
767 404 -766 0
-773 767 0
-773 -772 0
773 -767 772 0
-775 773 0
-775 -774 0
775 -773 774 0
-776 14 0
-776 -771 0
776 -14 771 0
-777 -14 0
-777 771 0
777 14 -771 0
-778 -776 0
-778 -777 0
778 776 777 0
779 -1308 0
-779 1308 0
-780 778 0
-780 779 0
780 -778 -779 0
-781 775 0
-781 -780 0
781 -775 780 0
-782 -778 0
-782 -779 0
782 778 779 0
-783 781 0
-783 -782 0
783 -781 782 0
-784 22 0
-784 -779 0
784 -22 779 0
-785 -22 0
-785 779 0
785 22 -779 0
-786 -784 0
-786 -785 0
786 784 785 0
-787 783 0
-787 786 0
787 -783 -786 0
-788 -419 0
-788 787 0
788 419 -787 0
-789 -421 0
-789 788 0
789 421 -788 0
-795 789 0
-795 -794 0
795 -789 794 0
-797 795 0
-797 -796 0
797 -795 796 0
-798 13 0
-798 -793 0
798 -13 793 0
-799 -13 0
-799 793 0
799 13 -793 0
-800 -798 0
-800 -799 0
800 798 799 0
-801 797 0
-801 800 0
801 -797 -800 0
-802 -436 0
-802 801 0
802 436 -801 0
-803 -438 0
-803 802 0
803 438 -802 0
-809 803 0
-809 -808 0
809 -803 808 0
-811 809 0
-811 -810 0
811 -809 810 0
-812 12 0
-812 -807 0
812 -12 807 0
-813 -12 0
-813 807 0
813 12 -807 0
-814 -812 0
-814 -813 0
814 812 813 0
815 -1311 0
-815 1311 0
-816 814 0
-816 815 0
816 -814 -815 0
-817 811 0
-817 -816 0
817 -811 816 0
-818 -814 0
-818 -815 0
818 814 815 0
-819 817 0
-819 -818 0
819 -817 818 0
-820 25 0
-820 -815 0
820 -25 815 0
-821 -25 0
-821 815 0
821 25 -815 0
-822 -820 0
-822 -821 0
822 820 821 0
-823 819 0
-823 822 0
823 -819 -822 0
-824 -453 0
-824 823 0
824 453 -823 0
-825 -455 0
-825 824 0
825 455 -824 0
-826 -728 0
-826 825 0
826 728 -825 0
-827 -730 0
-827 826 0
827 730 -826 0
-828 19 0
-828 -727 0
828 -19 727 0
-829 -19 0
-829 727 0
829 19 -727 0
-830 -828 0
-830 -829 0
830 828 829 0
-831 827 0
-831 830 0
831 -827 -830 0
-832 -393 0
-832 831 0
832 393 -831 0
-833 -395 0
-833 832 0
833 395 -832 0
-834 -750 0
-834 833 0
834 750 -833 0
-835 -752 0
-835 834 0
835 752 -834 0
-836 18 0
-836 -749 0
836 -18 749 0
-837 -18 0
-837 749 0
837 18 -749 0
-838 -836 0
-838 -837 0
838 836 837 0
839 -1312 0
-839 1312 0
-840 838 0
-840 839 0
840 -838 -839 0
-841 835 0
-841 -840 0
841 -835 840 0
-842 -838 0
-842 -839 0
842 838 839 0
-843 841 0
-843 -842 0
843 -841 842 0
-844 33 0
-844 -839 0
844 -33 839 0
-845 -33 0
-845 839 0
845 33 -839 0
-846 -844 0
-846 -845 0
846 844 845 0
-847 843 0
-847 846 0
847 -843 -846 0
-848 -402 0
-848 847 0
848 402 -847 0
-849 -404 0
-849 848 0
849 404 -848 0
-850 -772 0
-850 849 0
850 772 -849 0
-851 -774 0
-851 850 0
851 774 -850 0
-852 17 0
-852 -771 0
852 -17 771 0
-853 -17 0
-853 771 0
853 17 -771 0
-854 -852 0
-854 -853 0
854 852 853 0
855 -1313 0
-855 1313 0
-856 854 0
-856 855 0
856 -854 -855 0
-857 851 0
-857 -856 0
857 -851 856 0
-858 -854 0
-858 -855 0
858 854 855 0
-859 857 0
-859 -858 0
859 -857 858 0
-860 32 0
-860 -855 0
860 -32 855 0
-861 -32 0
-861 855 0
861 32 -855 0
-862 -860 0
-862 -861 0
862 860 861 0
-863 859 0
-863 862 0
863 -859 -862 0
-864 -419 0
-864 863 0
864 419 -863 0
-865 -421 0
-865 864 0
865 421 -864 0
-866 -794 0
-866 865 0
866 794 -865 0
-867 -796 0
-867 866 0
867 796 -866 0
-868 21 0
-868 -793 0
868 -21 793 0
-869 -21 0
-869 793 0
869 21 -793 0
-870 -868 0
-870 -869 0
870 868 869 0
871 -1314 0
-871 1314 0
-872 870 0
-872 871 0
872 -870 -871 0
-873 867 0
-873 -872 0
873 -867 872 0
-874 -870 0
-874 -871 0
874 870 871 0
-875 873 0
-875 -874 0
875 -873 874 0
-876 31 0
-876 -871 0
876 -31 871 0
-877 -31 0
-877 871 0
877 31 -871 0
-878 -876 0
-878 -877 0
878 876 877 0
-879 875 0
-879 878 0
879 -875 -878 0
-880 -436 0
-880 879 0
880 436 -879 0
-881 -438 0
-881 880 0
881 438 -880 0
-882 -808 0
-882 881 0
882 808 -881 0
-883 -810 0
-883 882 0
883 810 -882 0
-884 20 0
-884 -807 0
884 -20 807 0
-885 -20 0
-885 807 0
885 20 -807 0
-886 -884 0
-886 -885 0
886 884 885 0
887 -1315 0
-887 1315 0
-888 886 0
-888 887 0
888 -886 -887 0
-889 883 0
-889 -888 0
889 -883 888 0
-890 -886 0
-890 -887 0
890 886 887 0
-891 889 0
-891 -890 0
891 -889 890 0
-892 30 0
-892 -887 0
892 -30 887 0
-893 -30 0
-893 887 0
893 30 -887 0
-894 -892 0
-894 -893 0
894 892 893 0
-895 891 0
-895 894 0
895 -891 -894 0
-896 -280 0
-896 895 0
896 280 -895 0
-897 -282 0
-897 896 0
897 282 -896 0
-898 6 0
-898 -279 0
898 -6 279 0
-899 -6 0
-899 279 0
899 6 -279 0
-900 -898 0
-900 -899 0
900 898 899 0
-901 897 0
-901 900 0
901 -897 -900 0
-902 -297 0
-902 901 0
902 297 -901 0
-903 -299 0
-903 902 0
903 299 -902 0
-904 5 0
-904 -296 0
904 -5 296 0
-905 -5 0
-905 296 0
905 5 -296 0
-906 -904 0
-906 -905 0
906 904 905 0
907 -1316 0
-907 1316 0
-908 906 0
-908 907 0
908 -906 -907 0
-909 903 0
-909 -908 0
909 -903 908 0
-910 -906 0
-910 -907 0
910 906 907 0
-911 909 0
-911 -910 0
911 -909 910 0
-912 29 0
-912 -907 0
912 -29 907 0
-913 -29 0
-913 907 0
913 29 -907 0
-914 -912 0
-914 -913 0
914 912 913 0
915 -1317 0
-915 1317 0
-916 914 0
-916 915 0
916 -914 -915 0
-917 911 0
-917 -916 0
917 -911 916 0
-918 -914 0
-918 -915 0
918 914 915 0
-919 917 0
-919 -918 0
919 -917 918 0
-920 33 0
-920 -915 0
920 -33 915 0
-921 -33 0
-921 915 0
921 33 -915 0
-922 -920 0
-922 -921 0
922 920 921 0
-923 919 0
-923 922 0
923 -919 -922 0
-924 -314 0
-924 923 0
924 314 -923 0
-925 -316 0
-925 924 0
925 316 -924 0
-926 4 0
-926 -313 0
926 -4 313 0
-927 -4 0
-927 313 0
927 4 -313 0
-928 -926 0
-928 -927 0
928 926 927 0
929 -1318 0
-929 1318 0
-930 928 0
-930 929 0
930 -928 -929 0
-931 925 0
-931 -930 0
931 -925 930 0
-932 -928 0
-932 -929 0
932 928 929 0
-933 931 0
-933 -932 0
933 -931 932 0
-934 28 0
-934 -929 0
934 -28 929 0
-935 -28 0
-935 929 0
935 28 -929 0
-936 -934 0
-936 -935 0
936 934 935 0
937 -1319 0
-937 1319 0
-938 936 0
-938 937 0
938 -936 -937 0
-939 933 0
-939 -938 0
939 -933 938 0
-940 -936 0
-940 -937 0
940 936 937 0
-941 939 0
-941 -940 0
941 -939 940 0
-942 32 0
-942 -937 0
942 -32 937 0
-943 -32 0
-943 937 0
943 32 -937 0
-944 -942 0
-944 -943 0
944 942 943 0
-945 941 0
-945 944 0
945 -941 -944 0
-946 -246 0
-946 945 0
946 246 -945 0
-947 -248 0
-947 946 0
947 248 -946 0
-948 3 0
-948 -245 0
948 -3 245 0
-949 -3 0
-949 245 0
949 3 -245 0
-950 -948 0
-950 -949 0
950 948 949 0
951 -1320 0
-951 1320 0
-952 950 0
-952 951 0
952 -950 -951 0
-953 947 0
-953 -952 0
953 -947 952 0
-954 -950 0
-954 -951 0
954 950 951 0
-955 953 0
-955 -954 0
955 -953 954 0
-956 27 0
-956 -951 0
956 -27 951 0
-957 -27 0
-957 951 0
957 27 -951 0
-958 -956 0
-958 -957 0
958 956 957 0
959 -1321 0
-959 1321 0
-960 958 0
-960 959 0
960 -958 -959 0
-961 955 0
-961 -960 0
961 -955 960 0
-962 -958 0
-962 -959 0
962 958 959 0
-963 961 0
-963 -962 0
963 -961 962 0
-964 31 0
-964 -959 0
964 -31 959 0
-965 -31 0
-965 959 0
965 31 -959 0
-966 -964 0
-966 -965 0
966 964 965 0
-967 963 0
-967 966 0
967 -963 -966 0
-968 -263 0
-968 967 0
968 263 -967 0
-969 -265 0
-969 968 0
969 265 -968 0
-970 2 0
-970 -262 0
970 -2 262 0
-971 -2 0
-971 262 0
971 2 -262 0
-972 -970 0
-972 -971 0
972 970 971 0
973 -1322 0
-973 1322 0
-974 972 0
-974 973 0
974 -972 -973 0
-975 969 0
-975 -974 0
975 -969 974 0
-976 -972 0
-976 -973 0
976 972 973 0
-977 975 0
-977 -976 0
977 -975 976 0
-978 26 0
-978 -973 0
978 -26 973 0
-979 -26 0
-979 973 0
979 26 -973 0
-980 -978 0
-980 -979 0
980 978 979 0
981 -1323 0
-981 1323 0
-982 980 0
-982 981 0
982 -980 -981 0
-983 977 0
-983 -982 0
983 -977 982 0
-984 -980 0
-984 -981 0
984 980 981 0
-985 983 0
-985 -984 0
985 -983 984 0
-986 30 0
-986 -981 0
986 -30 981 0
-987 -30 0
-987 981 0
987 30 -981 0
-988 -986 0
-988 -987 0
988 986 987 0
-989 985 0
-989 988 0
989 -985 -988 0
-990 -9 0
-990 989 0
990 9 -989 0
-991 -109 0
-991 990 0
991 109 -990 0
-992 -111 0
-992 991 0
992 111 -991 0
-993 8 0
-993 -108 0
993 -8 108 0
-994 -8 0
-994 108 0
994 8 -108 0
-995 -993 0
-995 -994 0
995 993 994 0
996 -1324 0
-996 1324 0
-997 995 0
-997 996 0
997 -995 -996 0
-998 992 0
-998 -997 0
998 -992 997 0
-999 -995 0
-999 -996 0
999 995 996 0
-1000 998 0
-1000 -999 0
1000 -998 999 0
-1001 29 0
-1001 -996 0
1001 -29 996 0
-1002 -29 0
-1002 996 0
1002 29 -996 0
-1003 -1001 0
-1003 -1002 0
1003 1001 1002 0
1004 -1325 0
-1004 1325 0
-1005 1003 0
-1005 1004 0
1005 -1003 -1004 0
-1006 1000 0
-1006 -1005 0
1006 -1000 1005 0
-1007 -1003 0
-1007 -1004 0
1007 1003 1004 0
-1008 1006 0
-1008 -1007 0
1008 -1006 1007 0
-1009 33 0
-1009 -1004 0
1009 -33 1004 0
-1010 -33 0
-1010 1004 0
1010 33 -1004 0
-1011 -1009 0
-1011 -1010 0
1011 1009 1010 0
-1012 1008 0
-1012 1011 0
1012 -1008 -1011 0
-1013 -126 0
-1013 1012 0
1013 126 -1012 0
-1014 -128 0
-1014 1013 0
1014 128 -1013 0
-1015 7 0
-1015 -125 0
1015 -7 125 0
-1016 -7 0
-1016 125 0
1016 7 -125 0
-1017 -1015 0
-1017 -1016 0
1017 1015 1016 0
1018 -1326 0
-1018 1326 0
-1019 1017 0
-1019 1018 0
1019 -1017 -1018 0
-1020 1014 0
-1020 -1019 0
1020 -1014 1019 0
-1021 -1017 0
-1021 -1018 0
1021 1017 1018 0
-1022 1020 0
-1022 -1021 0
1022 -1020 1021 0
-1023 28 0
-1023 -1018 0
1023 -28 1018 0
-1024 -28 0
-1024 1018 0
1024 28 -1018 0
-1025 -1023 0
-1025 -1024 0
1025 1023 1024 0
1026 -1327 0
-1026 1327 0
-1027 1025 0
-1027 1026 0
1027 -1025 -1026 0
-1028 1022 0
-1028 -1027 0
1028 -1022 1027 0
-1029 -1025 0
-1029 -1026 0
1029 1025 1026 0
-1030 1028 0
-1030 -1029 0
1030 -1028 1029 0
-1031 32 0
-1031 -1026 0
1031 -32 1026 0
-1032 -32 0
-1032 1026 0
1032 32 -1026 0
-1033 -1031 0
-1033 -1032 0
1033 1031 1032 0
-1034 1030 0
-1034 1033 0
1034 -1030 -1033 0
-1035 -143 0
-1035 1034 0
1035 143 -1034 0
-1036 -145 0
-1036 1035 0
1036 145 -1035 0
-1037 11 0
-1037 -142 0
1037 -11 142 0
-1038 -11 0
-1038 142 0
1038 11 -142 0
-1039 -1037 0
-1039 -1038 0
1039 1037 1038 0
1040 -1328 0
-1040 1328 0
-1041 1039 0
-1041 1040 0
1041 -1039 -1040 0
-1042 1036 0
-1042 -1041 0
1042 -1036 1041 0
-1043 -1039 0
-1043 -1040 0
1043 1039 1040 0
-1044 1042 0
-1044 -1043 0
1044 -1042 1043 0
-1045 27 0
-1045 -1040 0
1045 -27 1040 0
-1046 -27 0
-1046 1040 0
1046 27 -1040 0
-1047 -1045 0
-1047 -1046 0
1047 1045 1046 0
1048 -1329 0
-1048 1329 0
-1049 1047 0
-1049 1048 0
1049 -1047 -1048 0
-1050 1044 0
-1050 -1049 0
1050 -1044 1049 0
-1051 -1047 0
-1051 -1048 0
1051 1047 1048 0
-1052 1050 0
-1052 -1051 0
1052 -1050 1051 0
-1053 31 0
-1053 -1048 0
1053 -31 1048 0
-1054 -31 0
-1054 1048 0
1054 31 -1048 0
-1055 -1053 0
-1055 -1054 0
1055 1053 1054 0
-1056 1052 0
-1056 1055 0
1056 -1052 -1055 0
-1057 -160 0
-1057 1056 0
1057 160 -1056 0
-1058 -162 0
-1058 1057 0
1058 162 -1057 0
-1059 10 0
-1059 -159 0
1059 -10 159 0
-1060 -10 0
-1060 159 0
1060 10 -159 0
-1061 -1059 0
-1061 -1060 0
1061 1059 1060 0
1062 -1330 0
-1062 1330 0
-1063 1061 0
-1063 1062 0
1063 -1061 -1062 0
-1064 1058 0
-1064 -1063 0
1064 -1058 1063 0
-1065 -1061 0
-1065 -1062 0
1065 1061 1062 0
-1066 1064 0
-1066 -1065 0
1066 -1064 1065 0
-1067 26 0
-1067 -1062 0
1067 -26 1062 0
-1068 -26 0
-1068 1062 0
1068 26 -1062 0
-1069 -1067 0
-1069 -1068 0
1069 1067 1068 0
1070 -1331 0
-1070 1331 0
-1071 1069 0
-1071 1070 0
1071 -1069 -1070 0
-1072 1066 0
-1072 -1071 0
1072 -1066 1071 0
-1073 -1069 0
-1073 -1070 0
1073 1069 1070 0
-1074 1072 0
-1074 -1073 0
1074 -1072 1073 0
-1075 30 0
-1075 -1070 0
1075 -30 1070 0
-1076 -30 0
-1076 1070 0
1076 30 -1070 0
-1077 -1075 0
-1077 -1076 0
1077 1075 1076 0
-1078 1074 0
-1078 1077 0
1078 -1074 -1077 0
-1079 -169 0
-1079 1078 0
1079 169 -1078 0
-1080 -171 0
-1080 1079 0
1080 171 -1079 0
-1081 4 0
-1081 -168 0
1081 -4 168 0
-1082 -4 0
-1082 168 0
1082 4 -168 0
-1083 -1081 0
-1083 -1082 0
1083 1081 1082 0
-1084 1080 0
-1084 1083 0
1084 -1080 -1083 0
-1085 -186 0
-1085 1084 0
1085 186 -1084 0
-1086 -188 0
-1086 1085 0
1086 188 -1085 0
-1087 3 0
-1087 -185 0
1087 -3 185 0
-1088 -3 0
-1088 185 0
1088 3 -185 0
-1089 -1087 0
-1089 -1088 0
1089 1087 1088 0
1090 -1332 0
-1090 1332 0
-1091 1089 0
-1091 1090 0
1091 -1089 -1090 0
-1092 1086 0
-1092 -1091 0
1092 -1086 1091 0
-1093 -1089 0
-1093 -1090 0
1093 1089 1090 0
-1094 1092 0
-1094 -1093 0
1094 -1092 1093 0
-1095 25 0
-1095 -1090 0
1095 -25 1090 0
-1096 -25 0
-1096 1090 0
1096 25 -1090 0
-1097 -1095 0
-1097 -1096 0
1097 1095 1096 0
1098 -1333 0
-1098 1333 0
-1099 1097 0
-1099 1098 0
1099 -1097 -1098 0
-1100 1094 0
-1100 -1099 0
1100 -1094 1099 0
-1101 -1097 0
-1101 -1098 0
1101 1097 1098 0
-1102 1100 0
-1102 -1101 0
1102 -1100 1101 0
-1103 29 0
-1103 -1098 0
1103 -29 1098 0
-1104 -29 0
-1104 1098 0
1104 29 -1098 0
-1105 -1103 0
-1105 -1104 0
1105 1103 1104 0
-1106 1102 0
-1106 1105 0
1106 -1102 -1105 0
-1107 -203 0
-1107 1106 0
1107 203 -1106 0
-1108 -205 0
-1108 1107 0
1108 205 -1107 0
-1109 2 0
-1109 -202 0
1109 -2 202 0
-1110 -2 0
-1110 202 0
1110 2 -202 0
-1111 -1109 0
-1111 -1110 0
1111 1109 1110 0
1112 -1334 0
-1112 1334 0
-1113 1111 0
-1113 1112 0
1113 -1111 -1112 0
-1114 1108 0
-1114 -1113 0
1114 -1108 1113 0
-1115 -1111 0
-1115 -1112 0
1115 1111 1112 0
-1116 1114 0
-1116 -1115 0
1116 -1114 1115 0
-1117 24 0
-1117 -1112 0
1117 -24 1112 0
-1118 -24 0
-1118 1112 0
1118 24 -1112 0
-1119 -1117 0
-1119 -1118 0
1119 1117 1118 0
1120 -1335 0
-1120 1335 0
-1121 1119 0
-1121 1120 0
1121 -1119 -1120 0
-1122 1116 0
-1122 -1121 0
1122 -1116 1121 0
-1123 -1119 0
-1123 -1120 0
1123 1119 1120 0
-1124 1122 0
-1124 -1123 0
1124 -1122 1123 0
-1125 28 0
-1125 -1120 0
1125 -28 1120 0
-1126 -28 0
-1126 1120 0
1126 28 -1120 0
-1127 -1125 0
-1127 -1126 0
1127 1125 1126 0
-1128 1124 0
-1128 1127 0
1128 -1124 -1127 0
-1129 -220 0
-1129 1128 0
1129 220 -1128 0
-1130 -222 0
-1130 1129 0
1130 222 -1129 0
-1131 6 0
-1131 -219 0
1131 -6 219 0
-1132 -6 0
-1132 219 0
1132 6 -219 0
-1133 -1131 0
-1133 -1132 0
1133 1131 1132 0
1134 -1336 0
-1134 1336 0
-1135 1133 0
-1135 1134 0
1135 -1133 -1134 0
-1136 1130 0
-1136 -1135 0
1136 -1130 1135 0
-1137 -1133 0
-1137 -1134 0
1137 1133 1134 0
-1138 1136 0
-1138 -1137 0
1138 -1136 1137 0
-1139 23 0
-1139 -1134 0
1139 -23 1134 0
-1140 -23 0
-1140 1134 0
1140 23 -1134 0
-1141 -1139 0
-1141 -1140 0
1141 1139 1140 0
1142 -1337 0
-1142 1337 0
-1143 1141 0
-1143 1142 0
1143 -1141 -1142 0
-1144 1138 0
-1144 -1143 0
1144 -1138 1143 0
-1145 -1141 0
-1145 -1142 0
1145 1141 1142 0
-1146 1144 0
-1146 -1145 0
1146 -1144 1145 0
-1147 27 0
-1147 -1142 0
1147 -27 1142 0
-1148 -27 0
-1148 1142 0
1148 27 -1142 0
-1149 -1147 0
-1149 -1148 0
1149 1147 1148 0
-1150 1146 0
-1150 1149 0
1150 -1146 -1149 0
-1151 -237 0
-1151 1150 0
1151 237 -1150 0
-1152 -239 0
-1152 1151 0
1152 239 -1151 0
-1153 5 0
-1153 -236 0
1153 -5 236 0
-1154 -5 0
-1154 236 0
1154 5 -236 0
-1155 -1153 0
-1155 -1154 0
1155 1153 1154 0
1156 -1338 0
-1156 1338 0
-1157 1155 0
-1157 1156 0
1157 -1155 -1156 0
-1158 1152 0
-1158 -1157 0
1158 -1152 1157 0
-1159 -1155 0
-1159 -1156 0
1159 1155 1156 0
-1160 1158 0
-1160 -1159 0
1160 -1158 1159 0
-1161 22 0
-1161 -1156 0
1161 -22 1156 0
-1162 -22 0
-1162 1156 0
1162 22 -1156 0
-1163 -1161 0
-1163 -1162 0
1163 1161 1162 0
1164 -1339 0
-1164 1339 0
-1165 1163 0
-1165 1164 0
1165 -1163 -1164 0
-1166 1160 0
-1166 -1165 0
1166 -1160 1165 0
-1167 -1163 0
-1167 -1164 0
1167 1163 1164 0
-1168 1166 0
-1168 -1167 0
1168 -1166 1167 0
-1169 26 0
-1169 -1164 0
1169 -26 1164 0
-1170 -26 0
-1170 1164 0
1170 26 -1164 0
-1171 -1169 0
-1171 -1170 0
1171 1169 1170 0
-1172 1168 0
-1172 1171 0
1172 -1168 -1171 0
-1173 -2 0
-1173 -3 0
1173 2 3 0
-1174 -4 0
-1174 1173 0
1174 4 -1173 0
-1175 -6 0
-1175 1174 0
1175 6 -1174 0
-1176 -7 0
-1176 1175 0
1176 7 -1175 0
-1177 -8 0
-1177 1176 0
1177 8 -1176 0
-1178 -10 0
-1178 1177 0
1178 10 -1177 0
-1179 -11 0
-1179 1178 0
1179 11 -1178 0
-1180 -12 0
-1180 1179 0
1180 12 -1179 0
-1181 -13 0
-1181 1180 0
1181 13 -1180 0
-1182 -14 0
-1182 1181 0
1182 14 -1181 0
-1183 -15 0
-1183 1182 0
1183 15 -1182 0
-1184 -16 0
-1184 1183 0
1184 16 -1183 0
-1185 -17 0
-1185 1184 0
1185 17 -1184 0
-1186 -18 0
-1186 1185 0
1186 18 -1185 0
-1187 -19 0
-1187 1186 0
1187 19 -1186 0
-1188 -20 0
-1188 1187 0
1188 20 -1187 0
-1189 -21 0
-1189 1188 0
1189 21 -1188 0
-1190 -22 0
-1190 1189 0
1190 22 -1189 0
-1191 -23 0
-1191 1190 0
1191 23 -1190 0
-1192 -24 0
-1192 1191 0
1192 24 -1191 0
-1193 -25 0
-1193 1192 0
1193 25 -1192 0
-1194 -26 0
-1194 1193 0
1194 26 -1193 0
-1195 -27 0
-1195 1194 0
1195 27 -1194 0
-1196 -28 0
-1196 1195 0
1196 28 -1195 0
-1197 -29 0
-1197 1196 0
1197 29 -1196 0
-1198 -30 0
-1198 1197 0
1198 30 -1197 0
-1199 -31 0
-1199 1198 0
1199 31 -1198 0
-1200 -32 0
-1200 1199 0
1200 32 -1199 0
-1201 -33 0
-1201 1200 0
1201 33 -1200 0
-1202 1172 0
-1202 -1201 0
1202 -1172 1201 0
1202 0
