p cnf 983 2539
8 -888 0
-8 888 0
527 -962 0
-527 962 0
-530 -8 0
-530 527 0
530 8 -527 0
-528 8 0
-528 -527 0
528 -8 527 0
9 -889 0
-9 889 0
299 -940 0
-299 940 0
-302 -9 0
-302 299 0
302 9 -299 0
-300 9 0
-300 -299 0
300 -9 299 0
10 -890 0
-10 890 0
365 -947 0
-365 947 0
-368 -10 0
-368 365 0
368 10 -365 0
-366 10 0
-366 -365 0
366 -10 365 0
11 -891 0
-11 891 0
348 -945 0
-348 945 0
-351 -11 0
-351 348 0
351 11 -348 0
-349 11 0
-349 -348 0
349 -11 348 0
12 -892 0
-12 892 0
331 -943 0
-331 943 0
-334 -12 0
-334 331 0
334 12 -331 0
-332 12 0
-332 -331 0
332 -12 331 0
13 -893 0
-13 893 0
308 -941 0
-308 941 0
-311 -13 0
-311 308 0
311 13 -308 0
-309 13 0
-309 -308 0
309 -13 308 0
15 -895 0
-15 895 0
232 -933 0
-232 933 0
-235 -15 0
-235 232 0
235 15 -232 0
-233 15 0
-233 -232 0
233 -15 232 0
16 -896 0
-16 896 0
282 -938 0
-282 938 0
-285 -16 0
-285 282 0
285 16 -282 0
-283 16 0
-283 -282 0
283 -16 282 0
17 -897 0
-17 897 0
265 -936 0
-265 936 0
-268 -17 0
-268 265 0
268 17 -265 0
-266 17 0
-266 -265 0
266 -17 265 0
18 -898 0
-18 898 0
256 -935 0
-256 935 0
-259 -18 0
-259 256 0
259 18 -256 0
-257 18 0
-257 -256 0
257 -18 256 0
19 -899 0
-19 899 0
241 -934 0
-241 934 0
-244 -19 0
-244 241 0
244 19 -241 0
-242 19 0
-242 -241 0
242 -19 241 0
20 -900 0
-20 900 0
133 -922 0
-133 922 0
-136 -20 0
-136 133 0
136 20 -133 0
-134 20 0
-134 -133 0
134 -20 133 0
21 -901 0
-21 901 0
215 -931 0
-215 931 0
-218 -21 0
-218 215 0
218 21 -215 0
-216 21 0
-216 -215 0
216 -21 215 0
22 -902 0
-22 902 0
198 -929 0
-198 929 0
-201 -22 0
-201 198 0
201 22 -198 0
-199 22 0
-199 -198 0
199 -22 198 0
23 -903 0
-23 903 0
181 -927 0
-181 927 0
-184 -23 0
-184 181 0
184 23 -181 0
-182 23 0
-182 -181 0
182 -23 181 0
24 -904 0
-24 904 0
164 -925 0
-164 925 0
-167 -24 0
-167 164 0
167 24 -164 0
-165 24 0
-165 -164 0
165 -24 164 0
26 -906 0
-26 906 0
66 -915 0
-66 915 0
-69 -26 0
-69 66 0
69 26 -66 0
-67 26 0
-67 -66 0
67 -26 66 0
27 -907 0
-27 907 0
116 -920 0
-116 920 0
-119 -27 0
-119 116 0
119 27 -116 0
-117 27 0
-117 -116 0
117 -27 116 0
28 -908 0
-28 908 0
99 -918 0
-99 918 0
-102 -28 0
-102 99 0
102 28 -99 0
-100 28 0
-100 -99 0
100 -28 99 0
29 -909 0
-29 909 0
90 -917 0
-90 917 0
-93 -29 0
-93 90 0
93 29 -90 0
-91 29 0
-91 -90 0
91 -29 90 0
31 -911 0
-31 911 0
57 -914 0
-57 914 0
-60 -31 0
-60 57 0
60 31 -57 0
-58 31 0
-58 -57 0
58 -31 57 0
4 -884 0
-4 884 0
7 -887 0
-7 887 0
399 -951 0
-399 951 0
-402 -7 0
-402 399 0
402 7 -399 0
-400 7 0
-400 -399 0
400 -7 399 0
30 -910 0
-30 910 0
32 -912 0
-32 912 0
-34 -30 0
-34 32 0
34 30 -32 0
-33 30 0
-33 -32 0
33 -30 32 0
-35 -33 0
-35 -34 0
35 33 34 0
-36 19 0
-36 -32 0
36 -19 32 0
-37 -19 0
-37 32 0
37 19 -32 0
-38 -36 0
-38 -37 0
38 36 37 0
39 -913 0
-39 913 0
-40 38 0
-40 39 0
40 -38 -39 0
-41 35 0
-41 -40 0
41 -35 40 0
-42 -38 0
-42 -39 0
42 38 39 0
-43 41 0
-43 -42 0
43 -41 42 0
-44 31 0
-44 -39 0
44 -31 39 0
-45 -31 0
-45 39 0
45 31 -39 0
-46 -44 0
-46 -45 0
46 44 45 0
-47 43 0
-47 46 0
47 -43 -46 0
-48 -33 0
-48 47 0
48 33 -47 0
-49 -34 0
-49 48 0
49 34 -48 0
-50 18 0
-50 -32 0
50 -18 32 0
-51 -18 0
-51 32 0
51 18 -32 0
-52 -50 0
-52 -51 0
52 50 51 0
-53 49 0
-53 52 0
53 -49 -52 0
-54 -17 0
-54 53 0
54 17 -53 0
-55 -16 0
-55 54 0
55 16 -54 0
-56 -15 0
-56 55 0
56 15 -55 0
-59 56 0
-59 -58 0
59 -56 58 0
-61 59 0
-61 -60 0
61 -59 60 0
14 -894 0
-14 894 0
-62 14 0
-62 -57 0
62 -14 57 0
-63 -14 0
-63 57 0
63 14 -57 0
-64 -62 0
-64 -63 0
64 62 63 0
-65 61 0
-65 64 0
65 -61 -64 0
-68 65 0
-68 -67 0
68 -65 67 0
-70 68 0
-70 -69 0
70 -68 69 0
-71 13 0
-71 -66 0
71 -13 66 0
-72 -13 0
-72 66 0
72 13 -66 0
-73 -71 0
-73 -72 0
73 71 72 0
74 -916 0
-74 916 0
-75 73 0
-75 74 0
75 -73 -74 0
-76 70 0
-76 -75 0
76 -70 75 0
-77 -73 0
-77 -74 0
77 73 74 0
-78 76 0
-78 -77 0
78 -76 77 0
-79 27 0
-79 -74 0
79 -27 74 0
-80 -27 0
-80 74 0
80 27 -74 0
-81 -79 0
-81 -80 0
81 79 80 0
-82 78 0
-82 81 0
82 -78 -81 0
-83 -67 0
-83 82 0
83 67 -82 0
-84 -69 0
-84 83 0
84 69 -83 0
-85 12 0
-85 -66 0
85 -12 66 0
-86 -12 0
-86 66 0
86 12 -66 0
-87 -85 0
-87 -86 0
87 85 86 0
-88 84 0
-88 87 0
88 -84 -87 0
-89 -11 0
-89 88 0
89 11 -88 0
-92 89 0
-92 -91 0
92 -89 91 0
-94 92 0
-94 -93 0
94 -92 93 0
-95 10 0
-95 -90 0
95 -10 90 0
-96 -10 0
-96 90 0
96 10 -90 0
-97 -95 0
-97 -96 0
97 95 96 0
-98 94 0
-98 97 0
98 -94 -97 0
-101 98 0
-101 -100 0
101 -98 100 0
-103 101 0
-103 -102 0
103 -101 102 0
-104 9 0
-104 -99 0
104 -9 99 0
-105 -9 0
-105 99 0
105 9 -99 0
-106 -104 0
-106 -105 0
106 104 105 0
107 -919 0
-107 919 0
-108 106 0
-108 107 0
108 -106 -107 0
-109 103 0
-109 -108 0
109 -103 108 0
-110 -106 0
-110 -107 0
110 106 107 0
-111 109 0
-111 -110 0
111 -109 110 0
-112 29 0
-112 -107 0
112 -29 107 0
-113 -29 0
-113 107 0
113 29 -107 0
-114 -112 0
-114 -113 0
114 112 113 0
-115 111 0
-115 114 0
115 -111 -114 0
-118 115 0
-118 -117 0
118 -115 117 0
-120 118 0
-120 -119 0
120 -118 119 0
-121 8 0
-121 -116 0
121 -8 116 0
-122 -8 0
-122 116 0
122 8 -116 0
-123 -121 0
-123 -122 0
123 121 122 0
124 -921 0
-124 921 0
-125 123 0
-125 124 0
125 -123 -124 0
-126 120 0
-126 -125 0
126 -120 125 0
-127 -123 0
-127 -124 0
127 123 124 0
-128 126 0
-128 -127 0
128 -126 127 0
-129 28 0
-129 -124 0
129 -28 124 0
-130 -28 0
-130 124 0
130 28 -124 0
-131 -129 0
-131 -130 0
131 129 130 0
-132 128 0
-132 131 0
132 -128 -131 0
-135 132 0
-135 -134 0
135 -132 134 0
-137 135 0
-137 -136 0
137 -135 136 0
-138 7 0
-138 -133 0
138 -7 133 0
-139 -7 0
-139 133 0
139 7 -133 0
-140 -138 0
-140 -139 0
140 138 139 0
141 -923 0
-141 923 0
-142 140 0
-142 141 0
142 -140 -141 0
-143 137 0
-143 -142 0
143 -137 142 0
-144 -140 0
-144 -141 0
144 140 141 0
-145 143 0
-145 -144 0
145 -143 144 0
-146 21 0
-146 -141 0
146 -21 141 0
-147 -21 0
-147 141 0
147 21 -141 0
-148 -146 0
-148 -147 0
148 146 147 0
-149 145 0
-149 148 0
149 -145 -148 0
-150 -134 0
-150 149 0
150 134 -149 0
-151 -136 0
-151 150 0
151 136 -150 0
6 -886 0
-6 886 0
-152 6 0
-152 -133 0
152 -6 133 0
-153 -6 0
-153 133 0
153 6 -133 0
-154 -152 0
-154 -153 0
154 152 153 0
155 -924 0
-155 924 0
-156 154 0
-156 155 0
156 -154 -155 0
-157 151 0
-157 -156 0
157 -151 156 0
-158 -154 0
-158 -155 0
158 154 155 0
-159 157 0
-159 -158 0
159 -157 158 0
25 -905 0
-25 905 0
-160 25 0
-160 -155 0
160 -25 155 0
-161 -25 0
-161 155 0
161 25 -155 0
-162 -160 0
-162 -161 0
162 160 161 0
-163 159 0
-163 162 0
163 -159 -162 0
-166 163 0
-166 -165 0
166 -163 165 0
-168 166 0
-168 -167 0
168 -166 167 0
5 -885 0
-5 885 0
-169 5 0
-169 -164 0
169 -5 164 0
-170 -5 0
-170 164 0
170 5 -164 0
-171 -169 0
-171 -170 0
171 169 170 0
172 -926 0
-172 926 0
-173 171 0
-173 172 0
173 -171 -172 0
-174 168 0
-174 -173 0
174 -168 173 0
-175 -171 0
-175 -172 0
175 171 172 0
-176 174 0
-176 -175 0
176 -174 175 0
-177 25 0
-177 -172 0
177 -25 172 0
-178 -25 0
-178 172 0
178 25 -172 0
-179 -177 0
-179 -178 0
179 177 178 0
-180 176 0
-180 179 0
180 -176 -179 0
-183 180 0
-183 -182 0
183 -180 182 0
-185 183 0
-185 -184 0
185 -183 184 0
-186 4 0
-186 -181 0
186 -4 181 0
-187 -4 0
-187 181 0
187 4 -181 0
-188 -186 0
-188 -187 0
188 186 187 0
189 -928 0
-189 928 0
-190 188 0
-190 189 0
190 -188 -189 0
-191 185 0
-191 -190 0
191 -185 190 0
-192 -188 0
-192 -189 0
192 188 189 0
-193 191 0
-193 -192 0
193 -191 192 0
-194 24 0
-194 -189 0
194 -24 189 0
-195 -24 0
-195 189 0
195 24 -189 0
-196 -194 0
-196 -195 0
196 194 195 0
-197 193 0
-197 196 0
197 -193 -196 0
-200 197 0
-200 -199 0
200 -197 199 0
-202 200 0
-202 -201 0
202 -200 201 0
3 -883 0
-3 883 0
-203 3 0
-203 -198 0
203 -3 198 0
-204 -3 0
-204 198 0
204 3 -198 0
-205 -203 0
-205 -204 0
205 203 204 0
206 -930 0
-206 930 0
-207 205 0
-207 206 0
207 -205 -206 0
-208 202 0
-208 -207 0
208 -202 207 0
-209 -205 0
-209 -206 0
209 205 206 0
-210 208 0
-210 -209 0
210 -208 209 0
-211 23 0
-211 -206 0
211 -23 206 0
-212 -23 0
-212 206 0
212 23 -206 0
-213 -211 0
-213 -212 0
213 211 212 0
-214 210 0
-214 213 0
214 -210 -213 0
-217 214 0
-217 -216 0
217 -214 216 0
-219 217 0
-219 -218 0
219 -217 218 0
2 -882 0
-2 882 0
-220 2 0
-220 -215 0
220 -2 215 0
-221 -2 0
-221 215 0
221 2 -215 0
-222 -220 0
-222 -221 0
222 220 221 0
223 -932 0
-223 932 0
-224 222 0
-224 223 0
224 -222 -223 0
-225 219 0
-225 -224 0
225 -219 224 0
-226 -222 0
-226 -223 0
226 222 223 0
-227 225 0
-227 -226 0
227 -225 226 0
-228 22 0
-228 -223 0
228 -22 223 0
-229 -22 0
-229 223 0
229 22 -223 0
-230 -228 0
-230 -229 0
230 228 229 0
-231 227 0
-231 230 0
231 -227 -230 0
-234 231 0
-234 -233 0
234 -231 233 0
-236 234 0
-236 -235 0
236 -234 235 0
-237 14 0
-237 -232 0
237 -14 232 0
-238 -14 0
-238 232 0
238 14 -232 0
-239 -237 0
-239 -238 0
239 237 238 0
-240 236 0
-240 239 0
240 -236 -239 0
-243 240 0
-243 -242 0
243 -240 242 0
-245 243 0
-245 -244 0
245 -243 244 0
-246 14 0
-246 -241 0
246 -14 241 0
-247 -14 0
-247 241 0
247 14 -241 0
-248 -246 0
-248 -247 0
248 246 247 0
-249 245 0
-249 248 0
249 -245 -248 0
-250 -242 0
-250 249 0
250 242 -249 0
-251 -244 0
-251 250 0
251 244 -250 0
-252 18 0
-252 -241 0
252 -18 241 0
-253 -18 0
-253 241 0
253 18 -241 0
-254 -252 0
-254 -253 0
254 252 253 0
-255 251 0
-255 254 0
255 -251 -254 0
-258 255 0
-258 -257 0
258 -255 257 0
-260 258 0
-260 -259 0
260 -258 259 0
-261 17 0
-261 -256 0
261 -17 256 0
-262 -17 0
-262 256 0
262 17 -256 0
-263 -261 0
-263 -262 0
263 261 262 0
-264 260 0
-264 263 0
264 -260 -263 0
-267 264 0
-267 -266 0
267 -264 266 0
-269 267 0
-269 -268 0
269 -267 268 0
-270 16 0
-270 -265 0
270 -16 265 0
-271 -16 0
-271 265 0
271 16 -265 0
-272 -270 0
-272 -271 0
272 270 271 0
273 -937 0
-273 937 0
-274 272 0
-274 273 0
274 -272 -273 0
-275 269 0
-275 -274 0
275 -269 274 0
-276 -272 0
-276 -273 0
276 272 273 0
-277 275 0
-277 -276 0
277 -275 276 0
-278 31 0
-278 -273 0
278 -31 273 0
-279 -31 0
-279 273 0
279 31 -273 0
-280 -278 0
-280 -279 0
280 278 279 0
-281 277 0
-281 280 0
281 -277 -280 0
-284 281 0
-284 -283 0
284 -281 283 0
-286 284 0
-286 -285 0
286 -284 285 0
-287 15 0
-287 -282 0
287 -15 282 0
-288 -15 0
-288 282 0
288 15 -282 0
-289 -287 0
-289 -288 0
289 287 288 0
290 -939 0
-290 939 0
-291 289 0
-291 290 0
291 -289 -290 0
-292 286 0
-292 -291 0
292 -286 291 0
-293 -289 0
-293 -290 0
293 289 290 0
-294 292 0
-294 -293 0
294 -292 293 0
-295 30 0
-295 -290 0
295 -30 290 0
-296 -30 0
-296 290 0
296 30 -290 0
-297 -295 0
-297 -296 0
297 295 296 0
-298 294 0
-298 297 0
298 -294 -297 0
-301 298 0
-301 -300 0
301 -298 300 0
-303 301 0
-303 -302 0
303 -301 302 0
-304 8 0
-304 -299 0
304 -8 299 0
-305 -8 0
-305 299 0
305 8 -299 0
-306 -304 0
-306 -305 0
306 304 305 0
-307 303 0
-307 306 0
307 -303 -306 0
-310 307 0
-310 -309 0
310 -307 309 0
-312 310 0
-312 -311 0
312 -310 311 0
-313 8 0
-313 -308 0
313 -8 308 0
-314 -8 0
-314 308 0
314 8 -308 0
-315 -313 0
-315 -314 0
315 313 314 0
-316 312 0
-316 315 0
316 -312 -315 0
-317 -309 0
-317 316 0
317 309 -316 0
-318 -311 0
-318 317 0
318 311 -317 0
-319 12 0
-319 -308 0
319 -12 308 0
-320 -12 0
-320 308 0
320 12 -308 0
-321 -319 0
-321 -320 0
321 319 320 0
322 -942 0
-322 942 0
-323 321 0
-323 322 0
323 -321 -322 0
-324 318 0
-324 -323 0
324 -318 323 0
-325 -321 0
-325 -322 0
325 321 322 0
-326 324 0
-326 -325 0
326 -324 325 0
-327 29 0
-327 -322 0
327 -29 322 0
-328 -29 0
-328 322 0
328 29 -322 0
-329 -327 0
-329 -328 0
329 327 328 0
-330 326 0
-330 329 0
330 -326 -329 0
-333 330 0
-333 -332 0
333 -330 332 0
-335 333 0
-335 -334 0
335 -333 334 0
-336 11 0
-336 -331 0
336 -11 331 0
-337 -11 0
-337 331 0
337 11 -331 0
-338 -336 0
-338 -337 0
338 336 337 0
339 -944 0
-339 944 0
-340 338 0
-340 339 0
340 -338 -339 0
-341 335 0
-341 -340 0
341 -335 340 0
-342 -338 0
-342 -339 0
342 338 339 0
-343 341 0
-343 -342 0
343 -341 342 0
-344 28 0
-344 -339 0
344 -28 339 0
-345 -28 0
-345 339 0
345 28 -339 0
-346 -344 0
-346 -345 0
346 344 345 0
-347 343 0
-347 346 0
347 -343 -346 0
-350 347 0
-350 -349 0
350 -347 349 0
-352 350 0
-352 -351 0
352 -350 351 0
-353 10 0
-353 -348 0
353 -10 348 0
-354 -10 0
-354 348 0
354 10 -348 0
-355 -353 0
-355 -354 0
355 353 354 0
356 -946 0
-356 946 0
-357 355 0
-357 356 0
357 -355 -356 0
-358 352 0
-358 -357 0
358 -352 357 0
-359 -355 0
-359 -356 0
359 355 356 0
-360 358 0
-360 -359 0
360 -358 359 0
-361 27 0
-361 -356 0
361 -27 356 0
-362 -27 0
-362 356 0
362 27 -356 0
-363 -361 0
-363 -362 0
363 361 362 0
-364 360 0
-364 363 0
364 -360 -363 0
-367 364 0
-367 -366 0
367 -364 366 0
-369 367 0
-369 -368 0
369 -367 368 0
-370 9 0
-370 -365 0
370 -9 365 0
-371 -9 0
-371 365 0
371 9 -365 0
-372 -370 0
-372 -371 0
372 370 371 0
373 -948 0
-373 948 0
-374 372 0
-374 373 0
374 -372 -373 0
-375 369 0
-375 -374 0
375 -369 374 0
-376 -372 0
-376 -373 0
376 372 373 0
-377 375 0
-377 -376 0
377 -375 376 0
-378 26 0
-378 -373 0
378 -26 373 0
-379 -26 0
-379 373 0
379 26 -373 0
-380 -378 0
-380 -379 0
380 378 379 0
-381 377 0
-381 380 0
381 -377 -380 0
382 -949 0
-382 949 0
-383 3 0
-383 -382 0
383 -3 382 0
-384 381 0
-384 -383 0
384 -381 383 0
-385 -3 0
-385 382 0
385 3 -382 0
-386 384 0
-386 -385 0
386 -384 385 0
-387 2 0
-387 -382 0
387 -2 382 0
-388 -2 0
-388 382 0
388 2 -382 0
-389 -387 0
-389 -388 0
389 387 388 0
390 -950 0
-390 950 0
-391 389 0
-391 390 0
391 -389 -390 0
-392 386 0
-392 -391 0
392 -386 391 0
-393 -389 0
-393 -390 0
393 389 390 0
-394 392 0
-394 -393 0
394 -392 393 0
-395 25 0
-395 -390 0
395 -25 390 0
-396 -25 0
-396 390 0
396 25 -390 0
-397 -395 0
-397 -396 0
397 395 396 0
-398 394 0
-398 397 0
398 -394 -397 0
-401 398 0
-401 -400 0
401 -398 400 0
-403 401 0
-403 -402 0
403 -401 402 0
-404 2 0
-404 -399 0
404 -2 399 0
-405 -2 0
-405 399 0
405 2 -399 0
-406 -404 0
-406 -405 0
406 404 405 0
407 -952 0
-407 952 0
-408 406 0
-408 407 0
408 -406 -407 0
-409 403 0
-409 -408 0
409 -403 408 0
-410 -406 0
-410 -407 0
410 406 407 0
-411 409 0
-411 -410 0
411 -409 410 0
-412 24 0
-412 -407 0
412 -24 407 0
-413 -24 0
-413 407 0
413 24 -407 0
-414 -412 0
-414 -413 0
414 412 413 0
-415 411 0
-415 414 0
415 -411 -414 0
-416 -400 0
-416 415 0
416 400 -415 0
-417 -402 0
-417 416 0
417 402 -416 0
-418 6 0
-418 -399 0
418 -6 399 0
-419 -6 0
-419 399 0
419 6 -399 0
-420 -418 0
-420 -419 0
420 418 419 0
421 -953 0
-421 953 0
-422 420 0
-422 421 0
422 -420 -421 0
-423 417 0
-423 -422 0
423 -417 422 0
-424 -420 0
-424 -421 0
424 420 421 0
-425 423 0
-425 -424 0
425 -423 424 0
-426 23 0
-426 -421 0
426 -23 421 0
-427 -23 0
-427 421 0
427 23 -421 0
-428 -426 0
-428 -427 0
428 426 427 0
-429 425 0
-429 428 0
429 -425 -428 0
430 -954 0
-430 954 0
-431 6 0
-431 -430 0
431 -6 430 0
-432 429 0
-432 -431 0
432 -429 431 0
-433 -6 0
-433 430 0
433 6 -430 0
-434 432 0
-434 -433 0
434 -432 433 0
-435 5 0
-435 -430 0
435 -5 430 0
-436 -5 0
-436 430 0
436 5 -430 0
-437 -435 0
-437 -436 0
437 435 436 0
438 -955 0
-438 955 0
-439 437 0
-439 438 0
439 -437 -438 0
-440 434 0
-440 -439 0
440 -434 439 0
-441 -437 0
-441 -438 0
441 437 438 0
-442 440 0
-442 -441 0
442 -440 441 0
-443 22 0
-443 -438 0
443 -22 438 0
-444 -22 0
-444 438 0
444 22 -438 0
-445 -443 0
-445 -444 0
445 443 444 0
-446 442 0
-446 445 0
446 -442 -445 0
447 -956 0
-447 956 0
-448 5 0
-448 -447 0
448 -5 447 0
-449 446 0
-449 -448 0
449 -446 448 0
-450 -5 0
-450 447 0
450 5 -447 0
-451 449 0
-451 -450 0
451 -449 450 0
-452 4 0
-452 -447 0
452 -4 447 0
-453 -4 0
-453 447 0
453 4 -447 0
-454 -452 0
-454 -453 0
454 452 453 0
455 -957 0
-455 957 0
-456 454 0
-456 455 0
456 -454 -455 0
-457 451 0
-457 -456 0
457 -451 456 0
-458 -454 0
-458 -455 0
458 454 455 0
-459 457 0
-459 -458 0
459 -457 458 0
-460 21 0
-460 -455 0
460 -21 455 0
-461 -21 0
-461 455 0
461 21 -455 0
-462 -460 0
-462 -461 0
462 460 461 0
-463 459 0
-463 462 0
463 -459 -462 0
464 -958 0
-464 958 0
-465 4 0
-465 -464 0
465 -4 464 0
-466 463 0
-466 -465 0
466 -463 465 0
-467 -4 0
-467 464 0
467 4 -464 0
-468 466 0
-468 -467 0
468 -466 467 0
-469 3 0
-469 -464 0
469 -3 464 0
-470 -3 0
-470 464 0
470 3 -464 0
-471 -469 0
-471 -470 0
471 469 470 0
472 -959 0
-472 959 0
-473 471 0
-473 472 0
473 -471 -472 0
-474 468 0
-474 -473 0
474 -468 473 0
-475 -471 0
-475 -472 0
475 471 472 0
-476 474 0
-476 -475 0
476 -474 475 0
-477 20 0
-477 -472 0
477 -20 472 0
-478 -20 0
-478 472 0
478 20 -472 0
-479 -477 0
-479 -478 0
479 477 478 0
-480 476 0
-480 479 0
480 -476 -479 0
-481 -309 0
-481 480 0
481 309 -480 0
-482 -311 0
-482 481 0
482 311 -481 0
-483 7 0
-483 -308 0
483 -7 308 0
-484 -7 0
-484 308 0
484 7 -308 0
-485 -483 0
-485 -484 0
485 483 484 0
-486 482 0
-486 485 0
486 -482 -485 0
-487 -332 0
-487 486 0
487 332 -486 0
-488 -334 0
-488 487 0
488 334 -487 0
-489 6 0
-489 -331 0
489 -6 331 0
-490 -6 0
-490 331 0
490 6 -331 0
-491 -489 0
-491 -490 0
491 489 490 0
492 -960 0
-492 960 0
-493 491 0
-493 492 0
493 -491 -492 0
-494 488 0
-494 -493 0
494 -488 493 0
-495 -491 0
-495 -492 0
495 491 492 0
-496 494 0
-496 -495 0
496 -494 495 0
-497 31 0
-497 -492 0
497 -31 492 0
-498 -31 0
-498 492 0
498 31 -492 0
-499 -497 0
-499 -498 0
499 497 498 0
-500 496 0
-500 499 0
500 -496 -499 0
-501 -349 0
-501 500 0
501 349 -500 0
-502 -351 0
-502 501 0
502 351 -501 0
-503 5 0
-503 -348 0
503 -5 348 0
-504 -5 0
-504 348 0
504 5 -348 0
-505 -503 0
-505 -504 0
505 503 504 0
506 -961 0
-506 961 0
-507 505 0
-507 506 0
507 -505 -506 0
-508 502 0
-508 -507 0
508 -502 507 0
-509 -505 0
-509 -506 0
509 505 506 0
-510 508 0
-510 -509 0
510 -508 509 0
-511 30 0
-511 -506 0
511 -30 506 0
-512 -30 0
-512 506 0
512 30 -506 0
-513 -511 0
-513 -512 0
513 511 512 0
-514 510 0
-514 513 0
514 -510 -513 0
-515 -366 0
-515 514 0
515 366 -514 0
-516 -368 0
-516 515 0
516 368 -515 0
-517 4 0
-517 -365 0
517 -4 365 0
-518 -4 0
-518 365 0
518 4 -365 0
-519 -517 0
-519 -518 0
519 517 518 0
-520 516 0
-520 519 0
520 -516 -519 0
-521 -300 0
-521 520 0
521 300 -520 0
-522 -302 0
-522 521 0
522 302 -521 0
-523 3 0
-523 -299 0
523 -3 299 0
-524 -3 0
-524 299 0
524 3 -299 0
-525 -523 0
-525 -524 0
525 523 524 0
-526 522 0
-526 525 0
526 -522 -525 0
-529 526 0
-529 -528 0
529 -526 528 0
-531 529 0
-531 -530 0
531 -529 530 0
-532 2 0
-532 -527 0
532 -2 527 0
-533 -2 0
-533 527 0
533 2 -527 0
-534 -532 0
-534 -533 0
534 532 533 0
-535 531 0
-535 534 0
535 -531 -534 0
-536 -100 0
-536 535 0
536 100 -535 0
-537 -102 0
-537 536 0
537 102 -536 0
-538 7 0
-538 -99 0
538 -7 99 0
-539 -7 0
-539 99 0
539 7 -99 0
-540 -538 0
-540 -539 0
540 538 539 0
-541 537 0
-541 540 0
541 -537 -540 0
-542 -117 0
-542 541 0
542 117 -541 0
-543 -119 0
-543 542 0
543 119 -542 0
-544 6 0
-544 -116 0
544 -6 116 0
-545 -6 0
-545 116 0
545 6 -116 0
-546 -544 0
-546 -545 0
546 544 545 0
-547 543 0
-547 546 0
547 -543 -546 0
-548 -67 0
-548 547 0
548 67 -547 0
-549 -69 0
-549 548 0
549 69 -548 0
-550 5 0
-550 -66 0
550 -5 66 0
-551 -5 0
-551 66 0
551 5 -66 0
-552 -550 0
-552 -551 0
552 550 551 0
-553 549 0
-553 552 0
553 -549 -552 0
-554 -4 0
-554 553 0
554 4 -553 0
-555 -58 0
-555 554 0
555 58 -554 0
-556 -60 0
-556 555 0
556 60 -555 0
-557 3 0
-557 -57 0
557 -3 57 0
-558 -3 0
-558 57 0
558 3 -57 0
-559 -557 0
-559 -558 0
559 557 558 0
-560 556 0
-560 559 0
560 -556 -559 0
-561 -91 0
-561 560 0
561 91 -560 0
-562 -93 0
-562 561 0
562 93 -561 0
-563 2 0
-563 -90 0
563 -2 90 0
-564 -2 0
-564 90 0
564 2 -90 0
-565 -563 0
-565 -564 0
565 563 564 0
566 -963 0
-566 963 0
-567 565 0
-567 566 0
567 -565 -566 0
-568 562 0
-568 -567 0
568 -562 567 0
-569 -565 0
-569 -566 0
569 565 566 0
-570 568 0
-570 -569 0
570 -568 569 0
-571 30 0
-571 -566 0
571 -30 566 0
-572 -30 0
-572 566 0
572 30 -566 0
-573 -571 0
-573 -572 0
573 571 572 0
-574 570 0
-574 573 0
574 -570 -573 0
-575 -22 0
-575 574 0
575 22 -574 0
-576 -21 0
-576 575 0
576 21 -575 0
-577 -91 0
-577 576 0
577 91 -576 0
-578 -93 0
-578 577 0
578 93 -577 0
-579 20 0
-579 -90 0
579 -20 90 0
-580 -20 0
-580 90 0
580 20 -90 0
-581 -579 0
-581 -580 0
581 579 580 0
-582 578 0
-582 581 0
582 -578 -581 0
-583 -100 0
-583 582 0
583 100 -582 0
-584 -102 0
-584 583 0
584 102 -583 0
-585 25 0
-585 -99 0
585 -25 99 0
-586 -25 0
-586 99 0
586 25 -99 0
-587 -585 0
-587 -586 0
587 585 586 0
-588 584 0
-588 587 0
588 -584 -587 0
-589 -117 0
-589 588 0
589 117 -588 0
-590 -119 0
-590 589 0
590 119 -589 0
-591 24 0
-591 -116 0
591 -24 116 0
-592 -24 0
-592 116 0
592 24 -116 0
-593 -591 0
-593 -592 0
593 591 592 0
594 -964 0
-594 964 0
-595 593 0
-595 594 0
595 -593 -594 0
-596 590 0
-596 -595 0
596 -590 595 0
-597 -593 0
-597 -594 0
597 593 594 0
-598 596 0
-598 -597 0
598 -596 597 0
-599 31 0
-599 -594 0
599 -31 594 0
-600 -31 0
-600 594 0
600 31 -594 0
-601 -599 0
-601 -600 0
601 599 600 0
-602 598 0
-602 601 0
602 -598 -601 0
-603 -67 0
-603 602 0
603 67 -602 0
-604 -69 0
-604 603 0
604 69 -603 0
-605 23 0
-605 -66 0
605 -23 66 0
-606 -23 0
-606 66 0
606 23 -66 0
-607 -605 0
-607 -606 0
607 605 606 0
608 -965 0
-608 965 0
-609 607 0
-609 608 0
609 -607 -608 0
-610 604 0
-610 -609 0
610 -604 609 0
-611 -607 0
-611 -608 0
611 607 608 0
-612 610 0
-612 -611 0
612 -610 611 0
-613 30 0
-613 -608 0
613 -30 608 0
-614 -30 0
-614 608 0
614 30 -608 0
-615 -613 0
-615 -614 0
615 613 614 0
-616 612 0
-616 615 0
616 -612 -615 0
617 -966 0
-617 966 0
-618 25 0
-618 -617 0
618 -25 617 0
-619 616 0
-619 -618 0
619 -616 618 0
-620 -25 0
-620 617 0
620 25 -617 0
-621 619 0
-621 -620 0
621 -619 620 0
-622 16 0
-622 -617 0
622 -16 617 0
-623 -16 0
-623 617 0
623 16 -617 0
-624 -622 0
-624 -623 0
624 622 623 0
-625 621 0
-625 624 0
625 -621 -624 0
-626 -165 0
-626 625 0
626 165 -625 0
-627 -167 0
-627 626 0
627 167 -626 0
-628 15 0
-628 -164 0
628 -15 164 0
-629 -15 0
-629 164 0
629 15 -164 0
-630 -628 0
-630 -629 0
630 628 629 0
-631 627 0
-631 630 0
631 -627 -630 0
-632 -182 0
-632 631 0
632 182 -631 0
-633 -184 0
-633 632 0
633 184 -632 0
-634 14 0
-634 -181 0
634 -14 181 0
-635 -14 0
-635 181 0
635 14 -181 0
-636 -634 0
-636 -635 0
636 634 635 0
637 -967 0
-637 967 0
-638 636 0
-638 637 0
638 -636 -637 0
-639 633 0
-639 -638 0
639 -633 638 0
-640 -636 0
-640 -637 0
640 636 637 0
-641 639 0
-641 -640 0
641 -639 640 0
-642 29 0
-642 -637 0
642 -29 637 0
-643 -29 0
-643 637 0
643 29 -637 0
-644 -642 0
-644 -643 0
644 642 643 0
-645 641 0
-645 644 0
645 -641 -644 0
-646 -199 0
-646 645 0
646 199 -645 0
-647 -201 0
-647 646 0
647 201 -646 0
-648 19 0
-648 -198 0
648 -19 198 0
-649 -19 0
-649 198 0
649 19 -198 0
-650 -648 0
-650 -649 0
650 648 649 0
651 -968 0
-651 968 0
-652 650 0
-652 651 0
652 -650 -651 0
-653 647 0
-653 -652 0
653 -647 652 0
-654 -650 0
-654 -651 0
654 650 651 0
-655 653 0
-655 -654 0
655 -653 654 0
-656 28 0
-656 -651 0
656 -28 651 0
-657 -28 0
-657 651 0
657 28 -651 0
-658 -656 0
-658 -657 0
658 656 657 0
-659 655 0
-659 658 0
659 -655 -658 0
-660 -216 0
-660 659 0
660 216 -659 0
-661 -218 0
-661 660 0
661 218 -660 0
-662 18 0
-662 -215 0
662 -18 215 0
-663 -18 0
-663 215 0
663 18 -215 0
-664 -662 0
-664 -663 0
664 662 663 0
665 -969 0
-665 969 0
-666 664 0
-666 665 0
666 -664 -665 0
-667 661 0
-667 -666 0
667 -661 666 0
-668 -664 0
-668 -665 0
668 664 665 0
-669 667 0
-669 -668 0
669 -667 668 0
-670 27 0
-670 -665 0
670 -27 665 0
-671 -27 0
-671 665 0
671 27 -665 0
-672 -670 0
-672 -671 0
672 670 671 0
-673 669 0
-673 672 0
673 -669 -672 0
-674 -134 0
-674 673 0
674 134 -673 0
-675 -136 0
-675 674 0
675 136 -674 0
-676 17 0
-676 -133 0
676 -17 133 0
-677 -17 0
-677 133 0
677 17 -133 0
-678 -676 0
-678 -677 0
678 676 677 0
679 -970 0
-679 970 0
-680 678 0
-680 679 0
680 -678 -679 0
-681 675 0
-681 -680 0
681 -675 680 0
-682 -678 0
-682 -679 0
682 678 679 0
-683 681 0
-683 -682 0
683 -681 682 0
-684 26 0
-684 -679 0
684 -26 679 0
-685 -26 0
-685 679 0
685 26 -679 0
-686 -684 0
-686 -685 0
686 684 685 0
-687 683 0
-687 686 0
687 -683 -686 0
-688 -242 0
-688 687 0
688 242 -687 0
-689 -244 0
-689 688 0
689 244 -688 0
-690 10 0
-690 -241 0
690 -10 241 0
-691 -10 0
-691 241 0
691 10 -241 0
-692 -690 0
-692 -691 0
692 690 691 0
693 -971 0
-693 971 0
-694 692 0
-694 693 0
694 -692 -693 0
-695 689 0
-695 -694 0
695 -689 694 0
-696 -692 0
-696 -693 0
696 692 693 0
-697 695 0
-697 -696 0
697 -695 696 0
-698 25 0
-698 -693 0
698 -25 693 0
-699 -25 0
-699 693 0
699 25 -693 0
-700 -698 0
-700 -699 0
700 698 699 0
-701 697 0
-701 700 0
701 -697 -700 0
-702 -257 0
-702 701 0
702 257 -701 0
-703 -259 0
-703 702 0
703 259 -702 0
-704 9 0
-704 -256 0
704 -9 256 0
-705 -9 0
-705 256 0
705 9 -256 0
-706 -704 0
-706 -705 0
706 704 705 0
707 -972 0
-707 972 0
-708 706 0
-708 707 0
708 -706 -707 0
-709 703 0
-709 -708 0
709 -703 708 0
-710 -706 0
-710 -707 0
710 706 707 0
-711 709 0
-711 -710 0
711 -709 710 0
-712 24 0
-712 -707 0
712 -24 707 0
-713 -24 0
-713 707 0
713 24 -707 0
-714 -712 0
-714 -713 0
714 712 713 0
-715 711 0
-715 714 0
715 -711 -714 0
-716 -266 0
-716 715 0
716 266 -715 0
-717 -268 0
-717 716 0
717 268 -716 0
-718 8 0
-718 -265 0
718 -8 265 0
-719 -8 0
-719 265 0
719 8 -265 0
-720 -718 0
-720 -719 0
720 718 719 0
721 -973 0
-721 973 0
-722 720 0
-722 721 0
722 -720 -721 0
-723 717 0
-723 -722 0
723 -717 722 0
-724 -720 0
-724 -721 0
724 720 721 0
-725 723 0
-725 -724 0
725 -723 724 0
-726 23 0
-726 -721 0
726 -23 721 0
-727 -23 0
-727 721 0
727 23 -721 0
-728 -726 0
-728 -727 0
728 726 727 0
-729 725 0
-729 728 0
729 -725 -728 0
-730 -283 0
-730 729 0
730 283 -729 0
-731 -285 0
-731 730 0
731 285 -730 0
-732 13 0
-732 -282 0
732 -13 282 0
-733 -13 0
-733 282 0
733 13 -282 0
-734 -732 0
-734 -733 0
734 732 733 0
735 -974 0
-735 974 0
-736 734 0
-736 735 0
736 -734 -735 0
-737 731 0
-737 -736 0
737 -731 736 0
-738 -734 0
-738 -735 0
738 734 735 0
-739 737 0
-739 -738 0
739 -737 738 0
-740 22 0
-740 -735 0
740 -22 735 0
-741 -22 0
-741 735 0
741 22 -735 0
-742 -740 0
-742 -741 0
742 740 741 0
-743 739 0
-743 742 0
743 -739 -742 0
-744 -233 0
-744 743 0
744 233 -743 0
-745 -235 0
-745 744 0
745 235 -744 0
-746 12 0
-746 -232 0
746 -12 232 0
-747 -12 0
-747 232 0
747 12 -232 0
-748 -746 0
-748 -747 0
748 746 747 0
749 -975 0
-749 975 0
-750 748 0
-750 749 0
750 -748 -749 0
-751 745 0
-751 -750 0
751 -745 750 0
-752 -748 0
-752 -749 0
752 748 749 0
-753 751 0
-753 -752 0
753 -751 752 0
-754 21 0
-754 -749 0
754 -21 749 0
-755 -21 0
-755 749 0
755 21 -749 0
-756 -754 0
-756 -755 0
756 754 755 0
-757 753 0
-757 756 0
757 -753 -756 0
758 -976 0
-758 976 0
-759 14 0
-759 -758 0
759 -14 758 0
-760 757 0
-760 -759 0
760 -757 759 0
-761 -14 0
-761 758 0
761 14 -758 0
-762 760 0
-762 -761 0
762 -760 761 0
-763 11 0
-763 -758 0
763 -11 758 0
-764 -11 0
-764 758 0
764 11 -758 0
-765 -763 0
-765 -764 0
765 763 764 0
766 -977 0
-766 977 0
-767 765 0
-767 766 0
767 -765 -766 0
-768 762 0
-768 -767 0
768 -762 767 0
-769 -765 0
-769 -766 0
769 765 766 0
-770 768 0
-770 -769 0
770 -768 769 0
-771 20 0
-771 -766 0
771 -20 766 0
-772 -20 0
-772 766 0
772 20 -766 0
-773 -771 0
-773 -772 0
773 771 772 0
-774 770 0
-774 773 0
774 -770 -773 0
-775 -309 0
-775 774 0
775 309 -774 0
-776 -311 0
-776 775 0
776 311 -775 0
-777 4 0
-777 -308 0
777 -4 308 0
-778 -4 0
-778 308 0
778 4 -308 0
-779 -777 0
-779 -778 0
779 777 778 0
780 -978 0
-780 978 0
-781 779 0
-781 780 0
781 -779 -780 0
-782 776 0
-782 -781 0
782 -776 781 0
-783 -779 0
-783 -780 0
783 779 780 0
-784 782 0
-784 -783 0
784 -782 783 0
-785 19 0
-785 -780 0
785 -19 780 0
-786 -19 0
-786 780 0
786 19 -780 0
-787 -785 0
-787 -786 0
787 785 786 0
-788 784 0
-788 787 0
788 -784 -787 0
-789 -332 0
-789 788 0
789 332 -788 0
-790 -334 0
-790 789 0
790 334 -789 0
-791 3 0
-791 -331 0
791 -3 331 0
-792 -3 0
-792 331 0
792 3 -331 0
-793 -791 0
-793 -792 0
793 791 792 0
794 -979 0
-794 979 0
-795 793 0
-795 794 0
795 -793 -794 0
-796 790 0
-796 -795 0
796 -790 795 0
-797 -793 0
-797 -794 0
797 793 794 0
-798 796 0
-798 -797 0
798 -796 797 0
-799 18 0
-799 -794 0
799 -18 794 0
-800 -18 0
-800 794 0
800 18 -794 0
-801 -799 0
-801 -800 0
801 799 800 0
-802 798 0
-802 801 0
802 -798 -801 0
-803 -349 0
-803 802 0
803 349 -802 0
-804 -351 0
-804 803 0
804 351 -803 0
-805 2 0
-805 -348 0
805 -2 348 0
-806 -2 0
-806 348 0
806 2 -348 0
-807 -805 0
-807 -806 0
807 805 806 0
808 -980 0
-808 980 0
-809 807 0
-809 808 0
809 -807 -808 0
-810 804 0
-810 -809 0
810 -804 809 0
-811 -807 0
-811 -808 0
811 807 808 0
-812 810 0
-812 -811 0
812 -810 811 0
-813 17 0
-813 -808 0
813 -17 808 0
-814 -17 0
-814 808 0
814 17 -808 0
-815 -813 0
-815 -814 0
815 813 814 0
-816 812 0
-816 815 0
816 -812 -815 0
-817 -366 0
-817 816 0
817 366 -816 0
-818 -368 0
-818 817 0
818 368 -817 0
-819 7 0
-819 -365 0
819 -7 365 0
-820 -7 0
-820 365 0
820 7 -365 0
-821 -819 0
-821 -820 0
821 819 820 0
822 -981 0
-822 981 0
-823 821 0
-823 822 0
823 -821 -822 0
-824 818 0
-824 -823 0
824 -818 823 0
-825 -821 0
-825 -822 0
825 821 822 0
-826 824 0
-826 -825 0
826 -824 825 0
-827 16 0
-827 -822 0
827 -16 822 0
-828 -16 0
-828 822 0
828 16 -822 0
-829 -827 0
-829 -828 0
829 827 828 0
-830 826 0
-830 829 0
830 -826 -829 0
-831 -300 0
-831 830 0
831 300 -830 0
-832 -302 0
-832 831 0
832 302 -831 0
-833 6 0
-833 -299 0
833 -6 299 0
-834 -6 0
-834 299 0
834 6 -299 0
-835 -833 0
-835 -834 0
835 833 834 0
836 -982 0
-836 982 0
-837 835 0
-837 836 0
837 -835 -836 0
-838 832 0
-838 -837 0
838 -832 837 0
-839 -835 0
-839 -836 0
839 835 836 0
-840 838 0
-840 -839 0
840 -838 839 0
-841 15 0
-841 -836 0
841 -15 836 0
-842 -15 0
-842 836 0
842 15 -836 0
-843 -841 0
-843 -842 0
843 841 842 0
-844 840 0
-844 843 0
844 -840 -843 0
-845 -528 0
-845 844 0
845 528 -844 0
-846 -530 0
-846 845 0
846 530 -845 0
-847 5 0
-847 -527 0
847 -5 527 0
-848 -5 0
-848 527 0
848 5 -527 0
-849 -847 0
-849 -848 0
849 847 848 0
850 -983 0
-850 983 0
-851 849 0
-851 850 0
851 -849 -850 0
-852 846 0
-852 -851 0
852 -846 851 0
-853 -849 0
-853 -850 0
853 849 850 0
-854 852 0
-854 -853 0
854 -852 853 0
-855 14 0
-855 -850 0
855 -14 850 0
-856 -14 0
-856 850 0
856 14 -850 0
-857 -855 0
-857 -856 0
857 855 856 0
-858 854 0
-858 857 0
858 -854 -857 0
-859 -2 0
-859 -3 0
859 2 3 0
-860 -5 0
-860 859 0
860 5 -859 0
-861 -6 0
-861 860 0
861 6 -860 0
-862 -7 0
-862 861 0
862 7 -861 0
-863 -8 0
-863 862 0
863 8 -862 0
-864 -9 0
-864 863 0
864 9 -863 0
-865 -10 0
-865 864 0
865 10 -864 0
-866 -12 0
-866 865 0
866 12 -865 0
-867 -13 0
-867 866 0
867 13 -866 0
-868 -14 0
-868 867 0
868 14 -867 0
-869 -18 0
-869 868 0
869 18 -868 0
-870 -19 0
-870 869 0
870 19 -869 0
-871 -20 0
-871 870 0
871 20 -870 0
-872 -23 0
-872 871 0
872 23 -871 0
-873 -24 0
-873 872 0
873 24 -872 0
-874 -25 0
-874 873 0
874 25 -873 0
-875 -26 0
-875 874 0
875 26 -874 0
-876 -27 0
-876 875 0
876 27 -875 0
-877 -28 0
-877 876 0
877 28 -876 0
-878 -29 0
-878 877 0
878 29 -877 0
-879 -30 0
-879 878 0
879 30 -878 0
-880 -31 0
-880 879 0
880 31 -879 0
-881 858 0
-881 -880 0
881 -858 880 0
881 0
