p cnf 983 2539
7 -887 0
-7 887 0
828 -981 0
-828 981 0
-831 -7 0
-831 828 0
831 7 -828 0
-829 7 0
-829 -828 0
829 -7 828 0
13 -893 0
-13 893 0
273 -940 0
-273 940 0
-276 -13 0
-276 273 0
276 13 -273 0
-274 13 0
-274 -273 0
274 -13 273 0
9 -889 0
-9 889 0
341 -948 0
-341 948 0
-344 -9 0
-344 341 0
344 9 -341 0
-342 9 0
-342 -341 0
342 -9 341 0
10 -890 0
-10 890 0
324 -946 0
-324 946 0
-327 -10 0
-327 324 0
327 10 -324 0
-325 10 0
-325 -324 0
325 -10 324 0
11 -891 0
-11 891 0
307 -944 0
-307 944 0
-310 -11 0
-310 307 0
310 11 -307 0
-308 11 0
-308 -307 0
308 -11 307 0
12 -892 0
-12 892 0
290 -942 0
-290 942 0
-293 -12 0
-293 290 0
293 12 -290 0
-291 12 0
-291 -290 0
291 -12 290 0
19 -899 0
-19 899 0
171 -928 0
-171 928 0
-174 -19 0
-174 171 0
174 19 -171 0
-172 19 0
-172 -171 0
172 -19 171 0
15 -895 0
-15 895 0
239 -936 0
-239 936 0
-242 -15 0
-242 239 0
242 15 -239 0
-240 15 0
-240 -239 0
240 -15 239 0
16 -896 0
-16 896 0
222 -934 0
-222 934 0
-225 -16 0
-225 222 0
225 16 -222 0
-223 16 0
-223 -222 0
223 -16 222 0
17 -897 0
-17 897 0
205 -932 0
-205 932 0
-208 -17 0
-208 205 0
208 17 -205 0
-206 17 0
-206 -205 0
206 -17 205 0
18 -898 0
-18 898 0
188 -930 0
-188 930 0
-191 -18 0
-191 188 0
191 18 -188 0
-189 18 0
-189 -188 0
189 -18 188 0
24 -904 0
-24 904 0
102 -920 0
-102 920 0
-105 -24 0
-105 102 0
105 24 -102 0
-103 24 0
-103 -102 0
103 -24 102 0
20 -900 0
-20 900 0
154 -926 0
-154 926 0
-157 -20 0
-157 154 0
157 20 -154 0
-155 20 0
-155 -154 0
155 -20 154 0
21 -901 0
-21 901 0
145 -925 0
-145 925 0
-148 -21 0
-148 145 0
148 21 -145 0
-146 21 0
-146 -145 0
146 -21 145 0
22 -902 0
-22 902 0
136 -924 0
-136 924 0
-139 -22 0
-139 136 0
139 22 -136 0
-137 22 0
-137 -136 0
137 -22 136 0
23 -903 0
-23 903 0
119 -922 0
-119 922 0
-122 -23 0
-122 119 0
122 23 -119 0
-120 23 0
-120 -119 0
120 -23 119 0
8 -888 0
-8 888 0
26 -906 0
-26 906 0
76 -917 0
-76 917 0
-79 -26 0
-79 76 0
79 26 -76 0
-77 26 0
-77 -76 0
77 -26 76 0
27 -907 0
-27 907 0
67 -916 0
-67 916 0
-70 -27 0
-70 67 0
70 27 -67 0
-68 27 0
-68 -67 0
68 -27 67 0
28 -908 0
-28 908 0
58 -915 0
-58 915 0
-61 -28 0
-61 58 0
61 28 -58 0
-59 28 0
-59 -58 0
59 -28 58 0
29 -909 0
-29 909 0
41 -913 0
-41 913 0
-44 -29 0
-44 41 0
44 29 -41 0
-42 29 0
-42 -41 0
42 -29 41 0
14 -894 0
-14 894 0
30 -910 0
-30 910 0
477 -956 0
-477 956 0
-480 -30 0
-480 477 0
480 30 -477 0
-478 30 0
-478 -477 0
478 -30 477 0
31 -911 0
-31 911 0
32 -912 0
-32 912 0
-35 -31 0
-35 32 0
35 31 -32 0
-33 31 0
-33 -32 0
33 -31 32 0
3 -883 0
-3 883 0
4 -884 0
-4 884 0
358 -950 0
-358 950 0
-361 -8 0
-361 358 0
361 8 -358 0
-359 8 0
-359 -358 0
359 -8 358 0
25 -905 0
-25 905 0
-34 -25 0
-34 -33 0
34 25 33 0
-36 34 0
-36 -35 0
36 -34 35 0
-37 24 0
-37 -32 0
37 -24 32 0
-38 -24 0
-38 32 0
38 24 -32 0
-39 -37 0
-39 -38 0
39 37 38 0
-40 36 0
-40 39 0
40 -36 -39 0
-43 40 0
-43 -42 0
43 -40 42 0
-45 43 0
-45 -44 0
45 -43 44 0
-46 23 0
-46 -41 0
46 -23 41 0
-47 -23 0
-47 41 0
47 23 -41 0
-48 -46 0
-48 -47 0
48 46 47 0
49 -914 0
-49 914 0
-50 48 0
-50 49 0
50 -48 -49 0
-51 45 0
-51 -50 0
51 -45 50 0
-52 -48 0
-52 -49 0
52 48 49 0
-53 51 0
-53 -52 0
53 -51 52 0
-54 30 0
-54 -49 0
54 -30 49 0
-55 -30 0
-55 49 0
55 30 -49 0
-56 -54 0
-56 -55 0
56 54 55 0
-57 53 0
-57 56 0
57 -53 -56 0
-60 57 0
-60 -59 0
60 -57 59 0
-62 60 0
-62 -61 0
62 -60 61 0
-63 22 0
-63 -58 0
63 -22 58 0
-64 -22 0
-64 58 0
64 22 -58 0
-65 -63 0
-65 -64 0
65 63 64 0
-66 62 0
-66 65 0
66 -62 -65 0
-69 66 0
-69 -68 0
69 -66 68 0
-71 69 0
-71 -70 0
71 -69 70 0
-72 21 0
-72 -67 0
72 -21 67 0
-73 -21 0
-73 67 0
73 21 -67 0
-74 -72 0
-74 -73 0
74 72 73 0
-75 71 0
-75 74 0
75 -71 -74 0
-78 75 0
-78 -77 0
78 -75 77 0
-80 78 0
-80 -79 0
80 -78 79 0
-81 20 0
-81 -76 0
81 -20 76 0
-82 -20 0
-82 76 0
82 20 -76 0
-83 -81 0
-83 -82 0
83 81 82 0
-84 80 0
-84 83 0
84 -80 -83 0
85 -918 0
-85 918 0
-86 25 0
-86 -85 0
86 -25 85 0
-87 84 0
-87 -86 0
87 -84 86 0
-88 -25 0
-88 85 0
88 25 -85 0
-89 87 0
-89 -88 0
89 -87 88 0
-90 19 0
-90 -85 0
90 -19 85 0
-91 -19 0
-91 85 0
91 19 -85 0
-92 -90 0
-92 -91 0
92 90 91 0
93 -919 0
-93 919 0
-94 92 0
-94 93 0
94 -92 -93 0
-95 89 0
-95 -94 0
95 -89 94 0
-96 -92 0
-96 -93 0
96 92 93 0
-97 95 0
-97 -96 0
97 -95 96 0
-98 28 0
-98 -93 0
98 -28 93 0
-99 -28 0
-99 93 0
99 28 -93 0
-100 -98 0
-100 -99 0
100 98 99 0
-101 97 0
-101 100 0
101 -97 -100 0
-104 101 0
-104 -103 0
104 -101 103 0
-106 104 0
-106 -105 0
106 -104 105 0
-107 18 0
-107 -102 0
107 -18 102 0
-108 -18 0
-108 102 0
108 18 -102 0
-109 -107 0
-109 -108 0
109 107 108 0
110 -921 0
-110 921 0
-111 109 0
-111 110 0
111 -109 -110 0
-112 106 0
-112 -111 0
112 -106 111 0
-113 -109 0
-113 -110 0
113 109 110 0
-114 112 0
-114 -113 0
114 -112 113 0
-115 27 0
-115 -110 0
115 -27 110 0
-116 -27 0
-116 110 0
116 27 -110 0
-117 -115 0
-117 -116 0
117 115 116 0
-118 114 0
-118 117 0
118 -114 -117 0
-121 118 0
-121 -120 0
121 -118 120 0
-123 121 0
-123 -122 0
123 -121 122 0
-124 17 0
-124 -119 0
124 -17 119 0
-125 -17 0
-125 119 0
125 17 -119 0
-126 -124 0
-126 -125 0
126 124 125 0
127 -923 0
-127 923 0
-128 126 0
-128 127 0
128 -126 -127 0
-129 123 0
-129 -128 0
129 -123 128 0
-130 -126 0
-130 -127 0
130 126 127 0
-131 129 0
-131 -130 0
131 -129 130 0
-132 26 0
-132 -127 0
132 -26 127 0
-133 -26 0
-133 127 0
133 26 -127 0
-134 -132 0
-134 -133 0
134 132 133 0
-135 131 0
-135 134 0
135 -131 -134 0
-138 135 0
-138 -137 0
138 -135 137 0
-140 138 0
-140 -139 0
140 -138 139 0
-141 16 0
-141 -136 0
141 -16 136 0
-142 -16 0
-142 136 0
142 16 -136 0
-143 -141 0
-143 -142 0
143 141 142 0
-144 140 0
-144 143 0
144 -140 -143 0
-147 144 0
-147 -146 0
147 -144 146 0
-149 147 0
-149 -148 0
149 -147 148 0
-150 15 0
-150 -145 0
150 -15 145 0
-151 -15 0
-151 145 0
151 15 -145 0
-152 -150 0
-152 -151 0
152 150 151 0
-153 149 0
-153 152 0
153 -149 -152 0
-156 153 0
-156 -155 0
156 -153 155 0
-158 156 0
-158 -157 0
158 -156 157 0
-159 14 0
-159 -154 0
159 -14 154 0
-160 -14 0
-160 154 0
160 14 -154 0
-161 -159 0
-161 -160 0
161 159 160 0
162 -927 0
-162 927 0
-163 161 0
-163 162 0
163 -161 -162 0
-164 158 0
-164 -163 0
164 -158 163 0
-165 -161 0
-165 -162 0
165 161 162 0
-166 164 0
-166 -165 0
166 -164 165 0
-167 29 0
-167 -162 0
167 -29 162 0
-168 -29 0
-168 162 0
168 29 -162 0
-169 -167 0
-169 -168 0
169 167 168 0
-170 166 0
-170 169 0
170 -166 -169 0
-173 170 0
-173 -172 0
173 -170 172 0
-175 173 0
-175 -174 0
175 -173 174 0
-176 13 0
-176 -171 0
176 -13 171 0
-177 -13 0
-177 171 0
177 13 -171 0
-178 -176 0
-178 -177 0
178 176 177 0
179 -929 0
-179 929 0
-180 178 0
-180 179 0
180 -178 -179 0
-181 175 0
-181 -180 0
181 -175 180 0
-182 -178 0
-182 -179 0
182 178 179 0
-183 181 0
-183 -182 0
183 -181 182 0
-184 22 0
-184 -179 0
184 -22 179 0
-185 -22 0
-185 179 0
185 22 -179 0
-186 -184 0
-186 -185 0
186 184 185 0
-187 183 0
-187 186 0
187 -183 -186 0
-190 187 0
-190 -189 0
190 -187 189 0
-192 190 0
-192 -191 0
192 -190 191 0
-193 12 0
-193 -188 0
193 -12 188 0
-194 -12 0
-194 188 0
194 12 -188 0
-195 -193 0
-195 -194 0
195 193 194 0
196 -931 0
-196 931 0
-197 195 0
-197 196 0
197 -195 -196 0
-198 192 0
-198 -197 0
198 -192 197 0
-199 -195 0
-199 -196 0
199 195 196 0
-200 198 0
-200 -199 0
200 -198 199 0
-201 21 0
-201 -196 0
201 -21 196 0
-202 -21 0
-202 196 0
202 21 -196 0
-203 -201 0
-203 -202 0
203 201 202 0
-204 200 0
-204 203 0
204 -200 -203 0
-207 204 0
-207 -206 0
207 -204 206 0
-209 207 0
-209 -208 0
209 -207 208 0
-210 11 0
-210 -205 0
210 -11 205 0
-211 -11 0
-211 205 0
211 11 -205 0
-212 -210 0
-212 -211 0
212 210 211 0
213 -933 0
-213 933 0
-214 212 0
-214 213 0
214 -212 -213 0
-215 209 0
-215 -214 0
215 -209 214 0
-216 -212 0
-216 -213 0
216 212 213 0
-217 215 0
-217 -216 0
217 -215 216 0
-218 20 0
-218 -213 0
218 -20 213 0
-219 -20 0
-219 213 0
219 20 -213 0
-220 -218 0
-220 -219 0
220 218 219 0
-221 217 0
-221 220 0
221 -217 -220 0
-224 221 0
-224 -223 0
224 -221 223 0
-226 224 0
-226 -225 0
226 -224 225 0
-227 10 0
-227 -222 0
227 -10 222 0
-228 -10 0
-228 222 0
228 10 -222 0
-229 -227 0
-229 -228 0
229 227 228 0
230 -935 0
-230 935 0
-231 229 0
-231 230 0
231 -229 -230 0
-232 226 0
-232 -231 0
232 -226 231 0
-233 -229 0
-233 -230 0
233 229 230 0
-234 232 0
-234 -233 0
234 -232 233 0
-235 25 0
-235 -230 0
235 -25 230 0
-236 -25 0
-236 230 0
236 25 -230 0
-237 -235 0
-237 -236 0
237 235 236 0
-238 234 0
-238 237 0
238 -234 -237 0
-241 238 0
-241 -240 0
241 -238 240 0
-243 241 0
-243 -242 0
243 -241 242 0
-244 9 0
-244 -239 0
244 -9 239 0
-245 -9 0
-245 239 0
245 9 -239 0
-246 -244 0
-246 -245 0
246 244 245 0
247 -937 0
-247 937 0
-248 246 0
-248 247 0
248 -246 -247 0
-249 243 0
-249 -248 0
249 -243 248 0
-250 -246 0
-250 -247 0
250 246 247 0
-251 249 0
-251 -250 0
251 -249 250 0
-252 24 0
-252 -247 0
252 -24 247 0
-253 -24 0
-253 247 0
253 24 -247 0
-254 -252 0
-254 -253 0
254 252 253 0
-255 251 0
-255 254 0
255 -251 -254 0
256 -938 0
-256 938 0
-257 14 0
-257 -256 0
257 -14 256 0
-258 255 0
-258 -257 0
258 -255 257 0
-259 -14 0
-259 256 0
259 14 -256 0
-260 258 0
-260 -259 0
260 -258 259 0
-261 8 0
-261 -256 0
261 -8 256 0
-262 -8 0
-262 256 0
262 8 -256 0
-263 -261 0
-263 -262 0
263 261 262 0
264 -939 0
-264 939 0
-265 263 0
-265 264 0
265 -263 -264 0
-266 260 0
-266 -265 0
266 -260 265 0
-267 -263 0
-267 -264 0
267 263 264 0
-268 266 0
-268 -267 0
268 -266 267 0
-269 23 0
-269 -264 0
269 -23 264 0
-270 -23 0
-270 264 0
270 23 -264 0
-271 -269 0
-271 -270 0
271 269 270 0
-272 268 0
-272 271 0
272 -268 -271 0
-275 272 0
-275 -274 0
275 -272 274 0
-277 275 0
-277 -276 0
277 -275 276 0
-278 7 0
-278 -273 0
278 -7 273 0
-279 -7 0
-279 273 0
279 7 -273 0
-280 -278 0
-280 -279 0
280 278 279 0
281 -941 0
-281 941 0
-282 280 0
-282 281 0
282 -280 -281 0
-283 277 0
-283 -282 0
283 -277 282 0
-284 -280 0
-284 -281 0
284 280 281 0
-285 283 0
-285 -284 0
285 -283 284 0
-286 16 0
-286 -281 0
286 -16 281 0
-287 -16 0
-287 281 0
287 16 -281 0
-288 -286 0
-288 -287 0
288 286 287 0
-289 285 0
-289 288 0
289 -285 -288 0
-292 289 0
-292 -291 0
292 -289 291 0
-294 292 0
-294 -293 0
294 -292 293 0
6 -886 0
-6 886 0
-295 6 0
-295 -290 0
295 -6 290 0
-296 -6 0
-296 290 0
296 6 -290 0
-297 -295 0
-297 -296 0
297 295 296 0
298 -943 0
-298 943 0
-299 297 0
-299 298 0
299 -297 -298 0
-300 294 0
-300 -299 0
300 -294 299 0
-301 -297 0
-301 -298 0
301 297 298 0
-302 300 0
-302 -301 0
302 -300 301 0
-303 15 0
-303 -298 0
303 -15 298 0
-304 -15 0
-304 298 0
304 15 -298 0
-305 -303 0
-305 -304 0
305 303 304 0
-306 302 0
-306 305 0
306 -302 -305 0
-309 306 0
-309 -308 0
309 -306 308 0
-311 309 0
-311 -310 0
311 -309 310 0
5 -885 0
-5 885 0
-312 5 0
-312 -307 0
312 -5 307 0
-313 -5 0
-313 307 0
313 5 -307 0
-314 -312 0
-314 -313 0
314 312 313 0
315 -945 0
-315 945 0
-316 314 0
-316 315 0
316 -314 -315 0
-317 311 0
-317 -316 0
317 -311 316 0
-318 -314 0
-318 -315 0
318 314 315 0
-319 317 0
-319 -318 0
319 -317 318 0
-320 14 0
-320 -315 0
320 -14 315 0
-321 -14 0
-321 315 0
321 14 -315 0
-322 -320 0
-322 -321 0
322 320 321 0
-323 319 0
-323 322 0
323 -319 -322 0
-326 323 0
-326 -325 0
326 -323 325 0
-328 326 0
-328 -327 0
328 -326 327 0
-329 4 0
-329 -324 0
329 -4 324 0
-330 -4 0
-330 324 0
330 4 -324 0
-331 -329 0
-331 -330 0
331 329 330 0
332 -947 0
-332 947 0
-333 331 0
-333 332 0
333 -331 -332 0
-334 328 0
-334 -333 0
334 -328 333 0
-335 -331 0
-335 -332 0
335 331 332 0
-336 334 0
-336 -335 0
336 -334 335 0
-337 19 0
-337 -332 0
337 -19 332 0
-338 -19 0
-338 332 0
338 19 -332 0
-339 -337 0
-339 -338 0
339 337 338 0
-340 336 0
-340 339 0
340 -336 -339 0
-343 340 0
-343 -342 0
343 -340 342 0
-345 343 0
-345 -344 0
345 -343 344 0
-346 3 0
-346 -341 0
346 -3 341 0
-347 -3 0
-347 341 0
347 3 -341 0
-348 -346 0
-348 -347 0
348 346 347 0
349 -949 0
-349 949 0
-350 348 0
-350 349 0
350 -348 -349 0
-351 345 0
-351 -350 0
351 -345 350 0
-352 -348 0
-352 -349 0
352 348 349 0
-353 351 0
-353 -352 0
353 -351 352 0
-354 18 0
-354 -349 0
354 -18 349 0
-355 -18 0
-355 349 0
355 18 -349 0
-356 -354 0
-356 -355 0
356 354 355 0
-357 353 0
-357 356 0
357 -353 -356 0
-360 357 0
-360 -359 0
360 -357 359 0
-362 360 0
-362 -361 0
362 -360 361 0
2 -882 0
-2 882 0
-363 2 0
-363 -358 0
363 -2 358 0
-364 -2 0
-364 358 0
364 2 -358 0
-365 -363 0
-365 -364 0
365 363 364 0
366 -951 0
-366 951 0
-367 365 0
-367 366 0
367 -365 -366 0
-368 362 0
-368 -367 0
368 -362 367 0
-369 -365 0
-369 -366 0
369 365 366 0
-370 368 0
-370 -369 0
370 -368 369 0
-371 17 0
-371 -366 0
371 -17 366 0
-372 -17 0
-372 366 0
372 17 -366 0
-373 -371 0
-373 -372 0
373 371 372 0
-374 370 0
-374 373 0
374 -370 -373 0
-375 -325 0
-375 374 0
375 325 -374 0
-376 -327 0
-376 375 0
376 327 -375 0
-377 7 0
-377 -324 0
377 -7 324 0
-378 -7 0
-378 324 0
378 7 -324 0
-379 -377 0
-379 -378 0
379 377 378 0
-380 376 0
-380 379 0
380 -376 -379 0
-381 -342 0
-381 380 0
381 342 -380 0
-382 -344 0
-382 381 0
382 344 -381 0
-383 6 0
-383 -341 0
383 -6 341 0
-384 -6 0
-384 341 0
384 6 -341 0
-385 -383 0
-385 -384 0
385 383 384 0
-386 382 0
-386 385 0
386 -382 -385 0
-387 -359 0
-387 386 0
387 359 -386 0
-388 -361 0
-388 387 0
388 361 -387 0
-389 5 0
-389 -358 0
389 -5 358 0
-390 -5 0
-390 358 0
390 5 -358 0
-391 -389 0
-391 -390 0
391 389 390 0
-392 388 0
-392 391 0
392 -388 -391 0
-393 -274 0
-393 392 0
393 274 -392 0
-394 -276 0
-394 393 0
394 276 -393 0
-395 4 0
-395 -273 0
395 -4 273 0
-396 -4 0
-396 273 0
396 4 -273 0
-397 -395 0
-397 -396 0
397 395 396 0
-398 394 0
-398 397 0
398 -394 -397 0
-399 -291 0
-399 398 0
399 291 -398 0
-400 -293 0
-400 399 0
400 293 -399 0
-401 3 0
-401 -290 0
401 -3 290 0
-402 -3 0
-402 290 0
402 3 -290 0
-403 -401 0
-403 -402 0
403 401 402 0
404 -952 0
-404 952 0
-405 403 0
-405 404 0
405 -403 -404 0
-406 400 0
-406 -405 0
406 -400 405 0
-407 -403 0
-407 -404 0
407 403 404 0
-408 406 0
-408 -407 0
408 -406 407 0
-409 31 0
-409 -404 0
409 -31 404 0
-410 -31 0
-410 404 0
410 31 -404 0
-411 -409 0
-411 -410 0
411 409 410 0
-412 408 0
-412 411 0
412 -408 -411 0
-413 -308 0
-413 412 0
413 308 -412 0
-414 -310 0
-414 413 0
414 310 -413 0
-415 2 0
-415 -307 0
415 -2 307 0
-416 -2 0
-416 307 0
416 2 -307 0
-417 -415 0
-417 -416 0
417 415 416 0
418 -953 0
-418 953 0
-419 417 0
-419 418 0
419 -417 -418 0
-420 414 0
-420 -419 0
420 -414 419 0
-421 -417 0
-421 -418 0
421 417 418 0
-422 420 0
-422 -421 0
422 -420 421 0
-423 30 0
-423 -418 0
423 -30 418 0
-424 -30 0
-424 418 0
424 30 -418 0
-425 -423 0
-425 -424 0
425 423 424 0
-426 422 0
-426 425 0
426 -422 -425 0
-427 -4 0
-427 426 0
427 4 -426 0
-428 -3 0
-428 427 0
428 3 -427 0
-429 -42 0
-429 428 0
429 42 -428 0
-430 -44 0
-430 429 0
430 44 -429 0
-431 2 0
-431 -41 0
431 -2 41 0
-432 -2 0
-432 41 0
432 2 -41 0
-433 -431 0
-433 -432 0
433 431 432 0
-434 430 0
-434 433 0
434 -430 -433 0
-435 -59 0
-435 434 0
435 59 -434 0
-436 -61 0
-436 435 0
436 61 -435 0
-437 7 0
-437 -58 0
437 -7 58 0
-438 -7 0
-438 58 0
438 7 -58 0
-439 -437 0
-439 -438 0
439 437 438 0
-440 436 0
-440 439 0
440 -436 -439 0
-441 -68 0
-441 440 0
441 68 -440 0
-442 -70 0
-442 441 0
442 70 -441 0
-443 6 0
-443 -67 0
443 -6 67 0
-444 -6 0
-444 67 0
444 6 -67 0
-445 -443 0
-445 -444 0
445 443 444 0
446 -954 0
-446 954 0
-447 445 0
-447 446 0
447 -445 -446 0
-448 442 0
-448 -447 0
448 -442 447 0
-449 -445 0
-449 -446 0
449 445 446 0
-450 448 0
-450 -449 0
450 -448 449 0
-451 31 0
-451 -446 0
451 -31 446 0
-452 -31 0
-452 446 0
452 31 -446 0
-453 -451 0
-453 -452 0
453 451 452 0
-454 450 0
-454 453 0
454 -450 -453 0
-455 -77 0
-455 454 0
455 77 -454 0
-456 -79 0
-456 455 0
456 79 -455 0
-457 5 0
-457 -76 0
457 -5 76 0
-458 -5 0
-458 76 0
458 5 -76 0
-459 -457 0
-459 -458 0
459 457 458 0
460 -955 0
-460 955 0
-461 459 0
-461 460 0
461 -459 -460 0
-462 456 0
-462 -461 0
462 -456 461 0
-463 -459 0
-463 -460 0
463 459 460 0
-464 462 0
-464 -463 0
464 -462 463 0
-465 30 0
-465 -460 0
465 -30 460 0
-466 -30 0
-466 460 0
466 30 -460 0
-467 -465 0
-467 -466 0
467 465 466 0
-468 464 0
-468 467 0
468 -464 -467 0
-469 -19 0
-469 468 0
469 19 -468 0
-470 -18 0
-470 469 0
470 18 -469 0
-471 -33 0
-471 470 0
471 33 -470 0
-472 -35 0
-472 471 0
472 35 -471 0
-473 17 0
-473 -32 0
473 -17 32 0
-474 -17 0
-474 32 0
474 17 -32 0
-475 -473 0
-475 -474 0
475 473 474 0
-476 472 0
-476 475 0
476 -472 -475 0
-479 476 0
-479 -478 0
479 -476 478 0
-481 479 0
-481 -480 0
481 -479 480 0
-482 16 0
-482 -477 0
482 -16 477 0
-483 -16 0
-483 477 0
483 16 -477 0
-484 -482 0
-484 -483 0
484 482 483 0
485 -957 0
-485 957 0
-486 484 0
-486 485 0
486 -484 -485 0
-487 481 0
-487 -486 0
487 -481 486 0
-488 -484 0
-488 -485 0
488 484 485 0
-489 487 0
-489 -488 0
489 -487 488 0
-490 31 0
-490 -485 0
490 -31 485 0
-491 -31 0
-491 485 0
491 31 -485 0
-492 -490 0
-492 -491 0
492 490 491 0
-493 489 0
-493 492 0
493 -489 -492 0
-494 -478 0
-494 493 0
494 478 -493 0
-495 -480 0
-495 494 0
495 480 -494 0
-496 15 0
-496 -477 0
496 -15 477 0
-497 -15 0
-497 477 0
497 15 -477 0
-498 -496 0
-498 -497 0
498 496 497 0
-499 495 0
-499 498 0
499 -495 -498 0
-500 -14 0
-500 499 0
500 14 -499 0
-501 -42 0
-501 500 0
501 42 -500 0
-502 -44 0
-502 501 0
502 44 -501 0
-503 13 0
-503 -41 0
503 -13 41 0
-504 -13 0
-504 41 0
504 13 -41 0
-505 -503 0
-505 -504 0
505 503 504 0
-506 502 0
-506 505 0
506 -502 -505 0
-507 -59 0
-507 506 0
507 59 -506 0
-508 -61 0
-508 507 0
508 61 -507 0
-509 12 0
-509 -58 0
509 -12 58 0
-510 -12 0
-510 58 0
510 12 -58 0
-511 -509 0
-511 -510 0
511 509 510 0
512 -958 0
-512 958 0
-513 511 0
-513 512 0
513 -511 -512 0
-514 508 0
-514 -513 0
514 -508 513 0
-515 -511 0
-515 -512 0
515 511 512 0
-516 514 0
-516 -515 0
516 -514 515 0
-517 29 0
-517 -512 0
517 -29 512 0
-518 -29 0
-518 512 0
518 29 -512 0
-519 -517 0
-519 -518 0
519 517 518 0
-520 516 0
-520 519 0
520 -516 -519 0
-521 -68 0
-521 520 0
521 68 -520 0
-522 -70 0
-522 521 0
522 70 -521 0
-523 11 0
-523 -67 0
523 -11 67 0
-524 -11 0
-524 67 0
524 11 -67 0
-525 -523 0
-525 -524 0
525 523 524 0
526 -959 0
-526 959 0
-527 525 0
-527 526 0
527 -525 -526 0
-528 522 0
-528 -527 0
528 -522 527 0
-529 -525 0
-529 -526 0
529 525 526 0
-530 528 0
-530 -529 0
530 -528 529 0
-531 28 0
-531 -526 0
531 -28 526 0
-532 -28 0
-532 526 0
532 28 -526 0
-533 -531 0
-533 -532 0
533 531 532 0
-534 530 0
-534 533 0
534 -530 -533 0
-535 -77 0
-535 534 0
535 77 -534 0
-536 -79 0
-536 535 0
536 79 -535 0
-537 10 0
-537 -76 0
537 -10 76 0
-538 -10 0
-538 76 0
538 10 -76 0
-539 -537 0
-539 -538 0
539 537 538 0
540 -960 0
-540 960 0
-541 539 0
-541 540 0
541 -539 -540 0
-542 536 0
-542 -541 0
542 -536 541 0
-543 -539 0
-543 -540 0
543 539 540 0
-544 542 0
-544 -543 0
544 -542 543 0
-545 27 0
-545 -540 0
545 -27 540 0
-546 -27 0
-546 540 0
546 27 -540 0
-547 -545 0
-547 -546 0
547 545 546 0
-548 544 0
-548 547 0
548 -544 -547 0
-549 -77 0
-549 548 0
549 77 -548 0
-550 -79 0
-550 549 0
550 79 -549 0
-551 9 0
-551 -76 0
551 -9 76 0
-552 -9 0
-552 76 0
552 9 -76 0
-553 -551 0
-553 -552 0
553 551 552 0
-554 550 0
-554 553 0
554 -550 -553 0
-555 -8 0
-555 554 0
555 8 -554 0
-556 -120 0
-556 555 0
556 120 -555 0
-557 -122 0
-557 556 0
557 122 -556 0
-558 7 0
-558 -119 0
558 -7 119 0
-559 -7 0
-559 119 0
559 7 -119 0
-560 -558 0
-560 -559 0
560 558 559 0
561 -961 0
-561 961 0
-562 560 0
-562 561 0
562 -560 -561 0
-563 557 0
-563 -562 0
563 -557 562 0
-564 -560 0
-564 -561 0
564 560 561 0
-565 563 0
-565 -564 0
565 -563 564 0
-566 24 0
-566 -561 0
566 -24 561 0
-567 -24 0
-567 561 0
567 24 -561 0
-568 -566 0
-568 -567 0
568 566 567 0
-569 565 0
-569 568 0
569 -565 -568 0
-570 -137 0
-570 569 0
570 137 -569 0
-571 -139 0
-571 570 0
571 139 -570 0
-572 6 0
-572 -136 0
572 -6 136 0
-573 -6 0
-573 136 0
573 6 -136 0
-574 -572 0
-574 -573 0
574 572 573 0
575 -962 0
-575 962 0
-576 574 0
-576 575 0
576 -574 -575 0
-577 571 0
-577 -576 0
577 -571 576 0
-578 -574 0
-578 -575 0
578 574 575 0
-579 577 0
-579 -578 0
579 -577 578 0
-580 23 0
-580 -575 0
580 -23 575 0
-581 -23 0
-581 575 0
581 23 -575 0
-582 -580 0
-582 -581 0
582 580 581 0
-583 579 0
-583 582 0
583 -579 -582 0
-584 -146 0
-584 583 0
584 146 -583 0
-585 -148 0
-585 584 0
585 148 -584 0
-586 5 0
-586 -145 0
586 -5 145 0
-587 -5 0
-587 145 0
587 5 -145 0
-588 -586 0
-588 -587 0
588 586 587 0
589 -963 0
-589 963 0
-590 588 0
-590 589 0
590 -588 -589 0
-591 585 0
-591 -590 0
591 -585 590 0
-592 -588 0
-592 -589 0
592 588 589 0
-593 591 0
-593 -592 0
593 -591 592 0
-594 22 0
-594 -589 0
594 -22 589 0
-595 -22 0
-595 589 0
595 22 -589 0
-596 -594 0
-596 -595 0
596 594 595 0
-597 593 0
-597 596 0
597 -593 -596 0
-598 -155 0
-598 597 0
598 155 -597 0
-599 -157 0
-599 598 0
599 157 -598 0
-600 4 0
-600 -154 0
600 -4 154 0
-601 -4 0
-601 154 0
601 4 -154 0
-602 -600 0
-602 -601 0
602 600 601 0
603 -964 0
-603 964 0
-604 602 0
-604 603 0
604 -602 -603 0
-605 599 0
-605 -604 0
605 -599 604 0
-606 -602 0
-606 -603 0
606 602 603 0
-607 605 0
-607 -606 0
607 -605 606 0
-608 21 0
-608 -603 0
608 -21 603 0
-609 -21 0
-609 603 0
609 21 -603 0
-610 -608 0
-610 -609 0
610 608 609 0
-611 607 0
-611 610 0
611 -607 -610 0
-612 -155 0
-612 611 0
612 155 -611 0
-613 -157 0
-613 612 0
613 157 -612 0
-614 3 0
-614 -154 0
614 -3 154 0
-615 -3 0
-615 154 0
615 3 -154 0
-616 -614 0
-616 -615 0
616 614 615 0
617 -965 0
-617 965 0
-618 616 0
-618 617 0
618 -616 -617 0
-619 613 0
-619 -618 0
619 -613 618 0
-620 -616 0
-620 -617 0
620 616 617 0
-621 619 0
-621 -620 0
621 -619 620 0
-622 25 0
-622 -617 0
622 -25 617 0
-623 -25 0
-623 617 0
623 25 -617 0
-624 -622 0
-624 -623 0
624 622 623 0
-625 621 0
-625 624 0
625 -621 -624 0
-626 -103 0
-626 625 0
626 103 -625 0
-627 -105 0
-627 626 0
627 105 -626 0
-628 2 0
-628 -102 0
628 -2 102 0
-629 -2 0
-629 102 0
629 2 -102 0
-630 -628 0
-630 -629 0
630 628 629 0
631 -966 0
-631 966 0
-632 630 0
-632 631 0
632 -630 -631 0
-633 627 0
-633 -632 0
633 -627 632 0
-634 -630 0
-634 -631 0
634 630 631 0
-635 633 0
-635 -634 0
635 -633 634 0
-636 25 0
-636 -631 0
636 -25 631 0
-637 -25 0
-637 631 0
637 25 -631 0
-638 -636 0
-638 -637 0
638 636 637 0
-639 635 0
-639 638 0
639 -635 -638 0
-640 -189 0
-640 639 0
640 189 -639 0
-641 -191 0
-641 640 0
641 191 -640 0
-642 17 0
-642 -188 0
642 -17 188 0
-643 -17 0
-643 188 0
643 17 -188 0
-644 -642 0
-644 -643 0
644 642 643 0
-645 641 0
-645 644 0
645 -641 -644 0
-646 -206 0
-646 645 0
646 206 -645 0
-647 -208 0
-647 646 0
647 208 -646 0
-648 16 0
-648 -205 0
648 -16 205 0
-649 -16 0
-649 205 0
649 16 -205 0
-650 -648 0
-650 -649 0
650 648 649 0
-651 647 0
-651 650 0
651 -647 -650 0
-652 -223 0
-652 651 0
652 223 -651 0
-653 -225 0
-653 652 0
653 225 -652 0
-654 15 0
-654 -222 0
654 -15 222 0
-655 -15 0
-655 222 0
655 15 -222 0
-656 -654 0
-656 -655 0
656 654 655 0
-657 653 0
-657 656 0
657 -653 -656 0
-658 -240 0
-658 657 0
658 240 -657 0
-659 -242 0
-659 658 0
659 242 -658 0
-660 14 0
-660 -239 0
660 -14 239 0
-661 -14 0
-661 239 0
661 14 -239 0
-662 -660 0
-662 -661 0
662 660 661 0
-663 659 0
-663 662 0
663 -659 -662 0
-664 -172 0
-664 663 0
664 172 -663 0
-665 -174 0
-665 664 0
665 174 -664 0
-666 14 0
-666 -171 0
666 -14 171 0
-667 -14 0
-667 171 0
667 14 -171 0
-668 -666 0
-668 -667 0
668 666 667 0
669 -967 0
-669 967 0
-670 668 0
-670 669 0
670 -668 -669 0
-671 665 0
-671 -670 0
671 -665 670 0
-672 -668 0
-672 -669 0
672 668 669 0
-673 671 0
-673 -672 0
673 -671 672 0
-674 31 0
-674 -669 0
674 -31 669 0
-675 -31 0
-675 669 0
675 31 -669 0
-676 -674 0
-676 -675 0
676 674 675 0
-677 673 0
-677 676 0
677 -673 -676 0
-678 -172 0
-678 677 0
678 172 -677 0
-679 -174 0
-679 678 0
679 174 -678 0
-680 18 0
-680 -171 0
680 -18 171 0
-681 -18 0
-681 171 0
681 18 -171 0
-682 -680 0
-682 -681 0
682 680 681 0
683 -968 0
-683 968 0
-684 682 0
-684 683 0
684 -682 -683 0
-685 679 0
-685 -684 0
685 -679 684 0
-686 -682 0
-686 -683 0
686 682 683 0
-687 685 0
-687 -686 0
687 -685 686 0
-688 30 0
-688 -683 0
688 -30 683 0
-689 -30 0
-689 683 0
689 30 -683 0
-690 -688 0
-690 -689 0
690 688 689 0
-691 687 0
-691 690 0
691 -687 -690 0
-692 -291 0
-692 691 0
692 291 -691 0
-693 -293 0
-693 692 0
693 293 -692 0
-694 11 0
-694 -290 0
694 -11 290 0
-695 -11 0
-695 290 0
695 11 -290 0
-696 -694 0
-696 -695 0
696 694 695 0
-697 693 0
-697 696 0
697 -693 -696 0
-698 -308 0
-698 697 0
698 308 -697 0
-699 -310 0
-699 698 0
699 310 -698 0
-700 10 0
-700 -307 0
700 -10 307 0
-701 -10 0
-701 307 0
701 10 -307 0
-702 -700 0
-702 -701 0
702 700 701 0
-703 699 0
-703 702 0
703 -699 -702 0
-704 -325 0
-704 703 0
704 325 -703 0
-705 -327 0
-705 704 0
705 327 -704 0
-706 9 0
-706 -324 0
706 -9 324 0
-707 -9 0
-707 324 0
707 9 -324 0
-708 -706 0
-708 -707 0
708 706 707 0
709 -969 0
-709 969 0
-710 708 0
-710 709 0
710 -708 -709 0
-711 705 0
-711 -710 0
711 -705 710 0
-712 -708 0
-712 -709 0
712 708 709 0
-713 711 0
-713 -712 0
713 -711 712 0
-714 29 0
-714 -709 0
714 -29 709 0
-715 -29 0
-715 709 0
715 29 -709 0
-716 -714 0
-716 -715 0
716 714 715 0
-717 713 0
-717 716 0
717 -713 -716 0
-718 -342 0
-718 717 0
718 342 -717 0
-719 -344 0
-719 718 0
719 344 -718 0
-720 8 0
-720 -341 0
720 -8 341 0
-721 -8 0
-721 341 0
721 8 -341 0
-722 -720 0
-722 -721 0
722 720 721 0
723 -970 0
-723 970 0
-724 722 0
-724 723 0
724 -722 -723 0
-725 719 0
-725 -724 0
725 -719 724 0
-726 -722 0
-726 -723 0
726 722 723 0
-727 725 0
-727 -726 0
727 -725 726 0
-728 28 0
-728 -723 0
728 -28 723 0
-729 -28 0
-729 723 0
729 28 -723 0
-730 -728 0
-730 -729 0
730 728 729 0
-731 727 0
-731 730 0
731 -727 -730 0
-732 -274 0
-732 731 0
732 274 -731 0
-733 -276 0
-733 732 0
733 276 -732 0
-734 8 0
-734 -273 0
734 -8 273 0
-735 -8 0
-735 273 0
735 8 -273 0
-736 -734 0
-736 -735 0
736 734 735 0
737 -971 0
-737 971 0
-738 736 0
-738 737 0
738 -736 -737 0
-739 733 0
-739 -738 0
739 -733 738 0
-740 -736 0
-740 -737 0
740 736 737 0
-741 739 0
-741 -740 0
741 -739 740 0
-742 27 0
-742 -737 0
742 -27 737 0
-743 -27 0
-743 737 0
743 27 -737 0
-744 -742 0
-744 -743 0
744 742 743 0
-745 741 0
-745 744 0
745 -741 -744 0
-746 -274 0
-746 745 0
746 274 -745 0
-747 -276 0
-747 746 0
747 276 -746 0
-748 12 0
-748 -273 0
748 -12 273 0
-749 -12 0
-749 273 0
749 12 -273 0
-750 -748 0
-750 -749 0
750 748 749 0
751 -972 0
-751 972 0
-752 750 0
-752 751 0
752 -750 -751 0
-753 747 0
-753 -752 0
753 -747 752 0
-754 -750 0
-754 -751 0
754 750 751 0
-755 753 0
-755 -754 0
755 -753 754 0
-756 26 0
-756 -751 0
756 -26 751 0
-757 -26 0
-757 751 0
757 26 -751 0
-758 -756 0
-758 -757 0
758 756 757 0
-759 755 0
-759 758 0
759 -755 -758 0
760 -973 0
-760 973 0
-761 6 0
-761 -760 0
761 -6 760 0
-762 759 0
-762 -761 0
762 -759 761 0
-763 -6 0
-763 760 0
763 6 -760 0
-764 762 0
-764 -763 0
764 -762 763 0
-765 5 0
-765 -760 0
765 -5 760 0
-766 -5 0
-766 760 0
766 5 -760 0
-767 -765 0
-767 -766 0
767 765 766 0
768 -974 0
-768 974 0
-769 767 0
-769 768 0
769 -767 -768 0
-770 764 0
-770 -769 0
770 -764 769 0
-771 -767 0
-771 -768 0
771 767 768 0
-772 770 0
-772 -771 0
772 -770 771 0
-773 25 0
-773 -768 0
773 -25 768 0
-774 -25 0
-774 768 0
774 25 -768 0
-775 -773 0
-775 -774 0
775 773 774 0
-776 772 0
-776 775 0
776 -772 -775 0
777 -975 0
-777 975 0
-778 5 0
-778 -777 0
778 -5 777 0
-779 776 0
-779 -778 0
779 -776 778 0
-780 -5 0
-780 777 0
780 5 -777 0
-781 779 0
-781 -780 0
781 -779 780 0
-782 4 0
-782 -777 0
782 -4 777 0
-783 -4 0
-783 777 0
783 4 -777 0
-784 -782 0
-784 -783 0
784 782 783 0
785 -976 0
-785 976 0
-786 784 0
-786 785 0
786 -784 -785 0
-787 781 0
-787 -786 0
787 -781 786 0
-788 -784 0
-788 -785 0
788 784 785 0
-789 787 0
-789 -788 0
789 -787 788 0
-790 24 0
-790 -785 0
790 -24 785 0
-791 -24 0
-791 785 0
791 24 -785 0
-792 -790 0
-792 -791 0
792 790 791 0
-793 789 0
-793 792 0
793 -789 -792 0
794 -977 0
-794 977 0
-795 4 0
-795 -794 0
795 -4 794 0
-796 793 0
-796 -795 0
796 -793 795 0
-797 -4 0
-797 794 0
797 4 -794 0
-798 796 0
-798 -797 0
798 -796 797 0
-799 3 0
-799 -794 0
799 -3 794 0
-800 -3 0
-800 794 0
800 3 -794 0
-801 -799 0
-801 -800 0
801 799 800 0
802 -978 0
-802 978 0
-803 801 0
-803 802 0
803 -801 -802 0
-804 798 0
-804 -803 0
804 -798 803 0
-805 -801 0
-805 -802 0
805 801 802 0
-806 804 0
-806 -805 0
806 -804 805 0
-807 23 0
-807 -802 0
807 -23 802 0
-808 -23 0
-808 802 0
808 23 -802 0
-809 -807 0
-809 -808 0
809 807 808 0
-810 806 0
-810 809 0
810 -806 -809 0
811 -979 0
-811 979 0
-812 3 0
-812 -811 0
812 -3 811 0
-813 810 0
-813 -812 0
813 -810 812 0
-814 -3 0
-814 811 0
814 3 -811 0
-815 813 0
-815 -814 0
815 -813 814 0
-816 2 0
-816 -811 0
816 -2 811 0
-817 -2 0
-817 811 0
817 2 -811 0
-818 -816 0
-818 -817 0
818 816 817 0
819 -980 0
-819 980 0
-820 818 0
-820 819 0
820 -818 -819 0
-821 815 0
-821 -820 0
821 -815 820 0
-822 -818 0
-822 -819 0
822 818 819 0
-823 821 0
-823 -822 0
823 -821 822 0
-824 22 0
-824 -819 0
824 -22 819 0
-825 -22 0
-825 819 0
825 22 -819 0
-826 -824 0
-826 -825 0
826 824 825 0
-827 823 0
-827 826 0
827 -823 -826 0
-830 827 0
-830 -829 0
830 -827 829 0
-832 830 0
-832 -831 0
832 -830 831 0
-833 2 0
-833 -828 0
833 -2 828 0
-834 -2 0
-834 828 0
834 2 -828 0
-835 -833 0
-835 -834 0
835 833 834 0
836 -982 0
-836 982 0
-837 835 0
-837 836 0
837 -835 -836 0
-838 832 0
-838 -837 0
838 -832 837 0
-839 -835 0
-839 -836 0
839 835 836 0
-840 838 0
-840 -839 0
840 -838 839 0
-841 21 0
-841 -836 0
841 -21 836 0
-842 -21 0
-842 836 0
842 21 -836 0
-843 -841 0
-843 -842 0
843 841 842 0
-844 840 0
-844 843 0
844 -840 -843 0
-845 -829 0
-845 844 0
845 829 -844 0
-846 -831 0
-846 845 0
846 831 -845 0
-847 6 0
-847 -828 0
847 -6 828 0
-848 -6 0
-848 828 0
848 6 -828 0
-849 -847 0
-849 -848 0
849 847 848 0
850 -983 0
-850 983 0
-851 849 0
-851 850 0
851 -849 -850 0
-852 846 0
-852 -851 0
852 -846 851 0
-853 -849 0
-853 -850 0
853 849 850 0
-854 852 0
-854 -853 0
854 -852 853 0
-855 20 0
-855 -850 0
855 -20 850 0
-856 -20 0
-856 850 0
856 20 -850 0
-857 -855 0
-857 -856 0
857 855 856 0
-858 854 0
-858 857 0
858 -854 -857 0
-859 -2 0
-859 -5 0
859 2 5 0
-860 -6 0
-860 859 0
860 6 -859 0
-861 -7 0
-861 860 0
861 7 -860 0
-862 -9 0
-862 861 0
862 9 -861 0
-863 -10 0
-863 862 0
863 10 -862 0
-864 -11 0
-864 863 0
864 11 -863 0
-865 -12 0
-865 864 0
865 12 -864 0
-866 -13 0
-866 865 0
866 13 -865 0
-867 -15 0
-867 866 0
867 15 -866 0
-868 -16 0
-868 867 0
868 16 -867 0
-869 -17 0
-869 868 0
869 17 -868 0
-870 -20 0
-870 869 0
870 20 -869 0
-871 -21 0
-871 870 0
871 21 -870 0
-872 -22 0
-872 871 0
872 22 -871 0
-873 -23 0
-873 872 0
873 23 -872 0
-874 -24 0
-874 873 0
874 24 -873 0
-875 -26 0
-875 874 0
875 26 -874 0
-876 -27 0
-876 875 0
876 27 -875 0
-877 -28 0
-877 876 0
877 28 -876 0
-878 -29 0
-878 877 0
878 29 -877 0
-879 -30 0
-879 878 0
879 30 -878 0
-880 -31 0
-880 879 0
880 31 -879 0
-881 858 0
-881 -880 0
881 -858 880 0
881 0
