p cnf 1419 3663
4 -1274 0
-4 1274 0
1202 -1417 0
-1202 1417 0
-1205 -4 0
-1205 1202 0
1205 4 -1202 0
-1203 4 0
-1203 -1202 0
1203 -4 1202 0
7 -1277 0
-7 1277 0
1154 -1412 0
-1154 1412 0
-1157 -7 0
-1157 1154 0
1157 7 -1154 0
-1155 7 0
-1155 -1154 0
1155 -7 1154 0
10 -1280 0
-10 1280 0
572 -1371 0
-572 1371 0
-575 -10 0
-575 572 0
575 10 -572 0
-573 10 0
-573 -572 0
573 -10 572 0
9 -1279 0
-9 1279 0
589 -1373 0
-589 1373 0
-592 -9 0
-592 589 0
592 9 -589 0
-590 9 0
-590 -589 0
590 -9 589 0
13 -1283 0
-13 1283 0
521 -1365 0
-521 1365 0
-524 -13 0
-524 521 0
524 13 -521 0
-522 13 0
-522 -521 0
522 -13 521 0
12 -1282 0
-12 1282 0
538 -1367 0
-538 1367 0
-541 -12 0
-541 538 0
541 12 -538 0
-539 12 0
-539 -538 0
539 -12 538 0
16 -1286 0
-16 1286 0
470 -1359 0
-470 1359 0
-473 -16 0
-473 470 0
473 16 -470 0
-471 16 0
-471 -470 0
471 -16 470 0
15 -1285 0
-15 1285 0
487 -1361 0
-487 1361 0
-490 -15 0
-490 487 0
490 15 -487 0
-488 15 0
-488 -487 0
488 -15 487 0
19 -1289 0
-19 1289 0
367 -1351 0
-367 1351 0
-370 -19 0
-370 367 0
370 19 -367 0
-368 19 0
-368 -367 0
368 -19 367 0
18 -1288 0
-18 1288 0
384 -1353 0
-384 1353 0
-387 -18 0
-387 384 0
387 18 -384 0
-385 18 0
-385 -384 0
385 -18 384 0
22 -1292 0
-22 1292 0
316 -1345 0
-316 1345 0
-319 -22 0
-319 316 0
319 22 -316 0
-317 22 0
-317 -316 0
317 -22 316 0
21 -1291 0
-21 1291 0
333 -1347 0
-333 1347 0
-336 -21 0
-336 333 0
336 21 -333 0
-334 21 0
-334 -333 0
334 -21 333 0
25 -1295 0
-25 1295 0
265 -1339 0
-265 1339 0
-268 -25 0
-268 265 0
268 25 -265 0
-266 25 0
-266 -265 0
266 -25 265 0
24 -1294 0
-24 1294 0
282 -1341 0
-282 1341 0
-285 -24 0
-285 282 0
285 24 -282 0
-283 24 0
-283 -282 0
283 -24 282 0
28 -1298 0
-28 1298 0
214 -1333 0
-214 1333 0
-217 -28 0
-217 214 0
217 28 -214 0
-215 28 0
-215 -214 0
215 -28 214 0
27 -1297 0
-27 1297 0
231 -1335 0
-231 1335 0
-234 -27 0
-234 231 0
234 27 -231 0
-232 27 0
-232 -231 0
232 -27 231 0
30 -1300 0
-30 1300 0
180 -1329 0
-180 1329 0
-183 -30 0
-183 180 0
183 30 -180 0
-181 30 0
-181 -180 0
181 -30 180 0
29 -1299 0
-29 1299 0
197 -1331 0
-197 1331 0
-200 -29 0
-200 197 0
200 29 -197 0
-198 29 0
-198 -197 0
198 -29 197 0
33 -1303 0
-33 1303 0
129 -1323 0
-129 1323 0
-132 -33 0
-132 129 0
132 33 -129 0
-130 33 0
-130 -129 0
130 -33 129 0
32 -1302 0
-32 1302 0
146 -1325 0
-146 1325 0
-149 -32 0
-149 146 0
149 32 -146 0
-147 32 0
-147 -146 0
147 -32 146 0
36 -1306 0
-36 1306 0
86 -1318 0
-86 1318 0
-89 -36 0
-89 86 0
89 36 -86 0
-87 36 0
-87 -86 0
87 -36 86 0
35 -1305 0
-35 1305 0
95 -1319 0
-95 1319 0
-98 -35 0
-98 95 0
98 35 -95 0
-96 35 0
-96 -95 0
96 -35 95 0
39 -1309 0
-39 1309 0
51 -1314 0
-51 1314 0
-54 -39 0
-54 51 0
54 39 -51 0
-52 39 0
-52 -51 0
52 -39 51 0
38 -1308 0
-38 1308 0
60 -1315 0
-60 1315 0
-63 -38 0
-63 60 0
63 38 -60 0
-61 38 0
-61 -60 0
61 -38 60 0
14 -1284 0
-14 1284 0
41 -1311 0
-41 1311 0
691 -1380 0
-691 1380 0
-694 -41 0
-694 691 0
694 41 -691 0
-692 41 0
-692 -691 0
692 -41 691 0
17 -1287 0
-17 1287 0
42 -1312 0
-42 1312 0
675 -1379 0
-675 1379 0
-678 -42 0
-678 675 0
678 42 -675 0
-676 42 0
-676 -675 0
676 -42 675 0
26 -1296 0
-26 1296 0
248 -1337 0
-248 1337 0
-251 -26 0
-251 248 0
251 26 -248 0
-249 26 0
-249 -248 0
249 -26 248 0
31 -1301 0
-31 1301 0
163 -1327 0
-163 1327 0
-166 -31 0
-166 163 0
166 31 -163 0
-164 31 0
-164 -163 0
164 -31 163 0
401 -1355 0
-401 1355 0
-404 -17 0
-404 401 0
404 17 -401 0
-402 17 0
-402 -401 0
402 -17 401 0
20 -1290 0
-20 1290 0
350 -1349 0
-350 1349 0
-353 -20 0
-353 350 0
353 20 -350 0
-351 20 0
-351 -350 0
351 -20 350 0
40 -1310 0
-40 1310 0
43 -1313 0
-43 1313 0
-44 40 0
-44 -43 0
44 -40 43 0
-45 -40 0
-45 43 0
45 40 -43 0
-46 -44 0
-46 -45 0
46 44 45 0
-47 25 0
-47 -43 0
47 -25 43 0
-48 -25 0
-48 43 0
48 25 -43 0
-49 -47 0
-49 -48 0
49 47 48 0
-50 46 0
-50 49 0
50 -46 -49 0
-53 50 0
-53 -52 0
53 -50 52 0
-55 53 0
-55 -54 0
55 -53 54 0
-56 24 0
-56 -51 0
56 -24 51 0
-57 -24 0
-57 51 0
57 24 -51 0
-58 -56 0
-58 -57 0
58 56 57 0
-59 55 0
-59 58 0
59 -55 -58 0
-62 59 0
-62 -61 0
62 -59 61 0
-64 62 0
-64 -63 0
64 -62 63 0
23 -1293 0
-23 1293 0
-65 23 0
-65 -60 0
65 -23 60 0
-66 -23 0
-66 60 0
66 23 -60 0
-67 -65 0
-67 -66 0
67 65 66 0
68 -1316 0
-68 1316 0
-69 67 0
-69 68 0
69 -67 -68 0
-70 64 0
-70 -69 0
70 -64 69 0
-71 -67 0
-71 -68 0
71 67 68 0
-72 70 0
-72 -71 0
72 -70 71 0
-73 42 0
-73 -68 0
73 -42 68 0
-74 -42 0
-74 68 0
74 42 -68 0
-75 -73 0
-75 -74 0
75 73 74 0
-76 72 0
-76 75 0
76 -72 -75 0
37 -1307 0
-37 1307 0
77 -1317 0
-77 1317 0
-78 37 0
-78 -77 0
78 -37 77 0
-79 76 0
-79 -78 0
79 -76 78 0
-80 -37 0
-80 77 0
80 37 -77 0
-81 79 0
-81 -80 0
81 -79 80 0
-82 22 0
-82 -77 0
82 -22 77 0
-83 -22 0
-83 77 0
83 22 -77 0
-84 -82 0
-84 -83 0
84 82 83 0
-85 81 0
-85 84 0
85 -81 -84 0
-88 85 0
-88 -87 0
88 -85 87 0
-90 88 0
-90 -89 0
90 -88 89 0
-91 21 0
-91 -86 0
91 -21 86 0
-92 -21 0
-92 86 0
92 21 -86 0
-93 -91 0
-93 -92 0
93 91 92 0
-94 90 0
-94 93 0
94 -90 -93 0
-97 94 0
-97 -96 0
97 -94 96 0
-99 97 0
-99 -98 0
99 -97 98 0
-100 20 0
-100 -95 0
100 -20 95 0
-101 -20 0
-101 95 0
101 20 -95 0
-102 -100 0
-102 -101 0
102 100 101 0
103 -1320 0
-103 1320 0
-104 102 0
-104 103 0
104 -102 -103 0
-105 99 0
-105 -104 0
105 -99 104 0
-106 -102 0
-106 -103 0
106 102 103 0
-107 105 0
-107 -106 0
107 -105 106 0
-108 41 0
-108 -103 0
108 -41 103 0
-109 -41 0
-109 103 0
109 41 -103 0
-110 -108 0
-110 -109 0
110 108 109 0
-111 107 0
-111 110 0
111 -107 -110 0
34 -1304 0
-34 1304 0
112 -1321 0
-112 1321 0
-113 34 0
-113 -112 0
113 -34 112 0
-114 111 0
-114 -113 0
114 -111 113 0
-115 -34 0
-115 112 0
115 34 -112 0
-116 114 0
-116 -115 0
116 -114 115 0
-117 19 0
-117 -112 0
117 -19 112 0
-118 -19 0
-118 112 0
118 19 -112 0
-119 -117 0
-119 -118 0
119 117 118 0
120 -1322 0
-120 1322 0
-121 119 0
-121 120 0
121 -119 -120 0
-122 116 0
-122 -121 0
122 -116 121 0
-123 -119 0
-123 -120 0
123 119 120 0
-124 122 0
-124 -123 0
124 -122 123 0
-125 40 0
-125 -120 0
125 -40 120 0
-126 -40 0
-126 120 0
126 40 -120 0
-127 -125 0
-127 -126 0
127 125 126 0
-128 124 0
-128 127 0
128 -124 -127 0
-131 128 0
-131 -130 0
131 -128 130 0
-133 131 0
-133 -132 0
133 -131 132 0
-134 18 0
-134 -129 0
134 -18 129 0
-135 -18 0
-135 129 0
135 18 -129 0
-136 -134 0
-136 -135 0
136 134 135 0
137 -1324 0
-137 1324 0
-138 136 0
-138 137 0
138 -136 -137 0
-139 133 0
-139 -138 0
139 -133 138 0
-140 -136 0
-140 -137 0
140 136 137 0
-141 139 0
-141 -140 0
141 -139 140 0
-142 39 0
-142 -137 0
142 -39 137 0
-143 -39 0
-143 137 0
143 39 -137 0
-144 -142 0
-144 -143 0
144 142 143 0
-145 141 0
-145 144 0
145 -141 -144 0
-148 145 0
-148 -147 0
148 -145 147 0
-150 148 0
-150 -149 0
150 -148 149 0
-151 17 0
-151 -146 0
151 -17 146 0
-152 -17 0
-152 146 0
152 17 -146 0
-153 -151 0
-153 -152 0
153 151 152 0
154 -1326 0
-154 1326 0
-155 153 0
-155 154 0
155 -153 -154 0
-156 150 0
-156 -155 0
156 -150 155 0
-157 -153 0
-157 -154 0
157 153 154 0
-158 156 0
-158 -157 0
158 -156 157 0
-159 38 0
-159 -154 0
159 -38 154 0
-160 -38 0
-160 154 0
160 38 -154 0
-161 -159 0
-161 -160 0
161 159 160 0
-162 158 0
-162 161 0
162 -158 -161 0
-165 162 0
-165 -164 0
165 -162 164 0
-167 165 0
-167 -166 0
167 -165 166 0
-168 16 0
-168 -163 0
168 -16 163 0
-169 -16 0
-169 163 0
169 16 -163 0
-170 -168 0
-170 -169 0
170 168 169 0
171 -1328 0
-171 1328 0
-172 170 0
-172 171 0
172 -170 -171 0
-173 167 0
-173 -172 0
173 -167 172 0
-174 -170 0
-174 -171 0
174 170 171 0
-175 173 0
-175 -174 0
175 -173 174 0
-176 37 0
-176 -171 0
176 -37 171 0
-177 -37 0
-177 171 0
177 37 -171 0
-178 -176 0
-178 -177 0
178 176 177 0
-179 175 0
-179 178 0
179 -175 -178 0
-182 179 0
-182 -181 0
182 -179 181 0
-184 182 0
-184 -183 0
184 -182 183 0
-185 15 0
-185 -180 0
185 -15 180 0
-186 -15 0
-186 180 0
186 15 -180 0
-187 -185 0
-187 -186 0
187 185 186 0
188 -1330 0
-188 1330 0
-189 187 0
-189 188 0
189 -187 -188 0
-190 184 0
-190 -189 0
190 -184 189 0
-191 -187 0
-191 -188 0
191 187 188 0
-192 190 0
-192 -191 0
192 -190 191 0
-193 36 0
-193 -188 0
193 -36 188 0
-194 -36 0
-194 188 0
194 36 -188 0
-195 -193 0
-195 -194 0
195 193 194 0
-196 192 0
-196 195 0
196 -192 -195 0
-199 196 0
-199 -198 0
199 -196 198 0
-201 199 0
-201 -200 0
201 -199 200 0
-202 14 0
-202 -197 0
202 -14 197 0
-203 -14 0
-203 197 0
203 14 -197 0
-204 -202 0
-204 -203 0
204 202 203 0
205 -1332 0
-205 1332 0
-206 204 0
-206 205 0
206 -204 -205 0
-207 201 0
-207 -206 0
207 -201 206 0
-208 -204 0
-208 -205 0
208 204 205 0
-209 207 0
-209 -208 0
209 -207 208 0
-210 35 0
-210 -205 0
210 -35 205 0
-211 -35 0
-211 205 0
211 35 -205 0
-212 -210 0
-212 -211 0
212 210 211 0
-213 209 0
-213 212 0
213 -209 -212 0
-216 213 0
-216 -215 0
216 -213 215 0
-218 216 0
-218 -217 0
218 -216 217 0
-219 13 0
-219 -214 0
219 -13 214 0
-220 -13 0
-220 214 0
220 13 -214 0
-221 -219 0
-221 -220 0
221 219 220 0
222 -1334 0
-222 1334 0
-223 221 0
-223 222 0
223 -221 -222 0
-224 218 0
-224 -223 0
224 -218 223 0
-225 -221 0
-225 -222 0
225 221 222 0
-226 224 0
-226 -225 0
226 -224 225 0
-227 34 0
-227 -222 0
227 -34 222 0
-228 -34 0
-228 222 0
228 34 -222 0
-229 -227 0
-229 -228 0
229 227 228 0
-230 226 0
-230 229 0
230 -226 -229 0
-233 230 0
-233 -232 0
233 -230 232 0
-235 233 0
-235 -234 0
235 -233 234 0
-236 12 0
-236 -231 0
236 -12 231 0
-237 -12 0
-237 231 0
237 12 -231 0
-238 -236 0
-238 -237 0
238 236 237 0
239 -1336 0
-239 1336 0
-240 238 0
-240 239 0
240 -238 -239 0
-241 235 0
-241 -240 0
241 -235 240 0
-242 -238 0
-242 -239 0
242 238 239 0
-243 241 0
-243 -242 0
243 -241 242 0
-244 33 0
-244 -239 0
244 -33 239 0
-245 -33 0
-245 239 0
245 33 -239 0
-246 -244 0
-246 -245 0
246 244 245 0
-247 243 0
-247 246 0
247 -243 -246 0
-250 247 0
-250 -249 0
250 -247 249 0
-252 250 0
-252 -251 0
252 -250 251 0
11 -1281 0
-11 1281 0
-253 11 0
-253 -248 0
253 -11 248 0
-254 -11 0
-254 248 0
254 11 -248 0
-255 -253 0
-255 -254 0
255 253 254 0
256 -1338 0
-256 1338 0
-257 255 0
-257 256 0
257 -255 -256 0
-258 252 0
-258 -257 0
258 -252 257 0
-259 -255 0
-259 -256 0
259 255 256 0
-260 258 0
-260 -259 0
260 -258 259 0
-261 32 0
-261 -256 0
261 -32 256 0
-262 -32 0
-262 256 0
262 32 -256 0
-263 -261 0
-263 -262 0
263 261 262 0
-264 260 0
-264 263 0
264 -260 -263 0
-267 264 0
-267 -266 0
267 -264 266 0
-269 267 0
-269 -268 0
269 -267 268 0
-270 10 0
-270 -265 0
270 -10 265 0
-271 -10 0
-271 265 0
271 10 -265 0
-272 -270 0
-272 -271 0
272 270 271 0
273 -1340 0
-273 1340 0
-274 272 0
-274 273 0
274 -272 -273 0
-275 269 0
-275 -274 0
275 -269 274 0
-276 -272 0
-276 -273 0
276 272 273 0
-277 275 0
-277 -276 0
277 -275 276 0
-278 31 0
-278 -273 0
278 -31 273 0
-279 -31 0
-279 273 0
279 31 -273 0
-280 -278 0
-280 -279 0
280 278 279 0
-281 277 0
-281 280 0
281 -277 -280 0
-284 281 0
-284 -283 0
284 -281 283 0
-286 284 0
-286 -285 0
286 -284 285 0
-287 9 0
-287 -282 0
287 -9 282 0
-288 -9 0
-288 282 0
288 9 -282 0
-289 -287 0
-289 -288 0
289 287 288 0
290 -1342 0
-290 1342 0
-291 289 0
-291 290 0
291 -289 -290 0
-292 286 0
-292 -291 0
292 -286 291 0
-293 -289 0
-293 -290 0
293 289 290 0
-294 292 0
-294 -293 0
294 -292 293 0
-295 30 0
-295 -290 0
295 -30 290 0
-296 -30 0
-296 290 0
296 30 -290 0
-297 -295 0
-297 -296 0
297 295 296 0
-298 294 0
-298 297 0
298 -294 -297 0
299 -1343 0
-299 1343 0
-300 23 0
-300 -299 0
300 -23 299 0
-301 298 0
-301 -300 0
301 -298 300 0
-302 -23 0
-302 299 0
302 23 -299 0
-303 301 0
-303 -302 0
303 -301 302 0
8 -1278 0
-8 1278 0
-304 8 0
-304 -299 0
304 -8 299 0
-305 -8 0
-305 299 0
305 8 -299 0
-306 -304 0
-306 -305 0
306 304 305 0
307 -1344 0
-307 1344 0
-308 306 0
-308 307 0
308 -306 -307 0
-309 303 0
-309 -308 0
309 -303 308 0
-310 -306 0
-310 -307 0
310 306 307 0
-311 309 0
-311 -310 0
311 -309 310 0
-312 29 0
-312 -307 0
312 -29 307 0
-313 -29 0
-313 307 0
313 29 -307 0
-314 -312 0
-314 -313 0
314 312 313 0
-315 311 0
-315 314 0
315 -311 -314 0
-318 315 0
-318 -317 0
318 -315 317 0
-320 318 0
-320 -319 0
320 -318 319 0
-321 7 0
-321 -316 0
321 -7 316 0
-322 -7 0
-322 316 0
322 7 -316 0
-323 -321 0
-323 -322 0
323 321 322 0
324 -1346 0
-324 1346 0
-325 323 0
-325 324 0
325 -323 -324 0
-326 320 0
-326 -325 0
326 -320 325 0
-327 -323 0
-327 -324 0
327 323 324 0
-328 326 0
-328 -327 0
328 -326 327 0
-329 28 0
-329 -324 0
329 -28 324 0
-330 -28 0
-330 324 0
330 28 -324 0
-331 -329 0
-331 -330 0
331 329 330 0
-332 328 0
-332 331 0
332 -328 -331 0
-335 332 0
-335 -334 0
335 -332 334 0
-337 335 0
-337 -336 0
337 -335 336 0
6 -1276 0
-6 1276 0
-338 6 0
-338 -333 0
338 -6 333 0
-339 -6 0
-339 333 0
339 6 -333 0
-340 -338 0
-340 -339 0
340 338 339 0
341 -1348 0
-341 1348 0
-342 340 0
-342 341 0
342 -340 -341 0
-343 337 0
-343 -342 0
343 -337 342 0
-344 -340 0
-344 -341 0
344 340 341 0
-345 343 0
-345 -344 0
345 -343 344 0
-346 27 0
-346 -341 0
346 -27 341 0
-347 -27 0
-347 341 0
347 27 -341 0
-348 -346 0
-348 -347 0
348 346 347 0
-349 345 0
-349 348 0
349 -345 -348 0
-352 349 0
-352 -351 0
352 -349 351 0
-354 352 0
-354 -353 0
354 -352 353 0
5 -1275 0
-5 1275 0
-355 5 0
-355 -350 0
355 -5 350 0
-356 -5 0
-356 350 0
356 5 -350 0
-357 -355 0
-357 -356 0
357 355 356 0
358 -1350 0
-358 1350 0
-359 357 0
-359 358 0
359 -357 -358 0
-360 354 0
-360 -359 0
360 -354 359 0
-361 -357 0
-361 -358 0
361 357 358 0
-362 360 0
-362 -361 0
362 -360 361 0
-363 26 0
-363 -358 0
363 -26 358 0
-364 -26 0
-364 358 0
364 26 -358 0
-365 -363 0
-365 -364 0
365 363 364 0
-366 362 0
-366 365 0
366 -362 -365 0
-369 366 0
-369 -368 0
369 -366 368 0
-371 369 0
-371 -370 0
371 -369 370 0
-372 4 0
-372 -367 0
372 -4 367 0
-373 -4 0
-373 367 0
373 4 -367 0
-374 -372 0
-374 -373 0
374 372 373 0
375 -1352 0
-375 1352 0
-376 374 0
-376 375 0
376 -374 -375 0
-377 371 0
-377 -376 0
377 -371 376 0
-378 -374 0
-378 -375 0
378 374 375 0
-379 377 0
-379 -378 0
379 -377 378 0
-380 25 0
-380 -375 0
380 -25 375 0
-381 -25 0
-381 375 0
381 25 -375 0
-382 -380 0
-382 -381 0
382 380 381 0
-383 379 0
-383 382 0
383 -379 -382 0
-386 383 0
-386 -385 0
386 -383 385 0
-388 386 0
-388 -387 0
388 -386 387 0
3 -1273 0
-3 1273 0
-389 3 0
-389 -384 0
389 -3 384 0
-390 -3 0
-390 384 0
390 3 -384 0
-391 -389 0
-391 -390 0
391 389 390 0
392 -1354 0
-392 1354 0
-393 391 0
-393 392 0
393 -391 -392 0
-394 388 0
-394 -393 0
394 -388 393 0
-395 -391 0
-395 -392 0
395 391 392 0
-396 394 0
-396 -395 0
396 -394 395 0
-397 24 0
-397 -392 0
397 -24 392 0
-398 -24 0
-398 392 0
398 24 -392 0
-399 -397 0
-399 -398 0
399 397 398 0
-400 396 0
-400 399 0
400 -396 -399 0
-403 400 0
-403 -402 0
403 -400 402 0
-405 403 0
-405 -404 0
405 -403 404 0
2 -1272 0
-2 1272 0
-406 2 0
-406 -401 0
406 -2 401 0
-407 -2 0
-407 401 0
407 2 -401 0
-408 -406 0
-408 -407 0
408 406 407 0
409 -1356 0
-409 1356 0
-410 408 0
-410 409 0
410 -408 -409 0
-411 405 0
-411 -410 0
411 -405 410 0
-412 -408 0
-412 -409 0
412 408 409 0
-413 411 0
-413 -412 0
413 -411 412 0
-414 23 0
-414 -409 0
414 -23 409 0
-415 -23 0
-415 409 0
415 23 -409 0
-416 -414 0
-416 -415 0
416 414 415 0
-417 413 0
-417 416 0
417 -413 -416 0
-418 -317 0
-418 417 0
418 317 -417 0
-419 -319 0
-419 418 0
419 319 -418 0
-420 16 0
-420 -316 0
420 -16 316 0
-421 -16 0
-421 316 0
421 16 -316 0
-422 -420 0
-422 -421 0
422 420 421 0
-423 419 0
-423 422 0
423 -419 -422 0
-424 -334 0
-424 423 0
424 334 -423 0
-425 -336 0
-425 424 0
425 336 -424 0
-426 15 0
-426 -333 0
426 -15 333 0
-427 -15 0
-427 333 0
427 15 -333 0
-428 -426 0
-428 -427 0
428 426 427 0
-429 425 0
-429 428 0
429 -425 -428 0
-430 -351 0
-430 429 0
430 351 -429 0
-431 -353 0
-431 430 0
431 353 -430 0
-432 14 0
-432 -350 0
432 -14 350 0
-433 -14 0
-433 350 0
433 14 -350 0
-434 -432 0
-434 -433 0
434 432 433 0
435 -1357 0
-435 1357 0
-436 434 0
-436 435 0
436 -434 -435 0
-437 431 0
-437 -436 0
437 -431 436 0
-438 -434 0
-438 -435 0
438 434 435 0
-439 437 0
-439 -438 0
439 -437 438 0
-440 42 0
-440 -435 0
440 -42 435 0
-441 -42 0
-441 435 0
441 42 -435 0
-442 -440 0
-442 -441 0
442 440 441 0
-443 439 0
-443 442 0
443 -439 -442 0
-444 -368 0
-444 443 0
444 368 -443 0
-445 -370 0
-445 444 0
445 370 -444 0
-446 13 0
-446 -367 0
446 -13 367 0
-447 -13 0
-447 367 0
447 13 -367 0
-448 -446 0
-448 -447 0
448 446 447 0
-449 445 0
-449 448 0
449 -445 -448 0
-450 -385 0
-450 449 0
450 385 -449 0
-451 -387 0
-451 450 0
451 387 -450 0
-452 12 0
-452 -384 0
452 -12 384 0
-453 -12 0
-453 384 0
453 12 -384 0
-454 -452 0
-454 -453 0
454 452 453 0
-455 451 0
-455 454 0
455 -451 -454 0
-456 -402 0
-456 455 0
456 402 -455 0
-457 -404 0
-457 456 0
457 404 -456 0
-458 11 0
-458 -401 0
458 -11 401 0
-459 -11 0
-459 401 0
459 11 -401 0
-460 -458 0
-460 -459 0
460 458 459 0
461 -1358 0
-461 1358 0
-462 460 0
-462 461 0
462 -460 -461 0
-463 457 0
-463 -462 0
463 -457 462 0
-464 -460 0
-464 -461 0
464 460 461 0
-465 463 0
-465 -464 0
465 -463 464 0
-466 41 0
-466 -461 0
466 -41 461 0
-467 -41 0
-467 461 0
467 41 -461 0
-468 -466 0
-468 -467 0
468 466 467 0
-469 465 0
-469 468 0
469 -465 -468 0
-472 469 0
-472 -471 0
472 -469 471 0
-474 472 0
-474 -473 0
474 -472 473 0
-475 10 0
-475 -470 0
475 -10 470 0
-476 -10 0
-476 470 0
476 10 -470 0
-477 -475 0
-477 -476 0
477 475 476 0
478 -1360 0
-478 1360 0
-479 477 0
-479 478 0
479 -477 -478 0
-480 474 0
-480 -479 0
480 -474 479 0
-481 -477 0
-481 -478 0
481 477 478 0
-482 480 0
-482 -481 0
482 -480 481 0
-483 40 0
-483 -478 0
483 -40 478 0
-484 -40 0
-484 478 0
484 40 -478 0
-485 -483 0
-485 -484 0
485 483 484 0
-486 482 0
-486 485 0
486 -482 -485 0
-489 486 0
-489 -488 0
489 -486 488 0
-491 489 0
-491 -490 0
491 -489 490 0
-492 9 0
-492 -487 0
492 -9 487 0
-493 -9 0
-493 487 0
493 9 -487 0
-494 -492 0
-494 -493 0
494 492 493 0
495 -1362 0
-495 1362 0
-496 494 0
-496 495 0
496 -494 -495 0
-497 491 0
-497 -496 0
497 -491 496 0
-498 -494 0
-498 -495 0
498 494 495 0
-499 497 0
-499 -498 0
499 -497 498 0
-500 39 0
-500 -495 0
500 -39 495 0
-501 -39 0
-501 495 0
501 39 -495 0
-502 -500 0
-502 -501 0
502 500 501 0
-503 499 0
-503 502 0
503 -499 -502 0
504 -1363 0
-504 1363 0
-505 14 0
-505 -504 0
505 -14 504 0
-506 503 0
-506 -505 0
506 -503 505 0
-507 -14 0
-507 504 0
507 14 -504 0
-508 506 0
-508 -507 0
508 -506 507 0
-509 8 0
-509 -504 0
509 -8 504 0
-510 -8 0
-510 504 0
510 8 -504 0
-511 -509 0
-511 -510 0
511 509 510 0
512 -1364 0
-512 1364 0
-513 511 0
-513 512 0
513 -511 -512 0
-514 508 0
-514 -513 0
514 -508 513 0
-515 -511 0
-515 -512 0
515 511 512 0
-516 514 0
-516 -515 0
516 -514 515 0
-517 38 0
-517 -512 0
517 -38 512 0
-518 -38 0
-518 512 0
518 38 -512 0
-519 -517 0
-519 -518 0
519 517 518 0
-520 516 0
-520 519 0
520 -516 -519 0
-523 520 0
-523 -522 0
523 -520 522 0
-525 523 0
-525 -524 0
525 -523 524 0
-526 7 0
-526 -521 0
526 -7 521 0
-527 -7 0
-527 521 0
527 7 -521 0
-528 -526 0
-528 -527 0
528 526 527 0
529 -1366 0
-529 1366 0
-530 528 0
-530 529 0
530 -528 -529 0
-531 525 0
-531 -530 0
531 -525 530 0
-532 -528 0
-532 -529 0
532 528 529 0
-533 531 0
-533 -532 0
533 -531 532 0
-534 37 0
-534 -529 0
534 -37 529 0
-535 -37 0
-535 529 0
535 37 -529 0
-536 -534 0
-536 -535 0
536 534 535 0
-537 533 0
-537 536 0
537 -533 -536 0
-540 537 0
-540 -539 0
540 -537 539 0
-542 540 0
-542 -541 0
542 -540 541 0
-543 6 0
-543 -538 0
543 -6 538 0
-544 -6 0
-544 538 0
544 6 -538 0
-545 -543 0
-545 -544 0
545 543 544 0
546 -1368 0
-546 1368 0
-547 545 0
-547 546 0
547 -545 -546 0
-548 542 0
-548 -547 0
548 -542 547 0
-549 -545 0
-549 -546 0
549 545 546 0
-550 548 0
-550 -549 0
550 -548 549 0
-551 36 0
-551 -546 0
551 -36 546 0
-552 -36 0
-552 546 0
552 36 -546 0
-553 -551 0
-553 -552 0
553 551 552 0
-554 550 0
-554 553 0
554 -550 -553 0
555 -1369 0
-555 1369 0
-556 11 0
-556 -555 0
556 -11 555 0
-557 554 0
-557 -556 0
557 -554 556 0
-558 -11 0
-558 555 0
558 11 -555 0
-559 557 0
-559 -558 0
559 -557 558 0
-560 5 0
-560 -555 0
560 -5 555 0
-561 -5 0
-561 555 0
561 5 -555 0
-562 -560 0
-562 -561 0
562 560 561 0
563 -1370 0
-563 1370 0
-564 562 0
-564 563 0
564 -562 -563 0
-565 559 0
-565 -564 0
565 -559 564 0
-566 -562 0
-566 -563 0
566 562 563 0
-567 565 0
-567 -566 0
567 -565 566 0
-568 35 0
-568 -563 0
568 -35 563 0
-569 -35 0
-569 563 0
569 35 -563 0
-570 -568 0
-570 -569 0
570 568 569 0
-571 567 0
-571 570 0
571 -567 -570 0
-574 571 0
-574 -573 0
574 -571 573 0
-576 574 0
-576 -575 0
576 -574 575 0
-577 4 0
-577 -572 0
577 -4 572 0
-578 -4 0
-578 572 0
578 4 -572 0
-579 -577 0
-579 -578 0
579 577 578 0
580 -1372 0
-580 1372 0
-581 579 0
-581 580 0
581 -579 -580 0
-582 576 0
-582 -581 0
582 -576 581 0
-583 -579 0
-583 -580 0
583 579 580 0
-584 582 0
-584 -583 0
584 -582 583 0
-585 34 0
-585 -580 0
585 -34 580 0
-586 -34 0
-586 580 0
586 34 -580 0
-587 -585 0
-587 -586 0
587 585 586 0
-588 584 0
-588 587 0
588 -584 -587 0
-591 588 0
-591 -590 0
591 -588 590 0
-593 591 0
-593 -592 0
593 -591 592 0
-594 3 0
-594 -589 0
594 -3 589 0
-595 -3 0
-595 589 0
595 3 -589 0
-596 -594 0
-596 -595 0
596 594 595 0
597 -1374 0
-597 1374 0
-598 596 0
-598 597 0
598 -596 -597 0
-599 593 0
-599 -598 0
599 -593 598 0
-600 -596 0
-600 -597 0
600 596 597 0
-601 599 0
-601 -600 0
601 -599 600 0
-602 33 0
-602 -597 0
602 -33 597 0
-603 -33 0
-603 597 0
603 33 -597 0
-604 -602 0
-604 -603 0
604 602 603 0
-605 601 0
-605 604 0
605 -601 -604 0
606 -1375 0
-606 1375 0
-607 8 0
-607 -606 0
607 -8 606 0
-608 605 0
-608 -607 0
608 -605 607 0
-609 -8 0
-609 606 0
609 8 -606 0
-610 608 0
-610 -609 0
610 -608 609 0
-611 2 0
-611 -606 0
611 -2 606 0
-612 -2 0
-612 606 0
612 2 -606 0
-613 -611 0
-613 -612 0
613 611 612 0
614 -1376 0
-614 1376 0
-615 613 0
-615 614 0
615 -613 -614 0
-616 610 0
-616 -615 0
616 -610 615 0
-617 -613 0
-617 -614 0
617 613 614 0
-618 616 0
-618 -617 0
618 -616 617 0
-619 32 0
-619 -614 0
619 -32 614 0
-620 -32 0
-620 614 0
620 32 -614 0
-621 -619 0
-621 -620 0
621 619 620 0
-622 618 0
-622 621 0
622 -618 -621 0
-623 -164 0
-623 622 0
623 164 -622 0
-624 -166 0
-624 623 0
624 166 -623 0
-625 7 0
-625 -163 0
625 -7 163 0
-626 -7 0
-626 163 0
626 7 -163 0
-627 -625 0
-627 -626 0
627 625 626 0
-628 624 0
-628 627 0
628 -624 -627 0
-629 -181 0
-629 628 0
629 181 -628 0
-630 -183 0
-630 629 0
630 183 -629 0
-631 6 0
-631 -180 0
631 -6 180 0
-632 -6 0
-632 180 0
632 6 -180 0
-633 -631 0
-633 -632 0
633 631 632 0
-634 630 0
-634 633 0
634 -630 -633 0
-635 -198 0
-635 634 0
635 198 -634 0
-636 -200 0
-636 635 0
636 200 -635 0
-637 5 0
-637 -197 0
637 -5 197 0
-638 -5 0
-638 197 0
638 5 -197 0
-639 -637 0
-639 -638 0
639 637 638 0
640 -1377 0
-640 1377 0
-641 639 0
-641 640 0
641 -639 -640 0
-642 636 0
-642 -641 0
642 -636 641 0
-643 -639 0
-643 -640 0
643 639 640 0
-644 642 0
-644 -643 0
644 -642 643 0
-645 42 0
-645 -640 0
645 -42 640 0
-646 -42 0
-646 640 0
646 42 -640 0
-647 -645 0
-647 -646 0
647 645 646 0
-648 644 0
-648 647 0
648 -644 -647 0
-649 -215 0
-649 648 0
649 215 -648 0
-650 -217 0
-650 649 0
650 217 -649 0
-651 4 0
-651 -214 0
651 -4 214 0
-652 -4 0
-652 214 0
652 4 -214 0
-653 -651 0
-653 -652 0
653 651 652 0
-654 650 0
-654 653 0
654 -650 -653 0
-655 -232 0
-655 654 0
655 232 -654 0
-656 -234 0
-656 655 0
656 234 -655 0
-657 3 0
-657 -231 0
657 -3 231 0
-658 -3 0
-658 231 0
658 3 -231 0
-659 -657 0
-659 -658 0
659 657 658 0
-660 656 0
-660 659 0
660 -656 -659 0
-661 -249 0
-661 660 0
661 249 -660 0
-662 -251 0
-662 661 0
662 251 -661 0
-663 2 0
-663 -248 0
663 -2 248 0
-664 -2 0
-664 248 0
664 2 -248 0
-665 -663 0
-665 -664 0
665 663 664 0
666 -1378 0
-666 1378 0
-667 665 0
-667 666 0
667 -665 -666 0
-668 662 0
-668 -667 0
668 -662 667 0
-669 -665 0
-669 -666 0
669 665 666 0
-670 668 0
-670 -669 0
670 -668 669 0
-671 41 0
-671 -666 0
671 -41 666 0
-672 -41 0
-672 666 0
672 41 -666 0
-673 -671 0
-673 -672 0
673 671 672 0
-674 670 0
-674 673 0
674 -670 -673 0
-677 674 0
-677 -676 0
677 -674 676 0
-679 677 0
-679 -678 0
679 -677 678 0
-680 19 0
-680 -675 0
680 -19 675 0
-681 -19 0
-681 675 0
681 19 -675 0
-682 -680 0
-682 -681 0
682 680 681 0
-683 679 0
-683 682 0
683 -679 -682 0
-684 -676 0
-684 683 0
684 676 -683 0
-685 -678 0
-685 684 0
685 678 -684 0
-686 18 0
-686 -675 0
686 -18 675 0
-687 -18 0
-687 675 0
687 18 -675 0
-688 -686 0
-688 -687 0
688 686 687 0
-689 685 0
-689 688 0
689 -685 -688 0
-690 -17 0
-690 689 0
690 17 -689 0
-693 690 0
-693 -692 0
693 -690 692 0
-695 693 0
-695 -694 0
695 -693 694 0
-696 16 0
-696 -691 0
696 -16 691 0
-697 -16 0
-697 691 0
697 16 -691 0
-698 -696 0
-698 -697 0
698 696 697 0
-699 695 0
-699 698 0
699 -695 -698 0
-700 -692 0
-700 699 0
700 692 -699 0
-701 -694 0
-701 700 0
701 694 -700 0
-702 15 0
-702 -691 0
702 -15 691 0
-703 -15 0
-703 691 0
703 15 -691 0
-704 -702 0
-704 -703 0
704 702 703 0
-705 701 0
-705 704 0
705 -701 -704 0
-706 -14 0
-706 705 0
706 14 -705 0
-707 -61 0
-707 706 0
707 61 -706 0
-708 -63 0
-708 707 0
708 63 -707 0
-709 13 0
-709 -60 0
709 -13 60 0
-710 -13 0
-710 60 0
710 13 -60 0
-711 -709 0
-711 -710 0
711 709 710 0
712 -1381 0
-712 1381 0
-713 711 0
-713 712 0
713 -711 -712 0
-714 708 0
-714 -713 0
714 -708 713 0
-715 -711 0
-715 -712 0
715 711 712 0
-716 714 0
-716 -715 0
716 -714 715 0
-717 39 0
-717 -712 0
717 -39 712 0
-718 -39 0
-718 712 0
718 39 -712 0
-719 -717 0
-719 -718 0
719 717 718 0
-720 716 0
-720 719 0
720 -716 -719 0
-721 -61 0
-721 720 0
721 61 -720 0
-722 -63 0
-722 721 0
722 63 -721 0
-723 12 0
-723 -60 0
723 -12 60 0
-724 -12 0
-724 60 0
724 12 -60 0
-725 -723 0
-725 -724 0
725 723 724 0
726 -1382 0
-726 1382 0
-727 725 0
-727 726 0
727 -725 -726 0
-728 722 0
-728 -727 0
728 -722 727 0
-729 -725 0
-729 -726 0
729 725 726 0
-730 728 0
-730 -729 0
730 -728 729 0
-731 40 0
-731 -726 0
731 -40 726 0
-732 -40 0
-732 726 0
732 40 -726 0
-733 -731 0
-733 -732 0
733 731 732 0
-734 730 0
-734 733 0
734 -730 -733 0
-735 -52 0
-735 734 0
735 52 -734 0
-736 -54 0
-736 735 0
736 54 -735 0
-737 11 0
-737 -51 0
737 -11 51 0
-738 -11 0
-738 51 0
738 11 -51 0
-739 -737 0
-739 -738 0
739 737 738 0
740 -1383 0
-740 1383 0
-741 739 0
-741 740 0
741 -739 -740 0
-742 736 0
-742 -741 0
742 -736 741 0
-743 -739 0
-743 -740 0
743 739 740 0
-744 742 0
-744 -743 0
744 -742 743 0
-745 40 0
-745 -740 0
745 -40 740 0
-746 -40 0
-746 740 0
746 40 -740 0
-747 -745 0
-747 -746 0
747 745 746 0
-748 744 0
-748 747 0
748 -744 -747 0
-749 -96 0
-749 748 0
749 96 -748 0
-750 -98 0
-750 749 0
750 98 -749 0
-751 10 0
-751 -95 0
751 -10 95 0
-752 -10 0
-752 95 0
752 10 -95 0
-753 -751 0
-753 -752 0
753 751 752 0
754 -1384 0
-754 1384 0
-755 753 0
-755 754 0
755 -753 -754 0
-756 750 0
-756 -755 0
756 -750 755 0
-757 -753 0
-757 -754 0
757 753 754 0
-758 756 0
-758 -757 0
758 -756 757 0
-759 36 0
-759 -754 0
759 -36 754 0
-760 -36 0
-760 754 0
760 36 -754 0
-761 -759 0
-761 -760 0
761 759 760 0
-762 758 0
-762 761 0
762 -758 -761 0
-763 -96 0
-763 762 0
763 96 -762 0
-764 -98 0
-764 763 0
764 98 -763 0
-765 9 0
-765 -95 0
765 -9 95 0
-766 -9 0
-766 95 0
766 9 -95 0
-767 -765 0
-767 -766 0
767 765 766 0
768 -1385 0
-768 1385 0
-769 767 0
-769 768 0
769 -767 -768 0
-770 764 0
-770 -769 0
770 -764 769 0
-771 -767 0
-771 -768 0
771 767 768 0
-772 770 0
-772 -771 0
772 -770 771 0
-773 37 0
-773 -768 0
773 -37 768 0
-774 -37 0
-774 768 0
774 37 -768 0
-775 -773 0
-775 -774 0
775 773 774 0
-776 772 0
-776 775 0
776 -772 -775 0
-777 -87 0
-777 776 0
777 87 -776 0
-778 -89 0
-778 777 0
778 89 -777 0
-779 8 0
-779 -86 0
779 -8 86 0
-780 -8 0
-780 86 0
780 8 -86 0
-781 -779 0
-781 -780 0
781 779 780 0
782 -1386 0
-782 1386 0
-783 781 0
-783 782 0
783 -781 -782 0
-784 778 0
-784 -783 0
784 -778 783 0
-785 -781 0
-785 -782 0
785 781 782 0
-786 784 0
-786 -785 0
786 -784 785 0
-787 37 0
-787 -782 0
787 -37 782 0
-788 -37 0
-788 782 0
788 37 -782 0
-789 -787 0
-789 -788 0
789 787 788 0
-790 786 0
-790 789 0
790 -786 -789 0
-791 -147 0
-791 790 0
791 147 -790 0
-792 -149 0
-792 791 0
792 149 -791 0
-793 7 0
-793 -146 0
793 -7 146 0
-794 -7 0
-794 146 0
794 7 -146 0
-795 -793 0
-795 -794 0
795 793 794 0
796 -1387 0
-796 1387 0
-797 795 0
-797 796 0
797 -795 -796 0
-798 792 0
-798 -797 0
798 -792 797 0
-799 -795 0
-799 -796 0
799 795 796 0
-800 798 0
-800 -799 0
800 -798 799 0
-801 33 0
-801 -796 0
801 -33 796 0
-802 -33 0
-802 796 0
802 33 -796 0
-803 -801 0
-803 -802 0
803 801 802 0
-804 800 0
-804 803 0
804 -800 -803 0
-805 -147 0
-805 804 0
805 147 -804 0
-806 -149 0
-806 805 0
806 149 -805 0
-807 6 0
-807 -146 0
807 -6 146 0
-808 -6 0
-808 146 0
808 6 -146 0
-809 -807 0
-809 -808 0
809 807 808 0
810 -1388 0
-810 1388 0
-811 809 0
-811 810 0
811 -809 -810 0
-812 806 0
-812 -811 0
812 -806 811 0
-813 -809 0
-813 -810 0
813 809 810 0
-814 812 0
-814 -813 0
814 -812 813 0
-815 34 0
-815 -810 0
815 -34 810 0
-816 -34 0
-816 810 0
816 34 -810 0
-817 -815 0
-817 -816 0
817 815 816 0
-818 814 0
-818 817 0
818 -814 -817 0
-819 -130 0
-819 818 0
819 130 -818 0
-820 -132 0
-820 819 0
820 132 -819 0
-821 5 0
-821 -129 0
821 -5 129 0
-822 -5 0
-822 129 0
822 5 -129 0
-823 -821 0
-823 -822 0
823 821 822 0
824 -1389 0
-824 1389 0
-825 823 0
-825 824 0
825 -823 -824 0
-826 820 0
-826 -825 0
826 -820 825 0
-827 -823 0
-827 -824 0
827 823 824 0
-828 826 0
-828 -827 0
828 -826 827 0
-829 34 0
-829 -824 0
829 -34 824 0
-830 -34 0
-830 824 0
830 34 -824 0
-831 -829 0
-831 -830 0
831 829 830 0
-832 828 0
-832 831 0
832 -828 -831 0
-833 -198 0
-833 832 0
833 198 -832 0
-834 -200 0
-834 833 0
834 200 -833 0
-835 4 0
-835 -197 0
835 -4 197 0
-836 -4 0
-836 197 0
836 4 -197 0
-837 -835 0
-837 -836 0
837 835 836 0
838 -1390 0
-838 1390 0
-839 837 0
-839 838 0
839 -837 -838 0
-840 834 0
-840 -839 0
840 -834 839 0
-841 -837 0
-841 -838 0
841 837 838 0
-842 840 0
-842 -841 0
842 -840 841 0
-843 30 0
-843 -838 0
843 -30 838 0
-844 -30 0
-844 838 0
844 30 -838 0
-845 -843 0
-845 -844 0
845 843 844 0
-846 842 0
-846 845 0
846 -842 -845 0
-847 -198 0
-847 846 0
847 198 -846 0
-848 -200 0
-848 847 0
848 200 -847 0
-849 3 0
-849 -197 0
849 -3 197 0
-850 -3 0
-850 197 0
850 3 -197 0
-851 -849 0
-851 -850 0
851 849 850 0
852 -1391 0
-852 1391 0
-853 851 0
-853 852 0
853 -851 -852 0
-854 848 0
-854 -853 0
854 -848 853 0
-855 -851 0
-855 -852 0
855 851 852 0
-856 854 0
-856 -855 0
856 -854 855 0
-857 31 0
-857 -852 0
857 -31 852 0
-858 -31 0
-858 852 0
858 31 -852 0
-859 -857 0
-859 -858 0
859 857 858 0
-860 856 0
-860 859 0
860 -856 -859 0
-861 -181 0
-861 860 0
861 181 -860 0
-862 -183 0
-862 861 0
862 183 -861 0
-863 2 0
-863 -180 0
863 -2 180 0
-864 -2 0
-864 180 0
864 2 -180 0
-865 -863 0
-865 -864 0
865 863 864 0
866 -1392 0
-866 1392 0
-867 865 0
-867 866 0
867 -865 -866 0
-868 862 0
-868 -867 0
868 -862 867 0
-869 -865 0
-869 -866 0
869 865 866 0
-870 868 0
-870 -869 0
870 -868 869 0
-871 31 0
-871 -866 0
871 -31 866 0
-872 -31 0
-872 866 0
872 31 -866 0
-873 -871 0
-873 -872 0
873 871 872 0
-874 870 0
-874 873 0
874 -870 -873 0
-875 -232 0
-875 874 0
875 232 -874 0
-876 -234 0
-876 875 0
876 234 -875 0
-877 26 0
-877 -231 0
877 -26 231 0
-878 -26 0
-878 231 0
878 26 -231 0
-879 -877 0
-879 -878 0
879 877 878 0
-880 876 0
-880 879 0
880 -876 -879 0
-881 -215 0
-881 880 0
881 215 -880 0
-882 -217 0
-882 881 0
882 217 -881 0
-883 26 0
-883 -214 0
883 -26 214 0
-884 -26 0
-884 214 0
884 26 -214 0
-885 -883 0
-885 -884 0
885 883 884 0
-886 882 0
-886 885 0
886 -882 -885 0
-887 -215 0
-887 886 0
887 215 -886 0
-888 -217 0
-888 887 0
888 217 -887 0
-889 27 0
-889 -214 0
889 -27 214 0
-890 -27 0
-890 214 0
890 27 -214 0
-891 -889 0
-891 -890 0
891 889 890 0
892 -1393 0
-892 1393 0
-893 891 0
-893 892 0
893 -891 -892 0
-894 888 0
-894 -893 0
894 -888 893 0
-895 -891 0
-895 -892 0
895 891 892 0
-896 894 0
-896 -895 0
896 -894 895 0
-897 42 0
-897 -892 0
897 -42 892 0
-898 -42 0
-898 892 0
898 42 -892 0
-899 -897 0
-899 -898 0
899 897 898 0
-900 896 0
-900 899 0
900 -896 -899 0
-901 -283 0
-901 900 0
901 283 -900 0
-902 -285 0
-902 901 0
902 285 -901 0
-903 23 0
-903 -282 0
903 -23 282 0
-904 -23 0
-904 282 0
904 23 -282 0
-905 -903 0
-905 -904 0
905 903 904 0
-906 902 0
-906 905 0
906 -902 -905 0
-907 -266 0
-907 906 0
907 266 -906 0
-908 -268 0
-908 907 0
908 268 -907 0
-909 23 0
-909 -265 0
909 -23 265 0
-910 -23 0
-910 265 0
910 23 -265 0
-911 -909 0
-911 -910 0
911 909 910 0
-912 908 0
-912 911 0
912 -908 -911 0
-913 -266 0
-913 912 0
913 266 -912 0
-914 -268 0
-914 913 0
914 268 -913 0
-915 24 0
-915 -265 0
915 -24 265 0
-916 -24 0
-916 265 0
916 24 -265 0
-917 -915 0
-917 -916 0
917 915 916 0
918 -1394 0
-918 1394 0
-919 917 0
-919 918 0
919 -917 -918 0
-920 914 0
-920 -919 0
920 -914 919 0
-921 -917 0
-921 -918 0
921 917 918 0
-922 920 0
-922 -921 0
922 -920 921 0
-923 41 0
-923 -918 0
923 -41 918 0
-924 -41 0
-924 918 0
924 41 -918 0
-925 -923 0
-925 -924 0
925 923 924 0
-926 922 0
-926 925 0
926 -922 -925 0
-927 -334 0
-927 926 0
927 334 -926 0
-928 -336 0
-928 927 0
928 336 -927 0
-929 20 0
-929 -333 0
929 -20 333 0
-930 -20 0
-930 333 0
930 20 -333 0
-931 -929 0
-931 -930 0
931 929 930 0
932 -1395 0
-932 1395 0
-933 931 0
-933 932 0
933 -931 -932 0
-934 928 0
-934 -933 0
934 -928 933 0
-935 -931 0
-935 -932 0
935 931 932 0
-936 934 0
-936 -935 0
936 -934 935 0
-937 40 0
-937 -932 0
937 -40 932 0
-938 -40 0
-938 932 0
938 40 -932 0
-939 -937 0
-939 -938 0
939 937 938 0
-940 936 0
-940 939 0
940 -936 -939 0
-941 -317 0
-941 940 0
941 317 -940 0
-942 -319 0
-942 941 0
942 319 -941 0
-943 20 0
-943 -316 0
943 -20 316 0
-944 -20 0
-944 316 0
944 20 -316 0
-945 -943 0
-945 -944 0
945 943 944 0
946 -1396 0
-946 1396 0
-947 945 0
-947 946 0
947 -945 -946 0
-948 942 0
-948 -947 0
948 -942 947 0
-949 -945 0
-949 -946 0
949 945 946 0
-950 948 0
-950 -949 0
950 -948 949 0
-951 39 0
-951 -946 0
951 -39 946 0
-952 -39 0
-952 946 0
952 39 -946 0
-953 -951 0
-953 -952 0
953 951 952 0
-954 950 0
-954 953 0
954 -950 -953 0
-955 -317 0
-955 954 0
955 317 -954 0
-956 -319 0
-956 955 0
956 319 -955 0
-957 21 0
-957 -316 0
957 -21 316 0
-958 -21 0
-958 316 0
958 21 -316 0
-959 -957 0
-959 -958 0
959 957 958 0
960 -1397 0
-960 1397 0
-961 959 0
-961 960 0
961 -959 -960 0
-962 956 0
-962 -961 0
962 -956 961 0
-963 -959 0
-963 -960 0
963 959 960 0
-964 962 0
-964 -963 0
964 -962 963 0
-965 38 0
-965 -960 0
965 -38 960 0
-966 -38 0
-966 960 0
966 38 -960 0
-967 -965 0
-967 -966 0
967 965 966 0
-968 964 0
-968 967 0
968 -964 -967 0
-969 -385 0
-969 968 0
969 385 -968 0
-970 -387 0
-970 969 0
970 387 -969 0
-971 17 0
-971 -384 0
971 -17 384 0
-972 -17 0
-972 384 0
972 17 -384 0
-973 -971 0
-973 -972 0
973 971 972 0
974 -1398 0
-974 1398 0
-975 973 0
-975 974 0
975 -973 -974 0
-976 970 0
-976 -975 0
976 -970 975 0
-977 -973 0
-977 -974 0
977 973 974 0
-978 976 0
-978 -977 0
978 -976 977 0
-979 37 0
-979 -974 0
979 -37 974 0
-980 -37 0
-980 974 0
980 37 -974 0
-981 -979 0
-981 -980 0
981 979 980 0
-982 978 0
-982 981 0
982 -978 -981 0
-983 -368 0
-983 982 0
983 368 -982 0
-984 -370 0
-984 983 0
984 370 -983 0
-985 17 0
-985 -367 0
985 -17 367 0
-986 -17 0
-986 367 0
986 17 -367 0
-987 -985 0
-987 -986 0
987 985 986 0
988 -1399 0
-988 1399 0
-989 987 0
-989 988 0
989 -987 -988 0
-990 984 0
-990 -989 0
990 -984 989 0
-991 -987 0
-991 -988 0
991 987 988 0
-992 990 0
-992 -991 0
992 -990 991 0
-993 36 0
-993 -988 0
993 -36 988 0
-994 -36 0
-994 988 0
994 36 -988 0
-995 -993 0
-995 -994 0
995 993 994 0
-996 992 0
-996 995 0
996 -992 -995 0
-997 -368 0
-997 996 0
997 368 -996 0
-998 -370 0
-998 997 0
998 370 -997 0
-999 18 0
-999 -367 0
999 -18 367 0
-1000 -18 0
-1000 367 0
1000 18 -367 0
-1001 -999 0
-1001 -1000 0
1001 999 1000 0
1002 -1400 0
-1002 1400 0
-1003 1001 0
-1003 1002 0
1003 -1001 -1002 0
-1004 998 0
-1004 -1003 0
1004 -998 1003 0
-1005 -1001 0
-1005 -1002 0
1005 1001 1002 0
-1006 1004 0
-1006 -1005 0
1006 -1004 1005 0
-1007 35 0
-1007 -1002 0
1007 -35 1002 0
-1008 -35 0
-1008 1002 0
1008 35 -1002 0
-1009 -1007 0
-1009 -1008 0
1009 1007 1008 0
-1010 1006 0
-1010 1009 0
1010 -1006 -1009 0
-1011 -488 0
-1011 1010 0
1011 488 -1010 0
-1012 -490 0
-1012 1011 0
1012 490 -1011 0
-1013 14 0
-1013 -487 0
1013 -14 487 0
-1014 -14 0
-1014 487 0
1014 14 -487 0
-1015 -1013 0
-1015 -1014 0
1015 1013 1014 0
1016 -1401 0
-1016 1401 0
-1017 1015 0
-1017 1016 0
1017 -1015 -1016 0
-1018 1012 0
-1018 -1017 0
1018 -1012 1017 0
-1019 -1015 0
-1019 -1016 0
1019 1015 1016 0
-1020 1018 0
-1020 -1019 0
1020 -1018 1019 0
-1021 34 0
-1021 -1016 0
1021 -34 1016 0
-1022 -34 0
-1022 1016 0
1022 34 -1016 0
-1023 -1021 0
-1023 -1022 0
1023 1021 1022 0
-1024 1020 0
-1024 1023 0
1024 -1020 -1023 0
-1025 -471 0
-1025 1024 0
1025 471 -1024 0
-1026 -473 0
-1026 1025 0
1026 473 -1025 0
-1027 14 0
-1027 -470 0
1027 -14 470 0
-1028 -14 0
-1028 470 0
1028 14 -470 0
-1029 -1027 0
-1029 -1028 0
1029 1027 1028 0
1030 -1402 0
-1030 1402 0
-1031 1029 0
-1031 1030 0
1031 -1029 -1030 0
-1032 1026 0
-1032 -1031 0
1032 -1026 1031 0
-1033 -1029 0
-1033 -1030 0
1033 1029 1030 0
-1034 1032 0
-1034 -1033 0
1034 -1032 1033 0
-1035 33 0
-1035 -1030 0
1035 -33 1030 0
-1036 -33 0
-1036 1030 0
1036 33 -1030 0
-1037 -1035 0
-1037 -1036 0
1037 1035 1036 0
-1038 1034 0
-1038 1037 0
1038 -1034 -1037 0
-1039 -471 0
-1039 1038 0
1039 471 -1038 0
-1040 -473 0
-1040 1039 0
1040 473 -1039 0
-1041 15 0
-1041 -470 0
1041 -15 470 0
-1042 -15 0
-1042 470 0
1042 15 -470 0
-1043 -1041 0
-1043 -1042 0
1043 1041 1042 0
1044 -1403 0
-1044 1403 0
-1045 1043 0
-1045 1044 0
1045 -1043 -1044 0
-1046 1040 0
-1046 -1045 0
1046 -1040 1045 0
-1047 -1043 0
-1047 -1044 0
1047 1043 1044 0
-1048 1046 0
-1048 -1047 0
1048 -1046 1047 0
-1049 32 0
-1049 -1044 0
1049 -32 1044 0
-1050 -32 0
-1050 1044 0
1050 32 -1044 0
-1051 -1049 0
-1051 -1050 0
1051 1049 1050 0
-1052 1048 0
-1052 1051 0
1052 -1048 -1051 0
-1053 -539 0
-1053 1052 0
1053 539 -1052 0
-1054 -541 0
-1054 1053 0
1054 541 -1053 0
-1055 11 0
-1055 -538 0
1055 -11 538 0
-1056 -11 0
-1056 538 0
1056 11 -538 0
-1057 -1055 0
-1057 -1056 0
1057 1055 1056 0
1058 -1404 0
-1058 1404 0
-1059 1057 0
-1059 1058 0
1059 -1057 -1058 0
-1060 1054 0
-1060 -1059 0
1060 -1054 1059 0
-1061 -1057 0
-1061 -1058 0
1061 1057 1058 0
-1062 1060 0
-1062 -1061 0
1062 -1060 1061 0
-1063 31 0
-1063 -1058 0
1063 -31 1058 0
-1064 -31 0
-1064 1058 0
1064 31 -1058 0
-1065 -1063 0
-1065 -1064 0
1065 1063 1064 0
-1066 1062 0
-1066 1065 0
1066 -1062 -1065 0
-1067 -522 0
-1067 1066 0
1067 522 -1066 0
-1068 -524 0
-1068 1067 0
1068 524 -1067 0
-1069 11 0
-1069 -521 0
1069 -11 521 0
-1070 -11 0
-1070 521 0
1070 11 -521 0
-1071 -1069 0
-1071 -1070 0
1071 1069 1070 0
1072 -1405 0
-1072 1405 0
-1073 1071 0
-1073 1072 0
1073 -1071 -1072 0
-1074 1068 0
-1074 -1073 0
1074 -1068 1073 0
-1075 -1071 0
-1075 -1072 0
1075 1071 1072 0
-1076 1074 0
-1076 -1075 0
1076 -1074 1075 0
-1077 30 0
-1077 -1072 0
1077 -30 1072 0
-1078 -30 0
-1078 1072 0
1078 30 -1072 0
-1079 -1077 0
-1079 -1078 0
1079 1077 1078 0
-1080 1076 0
-1080 1079 0
1080 -1076 -1079 0
-1081 -522 0
-1081 1080 0
1081 522 -1080 0
-1082 -524 0
-1082 1081 0
1082 524 -1081 0
-1083 12 0
-1083 -521 0
1083 -12 521 0
-1084 -12 0
-1084 521 0
1084 12 -521 0
-1085 -1083 0
-1085 -1084 0
1085 1083 1084 0
1086 -1406 0
-1086 1406 0
-1087 1085 0
-1087 1086 0
1087 -1085 -1086 0
-1088 1082 0
-1088 -1087 0
1088 -1082 1087 0
-1089 -1085 0
-1089 -1086 0
1089 1085 1086 0
-1090 1088 0
-1090 -1089 0
1090 -1088 1089 0
-1091 29 0
-1091 -1086 0
1091 -29 1086 0
-1092 -29 0
-1092 1086 0
1092 29 -1086 0
-1093 -1091 0
-1093 -1092 0
1093 1091 1092 0
-1094 1090 0
-1094 1093 0
1094 -1090 -1093 0
-1095 -590 0
-1095 1094 0
1095 590 -1094 0
-1096 -592 0
-1096 1095 0
1096 592 -1095 0
-1097 8 0
-1097 -589 0
1097 -8 589 0
-1098 -8 0
-1098 589 0
1098 8 -589 0
-1099 -1097 0
-1099 -1098 0
1099 1097 1098 0
1100 -1407 0
-1100 1407 0
-1101 1099 0
-1101 1100 0
1101 -1099 -1100 0
-1102 1096 0
-1102 -1101 0
1102 -1096 1101 0
-1103 -1099 0
-1103 -1100 0
1103 1099 1100 0
-1104 1102 0
-1104 -1103 0
1104 -1102 1103 0
-1105 28 0
-1105 -1100 0
1105 -28 1100 0
-1106 -28 0
-1106 1100 0
1106 28 -1100 0
-1107 -1105 0
-1107 -1106 0
1107 1105 1106 0
-1108 1104 0
-1108 1107 0
1108 -1104 -1107 0
-1109 -573 0
-1109 1108 0
1109 573 -1108 0
-1110 -575 0
-1110 1109 0
1110 575 -1109 0
-1111 8 0
-1111 -572 0
1111 -8 572 0
-1112 -8 0
-1112 572 0
1112 8 -572 0
-1113 -1111 0
-1113 -1112 0
1113 1111 1112 0
1114 -1408 0
-1114 1408 0
-1115 1113 0
-1115 1114 0
1115 -1113 -1114 0
-1116 1110 0
-1116 -1115 0
1116 -1110 1115 0
-1117 -1113 0
-1117 -1114 0
1117 1113 1114 0
-1118 1116 0
-1118 -1117 0
1118 -1116 1117 0
-1119 27 0
-1119 -1114 0
1119 -27 1114 0
-1120 -27 0
-1120 1114 0
1120 27 -1114 0
-1121 -1119 0
-1121 -1120 0
1121 1119 1120 0
-1122 1118 0
-1122 1121 0
1122 -1118 -1121 0
-1123 -573 0
-1123 1122 0
1123 573 -1122 0
-1124 -575 0
-1124 1123 0
1124 575 -1123 0
-1125 9 0
-1125 -572 0
1125 -9 572 0
-1126 -9 0
-1126 572 0
1126 9 -572 0
-1127 -1125 0
-1127 -1126 0
1127 1125 1126 0
1128 -1409 0
-1128 1409 0
-1129 1127 0
-1129 1128 0
1129 -1127 -1128 0
-1130 1124 0
-1130 -1129 0
1130 -1124 1129 0
-1131 -1127 0
-1131 -1128 0
1131 1127 1128 0
-1132 1130 0
-1132 -1131 0
1132 -1130 1131 0
-1133 26 0
-1133 -1128 0
1133 -26 1128 0
-1134 -26 0
-1134 1128 0
1134 26 -1128 0
-1135 -1133 0
-1135 -1134 0
1135 1133 1134 0
-1136 1132 0
-1136 1135 0
1136 -1132 -1135 0
1137 -1410 0
-1137 1410 0
-1138 6 0
-1138 -1137 0
1138 -6 1137 0
-1139 1136 0
-1139 -1138 0
1139 -1136 1138 0
-1140 -6 0
-1140 1137 0
1140 6 -1137 0
-1141 1139 0
-1141 -1140 0
1141 -1139 1140 0
-1142 5 0
-1142 -1137 0
1142 -5 1137 0
-1143 -5 0
-1143 1137 0
1143 5 -1137 0
-1144 -1142 0
-1144 -1143 0
1144 1142 1143 0
1145 -1411 0
-1145 1411 0
-1146 1144 0
-1146 1145 0
1146 -1144 -1145 0
-1147 1141 0
-1147 -1146 0
1147 -1141 1146 0
-1148 -1144 0
-1148 -1145 0
1148 1144 1145 0
-1149 1147 0
-1149 -1148 0
1149 -1147 1148 0
-1150 25 0
-1150 -1145 0
1150 -25 1145 0
-1151 -25 0
-1151 1145 0
1151 25 -1145 0
-1152 -1150 0
-1152 -1151 0
1152 1150 1151 0
-1153 1149 0
-1153 1152 0
1153 -1149 -1152 0
-1156 1153 0
-1156 -1155 0
1156 -1153 1155 0
-1158 1156 0
-1158 -1157 0
1158 -1156 1157 0
-1159 5 0
-1159 -1154 0
1159 -5 1154 0
-1160 -5 0
-1160 1154 0
1160 5 -1154 0
-1161 -1159 0
-1161 -1160 0
1161 1159 1160 0
1162 -1413 0
-1162 1413 0
-1163 1161 0
-1163 1162 0
1163 -1161 -1162 0
-1164 1158 0
-1164 -1163 0
1164 -1158 1163 0
-1165 -1161 0
-1165 -1162 0
1165 1161 1162 0
-1166 1164 0
-1166 -1165 0
1166 -1164 1165 0
-1167 24 0
-1167 -1162 0
1167 -24 1162 0
-1168 -24 0
-1168 1162 0
1168 24 -1162 0
-1169 -1167 0
-1169 -1168 0
1169 1167 1168 0
-1170 1166 0
-1170 1169 0
1170 -1166 -1169 0
-1171 -1155 0
-1171 1170 0
1171 1155 -1170 0
-1172 -1157 0
-1172 1171 0
1172 1157 -1171 0
-1173 6 0
-1173 -1154 0
1173 -6 1154 0
-1174 -6 0
-1174 1154 0
1174 6 -1154 0
-1175 -1173 0
-1175 -1174 0
1175 1173 1174 0
1176 -1414 0
-1176 1414 0
-1177 1175 0
-1177 1176 0
1177 -1175 -1176 0
-1178 1172 0
-1178 -1177 0
1178 -1172 1177 0
-1179 -1175 0
-1179 -1176 0
1179 1175 1176 0
-1180 1178 0
-1180 -1179 0
1180 -1178 1179 0
-1181 23 0
-1181 -1176 0
1181 -23 1176 0
-1182 -23 0
-1182 1176 0
1182 23 -1176 0
-1183 -1181 0
-1183 -1182 0
1183 1181 1182 0
-1184 1180 0
-1184 1183 0
1184 -1180 -1183 0
1185 -1415 0
-1185 1415 0
-1186 3 0
-1186 -1185 0
1186 -3 1185 0
-1187 1184 0
-1187 -1186 0
1187 -1184 1186 0
-1188 -3 0
-1188 1185 0
1188 3 -1185 0
-1189 1187 0
-1189 -1188 0
1189 -1187 1188 0
-1190 2 0
-1190 -1185 0
1190 -2 1185 0
-1191 -2 0
-1191 1185 0
1191 2 -1185 0
-1192 -1190 0
-1192 -1191 0
1192 1190 1191 0
1193 -1416 0
-1193 1416 0
-1194 1192 0
-1194 1193 0
1194 -1192 -1193 0
-1195 1189 0
-1195 -1194 0
1195 -1189 1194 0
-1196 -1192 0
-1196 -1193 0
1196 1192 1193 0
-1197 1195 0
-1197 -1196 0
1197 -1195 1196 0
-1198 22 0
-1198 -1193 0
1198 -22 1193 0
-1199 -22 0
-1199 1193 0
1199 22 -1193 0
-1200 -1198 0
-1200 -1199 0
1200 1198 1199 0
-1201 1197 0
-1201 1200 0
1201 -1197 -1200 0
-1204 1201 0
-1204 -1203 0
1204 -1201 1203 0
-1206 1204 0
-1206 -1205 0
1206 -1204 1205 0
-1207 2 0
-1207 -1202 0
1207 -2 1202 0
-1208 -2 0
-1208 1202 0
1208 2 -1202 0
-1209 -1207 0
-1209 -1208 0
1209 1207 1208 0
1210 -1418 0
-1210 1418 0
-1211 1209 0
-1211 1210 0
1211 -1209 -1210 0
-1212 1206 0
-1212 -1211 0
1212 -1206 1211 0
-1213 -1209 0
-1213 -1210 0
1213 1209 1210 0
-1214 1212 0
-1214 -1213 0
1214 -1212 1213 0
-1215 21 0
-1215 -1210 0
1215 -21 1210 0
-1216 -21 0
-1216 1210 0
1216 21 -1210 0
-1217 -1215 0
-1217 -1216 0
1217 1215 1216 0
-1218 1214 0
-1218 1217 0
1218 -1214 -1217 0
-1219 -1203 0
-1219 1218 0
1219 1203 -1218 0
-1220 -1205 0
-1220 1219 0
1220 1205 -1219 0
-1221 3 0
-1221 -1202 0
1221 -3 1202 0
-1222 -3 0
-1222 1202 0
1222 3 -1202 0
-1223 -1221 0
-1223 -1222 0
1223 1221 1222 0
1224 -1419 0
-1224 1419 0
-1225 1223 0
-1225 1224 0
1225 -1223 -1224 0
-1226 1220 0
-1226 -1225 0
1226 -1220 1225 0
-1227 -1223 0
-1227 -1224 0
1227 1223 1224 0
-1228 1226 0
-1228 -1227 0
1228 -1226 1227 0
-1229 20 0
-1229 -1224 0
1229 -20 1224 0
-1230 -20 0
-1230 1224 0
1230 20 -1224 0
-1231 -1229 0
-1231 -1230 0
1231 1229 1230 0
-1232 1228 0
-1232 1231 0
1232 -1228 -1231 0
-1233 -2 0
-1233 -3 0
1233 2 3 0
-1234 -4 0
-1234 1233 0
1234 4 -1233 0
-1235 -5 0
-1235 1234 0
1235 5 -1234 0
-1236 -6 0
-1236 1235 0
1236 6 -1235 0
-1237 -7 0
-1237 1236 0
1237 7 -1236 0
-1238 -8 0
-1238 1237 0
1238 8 -1237 0
-1239 -9 0
-1239 1238 0
1239 9 -1238 0
-1240 -10 0
-1240 1239 0
1240 10 -1239 0
-1241 -11 0
-1241 1240 0
1241 11 -1240 0
-1242 -12 0
-1242 1241 0
1242 12 -1241 0
-1243 -13 0
-1243 1242 0
1243 13 -1242 0
-1244 -15 0
-1244 1243 0
1244 15 -1243 0
-1245 -16 0
-1245 1244 0
1245 16 -1244 0
-1246 -18 0
-1246 1245 0
1246 18 -1245 0
-1247 -19 0
-1247 1246 0
1247 19 -1246 0
-1248 -20 0
-1248 1247 0
1248 20 -1247 0
-1249 -21 0
-1249 1248 0
1249 21 -1248 0
-1250 -22 0
-1250 1249 0
1250 22 -1249 0
-1251 -23 0
-1251 1250 0
1251 23 -1250 0
-1252 -24 0
-1252 1251 0
1252 24 -1251 0
-1253 -25 0
-1253 1252 0
1253 25 -1252 0
-1254 -26 0
-1254 1253 0
1254 26 -1253 0
-1255 -27 0
-1255 1254 0
1255 27 -1254 0
-1256 -28 0
-1256 1255 0
1256 28 -1255 0
-1257 -29 0
-1257 1256 0
1257 29 -1256 0
-1258 -30 0
-1258 1257 0
1258 30 -1257 0
-1259 -31 0
-1259 1258 0
1259 31 -1258 0
-1260 -32 0
-1260 1259 0
1260 32 -1259 0
-1261 -33 0
-1261 1260 0
1261 33 -1260 0
-1262 -34 0
-1262 1261 0
1262 34 -1261 0
-1263 -35 0
-1263 1262 0
1263 35 -1262 0
-1264 -36 0
-1264 1263 0
1264 36 -1263 0
-1265 -37 0
-1265 1264 0
1265 37 -1264 0
-1266 -38 0
-1266 1265 0
1266 38 -1265 0
-1267 -39 0
-1267 1266 0
1267 39 -1266 0
-1268 -40 0
-1268 1267 0
1268 40 -1267 0
-1269 -41 0
-1269 1268 0
1269 41 -1268 0
-1270 -42 0
-1270 1269 0
1270 42 -1269 0
-1271 1232 0
-1271 -1270 0
1271 -1232 1270 0
1271 0
