p cnf 9434 17086
91 -9371 0
-91 9371 0
154 -9434 0
-154 9434 0
153 -9433 0
-153 9433 0
152 -9432 0
-152 9432 0
151 -9431 0
-151 9431 0
150 -9430 0
-150 9430 0
148 -9428 0
-148 9428 0
149 -9429 0
-149 9429 0
-156 148 0
-156 -149 0
156 -148 149 0
-160 -150 0
-160 156 0
160 150 -156 0
-176 151 0
-176 160 0
176 -151 -160 0
-208 152 0
-208 176 0
208 -152 -176 0
-240 -153 0
-240 208 0
240 153 -208 0
-368 154 0
-368 240 0
368 -154 -240 0
147 -9427 0
-147 9427 0
146 -9426 0
-146 9426 0
145 -9425 0
-145 9425 0
144 -9424 0
-144 9424 0
143 -9423 0
-143 9423 0
141 -9421 0
-141 9421 0
142 -9422 0
-142 9422 0
-370 141 0
-370 -142 0
370 -141 142 0
-374 -143 0
-374 370 0
374 143 -370 0
-390 144 0
-390 374 0
390 -144 -374 0
-422 145 0
-422 390 0
422 -145 -390 0
-454 -146 0
-454 422 0
454 146 -422 0
-582 147 0
-582 454 0
582 -147 -454 0
140 -9420 0
-140 9420 0
139 -9419 0
-139 9419 0
138 -9418 0
-138 9418 0
137 -9417 0
-137 9417 0
136 -9416 0
-136 9416 0
134 -9414 0
-134 9414 0
135 -9415 0
-135 9415 0
-584 134 0
-584 -135 0
584 -134 135 0
-588 -136 0
-588 584 0
588 136 -584 0
-604 137 0
-604 588 0
604 -137 -588 0
-636 138 0
-636 604 0
636 -138 -604 0
-668 -139 0
-668 636 0
668 139 -636 0
-796 140 0
-796 668 0
796 -140 -668 0
133 -9413 0
-133 9413 0
132 -9412 0
-132 9412 0
131 -9411 0
-131 9411 0
130 -9410 0
-130 9410 0
129 -9409 0
-129 9409 0
127 -9407 0
-127 9407 0
128 -9408 0
-128 9408 0
-798 127 0
-798 -128 0
798 -127 128 0
-802 -129 0
-802 798 0
802 129 -798 0
-818 130 0
-818 802 0
818 -130 -802 0
-850 131 0
-850 818 0
850 -131 -818 0
-882 -132 0
-882 850 0
882 132 -850 0
-1010 133 0
-1010 882 0
1010 -133 -882 0
126 -9406 0
-126 9406 0
125 -9405 0
-125 9405 0
124 -9404 0
-124 9404 0
123 -9403 0
-123 9403 0
122 -9402 0
-122 9402 0
120 -9400 0
-120 9400 0
121 -9401 0
-121 9401 0
-1012 120 0
-1012 -121 0
1012 -120 121 0
-1016 -122 0
-1016 1012 0
1016 122 -1012 0
-1032 123 0
-1032 1016 0
1032 -123 -1016 0
-1064 124 0
-1064 1032 0
1064 -124 -1032 0
-1096 -125 0
-1096 1064 0
1096 125 -1064 0
-1224 126 0
-1224 1096 0
1224 -126 -1096 0
119 -9399 0
-119 9399 0
118 -9398 0
-118 9398 0
117 -9397 0
-117 9397 0
116 -9396 0
-116 9396 0
115 -9395 0
-115 9395 0
113 -9393 0
-113 9393 0
114 -9394 0
-114 9394 0
-1226 113 0
-1226 -114 0
1226 -113 114 0
-1230 -115 0
-1230 1226 0
1230 115 -1226 0
-1246 116 0
-1246 1230 0
1246 -116 -1230 0
-1278 117 0
-1278 1246 0
1278 -117 -1246 0
-1310 -118 0
-1310 1278 0
1310 118 -1278 0
-1438 119 0
-1438 1310 0
1438 -119 -1310 0
112 -9392 0
-112 9392 0
111 -9391 0
-111 9391 0
110 -9390 0
-110 9390 0
109 -9389 0
-109 9389 0
108 -9388 0
-108 9388 0
106 -9386 0
-106 9386 0
107 -9387 0
-107 9387 0
-1440 106 0
-1440 -107 0
1440 -106 107 0
-1444 -108 0
-1444 1440 0
1444 108 -1440 0
-1460 109 0
-1460 1444 0
1460 -109 -1444 0
-1492 110 0
-1492 1460 0
1492 -110 -1460 0
-1524 -111 0
-1524 1492 0
1524 111 -1492 0
-1652 112 0
-1652 1524 0
1652 -112 -1524 0
105 -9385 0
-105 9385 0
104 -9384 0
-104 9384 0
103 -9383 0
-103 9383 0
102 -9382 0
-102 9382 0
101 -9381 0
-101 9381 0
99 -9379 0
-99 9379 0
100 -9380 0
-100 9380 0
-1654 99 0
-1654 -100 0
1654 -99 100 0
-1658 -101 0
-1658 1654 0
1658 101 -1654 0
-1674 102 0
-1674 1658 0
1674 -102 -1658 0
-1706 103 0
-1706 1674 0
1706 -103 -1674 0
-1738 -104 0
-1738 1706 0
1738 104 -1706 0
-1866 105 0
-1866 1738 0
1866 -105 -1738 0
98 -9378 0
-98 9378 0
97 -9377 0
-97 9377 0
96 -9376 0
-96 9376 0
95 -9375 0
-95 9375 0
94 -9374 0
-94 9374 0
92 -9372 0
-92 9372 0
93 -9373 0
-93 9373 0
-1868 92 0
-1868 -93 0
1868 -92 93 0
-1872 -94 0
-1872 1868 0
1872 94 -1868 0
-1888 95 0
-1888 1872 0
1888 -95 -1872 0
-1920 96 0
-1920 1888 0
1920 -96 -1888 0
-1952 -97 0
-1952 1920 0
1952 97 -1920 0
-2080 98 0
-2080 1952 0
2080 -98 -1952 0
-2170 -1866 0
-2170 -2080 0
2170 1866 2080 0
-2260 -1652 0
-2260 2170 0
2260 1652 -2170 0
-2350 -1438 0
-2350 2260 0
2350 1438 -2260 0
-2440 -1224 0
-2440 2350 0
2440 1224 -2350 0
-2530 -1010 0
-2530 2440 0
2530 1010 -2440 0
-2620 -796 0
-2620 2530 0
2620 796 -2530 0
-2710 -582 0
-2710 2620 0
2710 582 -2620 0
-2800 -368 0
-2800 2710 0
2800 368 -2710 0
-3068 91 0
-3068 2800 0
3068 -91 -2800 0
-3069 -91 0
-3069 -2800 0
3069 91 2800 0
-3070 -3068 0
-3070 -3069 0
3070 3068 3069 0
90 -9370 0
-90 9370 0
-155 -148 0
-155 -149 0
155 148 149 0
-159 -150 0
-159 155 0
159 150 -155 0
-175 151 0
-175 159 0
175 -151 -159 0
-207 152 0
-207 175 0
207 -152 -175 0
-239 -153 0
-239 207 0
239 153 -207 0
-367 154 0
-367 239 0
367 -154 -239 0
-369 -141 0
-369 -142 0
369 141 142 0
-373 -143 0
-373 369 0
373 143 -369 0
-389 144 0
-389 373 0
389 -144 -373 0
-421 145 0
-421 389 0
421 -145 -389 0
-453 -146 0
-453 421 0
453 146 -421 0
-581 147 0
-581 453 0
581 -147 -453 0
-583 -134 0
-583 -135 0
583 134 135 0
-587 -136 0
-587 583 0
587 136 -583 0
-603 137 0
-603 587 0
603 -137 -587 0
-635 138 0
-635 603 0
635 -138 -603 0
-667 -139 0
-667 635 0
667 139 -635 0
-795 140 0
-795 667 0
795 -140 -667 0
-797 -127 0
-797 -128 0
797 127 128 0
-801 -129 0
-801 797 0
801 129 -797 0
-817 130 0
-817 801 0
817 -130 -801 0
-849 131 0
-849 817 0
849 -131 -817 0
-881 -132 0
-881 849 0
881 132 -849 0
-1009 133 0
-1009 881 0
1009 -133 -881 0
-1011 -120 0
-1011 -121 0
1011 120 121 0
-1015 -122 0
-1015 1011 0
1015 122 -1011 0
-1031 123 0
-1031 1015 0
1031 -123 -1015 0
-1063 124 0
-1063 1031 0
1063 -124 -1031 0
-1095 -125 0
-1095 1063 0
1095 125 -1063 0
-1223 126 0
-1223 1095 0
1223 -126 -1095 0
-1225 -113 0
-1225 -114 0
1225 113 114 0
-1229 -115 0
-1229 1225 0
1229 115 -1225 0
-1245 116 0
-1245 1229 0
1245 -116 -1229 0
-1277 117 0
-1277 1245 0
1277 -117 -1245 0
-1309 -118 0
-1309 1277 0
1309 118 -1277 0
-1437 119 0
-1437 1309 0
1437 -119 -1309 0
-1439 -106 0
-1439 -107 0
1439 106 107 0
-1443 -108 0
-1443 1439 0
1443 108 -1439 0
-1459 109 0
-1459 1443 0
1459 -109 -1443 0
-1491 110 0
-1491 1459 0
1491 -110 -1459 0
-1523 -111 0
-1523 1491 0
1523 111 -1491 0
-1651 112 0
-1651 1523 0
1651 -112 -1523 0
-1653 -99 0
-1653 -100 0
1653 99 100 0
-1657 -101 0
-1657 1653 0
1657 101 -1653 0
-1673 102 0
-1673 1657 0
1673 -102 -1657 0
-1705 103 0
-1705 1673 0
1705 -103 -1673 0
-1737 -104 0
-1737 1705 0
1737 104 -1705 0
-1865 105 0
-1865 1737 0
1865 -105 -1737 0
-1867 -92 0
-1867 -93 0
1867 92 93 0
-1871 -94 0
-1871 1867 0
1871 94 -1867 0
-1887 95 0
-1887 1871 0
1887 -95 -1871 0
-1919 96 0
-1919 1887 0
1919 -96 -1887 0
-1951 -97 0
-1951 1919 0
1951 97 -1919 0
-2079 98 0
-2079 1951 0
2079 -98 -1951 0
-2169 -1865 0
-2169 -2079 0
2169 1865 2079 0
-2259 -1651 0
-2259 2169 0
2259 1651 -2169 0
-2349 -1437 0
-2349 2259 0
2349 1437 -2259 0
-2439 -1223 0
-2439 2349 0
2439 1223 -2349 0
-2529 -1009 0
-2529 2439 0
2529 1009 -2439 0
-2619 -795 0
-2619 2529 0
2619 795 -2529 0
-2709 -581 0
-2709 2619 0
2709 581 -2619 0
-2799 -367 0
-2799 2709 0
2799 367 -2709 0
-3065 90 0
-3065 2799 0
3065 -90 -2799 0
-3066 -90 0
-3066 -2799 0
3066 90 2799 0
-3067 -3065 0
-3067 -3066 0
3067 3065 3066 0
89 -9369 0
-89 9369 0
-158 148 0
-158 149 0
158 -148 -149 0
-166 150 0
-166 158 0
166 -150 -158 0
-174 -151 0
-174 166 0
174 151 -166 0
-206 152 0
-206 174 0
206 -152 -174 0
-238 -153 0
-238 206 0
238 153 -206 0
-366 154 0
-366 238 0
366 -154 -238 0
-372 141 0
-372 142 0
372 -141 -142 0
-380 143 0
-380 372 0
380 -143 -372 0
-388 -144 0
-388 380 0
388 144 -380 0
-420 145 0
-420 388 0
420 -145 -388 0
-452 -146 0
-452 420 0
452 146 -420 0
-580 147 0
-580 452 0
580 -147 -452 0
-586 134 0
-586 135 0
586 -134 -135 0
-594 136 0
-594 586 0
594 -136 -586 0
-602 -137 0
-602 594 0
602 137 -594 0
-634 138 0
-634 602 0
634 -138 -602 0
-666 -139 0
-666 634 0
666 139 -634 0
-794 140 0
-794 666 0
794 -140 -666 0
-800 127 0
-800 128 0
800 -127 -128 0
-808 129 0
-808 800 0
808 -129 -800 0
-816 -130 0
-816 808 0
816 130 -808 0
-848 131 0
-848 816 0
848 -131 -816 0
-880 -132 0
-880 848 0
880 132 -848 0
-1008 133 0
-1008 880 0
1008 -133 -880 0
-1014 120 0
-1014 121 0
1014 -120 -121 0
-1022 122 0
-1022 1014 0
1022 -122 -1014 0
-1030 -123 0
-1030 1022 0
1030 123 -1022 0
-1062 124 0
-1062 1030 0
1062 -124 -1030 0
-1094 -125 0
-1094 1062 0
1094 125 -1062 0
-1222 126 0
-1222 1094 0
1222 -126 -1094 0
-1228 113 0
-1228 114 0
1228 -113 -114 0
-1236 115 0
-1236 1228 0
1236 -115 -1228 0
-1244 -116 0
-1244 1236 0
1244 116 -1236 0
-1276 117 0
-1276 1244 0
1276 -117 -1244 0
-1308 -118 0
-1308 1276 0
1308 118 -1276 0
-1436 119 0
-1436 1308 0
1436 -119 -1308 0
-1442 106 0
-1442 107 0
1442 -106 -107 0
-1450 108 0
-1450 1442 0
1450 -108 -1442 0
-1458 -109 0
-1458 1450 0
1458 109 -1450 0
-1490 110 0
-1490 1458 0
1490 -110 -1458 0
-1522 -111 0
-1522 1490 0
1522 111 -1490 0
-1650 112 0
-1650 1522 0
1650 -112 -1522 0
-1656 99 0
-1656 100 0
1656 -99 -100 0
-1664 101 0
-1664 1656 0
1664 -101 -1656 0
-1672 -102 0
-1672 1664 0
1672 102 -1664 0
-1704 103 0
-1704 1672 0
1704 -103 -1672 0
-1736 -104 0
-1736 1704 0
1736 104 -1704 0
-1864 105 0
-1864 1736 0
1864 -105 -1736 0
-1870 92 0
-1870 93 0
1870 -92 -93 0
-1878 94 0
-1878 1870 0
1878 -94 -1870 0
-1886 -95 0
-1886 1878 0
1886 95 -1878 0
-1918 96 0
-1918 1886 0
1918 -96 -1886 0
-1950 -97 0
-1950 1918 0
1950 97 -1918 0
-2078 98 0
-2078 1950 0
2078 -98 -1950 0
-2168 -1864 0
-2168 -2078 0
2168 1864 2078 0
-2258 -1650 0
-2258 2168 0
2258 1650 -2168 0
-2348 -1436 0
-2348 2258 0
2348 1436 -2258 0
-2438 -1222 0
-2438 2348 0
2438 1222 -2348 0
-2528 -1008 0
-2528 2438 0
2528 1008 -2438 0
-2618 -794 0
-2618 2528 0
2618 794 -2528 0
-2708 -580 0
-2708 2618 0
2708 580 -2618 0
-2798 -366 0
-2798 2708 0
2798 366 -2708 0
-3062 89 0
-3062 2798 0
3062 -89 -2798 0
-3063 -89 0
-3063 -2798 0
3063 89 2798 0
-3064 -3062 0
-3064 -3063 0
3064 3062 3063 0
88 -9368 0
-88 9368 0
-157 -148 0
-157 149 0
157 148 -149 0
-165 150 0
-165 157 0
165 -150 -157 0
-173 -151 0
-173 165 0
173 151 -165 0
-205 152 0
-205 173 0
205 -152 -173 0
-237 -153 0
-237 205 0
237 153 -205 0
-365 154 0
-365 237 0
365 -154 -237 0
-371 -141 0
-371 142 0
371 141 -142 0
-379 143 0
-379 371 0
379 -143 -371 0
-387 -144 0
-387 379 0
387 144 -379 0
-419 145 0
-419 387 0
419 -145 -387 0
-451 -146 0
-451 419 0
451 146 -419 0
-579 147 0
-579 451 0
579 -147 -451 0
-585 -134 0
-585 135 0
585 134 -135 0
-593 136 0
-593 585 0
593 -136 -585 0
-601 -137 0
-601 593 0
601 137 -593 0
-633 138 0
-633 601 0
633 -138 -601 0
-665 -139 0
-665 633 0
665 139 -633 0
-793 140 0
-793 665 0
793 -140 -665 0
-799 -127 0
-799 128 0
799 127 -128 0
-807 129 0
-807 799 0
807 -129 -799 0
-815 -130 0
-815 807 0
815 130 -807 0
-847 131 0
-847 815 0
847 -131 -815 0
-879 -132 0
-879 847 0
879 132 -847 0
-1007 133 0
-1007 879 0
1007 -133 -879 0
-1013 -120 0
-1013 121 0
1013 120 -121 0
-1021 122 0
-1021 1013 0
1021 -122 -1013 0
-1029 -123 0
-1029 1021 0
1029 123 -1021 0
-1061 124 0
-1061 1029 0
1061 -124 -1029 0
-1093 -125 0
-1093 1061 0
1093 125 -1061 0
-1221 126 0
-1221 1093 0
1221 -126 -1093 0
-1227 -113 0
-1227 114 0
1227 113 -114 0
-1235 115 0
-1235 1227 0
1235 -115 -1227 0
-1243 -116 0
-1243 1235 0
1243 116 -1235 0
-1275 117 0
-1275 1243 0
1275 -117 -1243 0
-1307 -118 0
-1307 1275 0
1307 118 -1275 0
-1435 119 0
-1435 1307 0
1435 -119 -1307 0
-1441 -106 0
-1441 107 0
1441 106 -107 0
-1449 108 0
-1449 1441 0
1449 -108 -1441 0
-1457 -109 0
-1457 1449 0
1457 109 -1449 0
-1489 110 0
-1489 1457 0
1489 -110 -1457 0
-1521 -111 0
-1521 1489 0
1521 111 -1489 0
-1649 112 0
-1649 1521 0
1649 -112 -1521 0
-1655 -99 0
-1655 100 0
1655 99 -100 0
-1663 101 0
-1663 1655 0
1663 -101 -1655 0
-1671 -102 0
-1671 1663 0
1671 102 -1663 0
-1703 103 0
-1703 1671 0
1703 -103 -1671 0
-1735 -104 0
-1735 1703 0
1735 104 -1703 0
-1863 105 0
-1863 1735 0
1863 -105 -1735 0
-1869 -92 0
-1869 93 0
1869 92 -93 0
-1877 94 0
-1877 1869 0
1877 -94 -1869 0
-1885 -95 0
-1885 1877 0
1885 95 -1877 0
-1917 96 0
-1917 1885 0
1917 -96 -1885 0
-1949 -97 0
-1949 1917 0
1949 97 -1917 0
-2077 98 0
-2077 1949 0
2077 -98 -1949 0
-2167 -1863 0
-2167 -2077 0
2167 1863 2077 0
-2257 -1649 0
-2257 2167 0
2257 1649 -2167 0
-2347 -1435 0
-2347 2257 0
2347 1435 -2257 0
-2437 -1221 0
-2437 2347 0
2437 1221 -2347 0
-2527 -1007 0
-2527 2437 0
2527 1007 -2437 0
-2617 -793 0
-2617 2527 0
2617 793 -2527 0
-2707 -579 0
-2707 2617 0
2707 579 -2617 0
-2797 -365 0
-2797 2707 0
2797 365 -2707 0
-3059 88 0
-3059 2797 0
3059 -88 -2797 0
-3060 -88 0
-3060 -2797 0
3060 88 2797 0
-3061 -3059 0
-3061 -3060 0
3061 3059 3060 0
87 -9367 0
-87 9367 0
-164 150 0
-164 156 0
164 -150 -156 0
-172 -151 0
-172 164 0
172 151 -164 0
-204 152 0
-204 172 0
204 -152 -172 0
-236 -153 0
-236 204 0
236 153 -204 0
-364 154 0
-364 236 0
364 -154 -236 0
-378 143 0
-378 370 0
378 -143 -370 0
-386 -144 0
-386 378 0
386 144 -378 0
-418 145 0
-418 386 0
418 -145 -386 0
-450 -146 0
-450 418 0
450 146 -418 0
-578 147 0
-578 450 0
578 -147 -450 0
-592 136 0
-592 584 0
592 -136 -584 0
-600 -137 0
-600 592 0
600 137 -592 0
-632 138 0
-632 600 0
632 -138 -600 0
-664 -139 0
-664 632 0
664 139 -632 0
-792 140 0
-792 664 0
792 -140 -664 0
-806 129 0
-806 798 0
806 -129 -798 0
-814 -130 0
-814 806 0
814 130 -806 0
-846 131 0
-846 814 0
846 -131 -814 0
-878 -132 0
-878 846 0
878 132 -846 0
-1006 133 0
-1006 878 0
1006 -133 -878 0
-1020 122 0
-1020 1012 0
1020 -122 -1012 0
-1028 -123 0
-1028 1020 0
1028 123 -1020 0
-1060 124 0
-1060 1028 0
1060 -124 -1028 0
-1092 -125 0
-1092 1060 0
1092 125 -1060 0
-1220 126 0
-1220 1092 0
1220 -126 -1092 0
-1234 115 0
-1234 1226 0
1234 -115 -1226 0
-1242 -116 0
-1242 1234 0
1242 116 -1234 0
-1274 117 0
-1274 1242 0
1274 -117 -1242 0
-1306 -118 0
-1306 1274 0
1306 118 -1274 0
-1434 119 0
-1434 1306 0
1434 -119 -1306 0
-1448 108 0
-1448 1440 0
1448 -108 -1440 0
-1456 -109 0
-1456 1448 0
1456 109 -1448 0
-1488 110 0
-1488 1456 0
1488 -110 -1456 0
-1520 -111 0
-1520 1488 0
1520 111 -1488 0
-1648 112 0
-1648 1520 0
1648 -112 -1520 0
-1662 101 0
-1662 1654 0
1662 -101 -1654 0
-1670 -102 0
-1670 1662 0
1670 102 -1662 0
-1702 103 0
-1702 1670 0
1702 -103 -1670 0
-1734 -104 0
-1734 1702 0
1734 104 -1702 0
-1862 105 0
-1862 1734 0
1862 -105 -1734 0
-1876 94 0
-1876 1868 0
1876 -94 -1868 0
-1884 -95 0
-1884 1876 0
1884 95 -1876 0
-1916 96 0
-1916 1884 0
1916 -96 -1884 0
-1948 -97 0
-1948 1916 0
1948 97 -1916 0
-2076 98 0
-2076 1948 0
2076 -98 -1948 0
-2166 -1862 0
-2166 -2076 0
2166 1862 2076 0
-2256 -1648 0
-2256 2166 0
2256 1648 -2166 0
-2346 -1434 0
-2346 2256 0
2346 1434 -2256 0
-2436 -1220 0
-2436 2346 0
2436 1220 -2346 0
-2526 -1006 0
-2526 2436 0
2526 1006 -2436 0
-2616 -792 0
-2616 2526 0
2616 792 -2526 0
-2706 -578 0
-2706 2616 0
2706 578 -2616 0
-2796 -364 0
-2796 2706 0
2796 364 -2706 0
-3056 87 0
-3056 2796 0
3056 -87 -2796 0
-3057 -87 0
-3057 -2796 0
3057 87 2796 0
-3058 -3056 0
-3058 -3057 0
3058 3056 3057 0
86 -9366 0
-86 9366 0
-163 150 0
-163 155 0
163 -150 -155 0
-171 -151 0
-171 163 0
171 151 -163 0
-203 152 0
-203 171 0
203 -152 -171 0
-235 -153 0
-235 203 0
235 153 -203 0
-363 154 0
-363 235 0
363 -154 -235 0
-377 143 0
-377 369 0
377 -143 -369 0
-385 -144 0
-385 377 0
385 144 -377 0
-417 145 0
-417 385 0
417 -145 -385 0
-449 -146 0
-449 417 0
449 146 -417 0
-577 147 0
-577 449 0
577 -147 -449 0
-591 136 0
-591 583 0
591 -136 -583 0
-599 -137 0
-599 591 0
599 137 -591 0
-631 138 0
-631 599 0
631 -138 -599 0
-663 -139 0
-663 631 0
663 139 -631 0
-791 140 0
-791 663 0
791 -140 -663 0
-805 129 0
-805 797 0
805 -129 -797 0
-813 -130 0
-813 805 0
813 130 -805 0
-845 131 0
-845 813 0
845 -131 -813 0
-877 -132 0
-877 845 0
877 132 -845 0
-1005 133 0
-1005 877 0
1005 -133 -877 0
-1019 122 0
-1019 1011 0
1019 -122 -1011 0
-1027 -123 0
-1027 1019 0
1027 123 -1019 0
-1059 124 0
-1059 1027 0
1059 -124 -1027 0
-1091 -125 0
-1091 1059 0
1091 125 -1059 0
-1219 126 0
-1219 1091 0
1219 -126 -1091 0
-1233 115 0
-1233 1225 0
1233 -115 -1225 0
-1241 -116 0
-1241 1233 0
1241 116 -1233 0
-1273 117 0
-1273 1241 0
1273 -117 -1241 0
-1305 -118 0
-1305 1273 0
1305 118 -1273 0
-1433 119 0
-1433 1305 0
1433 -119 -1305 0
-1447 108 0
-1447 1439 0
1447 -108 -1439 0
-1455 -109 0
-1455 1447 0
1455 109 -1447 0
-1487 110 0
-1487 1455 0
1487 -110 -1455 0
-1519 -111 0
-1519 1487 0
1519 111 -1487 0
-1647 112 0
-1647 1519 0
1647 -112 -1519 0
-1661 101 0
-1661 1653 0
1661 -101 -1653 0
-1669 -102 0
-1669 1661 0
1669 102 -1661 0
-1701 103 0
-1701 1669 0
1701 -103 -1669 0
-1733 -104 0
-1733 1701 0
1733 104 -1701 0
-1861 105 0
-1861 1733 0
1861 -105 -1733 0
-1875 94 0
-1875 1867 0
1875 -94 -1867 0
-1883 -95 0
-1883 1875 0
1883 95 -1875 0
-1915 96 0
-1915 1883 0
1915 -96 -1883 0
-1947 -97 0
-1947 1915 0
1947 97 -1915 0
-2075 98 0
-2075 1947 0
2075 -98 -1947 0
-2165 -1861 0
-2165 -2075 0
2165 1861 2075 0
-2255 -1647 0
-2255 2165 0
2255 1647 -2165 0
-2345 -1433 0
-2345 2255 0
2345 1433 -2255 0
-2435 -1219 0
-2435 2345 0
2435 1219 -2345 0
-2525 -1005 0
-2525 2435 0
2525 1005 -2435 0
-2615 -791 0
-2615 2525 0
2615 791 -2525 0
-2705 -577 0
-2705 2615 0
2705 577 -2615 0
-2795 -363 0
-2795 2705 0
2795 363 -2705 0
-3053 86 0
-3053 2795 0
3053 -86 -2795 0
-3054 -86 0
-3054 -2795 0
3054 86 2795 0
-3055 -3053 0
-3055 -3054 0
3055 3053 3054 0
85 -9365 0
-85 9365 0
-162 -150 0
-162 158 0
162 150 -158 0
-170 -151 0
-170 162 0
170 151 -162 0
-202 152 0
-202 170 0
202 -152 -170 0
-234 -153 0
-234 202 0
234 153 -202 0
-362 154 0
-362 234 0
362 -154 -234 0
-376 -143 0
-376 372 0
376 143 -372 0
-384 -144 0
-384 376 0
384 144 -376 0
-416 145 0
-416 384 0
416 -145 -384 0
-448 -146 0
-448 416 0
448 146 -416 0
-576 147 0
-576 448 0
576 -147 -448 0
-590 -136 0
-590 586 0
590 136 -586 0
-598 -137 0
-598 590 0
598 137 -590 0
-630 138 0
-630 598 0
630 -138 -598 0
-662 -139 0
-662 630 0
662 139 -630 0
-790 140 0
-790 662 0
790 -140 -662 0
-804 -129 0
-804 800 0
804 129 -800 0
-812 -130 0
-812 804 0
812 130 -804 0
-844 131 0
-844 812 0
844 -131 -812 0
-876 -132 0
-876 844 0
876 132 -844 0
-1004 133 0
-1004 876 0
1004 -133 -876 0
-1018 -122 0
-1018 1014 0
1018 122 -1014 0
-1026 -123 0
-1026 1018 0
1026 123 -1018 0
-1058 124 0
-1058 1026 0
1058 -124 -1026 0
-1090 -125 0
-1090 1058 0
1090 125 -1058 0
-1218 126 0
-1218 1090 0
1218 -126 -1090 0
-1232 -115 0
-1232 1228 0
1232 115 -1228 0
-1240 -116 0
-1240 1232 0
1240 116 -1232 0
-1272 117 0
-1272 1240 0
1272 -117 -1240 0
-1304 -118 0
-1304 1272 0
1304 118 -1272 0
-1432 119 0
-1432 1304 0
1432 -119 -1304 0
-1446 -108 0
-1446 1442 0
1446 108 -1442 0
-1454 -109 0
-1454 1446 0
1454 109 -1446 0
-1486 110 0
-1486 1454 0
1486 -110 -1454 0
-1518 -111 0
-1518 1486 0
1518 111 -1486 0
-1646 112 0
-1646 1518 0
1646 -112 -1518 0
-1660 -101 0
-1660 1656 0
1660 101 -1656 0
-1668 -102 0
-1668 1660 0
1668 102 -1660 0
-1700 103 0
-1700 1668 0
1700 -103 -1668 0
-1732 -104 0
-1732 1700 0
1732 104 -1700 0
-1860 105 0
-1860 1732 0
1860 -105 -1732 0
-1874 -94 0
-1874 1870 0
1874 94 -1870 0
-1882 -95 0
-1882 1874 0
1882 95 -1874 0
-1914 96 0
-1914 1882 0
1914 -96 -1882 0
-1946 -97 0
-1946 1914 0
1946 97 -1914 0
-2074 98 0
-2074 1946 0
2074 -98 -1946 0
-2164 -1860 0
-2164 -2074 0
2164 1860 2074 0
-2254 -1646 0
-2254 2164 0
2254 1646 -2164 0
-2344 -1432 0
-2344 2254 0
2344 1432 -2254 0
-2434 -1218 0
-2434 2344 0
2434 1218 -2344 0
-2524 -1004 0
-2524 2434 0
2524 1004 -2434 0
-2614 -790 0
-2614 2524 0
2614 790 -2524 0
-2704 -576 0
-2704 2614 0
2704 576 -2614 0
-2794 -362 0
-2794 2704 0
2794 362 -2704 0
-3050 85 0
-3050 2794 0
3050 -85 -2794 0
-3051 -85 0
-3051 -2794 0
3051 85 2794 0
-3052 -3050 0
-3052 -3051 0
3052 3050 3051 0
84 -9364 0
-84 9364 0
-161 -150 0
-161 157 0
161 150 -157 0
-169 -151 0
-169 161 0
169 151 -161 0
-201 152 0
-201 169 0
201 -152 -169 0
-233 -153 0
-233 201 0
233 153 -201 0
-361 154 0
-361 233 0
361 -154 -233 0
-375 -143 0
-375 371 0
375 143 -371 0
-383 -144 0
-383 375 0
383 144 -375 0
-415 145 0
-415 383 0
415 -145 -383 0
-447 -146 0
-447 415 0
447 146 -415 0
-575 147 0
-575 447 0
575 -147 -447 0
-589 -136 0
-589 585 0
589 136 -585 0
-597 -137 0
-597 589 0
597 137 -589 0
-629 138 0
-629 597 0
629 -138 -597 0
-661 -139 0
-661 629 0
661 139 -629 0
-789 140 0
-789 661 0
789 -140 -661 0
-803 -129 0
-803 799 0
803 129 -799 0
-811 -130 0
-811 803 0
811 130 -803 0
-843 131 0
-843 811 0
843 -131 -811 0
-875 -132 0
-875 843 0
875 132 -843 0
-1003 133 0
-1003 875 0
1003 -133 -875 0
-1017 -122 0
-1017 1013 0
1017 122 -1013 0
-1025 -123 0
-1025 1017 0
1025 123 -1017 0
-1057 124 0
-1057 1025 0
1057 -124 -1025 0
-1089 -125 0
-1089 1057 0
1089 125 -1057 0
-1217 126 0
-1217 1089 0
1217 -126 -1089 0
-1231 -115 0
-1231 1227 0
1231 115 -1227 0
-1239 -116 0
-1239 1231 0
1239 116 -1231 0
-1271 117 0
-1271 1239 0
1271 -117 -1239 0
-1303 -118 0
-1303 1271 0
1303 118 -1271 0
-1431 119 0
-1431 1303 0
1431 -119 -1303 0
-1445 -108 0
-1445 1441 0
1445 108 -1441 0
-1453 -109 0
-1453 1445 0
1453 109 -1445 0
-1485 110 0
-1485 1453 0
1485 -110 -1453 0
-1517 -111 0
-1517 1485 0
1517 111 -1485 0
-1645 112 0
-1645 1517 0
1645 -112 -1517 0
-1659 -101 0
-1659 1655 0
1659 101 -1655 0
-1667 -102 0
-1667 1659 0
1667 102 -1659 0
-1699 103 0
-1699 1667 0
1699 -103 -1667 0
-1731 -104 0
-1731 1699 0
1731 104 -1699 0
-1859 105 0
-1859 1731 0
1859 -105 -1731 0
-1873 -94 0
-1873 1869 0
1873 94 -1869 0
-1881 -95 0
-1881 1873 0
1881 95 -1873 0
-1913 96 0
-1913 1881 0
1913 -96 -1881 0
-1945 -97 0
-1945 1913 0
1945 97 -1913 0
-2073 98 0
-2073 1945 0
2073 -98 -1945 0
-2163 -1859 0
-2163 -2073 0
2163 1859 2073 0
-2253 -1645 0
-2253 2163 0
2253 1645 -2163 0
-2343 -1431 0
-2343 2253 0
2343 1431 -2253 0
-2433 -1217 0
-2433 2343 0
2433 1217 -2343 0
-2523 -1003 0
-2523 2433 0
2523 1003 -2433 0
-2613 -789 0
-2613 2523 0
2613 789 -2523 0
-2703 -575 0
-2703 2613 0
2703 575 -2613 0
-2793 -361 0
-2793 2703 0
2793 361 -2703 0
-3047 84 0
-3047 2793 0
3047 -84 -2793 0
-3048 -84 0
-3048 -2793 0
3048 84 2793 0
-3049 -3047 0
-3049 -3048 0
3049 3047 3048 0
83 -9363 0
-83 9363 0
-168 -151 0
-168 160 0
168 151 -160 0
-200 152 0
-200 168 0
200 -152 -168 0
-232 -153 0
-232 200 0
232 153 -200 0
-360 154 0
-360 232 0
360 -154 -232 0
-382 -144 0
-382 374 0
382 144 -374 0
-414 145 0
-414 382 0
414 -145 -382 0
-446 -146 0
-446 414 0
446 146 -414 0
-574 147 0
-574 446 0
574 -147 -446 0
-596 -137 0
-596 588 0
596 137 -588 0
-628 138 0
-628 596 0
628 -138 -596 0
-660 -139 0
-660 628 0
660 139 -628 0
-788 140 0
-788 660 0
788 -140 -660 0
-810 -130 0
-810 802 0
810 130 -802 0
-842 131 0
-842 810 0
842 -131 -810 0
-874 -132 0
-874 842 0
874 132 -842 0
-1002 133 0
-1002 874 0
1002 -133 -874 0
-1024 -123 0
-1024 1016 0
1024 123 -1016 0
-1056 124 0
-1056 1024 0
1056 -124 -1024 0
-1088 -125 0
-1088 1056 0
1088 125 -1056 0
-1216 126 0
-1216 1088 0
1216 -126 -1088 0
-1238 -116 0
-1238 1230 0
1238 116 -1230 0
-1270 117 0
-1270 1238 0
1270 -117 -1238 0
-1302 -118 0
-1302 1270 0
1302 118 -1270 0
-1430 119 0
-1430 1302 0
1430 -119 -1302 0
-1452 -109 0
-1452 1444 0
1452 109 -1444 0
-1484 110 0
-1484 1452 0
1484 -110 -1452 0
-1516 -111 0
-1516 1484 0
1516 111 -1484 0
-1644 112 0
-1644 1516 0
1644 -112 -1516 0
-1666 -102 0
-1666 1658 0
1666 102 -1658 0
-1698 103 0
-1698 1666 0
1698 -103 -1666 0
-1730 -104 0
-1730 1698 0
1730 104 -1698 0
-1858 105 0
-1858 1730 0
1858 -105 -1730 0
-1880 -95 0
-1880 1872 0
1880 95 -1872 0
-1912 96 0
-1912 1880 0
1912 -96 -1880 0
-1944 -97 0
-1944 1912 0
1944 97 -1912 0
-2072 98 0
-2072 1944 0
2072 -98 -1944 0
-2162 -1858 0
-2162 -2072 0
2162 1858 2072 0
-2252 -1644 0
-2252 2162 0
2252 1644 -2162 0
-2342 -1430 0
-2342 2252 0
2342 1430 -2252 0
-2432 -1216 0
-2432 2342 0
2432 1216 -2342 0
-2522 -1002 0
-2522 2432 0
2522 1002 -2432 0
-2612 -788 0
-2612 2522 0
2612 788 -2522 0
-2702 -574 0
-2702 2612 0
2702 574 -2612 0
-2792 -360 0
-2792 2702 0
2792 360 -2702 0
-3044 83 0
-3044 2792 0
3044 -83 -2792 0
-3045 -83 0
-3045 -2792 0
3045 83 2792 0
-3046 -3044 0
-3046 -3045 0
3046 3044 3045 0
82 -9362 0
-82 9362 0
-167 -151 0
-167 159 0
167 151 -159 0
-199 152 0
-199 167 0
199 -152 -167 0
-231 -153 0
-231 199 0
231 153 -199 0
-359 154 0
-359 231 0
359 -154 -231 0
-381 -144 0
-381 373 0
381 144 -373 0
-413 145 0
-413 381 0
413 -145 -381 0
-445 -146 0
-445 413 0
445 146 -413 0
-573 147 0
-573 445 0
573 -147 -445 0
-595 -137 0
-595 587 0
595 137 -587 0
-627 138 0
-627 595 0
627 -138 -595 0
-659 -139 0
-659 627 0
659 139 -627 0
-787 140 0
-787 659 0
787 -140 -659 0
-809 -130 0
-809 801 0
809 130 -801 0
-841 131 0
-841 809 0
841 -131 -809 0
-873 -132 0
-873 841 0
873 132 -841 0
-1001 133 0
-1001 873 0
1001 -133 -873 0
-1023 -123 0
-1023 1015 0
1023 123 -1015 0
-1055 124 0
-1055 1023 0
1055 -124 -1023 0
-1087 -125 0
-1087 1055 0
1087 125 -1055 0
-1215 126 0
-1215 1087 0
1215 -126 -1087 0
-1237 -116 0
-1237 1229 0
1237 116 -1229 0
-1269 117 0
-1269 1237 0
1269 -117 -1237 0
-1301 -118 0
-1301 1269 0
1301 118 -1269 0
-1429 119 0
-1429 1301 0
1429 -119 -1301 0
-1451 -109 0
-1451 1443 0
1451 109 -1443 0
-1483 110 0
-1483 1451 0
1483 -110 -1451 0
-1515 -111 0
-1515 1483 0
1515 111 -1483 0
-1643 112 0
-1643 1515 0
1643 -112 -1515 0
-1665 -102 0
-1665 1657 0
1665 102 -1657 0
-1697 103 0
-1697 1665 0
1697 -103 -1665 0
-1729 -104 0
-1729 1697 0
1729 104 -1697 0
-1857 105 0
-1857 1729 0
1857 -105 -1729 0
-1879 -95 0
-1879 1871 0
1879 95 -1871 0
-1911 96 0
-1911 1879 0
1911 -96 -1879 0
-1943 -97 0
-1943 1911 0
1943 97 -1911 0
-2071 98 0
-2071 1943 0
2071 -98 -1943 0
-2161 -1857 0
-2161 -2071 0
2161 1857 2071 0
-2251 -1643 0
-2251 2161 0
2251 1643 -2161 0
-2341 -1429 0
-2341 2251 0
2341 1429 -2251 0
-2431 -1215 0
-2431 2341 0
2431 1215 -2341 0
-2521 -1001 0
-2521 2431 0
2521 1001 -2431 0
-2611 -787 0
-2611 2521 0
2611 787 -2521 0
-2701 -573 0
-2701 2611 0
2701 573 -2611 0
-2791 -359 0
-2791 2701 0
2791 359 -2701 0
-3041 82 0
-3041 2791 0
3041 -82 -2791 0
-3042 -82 0
-3042 -2791 0
3042 82 2791 0
-3043 -3041 0
-3043 -3042 0
3043 3041 3042 0
81 -9361 0
-81 9361 0
-182 151 0
-182 166 0
182 -151 -166 0
-198 -152 0
-198 182 0
198 152 -182 0
-230 -153 0
-230 198 0
230 153 -198 0
-358 154 0
-358 230 0
358 -154 -230 0
-396 144 0
-396 380 0
396 -144 -380 0
-412 -145 0
-412 396 0
412 145 -396 0
-444 -146 0
-444 412 0
444 146 -412 0
-572 147 0
-572 444 0
572 -147 -444 0
-610 137 0
-610 594 0
610 -137 -594 0
-626 -138 0
-626 610 0
626 138 -610 0
-658 -139 0
-658 626 0
658 139 -626 0
-786 140 0
-786 658 0
786 -140 -658 0
-824 130 0
-824 808 0
824 -130 -808 0
-840 -131 0
-840 824 0
840 131 -824 0
-872 -132 0
-872 840 0
872 132 -840 0
-1000 133 0
-1000 872 0
1000 -133 -872 0
-1038 123 0
-1038 1022 0
1038 -123 -1022 0
-1054 -124 0
-1054 1038 0
1054 124 -1038 0
-1086 -125 0
-1086 1054 0
1086 125 -1054 0
-1214 126 0
-1214 1086 0
1214 -126 -1086 0
-1252 116 0
-1252 1236 0
1252 -116 -1236 0
-1268 -117 0
-1268 1252 0
1268 117 -1252 0
-1300 -118 0
-1300 1268 0
1300 118 -1268 0
-1428 119 0
-1428 1300 0
1428 -119 -1300 0
-1466 109 0
-1466 1450 0
1466 -109 -1450 0
-1482 -110 0
-1482 1466 0
1482 110 -1466 0
-1514 -111 0
-1514 1482 0
1514 111 -1482 0
-1642 112 0
-1642 1514 0
1642 -112 -1514 0
-1680 102 0
-1680 1664 0
1680 -102 -1664 0
-1696 -103 0
-1696 1680 0
1696 103 -1680 0
-1728 -104 0
-1728 1696 0
1728 104 -1696 0
-1856 105 0
-1856 1728 0
1856 -105 -1728 0
-1894 95 0
-1894 1878 0
1894 -95 -1878 0
-1910 -96 0
-1910 1894 0
1910 96 -1894 0
-1942 -97 0
-1942 1910 0
1942 97 -1910 0
-2070 98 0
-2070 1942 0
2070 -98 -1942 0
-2160 -1856 0
-2160 -2070 0
2160 1856 2070 0
-2250 -1642 0
-2250 2160 0
2250 1642 -2160 0
-2340 -1428 0
-2340 2250 0
2340 1428 -2250 0
-2430 -1214 0
-2430 2340 0
2430 1214 -2340 0
-2520 -1000 0
-2520 2430 0
2520 1000 -2430 0
-2610 -786 0
-2610 2520 0
2610 786 -2520 0
-2700 -572 0
-2700 2610 0
2700 572 -2610 0
-2790 -358 0
-2790 2700 0
2790 358 -2700 0
-3038 81 0
-3038 2790 0
3038 -81 -2790 0
-3039 -81 0
-3039 -2790 0
3039 81 2790 0
-3040 -3038 0
-3040 -3039 0
3040 3038 3039 0
80 -9360 0
-80 9360 0
-181 151 0
-181 165 0
181 -151 -165 0
-197 -152 0
-197 181 0
197 152 -181 0
-229 -153 0
-229 197 0
229 153 -197 0
-357 154 0
-357 229 0
357 -154 -229 0
-395 144 0
-395 379 0
395 -144 -379 0
-411 -145 0
-411 395 0
411 145 -395 0
-443 -146 0
-443 411 0
443 146 -411 0
-571 147 0
-571 443 0
571 -147 -443 0
-609 137 0
-609 593 0
609 -137 -593 0
-625 -138 0
-625 609 0
625 138 -609 0
-657 -139 0
-657 625 0
657 139 -625 0
-785 140 0
-785 657 0
785 -140 -657 0
-823 130 0
-823 807 0
823 -130 -807 0
-839 -131 0
-839 823 0
839 131 -823 0
-871 -132 0
-871 839 0
871 132 -839 0
-999 133 0
-999 871 0
999 -133 -871 0
-1037 123 0
-1037 1021 0
1037 -123 -1021 0
-1053 -124 0
-1053 1037 0
1053 124 -1037 0
-1085 -125 0
-1085 1053 0
1085 125 -1053 0
-1213 126 0
-1213 1085 0
1213 -126 -1085 0
-1251 116 0
-1251 1235 0
1251 -116 -1235 0
-1267 -117 0
-1267 1251 0
1267 117 -1251 0
-1299 -118 0
-1299 1267 0
1299 118 -1267 0
-1427 119 0
-1427 1299 0
1427 -119 -1299 0
-1465 109 0
-1465 1449 0
1465 -109 -1449 0
-1481 -110 0
-1481 1465 0
1481 110 -1465 0
-1513 -111 0
-1513 1481 0
1513 111 -1481 0
-1641 112 0
-1641 1513 0
1641 -112 -1513 0
-1679 102 0
-1679 1663 0
1679 -102 -1663 0
-1695 -103 0
-1695 1679 0
1695 103 -1679 0
-1727 -104 0
-1727 1695 0
1727 104 -1695 0
-1855 105 0
-1855 1727 0
1855 -105 -1727 0
-1893 95 0
-1893 1877 0
1893 -95 -1877 0
-1909 -96 0
-1909 1893 0
1909 96 -1893 0
-1941 -97 0
-1941 1909 0
1941 97 -1909 0
-2069 98 0
-2069 1941 0
2069 -98 -1941 0
-2159 -1855 0
-2159 -2069 0
2159 1855 2069 0
-2249 -1641 0
-2249 2159 0
2249 1641 -2159 0
-2339 -1427 0
-2339 2249 0
2339 1427 -2249 0
-2429 -1213 0
-2429 2339 0
2429 1213 -2339 0
-2519 -999 0
-2519 2429 0
2519 999 -2429 0
-2609 -785 0
-2609 2519 0
2609 785 -2519 0
-2699 -571 0
-2699 2609 0
2699 571 -2609 0
-2789 -357 0
-2789 2699 0
2789 357 -2699 0
-3035 80 0
-3035 2789 0
3035 -80 -2789 0
-3036 -80 0
-3036 -2789 0
3036 80 2789 0
-3037 -3035 0
-3037 -3036 0
3037 3035 3036 0
79 -9359 0
-79 9359 0
-180 151 0
-180 164 0
180 -151 -164 0
-196 -152 0
-196 180 0
196 152 -180 0
-228 -153 0
-228 196 0
228 153 -196 0
-356 154 0
-356 228 0
356 -154 -228 0
-394 144 0
-394 378 0
394 -144 -378 0
-410 -145 0
-410 394 0
410 145 -394 0
-442 -146 0
-442 410 0
442 146 -410 0
-570 147 0
-570 442 0
570 -147 -442 0
-608 137 0
-608 592 0
608 -137 -592 0
-624 -138 0
-624 608 0
624 138 -608 0
-656 -139 0
-656 624 0
656 139 -624 0
-784 140 0
-784 656 0
784 -140 -656 0
-822 130 0
-822 806 0
822 -130 -806 0
-838 -131 0
-838 822 0
838 131 -822 0
-870 -132 0
-870 838 0
870 132 -838 0
-998 133 0
-998 870 0
998 -133 -870 0
-1036 123 0
-1036 1020 0
1036 -123 -1020 0
-1052 -124 0
-1052 1036 0
1052 124 -1036 0
-1084 -125 0
-1084 1052 0
1084 125 -1052 0
-1212 126 0
-1212 1084 0
1212 -126 -1084 0
-1250 116 0
-1250 1234 0
1250 -116 -1234 0
-1266 -117 0
-1266 1250 0
1266 117 -1250 0
-1298 -118 0
-1298 1266 0
1298 118 -1266 0
-1426 119 0
-1426 1298 0
1426 -119 -1298 0
-1464 109 0
-1464 1448 0
1464 -109 -1448 0
-1480 -110 0
-1480 1464 0
1480 110 -1464 0
-1512 -111 0
-1512 1480 0
1512 111 -1480 0
-1640 112 0
-1640 1512 0
1640 -112 -1512 0
-1678 102 0
-1678 1662 0
1678 -102 -1662 0
-1694 -103 0
-1694 1678 0
1694 103 -1678 0
-1726 -104 0
-1726 1694 0
1726 104 -1694 0
-1854 105 0
-1854 1726 0
1854 -105 -1726 0
-1892 95 0
-1892 1876 0
1892 -95 -1876 0
-1908 -96 0
-1908 1892 0
1908 96 -1892 0
-1940 -97 0
-1940 1908 0
1940 97 -1908 0
-2068 98 0
-2068 1940 0
2068 -98 -1940 0
-2158 -1854 0
-2158 -2068 0
2158 1854 2068 0
-2248 -1640 0
-2248 2158 0
2248 1640 -2158 0
-2338 -1426 0
-2338 2248 0
2338 1426 -2248 0
-2428 -1212 0
-2428 2338 0
2428 1212 -2338 0
-2518 -998 0
-2518 2428 0
2518 998 -2428 0
-2608 -784 0
-2608 2518 0
2608 784 -2518 0
-2698 -570 0
-2698 2608 0
2698 570 -2608 0
-2788 -356 0
-2788 2698 0
2788 356 -2698 0
-3032 79 0
-3032 2788 0
3032 -79 -2788 0
-3033 -79 0
-3033 -2788 0
3033 79 2788 0
-3034 -3032 0
-3034 -3033 0
3034 3032 3033 0
78 -9358 0
-78 9358 0
-179 151 0
-179 163 0
179 -151 -163 0
-195 -152 0
-195 179 0
195 152 -179 0
-227 -153 0
-227 195 0
227 153 -195 0
-355 154 0
-355 227 0
355 -154 -227 0
-393 144 0
-393 377 0
393 -144 -377 0
-409 -145 0
-409 393 0
409 145 -393 0
-441 -146 0
-441 409 0
441 146 -409 0
-569 147 0
-569 441 0
569 -147 -441 0
-607 137 0
-607 591 0
607 -137 -591 0
-623 -138 0
-623 607 0
623 138 -607 0
-655 -139 0
-655 623 0
655 139 -623 0
-783 140 0
-783 655 0
783 -140 -655 0
-821 130 0
-821 805 0
821 -130 -805 0
-837 -131 0
-837 821 0
837 131 -821 0
-869 -132 0
-869 837 0
869 132 -837 0
-997 133 0
-997 869 0
997 -133 -869 0
-1035 123 0
-1035 1019 0
1035 -123 -1019 0
-1051 -124 0
-1051 1035 0
1051 124 -1035 0
-1083 -125 0
-1083 1051 0
1083 125 -1051 0
-1211 126 0
-1211 1083 0
1211 -126 -1083 0
-1249 116 0
-1249 1233 0
1249 -116 -1233 0
-1265 -117 0
-1265 1249 0
1265 117 -1249 0
-1297 -118 0
-1297 1265 0
1297 118 -1265 0
-1425 119 0
-1425 1297 0
1425 -119 -1297 0
-1463 109 0
-1463 1447 0
1463 -109 -1447 0
-1479 -110 0
-1479 1463 0
1479 110 -1463 0
-1511 -111 0
-1511 1479 0
1511 111 -1479 0
-1639 112 0
-1639 1511 0
1639 -112 -1511 0
-1677 102 0
-1677 1661 0
1677 -102 -1661 0
-1693 -103 0
-1693 1677 0
1693 103 -1677 0
-1725 -104 0
-1725 1693 0
1725 104 -1693 0
-1853 105 0
-1853 1725 0
1853 -105 -1725 0
-1891 95 0
-1891 1875 0
1891 -95 -1875 0
-1907 -96 0
-1907 1891 0
1907 96 -1891 0
-1939 -97 0
-1939 1907 0
1939 97 -1907 0
-2067 98 0
-2067 1939 0
2067 -98 -1939 0
-2157 -1853 0
-2157 -2067 0
2157 1853 2067 0
-2247 -1639 0
-2247 2157 0
2247 1639 -2157 0
-2337 -1425 0
-2337 2247 0
2337 1425 -2247 0
-2427 -1211 0
-2427 2337 0
2427 1211 -2337 0
-2517 -997 0
-2517 2427 0
2517 997 -2427 0
-2607 -783 0
-2607 2517 0
2607 783 -2517 0
-2697 -569 0
-2697 2607 0
2697 569 -2607 0
-2787 -355 0
-2787 2697 0
2787 355 -2697 0
-3029 78 0
-3029 2787 0
3029 -78 -2787 0
-3030 -78 0
-3030 -2787 0
3030 78 2787 0
-3031 -3029 0
-3031 -3030 0
3031 3029 3030 0
77 -9357 0
-77 9357 0
-178 151 0
-178 162 0
178 -151 -162 0
-194 -152 0
-194 178 0
194 152 -178 0
-226 -153 0
-226 194 0
226 153 -194 0
-354 154 0
-354 226 0
354 -154 -226 0
-392 144 0
-392 376 0
392 -144 -376 0
-408 -145 0
-408 392 0
408 145 -392 0
-440 -146 0
-440 408 0
440 146 -408 0
-568 147 0
-568 440 0
568 -147 -440 0
-606 137 0
-606 590 0
606 -137 -590 0
-622 -138 0
-622 606 0
622 138 -606 0
-654 -139 0
-654 622 0
654 139 -622 0
-782 140 0
-782 654 0
782 -140 -654 0
-820 130 0
-820 804 0
820 -130 -804 0
-836 -131 0
-836 820 0
836 131 -820 0
-868 -132 0
-868 836 0
868 132 -836 0
-996 133 0
-996 868 0
996 -133 -868 0
-1034 123 0
-1034 1018 0
1034 -123 -1018 0
-1050 -124 0
-1050 1034 0
1050 124 -1034 0
-1082 -125 0
-1082 1050 0
1082 125 -1050 0
-1210 126 0
-1210 1082 0
1210 -126 -1082 0
-1248 116 0
-1248 1232 0
1248 -116 -1232 0
-1264 -117 0
-1264 1248 0
1264 117 -1248 0
-1296 -118 0
-1296 1264 0
1296 118 -1264 0
-1424 119 0
-1424 1296 0
1424 -119 -1296 0
-1462 109 0
-1462 1446 0
1462 -109 -1446 0
-1478 -110 0
-1478 1462 0
1478 110 -1462 0
-1510 -111 0
-1510 1478 0
1510 111 -1478 0
-1638 112 0
-1638 1510 0
1638 -112 -1510 0
-1676 102 0
-1676 1660 0
1676 -102 -1660 0
-1692 -103 0
-1692 1676 0
1692 103 -1676 0
-1724 -104 0
-1724 1692 0
1724 104 -1692 0
-1852 105 0
-1852 1724 0
1852 -105 -1724 0
-1890 95 0
-1890 1874 0
1890 -95 -1874 0
-1906 -96 0
-1906 1890 0
1906 96 -1890 0
-1938 -97 0
-1938 1906 0
1938 97 -1906 0
-2066 98 0
-2066 1938 0
2066 -98 -1938 0
-2156 -1852 0
-2156 -2066 0
2156 1852 2066 0
-2246 -1638 0
-2246 2156 0
2246 1638 -2156 0
-2336 -1424 0
-2336 2246 0
2336 1424 -2246 0
-2426 -1210 0
-2426 2336 0
2426 1210 -2336 0
-2516 -996 0
-2516 2426 0
2516 996 -2426 0
-2606 -782 0
-2606 2516 0
2606 782 -2516 0
-2696 -568 0
-2696 2606 0
2696 568 -2606 0
-2786 -354 0
-2786 2696 0
2786 354 -2696 0
-3026 77 0
-3026 2786 0
3026 -77 -2786 0
-3027 -77 0
-3027 -2786 0
3027 77 2786 0
-3028 -3026 0
-3028 -3027 0
3028 3026 3027 0
76 -9356 0
-76 9356 0
-177 151 0
-177 161 0
177 -151 -161 0
-193 -152 0
-193 177 0
193 152 -177 0
-225 -153 0
-225 193 0
225 153 -193 0
-353 154 0
-353 225 0
353 -154 -225 0
-391 144 0
-391 375 0
391 -144 -375 0
-407 -145 0
-407 391 0
407 145 -391 0
-439 -146 0
-439 407 0
439 146 -407 0
-567 147 0
-567 439 0
567 -147 -439 0
-605 137 0
-605 589 0
605 -137 -589 0
-621 -138 0
-621 605 0
621 138 -605 0
-653 -139 0
-653 621 0
653 139 -621 0
-781 140 0
-781 653 0
781 -140 -653 0
-819 130 0
-819 803 0
819 -130 -803 0
-835 -131 0
-835 819 0
835 131 -819 0
-867 -132 0
-867 835 0
867 132 -835 0
-995 133 0
-995 867 0
995 -133 -867 0
-1033 123 0
-1033 1017 0
1033 -123 -1017 0
-1049 -124 0
-1049 1033 0
1049 124 -1033 0
-1081 -125 0
-1081 1049 0
1081 125 -1049 0
-1209 126 0
-1209 1081 0
1209 -126 -1081 0
-1247 116 0
-1247 1231 0
1247 -116 -1231 0
-1263 -117 0
-1263 1247 0
1263 117 -1247 0
-1295 -118 0
-1295 1263 0
1295 118 -1263 0
-1423 119 0
-1423 1295 0
1423 -119 -1295 0
-1461 109 0
-1461 1445 0
1461 -109 -1445 0
-1477 -110 0
-1477 1461 0
1477 110 -1461 0
-1509 -111 0
-1509 1477 0
1509 111 -1477 0
-1637 112 0
-1637 1509 0
1637 -112 -1509 0
-1675 102 0
-1675 1659 0
1675 -102 -1659 0
-1691 -103 0
-1691 1675 0
1691 103 -1675 0
-1723 -104 0
-1723 1691 0
1723 104 -1691 0
-1851 105 0
-1851 1723 0
1851 -105 -1723 0
-1889 95 0
-1889 1873 0
1889 -95 -1873 0
-1905 -96 0
-1905 1889 0
1905 96 -1889 0
-1937 -97 0
-1937 1905 0
1937 97 -1905 0
-2065 98 0
-2065 1937 0
2065 -98 -1937 0
-2155 -1851 0
-2155 -2065 0
2155 1851 2065 0
-2245 -1637 0
-2245 2155 0
2245 1637 -2155 0
-2335 -1423 0
-2335 2245 0
2335 1423 -2245 0
-2425 -1209 0
-2425 2335 0
2425 1209 -2335 0
-2515 -995 0
-2515 2425 0
2515 995 -2425 0
-2605 -781 0
-2605 2515 0
2605 781 -2515 0
-2695 -567 0
-2695 2605 0
2695 567 -2605 0
-2785 -353 0
-2785 2695 0
2785 353 -2695 0
-3023 76 0
-3023 2785 0
3023 -76 -2785 0
-3024 -76 0
-3024 -2785 0
3024 76 2785 0
-3025 -3023 0
-3025 -3024 0
3025 3023 3024 0
75 -9355 0
-75 9355 0
-192 -152 0
-192 176 0
192 152 -176 0
-224 -153 0
-224 192 0
224 153 -192 0
-352 154 0
-352 224 0
352 -154 -224 0
-406 -145 0
-406 390 0
406 145 -390 0
-438 -146 0
-438 406 0
438 146 -406 0
-566 147 0
-566 438 0
566 -147 -438 0
-620 -138 0
-620 604 0
620 138 -604 0
-652 -139 0
-652 620 0
652 139 -620 0
-780 140 0
-780 652 0
780 -140 -652 0
-834 -131 0
-834 818 0
834 131 -818 0
-866 -132 0
-866 834 0
866 132 -834 0
-994 133 0
-994 866 0
994 -133 -866 0
-1048 -124 0
-1048 1032 0
1048 124 -1032 0
-1080 -125 0
-1080 1048 0
1080 125 -1048 0
-1208 126 0
-1208 1080 0
1208 -126 -1080 0
-1262 -117 0
-1262 1246 0
1262 117 -1246 0
-1294 -118 0
-1294 1262 0
1294 118 -1262 0
-1422 119 0
-1422 1294 0
1422 -119 -1294 0
-1476 -110 0
-1476 1460 0
1476 110 -1460 0
-1508 -111 0
-1508 1476 0
1508 111 -1476 0
-1636 112 0
-1636 1508 0
1636 -112 -1508 0
-1690 -103 0
-1690 1674 0
1690 103 -1674 0
-1722 -104 0
-1722 1690 0
1722 104 -1690 0
-1850 105 0
-1850 1722 0
1850 -105 -1722 0
-1904 -96 0
-1904 1888 0
1904 96 -1888 0
-1936 -97 0
-1936 1904 0
1936 97 -1904 0
-2064 98 0
-2064 1936 0
2064 -98 -1936 0
-2154 -1850 0
-2154 -2064 0
2154 1850 2064 0
-2244 -1636 0
-2244 2154 0
2244 1636 -2154 0
-2334 -1422 0
-2334 2244 0
2334 1422 -2244 0
-2424 -1208 0
-2424 2334 0
2424 1208 -2334 0
-2514 -994 0
-2514 2424 0
2514 994 -2424 0
-2604 -780 0
-2604 2514 0
2604 780 -2514 0
-2694 -566 0
-2694 2604 0
2694 566 -2604 0
-2784 -352 0
-2784 2694 0
2784 352 -2694 0
-3020 75 0
-3020 2784 0
3020 -75 -2784 0
-3021 -75 0
-3021 -2784 0
3021 75 2784 0
-3022 -3020 0
-3022 -3021 0
3022 3020 3021 0
74 -9354 0
-74 9354 0
-191 -152 0
-191 175 0
191 152 -175 0
-223 -153 0
-223 191 0
223 153 -191 0
-351 154 0
-351 223 0
351 -154 -223 0
-405 -145 0
-405 389 0
405 145 -389 0
-437 -146 0
-437 405 0
437 146 -405 0
-565 147 0
-565 437 0
565 -147 -437 0
-619 -138 0
-619 603 0
619 138 -603 0
-651 -139 0
-651 619 0
651 139 -619 0
-779 140 0
-779 651 0
779 -140 -651 0
-833 -131 0
-833 817 0
833 131 -817 0
-865 -132 0
-865 833 0
865 132 -833 0
-993 133 0
-993 865 0
993 -133 -865 0
-1047 -124 0
-1047 1031 0
1047 124 -1031 0
-1079 -125 0
-1079 1047 0
1079 125 -1047 0
-1207 126 0
-1207 1079 0
1207 -126 -1079 0
-1261 -117 0
-1261 1245 0
1261 117 -1245 0
-1293 -118 0
-1293 1261 0
1293 118 -1261 0
-1421 119 0
-1421 1293 0
1421 -119 -1293 0
-1475 -110 0
-1475 1459 0
1475 110 -1459 0
-1507 -111 0
-1507 1475 0
1507 111 -1475 0
-1635 112 0
-1635 1507 0
1635 -112 -1507 0
-1689 -103 0
-1689 1673 0
1689 103 -1673 0
-1721 -104 0
-1721 1689 0
1721 104 -1689 0
-1849 105 0
-1849 1721 0
1849 -105 -1721 0
-1903 -96 0
-1903 1887 0
1903 96 -1887 0
-1935 -97 0
-1935 1903 0
1935 97 -1903 0
-2063 98 0
-2063 1935 0
2063 -98 -1935 0
-2153 -1849 0
-2153 -2063 0
2153 1849 2063 0
-2243 -1635 0
-2243 2153 0
2243 1635 -2153 0
-2333 -1421 0
-2333 2243 0
2333 1421 -2243 0
-2423 -1207 0
-2423 2333 0
2423 1207 -2333 0
-2513 -993 0
-2513 2423 0
2513 993 -2423 0
-2603 -779 0
-2603 2513 0
2603 779 -2513 0
-2693 -565 0
-2693 2603 0
2693 565 -2603 0
-2783 -351 0
-2783 2693 0
2783 351 -2693 0
-3017 74 0
-3017 2783 0
3017 -74 -2783 0
-3018 -74 0
-3018 -2783 0
3018 74 2783 0
-3019 -3017 0
-3019 -3018 0
3019 3017 3018 0
73 -9353 0
-73 9353 0
-190 -152 0
-190 174 0
190 152 -174 0
-222 -153 0
-222 190 0
222 153 -190 0
-350 154 0
-350 222 0
350 -154 -222 0
-404 -145 0
-404 388 0
404 145 -388 0
-436 -146 0
-436 404 0
436 146 -404 0
-564 147 0
-564 436 0
564 -147 -436 0
-618 -138 0
-618 602 0
618 138 -602 0
-650 -139 0
-650 618 0
650 139 -618 0
-778 140 0
-778 650 0
778 -140 -650 0
-832 -131 0
-832 816 0
832 131 -816 0
-864 -132 0
-864 832 0
864 132 -832 0
-992 133 0
-992 864 0
992 -133 -864 0
-1046 -124 0
-1046 1030 0
1046 124 -1030 0
-1078 -125 0
-1078 1046 0
1078 125 -1046 0
-1206 126 0
-1206 1078 0
1206 -126 -1078 0
-1260 -117 0
-1260 1244 0
1260 117 -1244 0
-1292 -118 0
-1292 1260 0
1292 118 -1260 0
-1420 119 0
-1420 1292 0
1420 -119 -1292 0
-1474 -110 0
-1474 1458 0
1474 110 -1458 0
-1506 -111 0
-1506 1474 0
1506 111 -1474 0
-1634 112 0
-1634 1506 0
1634 -112 -1506 0
-1688 -103 0
-1688 1672 0
1688 103 -1672 0
-1720 -104 0
-1720 1688 0
1720 104 -1688 0
-1848 105 0
-1848 1720 0
1848 -105 -1720 0
-1902 -96 0
-1902 1886 0
1902 96 -1886 0
-1934 -97 0
-1934 1902 0
1934 97 -1902 0
-2062 98 0
-2062 1934 0
2062 -98 -1934 0
-2152 -1848 0
-2152 -2062 0
2152 1848 2062 0
-2242 -1634 0
-2242 2152 0
2242 1634 -2152 0
-2332 -1420 0
-2332 2242 0
2332 1420 -2242 0
-2422 -1206 0
-2422 2332 0
2422 1206 -2332 0
-2512 -992 0
-2512 2422 0
2512 992 -2422 0
-2602 -778 0
-2602 2512 0
2602 778 -2512 0
-2692 -564 0
-2692 2602 0
2692 564 -2602 0
-2782 -350 0
-2782 2692 0
2782 350 -2692 0
-3014 73 0
-3014 2782 0
3014 -73 -2782 0
-3015 -73 0
-3015 -2782 0
3015 73 2782 0
-3016 -3014 0
-3016 -3015 0
3016 3014 3015 0
72 -9352 0
-72 9352 0
-189 -152 0
-189 173 0
189 152 -173 0
-221 -153 0
-221 189 0
221 153 -189 0
-349 154 0
-349 221 0
349 -154 -221 0
-403 -145 0
-403 387 0
403 145 -387 0
-435 -146 0
-435 403 0
435 146 -403 0
-563 147 0
-563 435 0
563 -147 -435 0
-617 -138 0
-617 601 0
617 138 -601 0
-649 -139 0
-649 617 0
649 139 -617 0
-777 140 0
-777 649 0
777 -140 -649 0
-831 -131 0
-831 815 0
831 131 -815 0
-863 -132 0
-863 831 0
863 132 -831 0
-991 133 0
-991 863 0
991 -133 -863 0
-1045 -124 0
-1045 1029 0
1045 124 -1029 0
-1077 -125 0
-1077 1045 0
1077 125 -1045 0
-1205 126 0
-1205 1077 0
1205 -126 -1077 0
-1259 -117 0
-1259 1243 0
1259 117 -1243 0
-1291 -118 0
-1291 1259 0
1291 118 -1259 0
-1419 119 0
-1419 1291 0
1419 -119 -1291 0
-1473 -110 0
-1473 1457 0
1473 110 -1457 0
-1505 -111 0
-1505 1473 0
1505 111 -1473 0
-1633 112 0
-1633 1505 0
1633 -112 -1505 0
-1687 -103 0
-1687 1671 0
1687 103 -1671 0
-1719 -104 0
-1719 1687 0
1719 104 -1687 0
-1847 105 0
-1847 1719 0
1847 -105 -1719 0
-1901 -96 0
-1901 1885 0
1901 96 -1885 0
-1933 -97 0
-1933 1901 0
1933 97 -1901 0
-2061 98 0
-2061 1933 0
2061 -98 -1933 0
-2151 -1847 0
-2151 -2061 0
2151 1847 2061 0
-2241 -1633 0
-2241 2151 0
2241 1633 -2151 0
-2331 -1419 0
-2331 2241 0
2331 1419 -2241 0
-2421 -1205 0
-2421 2331 0
2421 1205 -2331 0
-2511 -991 0
-2511 2421 0
2511 991 -2421 0
-2601 -777 0
-2601 2511 0
2601 777 -2511 0
-2691 -563 0
-2691 2601 0
2691 563 -2601 0
-2781 -349 0
-2781 2691 0
2781 349 -2691 0
-3011 72 0
-3011 2781 0
3011 -72 -2781 0
-3012 -72 0
-3012 -2781 0
3012 72 2781 0
-3013 -3011 0
-3013 -3012 0
3013 3011 3012 0
71 -9351 0
-71 9351 0
-188 -152 0
-188 172 0
188 152 -172 0
-220 -153 0
-220 188 0
220 153 -188 0
-348 154 0
-348 220 0
348 -154 -220 0
-402 -145 0
-402 386 0
402 145 -386 0
-434 -146 0
-434 402 0
434 146 -402 0
-562 147 0
-562 434 0
562 -147 -434 0
-616 -138 0
-616 600 0
616 138 -600 0
-648 -139 0
-648 616 0
648 139 -616 0
-776 140 0
-776 648 0
776 -140 -648 0
-830 -131 0
-830 814 0
830 131 -814 0
-862 -132 0
-862 830 0
862 132 -830 0
-990 133 0
-990 862 0
990 -133 -862 0
-1044 -124 0
-1044 1028 0
1044 124 -1028 0
-1076 -125 0
-1076 1044 0
1076 125 -1044 0
-1204 126 0
-1204 1076 0
1204 -126 -1076 0
-1258 -117 0
-1258 1242 0
1258 117 -1242 0
-1290 -118 0
-1290 1258 0
1290 118 -1258 0
-1418 119 0
-1418 1290 0
1418 -119 -1290 0
-1472 -110 0
-1472 1456 0
1472 110 -1456 0
-1504 -111 0
-1504 1472 0
1504 111 -1472 0
-1632 112 0
-1632 1504 0
1632 -112 -1504 0
-1686 -103 0
-1686 1670 0
1686 103 -1670 0
-1718 -104 0
-1718 1686 0
1718 104 -1686 0
-1846 105 0
-1846 1718 0
1846 -105 -1718 0
-1900 -96 0
-1900 1884 0
1900 96 -1884 0
-1932 -97 0
-1932 1900 0
1932 97 -1900 0
-2060 98 0
-2060 1932 0
2060 -98 -1932 0
-2150 -1846 0
-2150 -2060 0
2150 1846 2060 0
-2240 -1632 0
-2240 2150 0
2240 1632 -2150 0
-2330 -1418 0
-2330 2240 0
2330 1418 -2240 0
-2420 -1204 0
-2420 2330 0
2420 1204 -2330 0
-2510 -990 0
-2510 2420 0
2510 990 -2420 0
-2600 -776 0
-2600 2510 0
2600 776 -2510 0
-2690 -562 0
-2690 2600 0
2690 562 -2600 0
-2780 -348 0
-2780 2690 0
2780 348 -2690 0
-3008 71 0
-3008 2780 0
3008 -71 -2780 0
-3009 -71 0
-3009 -2780 0
3009 71 2780 0
-3010 -3008 0
-3010 -3009 0
3010 3008 3009 0
70 -9350 0
-70 9350 0
-187 -152 0
-187 171 0
187 152 -171 0
-219 -153 0
-219 187 0
219 153 -187 0
-347 154 0
-347 219 0
347 -154 -219 0
-401 -145 0
-401 385 0
401 145 -385 0
-433 -146 0
-433 401 0
433 146 -401 0
-561 147 0
-561 433 0
561 -147 -433 0
-615 -138 0
-615 599 0
615 138 -599 0
-647 -139 0
-647 615 0
647 139 -615 0
-775 140 0
-775 647 0
775 -140 -647 0
-829 -131 0
-829 813 0
829 131 -813 0
-861 -132 0
-861 829 0
861 132 -829 0
-989 133 0
-989 861 0
989 -133 -861 0
-1043 -124 0
-1043 1027 0
1043 124 -1027 0
-1075 -125 0
-1075 1043 0
1075 125 -1043 0
-1203 126 0
-1203 1075 0
1203 -126 -1075 0
-1257 -117 0
-1257 1241 0
1257 117 -1241 0
-1289 -118 0
-1289 1257 0
1289 118 -1257 0
-1417 119 0
-1417 1289 0
1417 -119 -1289 0
-1471 -110 0
-1471 1455 0
1471 110 -1455 0
-1503 -111 0
-1503 1471 0
1503 111 -1471 0
-1631 112 0
-1631 1503 0
1631 -112 -1503 0
-1685 -103 0
-1685 1669 0
1685 103 -1669 0
-1717 -104 0
-1717 1685 0
1717 104 -1685 0
-1845 105 0
-1845 1717 0
1845 -105 -1717 0
-1899 -96 0
-1899 1883 0
1899 96 -1883 0
-1931 -97 0
-1931 1899 0
1931 97 -1899 0
-2059 98 0
-2059 1931 0
2059 -98 -1931 0
-2149 -1845 0
-2149 -2059 0
2149 1845 2059 0
-2239 -1631 0
-2239 2149 0
2239 1631 -2149 0
-2329 -1417 0
-2329 2239 0
2329 1417 -2239 0
-2419 -1203 0
-2419 2329 0
2419 1203 -2329 0
-2509 -989 0
-2509 2419 0
2509 989 -2419 0
-2599 -775 0
-2599 2509 0
2599 775 -2509 0
-2689 -561 0
-2689 2599 0
2689 561 -2599 0
-2779 -347 0
-2779 2689 0
2779 347 -2689 0
-3005 70 0
-3005 2779 0
3005 -70 -2779 0
-3006 -70 0
-3006 -2779 0
3006 70 2779 0
-3007 -3005 0
-3007 -3006 0
3007 3005 3006 0
69 -9349 0
-69 9349 0
-186 -152 0
-186 170 0
186 152 -170 0
-218 -153 0
-218 186 0
218 153 -186 0
-346 154 0
-346 218 0
346 -154 -218 0
-400 -145 0
-400 384 0
400 145 -384 0
-432 -146 0
-432 400 0
432 146 -400 0
-560 147 0
-560 432 0
560 -147 -432 0
-614 -138 0
-614 598 0
614 138 -598 0
-646 -139 0
-646 614 0
646 139 -614 0
-774 140 0
-774 646 0
774 -140 -646 0
-828 -131 0
-828 812 0
828 131 -812 0
-860 -132 0
-860 828 0
860 132 -828 0
-988 133 0
-988 860 0
988 -133 -860 0
-1042 -124 0
-1042 1026 0
1042 124 -1026 0
-1074 -125 0
-1074 1042 0
1074 125 -1042 0
-1202 126 0
-1202 1074 0
1202 -126 -1074 0
-1256 -117 0
-1256 1240 0
1256 117 -1240 0
-1288 -118 0
-1288 1256 0
1288 118 -1256 0
-1416 119 0
-1416 1288 0
1416 -119 -1288 0
-1470 -110 0
-1470 1454 0
1470 110 -1454 0
-1502 -111 0
-1502 1470 0
1502 111 -1470 0
-1630 112 0
-1630 1502 0
1630 -112 -1502 0
-1684 -103 0
-1684 1668 0
1684 103 -1668 0
-1716 -104 0
-1716 1684 0
1716 104 -1684 0
-1844 105 0
-1844 1716 0
1844 -105 -1716 0
-1898 -96 0
-1898 1882 0
1898 96 -1882 0
-1930 -97 0
-1930 1898 0
1930 97 -1898 0
-2058 98 0
-2058 1930 0
2058 -98 -1930 0
-2148 -1844 0
-2148 -2058 0
2148 1844 2058 0
-2238 -1630 0
-2238 2148 0
2238 1630 -2148 0
-2328 -1416 0
-2328 2238 0
2328 1416 -2238 0
-2418 -1202 0
-2418 2328 0
2418 1202 -2328 0
-2508 -988 0
-2508 2418 0
2508 988 -2418 0
-2598 -774 0
-2598 2508 0
2598 774 -2508 0
-2688 -560 0
-2688 2598 0
2688 560 -2598 0
-2778 -346 0
-2778 2688 0
2778 346 -2688 0
-3002 69 0
-3002 2778 0
3002 -69 -2778 0
-3003 -69 0
-3003 -2778 0
3003 69 2778 0
-3004 -3002 0
-3004 -3003 0
3004 3002 3003 0
68 -9348 0
-68 9348 0
-185 -152 0
-185 169 0
185 152 -169 0
-217 -153 0
-217 185 0
217 153 -185 0
-345 154 0
-345 217 0
345 -154 -217 0
-399 -145 0
-399 383 0
399 145 -383 0
-431 -146 0
-431 399 0
431 146 -399 0
-559 147 0
-559 431 0
559 -147 -431 0
-613 -138 0
-613 597 0
613 138 -597 0
-645 -139 0
-645 613 0
645 139 -613 0
-773 140 0
-773 645 0
773 -140 -645 0
-827 -131 0
-827 811 0
827 131 -811 0
-859 -132 0
-859 827 0
859 132 -827 0
-987 133 0
-987 859 0
987 -133 -859 0
-1041 -124 0
-1041 1025 0
1041 124 -1025 0
-1073 -125 0
-1073 1041 0
1073 125 -1041 0
-1201 126 0
-1201 1073 0
1201 -126 -1073 0
-1255 -117 0
-1255 1239 0
1255 117 -1239 0
-1287 -118 0
-1287 1255 0
1287 118 -1255 0
-1415 119 0
-1415 1287 0
1415 -119 -1287 0
-1469 -110 0
-1469 1453 0
1469 110 -1453 0
-1501 -111 0
-1501 1469 0
1501 111 -1469 0
-1629 112 0
-1629 1501 0
1629 -112 -1501 0
-1683 -103 0
-1683 1667 0
1683 103 -1667 0
-1715 -104 0
-1715 1683 0
1715 104 -1683 0
-1843 105 0
-1843 1715 0
1843 -105 -1715 0
-1897 -96 0
-1897 1881 0
1897 96 -1881 0
-1929 -97 0
-1929 1897 0
1929 97 -1897 0
-2057 98 0
-2057 1929 0
2057 -98 -1929 0
-2147 -1843 0
-2147 -2057 0
2147 1843 2057 0
-2237 -1629 0
-2237 2147 0
2237 1629 -2147 0
-2327 -1415 0
-2327 2237 0
2327 1415 -2237 0
-2417 -1201 0
-2417 2327 0
2417 1201 -2327 0
-2507 -987 0
-2507 2417 0
2507 987 -2417 0
-2597 -773 0
-2597 2507 0
2597 773 -2507 0
-2687 -559 0
-2687 2597 0
2687 559 -2597 0
-2777 -345 0
-2777 2687 0
2777 345 -2687 0
-2999 68 0
-2999 2777 0
2999 -68 -2777 0
-3000 -68 0
-3000 -2777 0
3000 68 2777 0
-3001 -2999 0
-3001 -3000 0
3001 2999 3000 0
67 -9347 0
-67 9347 0
-184 -152 0
-184 168 0
184 152 -168 0
-216 -153 0
-216 184 0
216 153 -184 0
-344 154 0
-344 216 0
344 -154 -216 0
-398 -145 0
-398 382 0
398 145 -382 0
-430 -146 0
-430 398 0
430 146 -398 0
-558 147 0
-558 430 0
558 -147 -430 0
-612 -138 0
-612 596 0
612 138 -596 0
-644 -139 0
-644 612 0
644 139 -612 0
-772 140 0
-772 644 0
772 -140 -644 0
-826 -131 0
-826 810 0
826 131 -810 0
-858 -132 0
-858 826 0
858 132 -826 0
-986 133 0
-986 858 0
986 -133 -858 0
-1040 -124 0
-1040 1024 0
1040 124 -1024 0
-1072 -125 0
-1072 1040 0
1072 125 -1040 0
-1200 126 0
-1200 1072 0
1200 -126 -1072 0
-1254 -117 0
-1254 1238 0
1254 117 -1238 0
-1286 -118 0
-1286 1254 0
1286 118 -1254 0
-1414 119 0
-1414 1286 0
1414 -119 -1286 0
-1468 -110 0
-1468 1452 0
1468 110 -1452 0
-1500 -111 0
-1500 1468 0
1500 111 -1468 0
-1628 112 0
-1628 1500 0
1628 -112 -1500 0
-1682 -103 0
-1682 1666 0
1682 103 -1666 0
-1714 -104 0
-1714 1682 0
1714 104 -1682 0
-1842 105 0
-1842 1714 0
1842 -105 -1714 0
-1896 -96 0
-1896 1880 0
1896 96 -1880 0
-1928 -97 0
-1928 1896 0
1928 97 -1896 0
-2056 98 0
-2056 1928 0
2056 -98 -1928 0
-2146 -1842 0
-2146 -2056 0
2146 1842 2056 0
-2236 -1628 0
-2236 2146 0
2236 1628 -2146 0
-2326 -1414 0
-2326 2236 0
2326 1414 -2236 0
-2416 -1200 0
-2416 2326 0
2416 1200 -2326 0
-2506 -986 0
-2506 2416 0
2506 986 -2416 0
-2596 -772 0
-2596 2506 0
2596 772 -2506 0
-2686 -558 0
-2686 2596 0
2686 558 -2596 0
-2776 -344 0
-2776 2686 0
2776 344 -2686 0
-2996 67 0
-2996 2776 0
2996 -67 -2776 0
-2997 -67 0
-2997 -2776 0
2997 67 2776 0
-2998 -2996 0
-2998 -2997 0
2998 2996 2997 0
66 -9346 0
-66 9346 0
-183 -152 0
-183 167 0
183 152 -167 0
-215 -153 0
-215 183 0
215 153 -183 0
-343 154 0
-343 215 0
343 -154 -215 0
-397 -145 0
-397 381 0
397 145 -381 0
-429 -146 0
-429 397 0
429 146 -397 0
-557 147 0
-557 429 0
557 -147 -429 0
-611 -138 0
-611 595 0
611 138 -595 0
-643 -139 0
-643 611 0
643 139 -611 0
-771 140 0
-771 643 0
771 -140 -643 0
-825 -131 0
-825 809 0
825 131 -809 0
-857 -132 0
-857 825 0
857 132 -825 0
-985 133 0
-985 857 0
985 -133 -857 0
-1039 -124 0
-1039 1023 0
1039 124 -1023 0
-1071 -125 0
-1071 1039 0
1071 125 -1039 0
-1199 126 0
-1199 1071 0
1199 -126 -1071 0
-1253 -117 0
-1253 1237 0
1253 117 -1237 0
-1285 -118 0
-1285 1253 0
1285 118 -1253 0
-1413 119 0
-1413 1285 0
1413 -119 -1285 0
-1467 -110 0
-1467 1451 0
1467 110 -1451 0
-1499 -111 0
-1499 1467 0
1499 111 -1467 0
-1627 112 0
-1627 1499 0
1627 -112 -1499 0
-1681 -103 0
-1681 1665 0
1681 103 -1665 0
-1713 -104 0
-1713 1681 0
1713 104 -1681 0
-1841 105 0
-1841 1713 0
1841 -105 -1713 0
-1895 -96 0
-1895 1879 0
1895 96 -1879 0
-1927 -97 0
-1927 1895 0
1927 97 -1895 0
-2055 98 0
-2055 1927 0
2055 -98 -1927 0
-2145 -1841 0
-2145 -2055 0
2145 1841 2055 0
-2235 -1627 0
-2235 2145 0
2235 1627 -2145 0
-2325 -1413 0
-2325 2235 0
2325 1413 -2235 0
-2415 -1199 0
-2415 2325 0
2415 1199 -2325 0
-2505 -985 0
-2505 2415 0
2505 985 -2415 0
-2595 -771 0
-2595 2505 0
2595 771 -2505 0
-2685 -557 0
-2685 2595 0
2685 557 -2595 0
-2775 -343 0
-2775 2685 0
2775 343 -2685 0
-2993 66 0
-2993 2775 0
2993 -66 -2775 0
-2994 -66 0
-2994 -2775 0
2994 66 2775 0
-2995 -2993 0
-2995 -2994 0
2995 2993 2994 0
65 -9345 0
-65 9345 0
-214 152 0
-214 182 0
214 -152 -182 0
-278 153 0
-278 214 0
278 -153 -214 0
-342 -154 0
-342 278 0
342 154 -278 0
-428 145 0
-428 396 0
428 -145 -396 0
-492 146 0
-492 428 0
492 -146 -428 0
-556 -147 0
-556 492 0
556 147 -492 0
-642 138 0
-642 610 0
642 -138 -610 0
-706 139 0
-706 642 0
706 -139 -642 0
-770 -140 0
-770 706 0
770 140 -706 0
-856 131 0
-856 824 0
856 -131 -824 0
-920 132 0
-920 856 0
920 -132 -856 0
-984 -133 0
-984 920 0
984 133 -920 0
-1070 124 0
-1070 1038 0
1070 -124 -1038 0
-1134 125 0
-1134 1070 0
1134 -125 -1070 0
-1198 -126 0
-1198 1134 0
1198 126 -1134 0
-1284 117 0
-1284 1252 0
1284 -117 -1252 0
-1348 118 0
-1348 1284 0
1348 -118 -1284 0
-1412 -119 0
-1412 1348 0
1412 119 -1348 0
-1498 110 0
-1498 1466 0
1498 -110 -1466 0
-1562 111 0
-1562 1498 0
1562 -111 -1498 0
-1626 -112 0
-1626 1562 0
1626 112 -1562 0
-1712 103 0
-1712 1680 0
1712 -103 -1680 0
-1776 104 0
-1776 1712 0
1776 -104 -1712 0
-1840 -105 0
-1840 1776 0
1840 105 -1776 0
-1926 96 0
-1926 1894 0
1926 -96 -1894 0
-1990 97 0
-1990 1926 0
1990 -97 -1926 0
-2054 -98 0
-2054 1990 0
2054 98 -1990 0
-2144 -1840 0
-2144 -2054 0
2144 1840 2054 0
-2234 -1626 0
-2234 2144 0
2234 1626 -2144 0
-2324 -1412 0
-2324 2234 0
2324 1412 -2234 0
-2414 -1198 0
-2414 2324 0
2414 1198 -2324 0
-2504 -984 0
-2504 2414 0
2504 984 -2414 0
-2594 -770 0
-2594 2504 0
2594 770 -2504 0
-2684 -556 0
-2684 2594 0
2684 556 -2594 0
-2774 -342 0
-2774 2684 0
2774 342 -2684 0
-2990 65 0
-2990 2774 0
2990 -65 -2774 0
-2991 -65 0
-2991 -2774 0
2991 65 2774 0
-2992 -2990 0
-2992 -2991 0
2992 2990 2991 0
64 -9344 0
-64 9344 0
-213 152 0
-213 181 0
213 -152 -181 0
-277 153 0
-277 213 0
277 -153 -213 0
-341 -154 0
-341 277 0
341 154 -277 0
-427 145 0
-427 395 0
427 -145 -395 0
-491 146 0
-491 427 0
491 -146 -427 0
-555 -147 0
-555 491 0
555 147 -491 0
-641 138 0
-641 609 0
641 -138 -609 0
-705 139 0
-705 641 0
705 -139 -641 0
-769 -140 0
-769 705 0
769 140 -705 0
-855 131 0
-855 823 0
855 -131 -823 0
-919 132 0
-919 855 0
919 -132 -855 0
-983 -133 0
-983 919 0
983 133 -919 0
-1069 124 0
-1069 1037 0
1069 -124 -1037 0
-1133 125 0
-1133 1069 0
1133 -125 -1069 0
-1197 -126 0
-1197 1133 0
1197 126 -1133 0
-1283 117 0
-1283 1251 0
1283 -117 -1251 0
-1347 118 0
-1347 1283 0
1347 -118 -1283 0
-1411 -119 0
-1411 1347 0
1411 119 -1347 0
-1497 110 0
-1497 1465 0
1497 -110 -1465 0
-1561 111 0
-1561 1497 0
1561 -111 -1497 0
-1625 -112 0
-1625 1561 0
1625 112 -1561 0
-1711 103 0
-1711 1679 0
1711 -103 -1679 0
-1775 104 0
-1775 1711 0
1775 -104 -1711 0
-1839 -105 0
-1839 1775 0
1839 105 -1775 0
-1925 96 0
-1925 1893 0
1925 -96 -1893 0
-1989 97 0
-1989 1925 0
1989 -97 -1925 0
-2053 -98 0
-2053 1989 0
2053 98 -1989 0
-2143 -1839 0
-2143 -2053 0
2143 1839 2053 0
-2233 -1625 0
-2233 2143 0
2233 1625 -2143 0
-2323 -1411 0
-2323 2233 0
2323 1411 -2233 0
-2413 -1197 0
-2413 2323 0
2413 1197 -2323 0
-2503 -983 0
-2503 2413 0
2503 983 -2413 0
-2593 -769 0
-2593 2503 0
2593 769 -2503 0
-2683 -555 0
-2683 2593 0
2683 555 -2593 0
-2773 -341 0
-2773 2683 0
2773 341 -2683 0
-2987 64 0
-2987 2773 0
2987 -64 -2773 0
-2988 -64 0
-2988 -2773 0
2988 64 2773 0
-2989 -2987 0
-2989 -2988 0
2989 2987 2988 0
63 -9343 0
-63 9343 0
-212 152 0
-212 180 0
212 -152 -180 0
-276 153 0
-276 212 0
276 -153 -212 0
-340 -154 0
-340 276 0
340 154 -276 0
-426 145 0
-426 394 0
426 -145 -394 0
-490 146 0
-490 426 0
490 -146 -426 0
-554 -147 0
-554 490 0
554 147 -490 0
-640 138 0
-640 608 0
640 -138 -608 0
-704 139 0
-704 640 0
704 -139 -640 0
-768 -140 0
-768 704 0
768 140 -704 0
-854 131 0
-854 822 0
854 -131 -822 0
-918 132 0
-918 854 0
918 -132 -854 0
-982 -133 0
-982 918 0
982 133 -918 0
-1068 124 0
-1068 1036 0
1068 -124 -1036 0
-1132 125 0
-1132 1068 0
1132 -125 -1068 0
-1196 -126 0
-1196 1132 0
1196 126 -1132 0
-1282 117 0
-1282 1250 0
1282 -117 -1250 0
-1346 118 0
-1346 1282 0
1346 -118 -1282 0
-1410 -119 0
-1410 1346 0
1410 119 -1346 0
-1496 110 0
-1496 1464 0
1496 -110 -1464 0
-1560 111 0
-1560 1496 0
1560 -111 -1496 0
-1624 -112 0
-1624 1560 0
1624 112 -1560 0
-1710 103 0
-1710 1678 0
1710 -103 -1678 0
-1774 104 0
-1774 1710 0
1774 -104 -1710 0
-1838 -105 0
-1838 1774 0
1838 105 -1774 0
-1924 96 0
-1924 1892 0
1924 -96 -1892 0
-1988 97 0
-1988 1924 0
1988 -97 -1924 0
-2052 -98 0
-2052 1988 0
2052 98 -1988 0
-2142 -1838 0
-2142 -2052 0
2142 1838 2052 0
-2232 -1624 0
-2232 2142 0
2232 1624 -2142 0
-2322 -1410 0
-2322 2232 0
2322 1410 -2232 0
-2412 -1196 0
-2412 2322 0
2412 1196 -2322 0
-2502 -982 0
-2502 2412 0
2502 982 -2412 0
-2592 -768 0
-2592 2502 0
2592 768 -2502 0
-2682 -554 0
-2682 2592 0
2682 554 -2592 0
-2772 -340 0
-2772 2682 0
2772 340 -2682 0
-2984 63 0
-2984 2772 0
2984 -63 -2772 0
-2985 -63 0
-2985 -2772 0
2985 63 2772 0
-2986 -2984 0
-2986 -2985 0
2986 2984 2985 0
62 -9342 0
-62 9342 0
-211 152 0
-211 179 0
211 -152 -179 0
-275 153 0
-275 211 0
275 -153 -211 0
-339 -154 0
-339 275 0
339 154 -275 0
-425 145 0
-425 393 0
425 -145 -393 0
-489 146 0
-489 425 0
489 -146 -425 0
-553 -147 0
-553 489 0
553 147 -489 0
-639 138 0
-639 607 0
639 -138 -607 0
-703 139 0
-703 639 0
703 -139 -639 0
-767 -140 0
-767 703 0
767 140 -703 0
-853 131 0
-853 821 0
853 -131 -821 0
-917 132 0
-917 853 0
917 -132 -853 0
-981 -133 0
-981 917 0
981 133 -917 0
-1067 124 0
-1067 1035 0
1067 -124 -1035 0
-1131 125 0
-1131 1067 0
1131 -125 -1067 0
-1195 -126 0
-1195 1131 0
1195 126 -1131 0
-1281 117 0
-1281 1249 0
1281 -117 -1249 0
-1345 118 0
-1345 1281 0
1345 -118 -1281 0
-1409 -119 0
-1409 1345 0
1409 119 -1345 0
-1495 110 0
-1495 1463 0
1495 -110 -1463 0
-1559 111 0
-1559 1495 0
1559 -111 -1495 0
-1623 -112 0
-1623 1559 0
1623 112 -1559 0
-1709 103 0
-1709 1677 0
1709 -103 -1677 0
-1773 104 0
-1773 1709 0
1773 -104 -1709 0
-1837 -105 0
-1837 1773 0
1837 105 -1773 0
-1923 96 0
-1923 1891 0
1923 -96 -1891 0
-1987 97 0
-1987 1923 0
1987 -97 -1923 0
-2051 -98 0
-2051 1987 0
2051 98 -1987 0
-2141 -1837 0
-2141 -2051 0
2141 1837 2051 0
-2231 -1623 0
-2231 2141 0
2231 1623 -2141 0
-2321 -1409 0
-2321 2231 0
2321 1409 -2231 0
-2411 -1195 0
-2411 2321 0
2411 1195 -2321 0
-2501 -981 0
-2501 2411 0
2501 981 -2411 0
-2591 -767 0
-2591 2501 0
2591 767 -2501 0
-2681 -553 0
-2681 2591 0
2681 553 -2591 0
-2771 -339 0
-2771 2681 0
2771 339 -2681 0
-2981 62 0
-2981 2771 0
2981 -62 -2771 0
-2982 -62 0
-2982 -2771 0
2982 62 2771 0
-2983 -2981 0
-2983 -2982 0
2983 2981 2982 0
61 -9341 0
-61 9341 0
-210 152 0
-210 178 0
210 -152 -178 0
-274 153 0
-274 210 0
274 -153 -210 0
-338 -154 0
-338 274 0
338 154 -274 0
-424 145 0
-424 392 0
424 -145 -392 0
-488 146 0
-488 424 0
488 -146 -424 0
-552 -147 0
-552 488 0
552 147 -488 0
-638 138 0
-638 606 0
638 -138 -606 0
-702 139 0
-702 638 0
702 -139 -638 0
-766 -140 0
-766 702 0
766 140 -702 0
-852 131 0
-852 820 0
852 -131 -820 0
-916 132 0
-916 852 0
916 -132 -852 0
-980 -133 0
-980 916 0
980 133 -916 0
-1066 124 0
-1066 1034 0
1066 -124 -1034 0
-1130 125 0
-1130 1066 0
1130 -125 -1066 0
-1194 -126 0
-1194 1130 0
1194 126 -1130 0
-1280 117 0
-1280 1248 0
1280 -117 -1248 0
-1344 118 0
-1344 1280 0
1344 -118 -1280 0
-1408 -119 0
-1408 1344 0
1408 119 -1344 0
-1494 110 0
-1494 1462 0
1494 -110 -1462 0
-1558 111 0
-1558 1494 0
1558 -111 -1494 0
-1622 -112 0
-1622 1558 0
1622 112 -1558 0
-1708 103 0
-1708 1676 0
1708 -103 -1676 0
-1772 104 0
-1772 1708 0
1772 -104 -1708 0
-1836 -105 0
-1836 1772 0
1836 105 -1772 0
-1922 96 0
-1922 1890 0
1922 -96 -1890 0
-1986 97 0
-1986 1922 0
1986 -97 -1922 0
-2050 -98 0
-2050 1986 0
2050 98 -1986 0
-2140 -1836 0
-2140 -2050 0
2140 1836 2050 0
-2230 -1622 0
-2230 2140 0
2230 1622 -2140 0
-2320 -1408 0
-2320 2230 0
2320 1408 -2230 0
-2410 -1194 0
-2410 2320 0
2410 1194 -2320 0
-2500 -980 0
-2500 2410 0
2500 980 -2410 0
-2590 -766 0
-2590 2500 0
2590 766 -2500 0
-2680 -552 0
-2680 2590 0
2680 552 -2590 0
-2770 -338 0
-2770 2680 0
2770 338 -2680 0
-2978 61 0
-2978 2770 0
2978 -61 -2770 0
-2979 -61 0
-2979 -2770 0
2979 61 2770 0
-2980 -2978 0
-2980 -2979 0
2980 2978 2979 0
60 -9340 0
-60 9340 0
-209 152 0
-209 177 0
209 -152 -177 0
-273 153 0
-273 209 0
273 -153 -209 0
-337 -154 0
-337 273 0
337 154 -273 0
-423 145 0
-423 391 0
423 -145 -391 0
-487 146 0
-487 423 0
487 -146 -423 0
-551 -147 0
-551 487 0
551 147 -487 0
-637 138 0
-637 605 0
637 -138 -605 0
-701 139 0
-701 637 0
701 -139 -637 0
-765 -140 0
-765 701 0
765 140 -701 0
-851 131 0
-851 819 0
851 -131 -819 0
-915 132 0
-915 851 0
915 -132 -851 0
-979 -133 0
-979 915 0
979 133 -915 0
-1065 124 0
-1065 1033 0
1065 -124 -1033 0
-1129 125 0
-1129 1065 0
1129 -125 -1065 0
-1193 -126 0
-1193 1129 0
1193 126 -1129 0
-1279 117 0
-1279 1247 0
1279 -117 -1247 0
-1343 118 0
-1343 1279 0
1343 -118 -1279 0
-1407 -119 0
-1407 1343 0
1407 119 -1343 0
-1493 110 0
-1493 1461 0
1493 -110 -1461 0
-1557 111 0
-1557 1493 0
1557 -111 -1493 0
-1621 -112 0
-1621 1557 0
1621 112 -1557 0
-1707 103 0
-1707 1675 0
1707 -103 -1675 0
-1771 104 0
-1771 1707 0
1771 -104 -1707 0
-1835 -105 0
-1835 1771 0
1835 105 -1771 0
-1921 96 0
-1921 1889 0
1921 -96 -1889 0
-1985 97 0
-1985 1921 0
1985 -97 -1921 0
-2049 -98 0
-2049 1985 0
2049 98 -1985 0
-2139 -1835 0
-2139 -2049 0
2139 1835 2049 0
-2229 -1621 0
-2229 2139 0
2229 1621 -2139 0
-2319 -1407 0
-2319 2229 0
2319 1407 -2229 0
-2409 -1193 0
-2409 2319 0
2409 1193 -2319 0
-2499 -979 0
-2499 2409 0
2499 979 -2409 0
-2589 -765 0
-2589 2499 0
2589 765 -2499 0
-2679 -551 0
-2679 2589 0
2679 551 -2589 0
-2769 -337 0
-2769 2679 0
2769 337 -2679 0
-2975 60 0
-2975 2769 0
2975 -60 -2769 0
-2976 -60 0
-2976 -2769 0
2976 60 2769 0
-2977 -2975 0
-2977 -2976 0
2977 2975 2976 0
59 -9339 0
-59 9339 0
-272 153 0
-272 208 0
272 -153 -208 0
-336 -154 0
-336 272 0
336 154 -272 0
-486 146 0
-486 422 0
486 -146 -422 0
-550 -147 0
-550 486 0
550 147 -486 0
-700 139 0
-700 636 0
700 -139 -636 0
-764 -140 0
-764 700 0
764 140 -700 0
-914 132 0
-914 850 0
914 -132 -850 0
-978 -133 0
-978 914 0
978 133 -914 0
-1128 125 0
-1128 1064 0
1128 -125 -1064 0
-1192 -126 0
-1192 1128 0
1192 126 -1128 0
-1342 118 0
-1342 1278 0
1342 -118 -1278 0
-1406 -119 0
-1406 1342 0
1406 119 -1342 0
-1556 111 0
-1556 1492 0
1556 -111 -1492 0
-1620 -112 0
-1620 1556 0
1620 112 -1556 0
-1770 104 0
-1770 1706 0
1770 -104 -1706 0
-1834 -105 0
-1834 1770 0
1834 105 -1770 0
-1984 97 0
-1984 1920 0
1984 -97 -1920 0
-2048 -98 0
-2048 1984 0
2048 98 -1984 0
-2138 -1834 0
-2138 -2048 0
2138 1834 2048 0
-2228 -1620 0
-2228 2138 0
2228 1620 -2138 0
-2318 -1406 0
-2318 2228 0
2318 1406 -2228 0
-2408 -1192 0
-2408 2318 0
2408 1192 -2318 0
-2498 -978 0
-2498 2408 0
2498 978 -2408 0
-2588 -764 0
-2588 2498 0
2588 764 -2498 0
-2678 -550 0
-2678 2588 0
2678 550 -2588 0
-2768 -336 0
-2768 2678 0
2768 336 -2678 0
-2972 59 0
-2972 2768 0
2972 -59 -2768 0
-2973 -59 0
-2973 -2768 0
2973 59 2768 0
-2974 -2972 0
-2974 -2973 0
2974 2972 2973 0
58 -9338 0
-58 9338 0
-271 153 0
-271 207 0
271 -153 -207 0
-335 -154 0
-335 271 0
335 154 -271 0
-485 146 0
-485 421 0
485 -146 -421 0
-549 -147 0
-549 485 0
549 147 -485 0
-699 139 0
-699 635 0
699 -139 -635 0
-763 -140 0
-763 699 0
763 140 -699 0
-913 132 0
-913 849 0
913 -132 -849 0
-977 -133 0
-977 913 0
977 133 -913 0
-1127 125 0
-1127 1063 0
1127 -125 -1063 0
-1191 -126 0
-1191 1127 0
1191 126 -1127 0
-1341 118 0
-1341 1277 0
1341 -118 -1277 0
-1405 -119 0
-1405 1341 0
1405 119 -1341 0
-1555 111 0
-1555 1491 0
1555 -111 -1491 0
-1619 -112 0
-1619 1555 0
1619 112 -1555 0
-1769 104 0
-1769 1705 0
1769 -104 -1705 0
-1833 -105 0
-1833 1769 0
1833 105 -1769 0
-1983 97 0
-1983 1919 0
1983 -97 -1919 0
-2047 -98 0
-2047 1983 0
2047 98 -1983 0
-2137 -1833 0
-2137 -2047 0
2137 1833 2047 0
-2227 -1619 0
-2227 2137 0
2227 1619 -2137 0
-2317 -1405 0
-2317 2227 0
2317 1405 -2227 0
-2407 -1191 0
-2407 2317 0
2407 1191 -2317 0
-2497 -977 0
-2497 2407 0
2497 977 -2407 0
-2587 -763 0
-2587 2497 0
2587 763 -2497 0
-2677 -549 0
-2677 2587 0
2677 549 -2587 0
-2767 -335 0
-2767 2677 0
2767 335 -2677 0
-2969 58 0
-2969 2767 0
2969 -58 -2767 0
-2970 -58 0
-2970 -2767 0
2970 58 2767 0
-2971 -2969 0
-2971 -2970 0
2971 2969 2970 0
57 -9337 0
-57 9337 0
-270 153 0
-270 206 0
270 -153 -206 0
-334 -154 0
-334 270 0
334 154 -270 0
-484 146 0
-484 420 0
484 -146 -420 0
-548 -147 0
-548 484 0
548 147 -484 0
-698 139 0
-698 634 0
698 -139 -634 0
-762 -140 0
-762 698 0
762 140 -698 0
-912 132 0
-912 848 0
912 -132 -848 0
-976 -133 0
-976 912 0
976 133 -912 0
-1126 125 0
-1126 1062 0
1126 -125 -1062 0
-1190 -126 0
-1190 1126 0
1190 126 -1126 0
-1340 118 0
-1340 1276 0
1340 -118 -1276 0
-1404 -119 0
-1404 1340 0
1404 119 -1340 0
-1554 111 0
-1554 1490 0
1554 -111 -1490 0
-1618 -112 0
-1618 1554 0
1618 112 -1554 0
-1768 104 0
-1768 1704 0
1768 -104 -1704 0
-1832 -105 0
-1832 1768 0
1832 105 -1768 0
-1982 97 0
-1982 1918 0
1982 -97 -1918 0
-2046 -98 0
-2046 1982 0
2046 98 -1982 0
-2136 -1832 0
-2136 -2046 0
2136 1832 2046 0
-2226 -1618 0
-2226 2136 0
2226 1618 -2136 0
-2316 -1404 0
-2316 2226 0
2316 1404 -2226 0
-2406 -1190 0
-2406 2316 0
2406 1190 -2316 0
-2496 -976 0
-2496 2406 0
2496 976 -2406 0
-2586 -762 0
-2586 2496 0
2586 762 -2496 0
-2676 -548 0
-2676 2586 0
2676 548 -2586 0
-2766 -334 0
-2766 2676 0
2766 334 -2676 0
-2966 57 0
-2966 2766 0
2966 -57 -2766 0
-2967 -57 0
-2967 -2766 0
2967 57 2766 0
-2968 -2966 0
-2968 -2967 0
2968 2966 2967 0
56 -9336 0
-56 9336 0
-269 153 0
-269 205 0
269 -153 -205 0
-333 -154 0
-333 269 0
333 154 -269 0
-483 146 0
-483 419 0
483 -146 -419 0
-547 -147 0
-547 483 0
547 147 -483 0
-697 139 0
-697 633 0
697 -139 -633 0
-761 -140 0
-761 697 0
761 140 -697 0
-911 132 0
-911 847 0
911 -132 -847 0
-975 -133 0
-975 911 0
975 133 -911 0
-1125 125 0
-1125 1061 0
1125 -125 -1061 0
-1189 -126 0
-1189 1125 0
1189 126 -1125 0
-1339 118 0
-1339 1275 0
1339 -118 -1275 0
-1403 -119 0
-1403 1339 0
1403 119 -1339 0
-1553 111 0
-1553 1489 0
1553 -111 -1489 0
-1617 -112 0
-1617 1553 0
1617 112 -1553 0
-1767 104 0
-1767 1703 0
1767 -104 -1703 0
-1831 -105 0
-1831 1767 0
1831 105 -1767 0
-1981 97 0
-1981 1917 0
1981 -97 -1917 0
-2045 -98 0
-2045 1981 0
2045 98 -1981 0
-2135 -1831 0
-2135 -2045 0
2135 1831 2045 0
-2225 -1617 0
-2225 2135 0
2225 1617 -2135 0
-2315 -1403 0
-2315 2225 0
2315 1403 -2225 0
-2405 -1189 0
-2405 2315 0
2405 1189 -2315 0
-2495 -975 0
-2495 2405 0
2495 975 -2405 0
-2585 -761 0
-2585 2495 0
2585 761 -2495 0
-2675 -547 0
-2675 2585 0
2675 547 -2585 0
-2765 -333 0
-2765 2675 0
2765 333 -2675 0
-2963 56 0
-2963 2765 0
2963 -56 -2765 0
-2964 -56 0
-2964 -2765 0
2964 56 2765 0
-2965 -2963 0
-2965 -2964 0
2965 2963 2964 0
55 -9335 0
-55 9335 0
-268 153 0
-268 204 0
268 -153 -204 0
-332 -154 0
-332 268 0
332 154 -268 0
-482 146 0
-482 418 0
482 -146 -418 0
-546 -147 0
-546 482 0
546 147 -482 0
-696 139 0
-696 632 0
696 -139 -632 0
-760 -140 0
-760 696 0
760 140 -696 0
-910 132 0
-910 846 0
910 -132 -846 0
-974 -133 0
-974 910 0
974 133 -910 0
-1124 125 0
-1124 1060 0
1124 -125 -1060 0
-1188 -126 0
-1188 1124 0
1188 126 -1124 0
-1338 118 0
-1338 1274 0
1338 -118 -1274 0
-1402 -119 0
-1402 1338 0
1402 119 -1338 0
-1552 111 0
-1552 1488 0
1552 -111 -1488 0
-1616 -112 0
-1616 1552 0
1616 112 -1552 0
-1766 104 0
-1766 1702 0
1766 -104 -1702 0
-1830 -105 0
-1830 1766 0
1830 105 -1766 0
-1980 97 0
-1980 1916 0
1980 -97 -1916 0
-2044 -98 0
-2044 1980 0
2044 98 -1980 0
-2134 -1830 0
-2134 -2044 0
2134 1830 2044 0
-2224 -1616 0
-2224 2134 0
2224 1616 -2134 0
-2314 -1402 0
-2314 2224 0
2314 1402 -2224 0
-2404 -1188 0
-2404 2314 0
2404 1188 -2314 0
-2494 -974 0
-2494 2404 0
2494 974 -2404 0
-2584 -760 0
-2584 2494 0
2584 760 -2494 0
-2674 -546 0
-2674 2584 0
2674 546 -2584 0
-2764 -332 0
-2764 2674 0
2764 332 -2674 0
-2960 55 0
-2960 2764 0
2960 -55 -2764 0
-2961 -55 0
-2961 -2764 0
2961 55 2764 0
-2962 -2960 0
-2962 -2961 0
2962 2960 2961 0
54 -9334 0
-54 9334 0
-267 153 0
-267 203 0
267 -153 -203 0
-331 -154 0
-331 267 0
331 154 -267 0
-481 146 0
-481 417 0
481 -146 -417 0
-545 -147 0
-545 481 0
545 147 -481 0
-695 139 0
-695 631 0
695 -139 -631 0
-759 -140 0
-759 695 0
759 140 -695 0
-909 132 0
-909 845 0
909 -132 -845 0
-973 -133 0
-973 909 0
973 133 -909 0
-1123 125 0
-1123 1059 0
1123 -125 -1059 0
-1187 -126 0
-1187 1123 0
1187 126 -1123 0
-1337 118 0
-1337 1273 0
1337 -118 -1273 0
-1401 -119 0
-1401 1337 0
1401 119 -1337 0
-1551 111 0
-1551 1487 0
1551 -111 -1487 0
-1615 -112 0
-1615 1551 0
1615 112 -1551 0
-1765 104 0
-1765 1701 0
1765 -104 -1701 0
-1829 -105 0
-1829 1765 0
1829 105 -1765 0
-1979 97 0
-1979 1915 0
1979 -97 -1915 0
-2043 -98 0
-2043 1979 0
2043 98 -1979 0
-2133 -1829 0
-2133 -2043 0
2133 1829 2043 0
-2223 -1615 0
-2223 2133 0
2223 1615 -2133 0
-2313 -1401 0
-2313 2223 0
2313 1401 -2223 0
-2403 -1187 0
-2403 2313 0
2403 1187 -2313 0
-2493 -973 0
-2493 2403 0
2493 973 -2403 0
-2583 -759 0
-2583 2493 0
2583 759 -2493 0
-2673 -545 0
-2673 2583 0
2673 545 -2583 0
-2763 -331 0
-2763 2673 0
2763 331 -2673 0
-2957 54 0
-2957 2763 0
2957 -54 -2763 0
-2958 -54 0
-2958 -2763 0
2958 54 2763 0
-2959 -2957 0
-2959 -2958 0
2959 2957 2958 0
53 -9333 0
-53 9333 0
-266 153 0
-266 202 0
266 -153 -202 0
-330 -154 0
-330 266 0
330 154 -266 0
-480 146 0
-480 416 0
480 -146 -416 0
-544 -147 0
-544 480 0
544 147 -480 0
-694 139 0
-694 630 0
694 -139 -630 0
-758 -140 0
-758 694 0
758 140 -694 0
-908 132 0
-908 844 0
908 -132 -844 0
-972 -133 0
-972 908 0
972 133 -908 0
-1122 125 0
-1122 1058 0
1122 -125 -1058 0
-1186 -126 0
-1186 1122 0
1186 126 -1122 0
-1336 118 0
-1336 1272 0
1336 -118 -1272 0
-1400 -119 0
-1400 1336 0
1400 119 -1336 0
-1550 111 0
-1550 1486 0
1550 -111 -1486 0
-1614 -112 0
-1614 1550 0
1614 112 -1550 0
-1764 104 0
-1764 1700 0
1764 -104 -1700 0
-1828 -105 0
-1828 1764 0
1828 105 -1764 0
-1978 97 0
-1978 1914 0
1978 -97 -1914 0
-2042 -98 0
-2042 1978 0
2042 98 -1978 0
-2132 -1828 0
-2132 -2042 0
2132 1828 2042 0
-2222 -1614 0
-2222 2132 0
2222 1614 -2132 0
-2312 -1400 0
-2312 2222 0
2312 1400 -2222 0
-2402 -1186 0
-2402 2312 0
2402 1186 -2312 0
-2492 -972 0
-2492 2402 0
2492 972 -2402 0
-2582 -758 0
-2582 2492 0
2582 758 -2492 0
-2672 -544 0
-2672 2582 0
2672 544 -2582 0
-2762 -330 0
-2762 2672 0
2762 330 -2672 0
-2954 53 0
-2954 2762 0
2954 -53 -2762 0
-2955 -53 0
-2955 -2762 0
2955 53 2762 0
-2956 -2954 0
-2956 -2955 0
2956 2954 2955 0
52 -9332 0
-52 9332 0
-265 153 0
-265 201 0
265 -153 -201 0
-329 -154 0
-329 265 0
329 154 -265 0
-479 146 0
-479 415 0
479 -146 -415 0
-543 -147 0
-543 479 0
543 147 -479 0
-693 139 0
-693 629 0
693 -139 -629 0
-757 -140 0
-757 693 0
757 140 -693 0
-907 132 0
-907 843 0
907 -132 -843 0
-971 -133 0
-971 907 0
971 133 -907 0
-1121 125 0
-1121 1057 0
1121 -125 -1057 0
-1185 -126 0
-1185 1121 0
1185 126 -1121 0
-1335 118 0
-1335 1271 0
1335 -118 -1271 0
-1399 -119 0
-1399 1335 0
1399 119 -1335 0
-1549 111 0
-1549 1485 0
1549 -111 -1485 0
-1613 -112 0
-1613 1549 0
1613 112 -1549 0
-1763 104 0
-1763 1699 0
1763 -104 -1699 0
-1827 -105 0
-1827 1763 0
1827 105 -1763 0
-1977 97 0
-1977 1913 0
1977 -97 -1913 0
-2041 -98 0
-2041 1977 0
2041 98 -1977 0
-2131 -1827 0
-2131 -2041 0
2131 1827 2041 0
-2221 -1613 0
-2221 2131 0
2221 1613 -2131 0
-2311 -1399 0
-2311 2221 0
2311 1399 -2221 0
-2401 -1185 0
-2401 2311 0
2401 1185 -2311 0
-2491 -971 0
-2491 2401 0
2491 971 -2401 0
-2581 -757 0
-2581 2491 0
2581 757 -2491 0
-2671 -543 0
-2671 2581 0
2671 543 -2581 0
-2761 -329 0
-2761 2671 0
2761 329 -2671 0
-2951 52 0
-2951 2761 0
2951 -52 -2761 0
-2952 -52 0
-2952 -2761 0
2952 52 2761 0
-2953 -2951 0
-2953 -2952 0
2953 2951 2952 0
51 -9331 0
-51 9331 0
-264 153 0
-264 200 0
264 -153 -200 0
-328 -154 0
-328 264 0
328 154 -264 0
-478 146 0
-478 414 0
478 -146 -414 0
-542 -147 0
-542 478 0
542 147 -478 0
-692 139 0
-692 628 0
692 -139 -628 0
-756 -140 0
-756 692 0
756 140 -692 0
-906 132 0
-906 842 0
906 -132 -842 0
-970 -133 0
-970 906 0
970 133 -906 0
-1120 125 0
-1120 1056 0
1120 -125 -1056 0
-1184 -126 0
-1184 1120 0
1184 126 -1120 0
-1334 118 0
-1334 1270 0
1334 -118 -1270 0
-1398 -119 0
-1398 1334 0
1398 119 -1334 0
-1548 111 0
-1548 1484 0
1548 -111 -1484 0
-1612 -112 0
-1612 1548 0
1612 112 -1548 0
-1762 104 0
-1762 1698 0
1762 -104 -1698 0
-1826 -105 0
-1826 1762 0
1826 105 -1762 0
-1976 97 0
-1976 1912 0
1976 -97 -1912 0
-2040 -98 0
-2040 1976 0
2040 98 -1976 0
-2130 -1826 0
-2130 -2040 0
2130 1826 2040 0
-2220 -1612 0
-2220 2130 0
2220 1612 -2130 0
-2310 -1398 0
-2310 2220 0
2310 1398 -2220 0
-2400 -1184 0
-2400 2310 0
2400 1184 -2310 0
-2490 -970 0
-2490 2400 0
2490 970 -2400 0
-2580 -756 0
-2580 2490 0
2580 756 -2490 0
-2670 -542 0
-2670 2580 0
2670 542 -2580 0
-2760 -328 0
-2760 2670 0
2760 328 -2670 0
-2948 51 0
-2948 2760 0
2948 -51 -2760 0
-2949 -51 0
-2949 -2760 0
2949 51 2760 0
-2950 -2948 0
-2950 -2949 0
2950 2948 2949 0
50 -9330 0
-50 9330 0
-263 153 0
-263 199 0
263 -153 -199 0
-327 -154 0
-327 263 0
327 154 -263 0
-477 146 0
-477 413 0
477 -146 -413 0
-541 -147 0
-541 477 0
541 147 -477 0
-691 139 0
-691 627 0
691 -139 -627 0
-755 -140 0
-755 691 0
755 140 -691 0
-905 132 0
-905 841 0
905 -132 -841 0
-969 -133 0
-969 905 0
969 133 -905 0
-1119 125 0
-1119 1055 0
1119 -125 -1055 0
-1183 -126 0
-1183 1119 0
1183 126 -1119 0
-1333 118 0
-1333 1269 0
1333 -118 -1269 0
-1397 -119 0
-1397 1333 0
1397 119 -1333 0
-1547 111 0
-1547 1483 0
1547 -111 -1483 0
-1611 -112 0
-1611 1547 0
1611 112 -1547 0
-1761 104 0
-1761 1697 0
1761 -104 -1697 0
-1825 -105 0
-1825 1761 0
1825 105 -1761 0
-1975 97 0
-1975 1911 0
1975 -97 -1911 0
-2039 -98 0
-2039 1975 0
2039 98 -1975 0
-2129 -1825 0
-2129 -2039 0
2129 1825 2039 0
-2219 -1611 0
-2219 2129 0
2219 1611 -2129 0
-2309 -1397 0
-2309 2219 0
2309 1397 -2219 0
-2399 -1183 0
-2399 2309 0
2399 1183 -2309 0
-2489 -969 0
-2489 2399 0
2489 969 -2399 0
-2579 -755 0
-2579 2489 0
2579 755 -2489 0
-2669 -541 0
-2669 2579 0
2669 541 -2579 0
-2759 -327 0
-2759 2669 0
2759 327 -2669 0
-2945 50 0
-2945 2759 0
2945 -50 -2759 0
-2946 -50 0
-2946 -2759 0
2946 50 2759 0
-2947 -2945 0
-2947 -2946 0
2947 2945 2946 0
49 -9329 0
-49 9329 0
-262 153 0
-262 198 0
262 -153 -198 0
-326 -154 0
-326 262 0
326 154 -262 0
-476 146 0
-476 412 0
476 -146 -412 0
-540 -147 0
-540 476 0
540 147 -476 0
-690 139 0
-690 626 0
690 -139 -626 0
-754 -140 0
-754 690 0
754 140 -690 0
-904 132 0
-904 840 0
904 -132 -840 0
-968 -133 0
-968 904 0
968 133 -904 0
-1118 125 0
-1118 1054 0
1118 -125 -1054 0
-1182 -126 0
-1182 1118 0
1182 126 -1118 0
-1332 118 0
-1332 1268 0
1332 -118 -1268 0
-1396 -119 0
-1396 1332 0
1396 119 -1332 0
-1546 111 0
-1546 1482 0
1546 -111 -1482 0
-1610 -112 0
-1610 1546 0
1610 112 -1546 0
-1760 104 0
-1760 1696 0
1760 -104 -1696 0
-1824 -105 0
-1824 1760 0
1824 105 -1760 0
-1974 97 0
-1974 1910 0
1974 -97 -1910 0
-2038 -98 0
-2038 1974 0
2038 98 -1974 0
-2128 -1824 0
-2128 -2038 0
2128 1824 2038 0
-2218 -1610 0
-2218 2128 0
2218 1610 -2128 0
-2308 -1396 0
-2308 2218 0
2308 1396 -2218 0
-2398 -1182 0
-2398 2308 0
2398 1182 -2308 0
-2488 -968 0
-2488 2398 0
2488 968 -2398 0
-2578 -754 0
-2578 2488 0
2578 754 -2488 0
-2668 -540 0
-2668 2578 0
2668 540 -2578 0
-2758 -326 0
-2758 2668 0
2758 326 -2668 0
-2942 49 0
-2942 2758 0
2942 -49 -2758 0
-2943 -49 0
-2943 -2758 0
2943 49 2758 0
-2944 -2942 0
-2944 -2943 0
2944 2942 2943 0
48 -9328 0
-48 9328 0
-261 153 0
-261 197 0
261 -153 -197 0
-325 -154 0
-325 261 0
325 154 -261 0
-475 146 0
-475 411 0
475 -146 -411 0
-539 -147 0
-539 475 0
539 147 -475 0
-689 139 0
-689 625 0
689 -139 -625 0
-753 -140 0
-753 689 0
753 140 -689 0
-903 132 0
-903 839 0
903 -132 -839 0
-967 -133 0
-967 903 0
967 133 -903 0
-1117 125 0
-1117 1053 0
1117 -125 -1053 0
-1181 -126 0
-1181 1117 0
1181 126 -1117 0
-1331 118 0
-1331 1267 0
1331 -118 -1267 0
-1395 -119 0
-1395 1331 0
1395 119 -1331 0
-1545 111 0
-1545 1481 0
1545 -111 -1481 0
-1609 -112 0
-1609 1545 0
1609 112 -1545 0
-1759 104 0
-1759 1695 0
1759 -104 -1695 0
-1823 -105 0
-1823 1759 0
1823 105 -1759 0
-1973 97 0
-1973 1909 0
1973 -97 -1909 0
-2037 -98 0
-2037 1973 0
2037 98 -1973 0
-2127 -1823 0
-2127 -2037 0
2127 1823 2037 0
-2217 -1609 0
-2217 2127 0
2217 1609 -2127 0
-2307 -1395 0
-2307 2217 0
2307 1395 -2217 0
-2397 -1181 0
-2397 2307 0
2397 1181 -2307 0
-2487 -967 0
-2487 2397 0
2487 967 -2397 0
-2577 -753 0
-2577 2487 0
2577 753 -2487 0
-2667 -539 0
-2667 2577 0
2667 539 -2577 0
-2757 -325 0
-2757 2667 0
2757 325 -2667 0
-2939 48 0
-2939 2757 0
2939 -48 -2757 0
-2940 -48 0
-2940 -2757 0
2940 48 2757 0
-2941 -2939 0
-2941 -2940 0
2941 2939 2940 0
47 -9327 0
-47 9327 0
-260 153 0
-260 196 0
260 -153 -196 0
-324 -154 0
-324 260 0
324 154 -260 0
-474 146 0
-474 410 0
474 -146 -410 0
-538 -147 0
-538 474 0
538 147 -474 0
-688 139 0
-688 624 0
688 -139 -624 0
-752 -140 0
-752 688 0
752 140 -688 0
-902 132 0
-902 838 0
902 -132 -838 0
-966 -133 0
-966 902 0
966 133 -902 0
-1116 125 0
-1116 1052 0
1116 -125 -1052 0
-1180 -126 0
-1180 1116 0
1180 126 -1116 0
-1330 118 0
-1330 1266 0
1330 -118 -1266 0
-1394 -119 0
-1394 1330 0
1394 119 -1330 0
-1544 111 0
-1544 1480 0
1544 -111 -1480 0
-1608 -112 0
-1608 1544 0
1608 112 -1544 0
-1758 104 0
-1758 1694 0
1758 -104 -1694 0
-1822 -105 0
-1822 1758 0
1822 105 -1758 0
-1972 97 0
-1972 1908 0
1972 -97 -1908 0
-2036 -98 0
-2036 1972 0
2036 98 -1972 0
-2126 -1822 0
-2126 -2036 0
2126 1822 2036 0
-2216 -1608 0
-2216 2126 0
2216 1608 -2126 0
-2306 -1394 0
-2306 2216 0
2306 1394 -2216 0
-2396 -1180 0
-2396 2306 0
2396 1180 -2306 0
-2486 -966 0
-2486 2396 0
2486 966 -2396 0
-2576 -752 0
-2576 2486 0
2576 752 -2486 0
-2666 -538 0
-2666 2576 0
2666 538 -2576 0
-2756 -324 0
-2756 2666 0
2756 324 -2666 0
-2936 47 0
-2936 2756 0
2936 -47 -2756 0
-2937 -47 0
-2937 -2756 0
2937 47 2756 0
-2938 -2936 0
-2938 -2937 0
2938 2936 2937 0
46 -9326 0
-46 9326 0
-259 153 0
-259 195 0
259 -153 -195 0
-323 -154 0
-323 259 0
323 154 -259 0
-473 146 0
-473 409 0
473 -146 -409 0
-537 -147 0
-537 473 0
537 147 -473 0
-687 139 0
-687 623 0
687 -139 -623 0
-751 -140 0
-751 687 0
751 140 -687 0
-901 132 0
-901 837 0
901 -132 -837 0
-965 -133 0
-965 901 0
965 133 -901 0
-1115 125 0
-1115 1051 0
1115 -125 -1051 0
-1179 -126 0
-1179 1115 0
1179 126 -1115 0
-1329 118 0
-1329 1265 0
1329 -118 -1265 0
-1393 -119 0
-1393 1329 0
1393 119 -1329 0
-1543 111 0
-1543 1479 0
1543 -111 -1479 0
-1607 -112 0
-1607 1543 0
1607 112 -1543 0
-1757 104 0
-1757 1693 0
1757 -104 -1693 0
-1821 -105 0
-1821 1757 0
1821 105 -1757 0
-1971 97 0
-1971 1907 0
1971 -97 -1907 0
-2035 -98 0
-2035 1971 0
2035 98 -1971 0
-2125 -1821 0
-2125 -2035 0
2125 1821 2035 0
-2215 -1607 0
-2215 2125 0
2215 1607 -2125 0
-2305 -1393 0
-2305 2215 0
2305 1393 -2215 0
-2395 -1179 0
-2395 2305 0
2395 1179 -2305 0
-2485 -965 0
-2485 2395 0
2485 965 -2395 0
-2575 -751 0
-2575 2485 0
2575 751 -2485 0
-2665 -537 0
-2665 2575 0
2665 537 -2575 0
-2755 -323 0
-2755 2665 0
2755 323 -2665 0
-2933 46 0
-2933 2755 0
2933 -46 -2755 0
-2934 -46 0
-2934 -2755 0
2934 46 2755 0
-2935 -2933 0
-2935 -2934 0
2935 2933 2934 0
45 -9325 0
-45 9325 0
-258 153 0
-258 194 0
258 -153 -194 0
-322 -154 0
-322 258 0
322 154 -258 0
-472 146 0
-472 408 0
472 -146 -408 0
-536 -147 0
-536 472 0
536 147 -472 0
-686 139 0
-686 622 0
686 -139 -622 0
-750 -140 0
-750 686 0
750 140 -686 0
-900 132 0
-900 836 0
900 -132 -836 0
-964 -133 0
-964 900 0
964 133 -900 0
-1114 125 0
-1114 1050 0
1114 -125 -1050 0
-1178 -126 0
-1178 1114 0
1178 126 -1114 0
-1328 118 0
-1328 1264 0
1328 -118 -1264 0
-1392 -119 0
-1392 1328 0
1392 119 -1328 0
-1542 111 0
-1542 1478 0
1542 -111 -1478 0
-1606 -112 0
-1606 1542 0
1606 112 -1542 0
-1756 104 0
-1756 1692 0
1756 -104 -1692 0
-1820 -105 0
-1820 1756 0
1820 105 -1756 0
-1970 97 0
-1970 1906 0
1970 -97 -1906 0
-2034 -98 0
-2034 1970 0
2034 98 -1970 0
-2124 -1820 0
-2124 -2034 0
2124 1820 2034 0
-2214 -1606 0
-2214 2124 0
2214 1606 -2124 0
-2304 -1392 0
-2304 2214 0
2304 1392 -2214 0
-2394 -1178 0
-2394 2304 0
2394 1178 -2304 0
-2484 -964 0
-2484 2394 0
2484 964 -2394 0
-2574 -750 0
-2574 2484 0
2574 750 -2484 0
-2664 -536 0
-2664 2574 0
2664 536 -2574 0
-2754 -322 0
-2754 2664 0
2754 322 -2664 0
-2930 45 0
-2930 2754 0
2930 -45 -2754 0
-2931 -45 0
-2931 -2754 0
2931 45 2754 0
-2932 -2930 0
-2932 -2931 0
2932 2930 2931 0
44 -9324 0
-44 9324 0
-257 153 0
-257 193 0
257 -153 -193 0
-321 -154 0
-321 257 0
321 154 -257 0
-471 146 0
-471 407 0
471 -146 -407 0
-535 -147 0
-535 471 0
535 147 -471 0
-685 139 0
-685 621 0
685 -139 -621 0
-749 -140 0
-749 685 0
749 140 -685 0
-899 132 0
-899 835 0
899 -132 -835 0
-963 -133 0
-963 899 0
963 133 -899 0
-1113 125 0
-1113 1049 0
1113 -125 -1049 0
-1177 -126 0
-1177 1113 0
1177 126 -1113 0
-1327 118 0
-1327 1263 0
1327 -118 -1263 0
-1391 -119 0
-1391 1327 0
1391 119 -1327 0
-1541 111 0
-1541 1477 0
1541 -111 -1477 0
-1605 -112 0
-1605 1541 0
1605 112 -1541 0
-1755 104 0
-1755 1691 0
1755 -104 -1691 0
-1819 -105 0
-1819 1755 0
1819 105 -1755 0
-1969 97 0
-1969 1905 0
1969 -97 -1905 0
-2033 -98 0
-2033 1969 0
2033 98 -1969 0
-2123 -1819 0
-2123 -2033 0
2123 1819 2033 0
-2213 -1605 0
-2213 2123 0
2213 1605 -2123 0
-2303 -1391 0
-2303 2213 0
2303 1391 -2213 0
-2393 -1177 0
-2393 2303 0
2393 1177 -2303 0
-2483 -963 0
-2483 2393 0
2483 963 -2393 0
-2573 -749 0
-2573 2483 0
2573 749 -2483 0
-2663 -535 0
-2663 2573 0
2663 535 -2573 0
-2753 -321 0
-2753 2663 0
2753 321 -2663 0
-2927 44 0
-2927 2753 0
2927 -44 -2753 0
-2928 -44 0
-2928 -2753 0
2928 44 2753 0
-2929 -2927 0
-2929 -2928 0
2929 2927 2928 0
43 -9323 0
-43 9323 0
-256 153 0
-256 192 0
256 -153 -192 0
-320 -154 0
-320 256 0
320 154 -256 0
-470 146 0
-470 406 0
470 -146 -406 0
-534 -147 0
-534 470 0
534 147 -470 0
-684 139 0
-684 620 0
684 -139 -620 0
-748 -140 0
-748 684 0
748 140 -684 0
-898 132 0
-898 834 0
898 -132 -834 0
-962 -133 0
-962 898 0
962 133 -898 0
-1112 125 0
-1112 1048 0
1112 -125 -1048 0
-1176 -126 0
-1176 1112 0
1176 126 -1112 0
-1326 118 0
-1326 1262 0
1326 -118 -1262 0
-1390 -119 0
-1390 1326 0
1390 119 -1326 0
-1540 111 0
-1540 1476 0
1540 -111 -1476 0
-1604 -112 0
-1604 1540 0
1604 112 -1540 0
-1754 104 0
-1754 1690 0
1754 -104 -1690 0
-1818 -105 0
-1818 1754 0
1818 105 -1754 0
-1968 97 0
-1968 1904 0
1968 -97 -1904 0
-2032 -98 0
-2032 1968 0
2032 98 -1968 0
-2122 -1818 0
-2122 -2032 0
2122 1818 2032 0
-2212 -1604 0
-2212 2122 0
2212 1604 -2122 0
-2302 -1390 0
-2302 2212 0
2302 1390 -2212 0
-2392 -1176 0
-2392 2302 0
2392 1176 -2302 0
-2482 -962 0
-2482 2392 0
2482 962 -2392 0
-2572 -748 0
-2572 2482 0
2572 748 -2482 0
-2662 -534 0
-2662 2572 0
2662 534 -2572 0
-2752 -320 0
-2752 2662 0
2752 320 -2662 0
-2924 43 0
-2924 2752 0
2924 -43 -2752 0
-2925 -43 0
-2925 -2752 0
2925 43 2752 0
-2926 -2924 0
-2926 -2925 0
2926 2924 2925 0
42 -9322 0
-42 9322 0
-255 153 0
-255 191 0
255 -153 -191 0
-319 -154 0
-319 255 0
319 154 -255 0
-469 146 0
-469 405 0
469 -146 -405 0
-533 -147 0
-533 469 0
533 147 -469 0
-683 139 0
-683 619 0
683 -139 -619 0
-747 -140 0
-747 683 0
747 140 -683 0
-897 132 0
-897 833 0
897 -132 -833 0
-961 -133 0
-961 897 0
961 133 -897 0
-1111 125 0
-1111 1047 0
1111 -125 -1047 0
-1175 -126 0
-1175 1111 0
1175 126 -1111 0
-1325 118 0
-1325 1261 0
1325 -118 -1261 0
-1389 -119 0
-1389 1325 0
1389 119 -1325 0
-1539 111 0
-1539 1475 0
1539 -111 -1475 0
-1603 -112 0
-1603 1539 0
1603 112 -1539 0
-1753 104 0
-1753 1689 0
1753 -104 -1689 0
-1817 -105 0
-1817 1753 0
1817 105 -1753 0
-1967 97 0
-1967 1903 0
1967 -97 -1903 0
-2031 -98 0
-2031 1967 0
2031 98 -1967 0
-2121 -1817 0
-2121 -2031 0
2121 1817 2031 0
-2211 -1603 0
-2211 2121 0
2211 1603 -2121 0
-2301 -1389 0
-2301 2211 0
2301 1389 -2211 0
-2391 -1175 0
-2391 2301 0
2391 1175 -2301 0
-2481 -961 0
-2481 2391 0
2481 961 -2391 0
-2571 -747 0
-2571 2481 0
2571 747 -2481 0
-2661 -533 0
-2661 2571 0
2661 533 -2571 0
-2751 -319 0
-2751 2661 0
2751 319 -2661 0
-2921 42 0
-2921 2751 0
2921 -42 -2751 0
-2922 -42 0
-2922 -2751 0
2922 42 2751 0
-2923 -2921 0
-2923 -2922 0
2923 2921 2922 0
41 -9321 0
-41 9321 0
-254 153 0
-254 190 0
254 -153 -190 0
-318 -154 0
-318 254 0
318 154 -254 0
-468 146 0
-468 404 0
468 -146 -404 0
-532 -147 0
-532 468 0
532 147 -468 0
-682 139 0
-682 618 0
682 -139 -618 0
-746 -140 0
-746 682 0
746 140 -682 0
-896 132 0
-896 832 0
896 -132 -832 0
-960 -133 0
-960 896 0
960 133 -896 0
-1110 125 0
-1110 1046 0
1110 -125 -1046 0
-1174 -126 0
-1174 1110 0
1174 126 -1110 0
-1324 118 0
-1324 1260 0
1324 -118 -1260 0
-1388 -119 0
-1388 1324 0
1388 119 -1324 0
-1538 111 0
-1538 1474 0
1538 -111 -1474 0
-1602 -112 0
-1602 1538 0
1602 112 -1538 0
-1752 104 0
-1752 1688 0
1752 -104 -1688 0
-1816 -105 0
-1816 1752 0
1816 105 -1752 0
-1966 97 0
-1966 1902 0
1966 -97 -1902 0
-2030 -98 0
-2030 1966 0
2030 98 -1966 0
-2120 -1816 0
-2120 -2030 0
2120 1816 2030 0
-2210 -1602 0
-2210 2120 0
2210 1602 -2120 0
-2300 -1388 0
-2300 2210 0
2300 1388 -2210 0
-2390 -1174 0
-2390 2300 0
2390 1174 -2300 0
-2480 -960 0
-2480 2390 0
2480 960 -2390 0
-2570 -746 0
-2570 2480 0
2570 746 -2480 0
-2660 -532 0
-2660 2570 0
2660 532 -2570 0
-2750 -318 0
-2750 2660 0
2750 318 -2660 0
-2918 41 0
-2918 2750 0
2918 -41 -2750 0
-2919 -41 0
-2919 -2750 0
2919 41 2750 0
-2920 -2918 0
-2920 -2919 0
2920 2918 2919 0
40 -9320 0
-40 9320 0
-253 153 0
-253 189 0
253 -153 -189 0
-317 -154 0
-317 253 0
317 154 -253 0
-467 146 0
-467 403 0
467 -146 -403 0
-531 -147 0
-531 467 0
531 147 -467 0
-681 139 0
-681 617 0
681 -139 -617 0
-745 -140 0
-745 681 0
745 140 -681 0
-895 132 0
-895 831 0
895 -132 -831 0
-959 -133 0
-959 895 0
959 133 -895 0
-1109 125 0
-1109 1045 0
1109 -125 -1045 0
-1173 -126 0
-1173 1109 0
1173 126 -1109 0
-1323 118 0
-1323 1259 0
1323 -118 -1259 0
-1387 -119 0
-1387 1323 0
1387 119 -1323 0
-1537 111 0
-1537 1473 0
1537 -111 -1473 0
-1601 -112 0
-1601 1537 0
1601 112 -1537 0
-1751 104 0
-1751 1687 0
1751 -104 -1687 0
-1815 -105 0
-1815 1751 0
1815 105 -1751 0
-1965 97 0
-1965 1901 0
1965 -97 -1901 0
-2029 -98 0
-2029 1965 0
2029 98 -1965 0
-2119 -1815 0
-2119 -2029 0
2119 1815 2029 0
-2209 -1601 0
-2209 2119 0
2209 1601 -2119 0
-2299 -1387 0
-2299 2209 0
2299 1387 -2209 0
-2389 -1173 0
-2389 2299 0
2389 1173 -2299 0
-2479 -959 0
-2479 2389 0
2479 959 -2389 0
-2569 -745 0
-2569 2479 0
2569 745 -2479 0
-2659 -531 0
-2659 2569 0
2659 531 -2569 0
-2749 -317 0
-2749 2659 0
2749 317 -2659 0
-2915 40 0
-2915 2749 0
2915 -40 -2749 0
-2916 -40 0
-2916 -2749 0
2916 40 2749 0
-2917 -2915 0
-2917 -2916 0
2917 2915 2916 0
39 -9319 0
-39 9319 0
-252 153 0
-252 188 0
252 -153 -188 0
-316 -154 0
-316 252 0
316 154 -252 0
-466 146 0
-466 402 0
466 -146 -402 0
-530 -147 0
-530 466 0
530 147 -466 0
-680 139 0
-680 616 0
680 -139 -616 0
-744 -140 0
-744 680 0
744 140 -680 0
-894 132 0
-894 830 0
894 -132 -830 0
-958 -133 0
-958 894 0
958 133 -894 0
-1108 125 0
-1108 1044 0
1108 -125 -1044 0
-1172 -126 0
-1172 1108 0
1172 126 -1108 0
-1322 118 0
-1322 1258 0
1322 -118 -1258 0
-1386 -119 0
-1386 1322 0
1386 119 -1322 0
-1536 111 0
-1536 1472 0
1536 -111 -1472 0
-1600 -112 0
-1600 1536 0
1600 112 -1536 0
-1750 104 0
-1750 1686 0
1750 -104 -1686 0
-1814 -105 0
-1814 1750 0
1814 105 -1750 0
-1964 97 0
-1964 1900 0
1964 -97 -1900 0
-2028 -98 0
-2028 1964 0
2028 98 -1964 0
-2118 -1814 0
-2118 -2028 0
2118 1814 2028 0
-2208 -1600 0
-2208 2118 0
2208 1600 -2118 0
-2298 -1386 0
-2298 2208 0
2298 1386 -2208 0
-2388 -1172 0
-2388 2298 0
2388 1172 -2298 0
-2478 -958 0
-2478 2388 0
2478 958 -2388 0
-2568 -744 0
-2568 2478 0
2568 744 -2478 0
-2658 -530 0
-2658 2568 0
2658 530 -2568 0
-2748 -316 0
-2748 2658 0
2748 316 -2658 0
-2912 39 0
-2912 2748 0
2912 -39 -2748 0
-2913 -39 0
-2913 -2748 0
2913 39 2748 0
-2914 -2912 0
-2914 -2913 0
2914 2912 2913 0
38 -9318 0
-38 9318 0
-251 153 0
-251 187 0
251 -153 -187 0
-315 -154 0
-315 251 0
315 154 -251 0
-465 146 0
-465 401 0
465 -146 -401 0
-529 -147 0
-529 465 0
529 147 -465 0
-679 139 0
-679 615 0
679 -139 -615 0
-743 -140 0
-743 679 0
743 140 -679 0
-893 132 0
-893 829 0
893 -132 -829 0
-957 -133 0
-957 893 0
957 133 -893 0
-1107 125 0
-1107 1043 0
1107 -125 -1043 0
-1171 -126 0
-1171 1107 0
1171 126 -1107 0
-1321 118 0
-1321 1257 0
1321 -118 -1257 0
-1385 -119 0
-1385 1321 0
1385 119 -1321 0
-1535 111 0
-1535 1471 0
1535 -111 -1471 0
-1599 -112 0
-1599 1535 0
1599 112 -1535 0
-1749 104 0
-1749 1685 0
1749 -104 -1685 0
-1813 -105 0
-1813 1749 0
1813 105 -1749 0
-1963 97 0
-1963 1899 0
1963 -97 -1899 0
-2027 -98 0
-2027 1963 0
2027 98 -1963 0
-2117 -1813 0
-2117 -2027 0
2117 1813 2027 0
-2207 -1599 0
-2207 2117 0
2207 1599 -2117 0
-2297 -1385 0
-2297 2207 0
2297 1385 -2207 0
-2387 -1171 0
-2387 2297 0
2387 1171 -2297 0
-2477 -957 0
-2477 2387 0
2477 957 -2387 0
-2567 -743 0
-2567 2477 0
2567 743 -2477 0
-2657 -529 0
-2657 2567 0
2657 529 -2567 0
-2747 -315 0
-2747 2657 0
2747 315 -2657 0
-2909 38 0
-2909 2747 0
2909 -38 -2747 0
-2910 -38 0
-2910 -2747 0
2910 38 2747 0
-2911 -2909 0
-2911 -2910 0
2911 2909 2910 0
37 -9317 0
-37 9317 0
-250 153 0
-250 186 0
250 -153 -186 0
-314 -154 0
-314 250 0
314 154 -250 0
-464 146 0
-464 400 0
464 -146 -400 0
-528 -147 0
-528 464 0
528 147 -464 0
-678 139 0
-678 614 0
678 -139 -614 0
-742 -140 0
-742 678 0
742 140 -678 0
-892 132 0
-892 828 0
892 -132 -828 0
-956 -133 0
-956 892 0
956 133 -892 0
-1106 125 0
-1106 1042 0
1106 -125 -1042 0
-1170 -126 0
-1170 1106 0
1170 126 -1106 0
-1320 118 0
-1320 1256 0
1320 -118 -1256 0
-1384 -119 0
-1384 1320 0
1384 119 -1320 0
-1534 111 0
-1534 1470 0
1534 -111 -1470 0
-1598 -112 0
-1598 1534 0
1598 112 -1534 0
-1748 104 0
-1748 1684 0
1748 -104 -1684 0
-1812 -105 0
-1812 1748 0
1812 105 -1748 0
-1962 97 0
-1962 1898 0
1962 -97 -1898 0
-2026 -98 0
-2026 1962 0
2026 98 -1962 0
-2116 -1812 0
-2116 -2026 0
2116 1812 2026 0
-2206 -1598 0
-2206 2116 0
2206 1598 -2116 0
-2296 -1384 0
-2296 2206 0
2296 1384 -2206 0
-2386 -1170 0
-2386 2296 0
2386 1170 -2296 0
-2476 -956 0
-2476 2386 0
2476 956 -2386 0
-2566 -742 0
-2566 2476 0
2566 742 -2476 0
-2656 -528 0
-2656 2566 0
2656 528 -2566 0
-2746 -314 0
-2746 2656 0
2746 314 -2656 0
-2906 37 0
-2906 2746 0
2906 -37 -2746 0
-2907 -37 0
-2907 -2746 0
2907 37 2746 0
-2908 -2906 0
-2908 -2907 0
2908 2906 2907 0
36 -9316 0
-36 9316 0
-249 153 0
-249 185 0
249 -153 -185 0
-313 -154 0
-313 249 0
313 154 -249 0
-463 146 0
-463 399 0
463 -146 -399 0
-527 -147 0
-527 463 0
527 147 -463 0
-677 139 0
-677 613 0
677 -139 -613 0
-741 -140 0
-741 677 0
741 140 -677 0
-891 132 0
-891 827 0
891 -132 -827 0
-955 -133 0
-955 891 0
955 133 -891 0
-1105 125 0
-1105 1041 0
1105 -125 -1041 0
-1169 -126 0
-1169 1105 0
1169 126 -1105 0
-1319 118 0
-1319 1255 0
1319 -118 -1255 0
-1383 -119 0
-1383 1319 0
1383 119 -1319 0
-1533 111 0
-1533 1469 0
1533 -111 -1469 0
-1597 -112 0
-1597 1533 0
1597 112 -1533 0
-1747 104 0
-1747 1683 0
1747 -104 -1683 0
-1811 -105 0
-1811 1747 0
1811 105 -1747 0
-1961 97 0
-1961 1897 0
1961 -97 -1897 0
-2025 -98 0
-2025 1961 0
2025 98 -1961 0
-2115 -1811 0
-2115 -2025 0
2115 1811 2025 0
-2205 -1597 0
-2205 2115 0
2205 1597 -2115 0
-2295 -1383 0
-2295 2205 0
2295 1383 -2205 0
-2385 -1169 0
-2385 2295 0
2385 1169 -2295 0
-2475 -955 0
-2475 2385 0
2475 955 -2385 0
-2565 -741 0
-2565 2475 0
2565 741 -2475 0
-2655 -527 0
-2655 2565 0
2655 527 -2565 0
-2745 -313 0
-2745 2655 0
2745 313 -2655 0
-2903 36 0
-2903 2745 0
2903 -36 -2745 0
-2904 -36 0
-2904 -2745 0
2904 36 2745 0
-2905 -2903 0
-2905 -2904 0
2905 2903 2904 0
35 -9315 0
-35 9315 0
-248 153 0
-248 184 0
248 -153 -184 0
-312 -154 0
-312 248 0
312 154 -248 0
-462 146 0
-462 398 0
462 -146 -398 0
-526 -147 0
-526 462 0
526 147 -462 0
-676 139 0
-676 612 0
676 -139 -612 0
-740 -140 0
-740 676 0
740 140 -676 0
-890 132 0
-890 826 0
890 -132 -826 0
-954 -133 0
-954 890 0
954 133 -890 0
-1104 125 0
-1104 1040 0
1104 -125 -1040 0
-1168 -126 0
-1168 1104 0
1168 126 -1104 0
-1318 118 0
-1318 1254 0
1318 -118 -1254 0
-1382 -119 0
-1382 1318 0
1382 119 -1318 0
-1532 111 0
-1532 1468 0
1532 -111 -1468 0
-1596 -112 0
-1596 1532 0
1596 112 -1532 0
-1746 104 0
-1746 1682 0
1746 -104 -1682 0
-1810 -105 0
-1810 1746 0
1810 105 -1746 0
-1960 97 0
-1960 1896 0
1960 -97 -1896 0
-2024 -98 0
-2024 1960 0
2024 98 -1960 0
-2114 -1810 0
-2114 -2024 0
2114 1810 2024 0
-2204 -1596 0
-2204 2114 0
2204 1596 -2114 0
-2294 -1382 0
-2294 2204 0
2294 1382 -2204 0
-2384 -1168 0
-2384 2294 0
2384 1168 -2294 0
-2474 -954 0
-2474 2384 0
2474 954 -2384 0
-2564 -740 0
-2564 2474 0
2564 740 -2474 0
-2654 -526 0
-2654 2564 0
2654 526 -2564 0
-2744 -312 0
-2744 2654 0
2744 312 -2654 0
-2900 35 0
-2900 2744 0
2900 -35 -2744 0
-2901 -35 0
-2901 -2744 0
2901 35 2744 0
-2902 -2900 0
-2902 -2901 0
2902 2900 2901 0
34 -9314 0
-34 9314 0
-247 153 0
-247 183 0
247 -153 -183 0
-311 -154 0
-311 247 0
311 154 -247 0
-461 146 0
-461 397 0
461 -146 -397 0
-525 -147 0
-525 461 0
525 147 -461 0
-675 139 0
-675 611 0
675 -139 -611 0
-739 -140 0
-739 675 0
739 140 -675 0
-889 132 0
-889 825 0
889 -132 -825 0
-953 -133 0
-953 889 0
953 133 -889 0
-1103 125 0
-1103 1039 0
1103 -125 -1039 0
-1167 -126 0
-1167 1103 0
1167 126 -1103 0
-1317 118 0
-1317 1253 0
1317 -118 -1253 0
-1381 -119 0
-1381 1317 0
1381 119 -1317 0
-1531 111 0
-1531 1467 0
1531 -111 -1467 0
-1595 -112 0
-1595 1531 0
1595 112 -1531 0
-1745 104 0
-1745 1681 0
1745 -104 -1681 0
-1809 -105 0
-1809 1745 0
1809 105 -1745 0
-1959 97 0
-1959 1895 0
1959 -97 -1895 0
-2023 -98 0
-2023 1959 0
2023 98 -1959 0
-2113 -1809 0
-2113 -2023 0
2113 1809 2023 0
-2203 -1595 0
-2203 2113 0
2203 1595 -2113 0
-2293 -1381 0
-2293 2203 0
2293 1381 -2203 0
-2383 -1167 0
-2383 2293 0
2383 1167 -2293 0
-2473 -953 0
-2473 2383 0
2473 953 -2383 0
-2563 -739 0
-2563 2473 0
2563 739 -2473 0
-2653 -525 0
-2653 2563 0
2653 525 -2563 0
-2743 -311 0
-2743 2653 0
2743 311 -2653 0
-2897 34 0
-2897 2743 0
2897 -34 -2743 0
-2898 -34 0
-2898 -2743 0
2898 34 2743 0
-2899 -2897 0
-2899 -2898 0
2899 2897 2898 0
33 -9313 0
-33 9313 0
-246 -153 0
-246 214 0
246 153 -214 0
-310 -154 0
-310 246 0
310 154 -246 0
-460 -146 0
-460 428 0
460 146 -428 0
-524 -147 0
-524 460 0
524 147 -460 0
-674 -139 0
-674 642 0
674 139 -642 0
-738 -140 0
-738 674 0
738 140 -674 0
-888 -132 0
-888 856 0
888 132 -856 0
-952 -133 0
-952 888 0
952 133 -888 0
-1102 -125 0
-1102 1070 0
1102 125 -1070 0
-1166 -126 0
-1166 1102 0
1166 126 -1102 0
-1316 -118 0
-1316 1284 0
1316 118 -1284 0
-1380 -119 0
-1380 1316 0
1380 119 -1316 0
-1530 -111 0
-1530 1498 0
1530 111 -1498 0
-1594 -112 0
-1594 1530 0
1594 112 -1530 0
-1744 -104 0
-1744 1712 0
1744 104 -1712 0
-1808 -105 0
-1808 1744 0
1808 105 -1744 0
-1958 -97 0
-1958 1926 0
1958 97 -1926 0
-2022 -98 0
-2022 1958 0
2022 98 -1958 0
-2112 -1808 0
-2112 -2022 0
2112 1808 2022 0
-2202 -1594 0
-2202 2112 0
2202 1594 -2112 0
-2292 -1380 0
-2292 2202 0
2292 1380 -2202 0
-2382 -1166 0
-2382 2292 0
2382 1166 -2292 0
-2472 -952 0
-2472 2382 0
2472 952 -2382 0
-2562 -738 0
-2562 2472 0
2562 738 -2472 0
-2652 -524 0
-2652 2562 0
2652 524 -2562 0
-2742 -310 0
-2742 2652 0
2742 310 -2652 0
-2894 33 0
-2894 2742 0
2894 -33 -2742 0
-2895 -33 0
-2895 -2742 0
2895 33 2742 0
-2896 -2894 0
-2896 -2895 0
2896 2894 2895 0
32 -9312 0
-32 9312 0
-245 -153 0
-245 213 0
245 153 -213 0
-309 -154 0
-309 245 0
309 154 -245 0
-459 -146 0
-459 427 0
459 146 -427 0
-523 -147 0
-523 459 0
523 147 -459 0
-673 -139 0
-673 641 0
673 139 -641 0
-737 -140 0
-737 673 0
737 140 -673 0
-887 -132 0
-887 855 0
887 132 -855 0
-951 -133 0
-951 887 0
951 133 -887 0
-1101 -125 0
-1101 1069 0
1101 125 -1069 0
-1165 -126 0
-1165 1101 0
1165 126 -1101 0
-1315 -118 0
-1315 1283 0
1315 118 -1283 0
-1379 -119 0
-1379 1315 0
1379 119 -1315 0
-1529 -111 0
-1529 1497 0
1529 111 -1497 0
-1593 -112 0
-1593 1529 0
1593 112 -1529 0
-1743 -104 0
-1743 1711 0
1743 104 -1711 0
-1807 -105 0
-1807 1743 0
1807 105 -1743 0
-1957 -97 0
-1957 1925 0
1957 97 -1925 0
-2021 -98 0
-2021 1957 0
2021 98 -1957 0
-2111 -1807 0
-2111 -2021 0
2111 1807 2021 0
-2201 -1593 0
-2201 2111 0
2201 1593 -2111 0
-2291 -1379 0
-2291 2201 0
2291 1379 -2201 0
-2381 -1165 0
-2381 2291 0
2381 1165 -2291 0
-2471 -951 0
-2471 2381 0
2471 951 -2381 0
-2561 -737 0
-2561 2471 0
2561 737 -2471 0
-2651 -523 0
-2651 2561 0
2651 523 -2561 0
-2741 -309 0
-2741 2651 0
2741 309 -2651 0
-2891 32 0
-2891 2741 0
2891 -32 -2741 0
-2892 -32 0
-2892 -2741 0
2892 32 2741 0
-2893 -2891 0
-2893 -2892 0
2893 2891 2892 0
31 -9311 0
-31 9311 0
-244 -153 0
-244 212 0
244 153 -212 0
-308 -154 0
-308 244 0
308 154 -244 0
-458 -146 0
-458 426 0
458 146 -426 0
-522 -147 0
-522 458 0
522 147 -458 0
-672 -139 0
-672 640 0
672 139 -640 0
-736 -140 0
-736 672 0
736 140 -672 0
-886 -132 0
-886 854 0
886 132 -854 0
-950 -133 0
-950 886 0
950 133 -886 0
-1100 -125 0
-1100 1068 0
1100 125 -1068 0
-1164 -126 0
-1164 1100 0
1164 126 -1100 0
-1314 -118 0
-1314 1282 0
1314 118 -1282 0
-1378 -119 0
-1378 1314 0
1378 119 -1314 0
-1528 -111 0
-1528 1496 0
1528 111 -1496 0
-1592 -112 0
-1592 1528 0
1592 112 -1528 0
-1742 -104 0
-1742 1710 0
1742 104 -1710 0
-1806 -105 0
-1806 1742 0
1806 105 -1742 0
-1956 -97 0
-1956 1924 0
1956 97 -1924 0
-2020 -98 0
-2020 1956 0
2020 98 -1956 0
-2110 -1806 0
-2110 -2020 0
2110 1806 2020 0
-2200 -1592 0
-2200 2110 0
2200 1592 -2110 0
-2290 -1378 0
-2290 2200 0
2290 1378 -2200 0
-2380 -1164 0
-2380 2290 0
2380 1164 -2290 0
-2470 -950 0
-2470 2380 0
2470 950 -2380 0
-2560 -736 0
-2560 2470 0
2560 736 -2470 0
-2650 -522 0
-2650 2560 0
2650 522 -2560 0
-2740 -308 0
-2740 2650 0
2740 308 -2650 0
-2888 31 0
-2888 2740 0
2888 -31 -2740 0
-2889 -31 0
-2889 -2740 0
2889 31 2740 0
-2890 -2888 0
-2890 -2889 0
2890 2888 2889 0
30 -9310 0
-30 9310 0
-243 -153 0
-243 211 0
243 153 -211 0
-307 -154 0
-307 243 0
307 154 -243 0
-457 -146 0
-457 425 0
457 146 -425 0
-521 -147 0
-521 457 0
521 147 -457 0
-671 -139 0
-671 639 0
671 139 -639 0
-735 -140 0
-735 671 0
735 140 -671 0
-885 -132 0
-885 853 0
885 132 -853 0
-949 -133 0
-949 885 0
949 133 -885 0
-1099 -125 0
-1099 1067 0
1099 125 -1067 0
-1163 -126 0
-1163 1099 0
1163 126 -1099 0
-1313 -118 0
-1313 1281 0
1313 118 -1281 0
-1377 -119 0
-1377 1313 0
1377 119 -1313 0
-1527 -111 0
-1527 1495 0
1527 111 -1495 0
-1591 -112 0
-1591 1527 0
1591 112 -1527 0
-1741 -104 0
-1741 1709 0
1741 104 -1709 0
-1805 -105 0
-1805 1741 0
1805 105 -1741 0
-1955 -97 0
-1955 1923 0
1955 97 -1923 0
-2019 -98 0
-2019 1955 0
2019 98 -1955 0
-2109 -1805 0
-2109 -2019 0
2109 1805 2019 0
-2199 -1591 0
-2199 2109 0
2199 1591 -2109 0
-2289 -1377 0
-2289 2199 0
2289 1377 -2199 0
-2379 -1163 0
-2379 2289 0
2379 1163 -2289 0
-2469 -949 0
-2469 2379 0
2469 949 -2379 0
-2559 -735 0
-2559 2469 0
2559 735 -2469 0
-2649 -521 0
-2649 2559 0
2649 521 -2559 0
-2739 -307 0
-2739 2649 0
2739 307 -2649 0
-2885 30 0
-2885 2739 0
2885 -30 -2739 0
-2886 -30 0
-2886 -2739 0
2886 30 2739 0
-2887 -2885 0
-2887 -2886 0
2887 2885 2886 0
29 -9309 0
-29 9309 0
-242 -153 0
-242 210 0
242 153 -210 0
-306 -154 0
-306 242 0
306 154 -242 0
-456 -146 0
-456 424 0
456 146 -424 0
-520 -147 0
-520 456 0
520 147 -456 0
-670 -139 0
-670 638 0
670 139 -638 0
-734 -140 0
-734 670 0
734 140 -670 0
-884 -132 0
-884 852 0
884 132 -852 0
-948 -133 0
-948 884 0
948 133 -884 0
-1098 -125 0
-1098 1066 0
1098 125 -1066 0
-1162 -126 0
-1162 1098 0
1162 126 -1098 0
-1312 -118 0
-1312 1280 0
1312 118 -1280 0
-1376 -119 0
-1376 1312 0
1376 119 -1312 0
-1526 -111 0
-1526 1494 0
1526 111 -1494 0
-1590 -112 0
-1590 1526 0
1590 112 -1526 0
-1740 -104 0
-1740 1708 0
1740 104 -1708 0
-1804 -105 0
-1804 1740 0
1804 105 -1740 0
-1954 -97 0
-1954 1922 0
1954 97 -1922 0
-2018 -98 0
-2018 1954 0
2018 98 -1954 0
-2108 -1804 0
-2108 -2018 0
2108 1804 2018 0
-2198 -1590 0
-2198 2108 0
2198 1590 -2108 0
-2288 -1376 0
-2288 2198 0
2288 1376 -2198 0
-2378 -1162 0
-2378 2288 0
2378 1162 -2288 0
-2468 -948 0
-2468 2378 0
2468 948 -2378 0
-2558 -734 0
-2558 2468 0
2558 734 -2468 0
-2648 -520 0
-2648 2558 0
2648 520 -2558 0
-2738 -306 0
-2738 2648 0
2738 306 -2648 0
-2882 29 0
-2882 2738 0
2882 -29 -2738 0
-2883 -29 0
-2883 -2738 0
2883 29 2738 0
-2884 -2882 0
-2884 -2883 0
2884 2882 2883 0
28 -9308 0
-28 9308 0
-241 -153 0
-241 209 0
241 153 -209 0
-305 -154 0
-305 241 0
305 154 -241 0
-455 -146 0
-455 423 0
455 146 -423 0
-519 -147 0
-519 455 0
519 147 -455 0
-669 -139 0
-669 637 0
669 139 -637 0
-733 -140 0
-733 669 0
733 140 -669 0
-883 -132 0
-883 851 0
883 132 -851 0
-947 -133 0
-947 883 0
947 133 -883 0
-1097 -125 0
-1097 1065 0
1097 125 -1065 0
-1161 -126 0
-1161 1097 0
1161 126 -1097 0
-1311 -118 0
-1311 1279 0
1311 118 -1279 0
-1375 -119 0
-1375 1311 0
1375 119 -1311 0
-1525 -111 0
-1525 1493 0
1525 111 -1493 0
-1589 -112 0
-1589 1525 0
1589 112 -1525 0
-1739 -104 0
-1739 1707 0
1739 104 -1707 0
-1803 -105 0
-1803 1739 0
1803 105 -1739 0
-1953 -97 0
-1953 1921 0
1953 97 -1921 0
-2017 -98 0
-2017 1953 0
2017 98 -1953 0
-2107 -1803 0
-2107 -2017 0
2107 1803 2017 0
-2197 -1589 0
-2197 2107 0
2197 1589 -2107 0
-2287 -1375 0
-2287 2197 0
2287 1375 -2197 0
-2377 -1161 0
-2377 2287 0
2377 1161 -2287 0
-2467 -947 0
-2467 2377 0
2467 947 -2377 0
-2557 -733 0
-2557 2467 0
2557 733 -2467 0
-2647 -519 0
-2647 2557 0
2647 519 -2557 0
-2737 -305 0
-2737 2647 0
2737 305 -2647 0
-2879 28 0
-2879 2737 0
2879 -28 -2737 0
-2880 -28 0
-2880 -2737 0
2880 28 2737 0
-2881 -2879 0
-2881 -2880 0
2881 2879 2880 0
27 -9307 0
-27 9307 0
-304 -154 0
-304 240 0
304 154 -240 0
-518 -147 0
-518 454 0
518 147 -454 0
-732 -140 0
-732 668 0
732 140 -668 0
-946 -133 0
-946 882 0
946 133 -882 0
-1160 -126 0
-1160 1096 0
1160 126 -1096 0
-1374 -119 0
-1374 1310 0
1374 119 -1310 0
-1588 -112 0
-1588 1524 0
1588 112 -1524 0
-1802 -105 0
-1802 1738 0
1802 105 -1738 0
-2016 -98 0
-2016 1952 0
2016 98 -1952 0
-2106 -1802 0
-2106 -2016 0
2106 1802 2016 0
-2196 -1588 0
-2196 2106 0
2196 1588 -2106 0
-2286 -1374 0
-2286 2196 0
2286 1374 -2196 0
-2376 -1160 0
-2376 2286 0
2376 1160 -2286 0
-2466 -946 0
-2466 2376 0
2466 946 -2376 0
-2556 -732 0
-2556 2466 0
2556 732 -2466 0
-2646 -518 0
-2646 2556 0
2646 518 -2556 0
-2736 -304 0
-2736 2646 0
2736 304 -2646 0
-2876 27 0
-2876 2736 0
2876 -27 -2736 0
-2877 -27 0
-2877 -2736 0
2877 27 2736 0
-2878 -2876 0
-2878 -2877 0
2878 2876 2877 0
26 -9306 0
-26 9306 0
-303 -154 0
-303 239 0
303 154 -239 0
-517 -147 0
-517 453 0
517 147 -453 0
-731 -140 0
-731 667 0
731 140 -667 0
-945 -133 0
-945 881 0
945 133 -881 0
-1159 -126 0
-1159 1095 0
1159 126 -1095 0
-1373 -119 0
-1373 1309 0
1373 119 -1309 0
-1587 -112 0
-1587 1523 0
1587 112 -1523 0
-1801 -105 0
-1801 1737 0
1801 105 -1737 0
-2015 -98 0
-2015 1951 0
2015 98 -1951 0
-2105 -1801 0
-2105 -2015 0
2105 1801 2015 0
-2195 -1587 0
-2195 2105 0
2195 1587 -2105 0
-2285 -1373 0
-2285 2195 0
2285 1373 -2195 0
-2375 -1159 0
-2375 2285 0
2375 1159 -2285 0
-2465 -945 0
-2465 2375 0
2465 945 -2375 0
-2555 -731 0
-2555 2465 0
2555 731 -2465 0
-2645 -517 0
-2645 2555 0
2645 517 -2555 0
-2735 -303 0
-2735 2645 0
2735 303 -2645 0
-2873 26 0
-2873 2735 0
2873 -26 -2735 0
-2874 -26 0
-2874 -2735 0
2874 26 2735 0
-2875 -2873 0
-2875 -2874 0
2875 2873 2874 0
25 -9305 0
-25 9305 0
-302 -154 0
-302 238 0
302 154 -238 0
-516 -147 0
-516 452 0
516 147 -452 0
-730 -140 0
-730 666 0
730 140 -666 0
-944 -133 0
-944 880 0
944 133 -880 0
-1158 -126 0
-1158 1094 0
1158 126 -1094 0
-1372 -119 0
-1372 1308 0
1372 119 -1308 0
-1586 -112 0
-1586 1522 0
1586 112 -1522 0
-1800 -105 0
-1800 1736 0
1800 105 -1736 0
-2014 -98 0
-2014 1950 0
2014 98 -1950 0
-2104 -1800 0
-2104 -2014 0
2104 1800 2014 0
-2194 -1586 0
-2194 2104 0
2194 1586 -2104 0
-2284 -1372 0
-2284 2194 0
2284 1372 -2194 0
-2374 -1158 0
-2374 2284 0
2374 1158 -2284 0
-2464 -944 0
-2464 2374 0
2464 944 -2374 0
-2554 -730 0
-2554 2464 0
2554 730 -2464 0
-2644 -516 0
-2644 2554 0
2644 516 -2554 0
-2734 -302 0
-2734 2644 0
2734 302 -2644 0
-2870 25 0
-2870 2734 0
2870 -25 -2734 0
-2871 -25 0
-2871 -2734 0
2871 25 2734 0
-2872 -2870 0
-2872 -2871 0
2872 2870 2871 0
24 -9304 0
-24 9304 0
-301 -154 0
-301 237 0
301 154 -237 0
-515 -147 0
-515 451 0
515 147 -451 0
-729 -140 0
-729 665 0
729 140 -665 0
-943 -133 0
-943 879 0
943 133 -879 0
-1157 -126 0
-1157 1093 0
1157 126 -1093 0
-1371 -119 0
-1371 1307 0
1371 119 -1307 0
-1585 -112 0
-1585 1521 0
1585 112 -1521 0
-1799 -105 0
-1799 1735 0
1799 105 -1735 0
-2013 -98 0
-2013 1949 0
2013 98 -1949 0
-2103 -1799 0
-2103 -2013 0
2103 1799 2013 0
-2193 -1585 0
-2193 2103 0
2193 1585 -2103 0
-2283 -1371 0
-2283 2193 0
2283 1371 -2193 0
-2373 -1157 0
-2373 2283 0
2373 1157 -2283 0
-2463 -943 0
-2463 2373 0
2463 943 -2373 0
-2553 -729 0
-2553 2463 0
2553 729 -2463 0
-2643 -515 0
-2643 2553 0
2643 515 -2553 0
-2733 -301 0
-2733 2643 0
2733 301 -2643 0
-2867 24 0
-2867 2733 0
2867 -24 -2733 0
-2868 -24 0
-2868 -2733 0
2868 24 2733 0
-2869 -2867 0
-2869 -2868 0
2869 2867 2868 0
23 -9303 0
-23 9303 0
-300 -154 0
-300 236 0
300 154 -236 0
-514 -147 0
-514 450 0
514 147 -450 0
-728 -140 0
-728 664 0
728 140 -664 0
-942 -133 0
-942 878 0
942 133 -878 0
-1156 -126 0
-1156 1092 0
1156 126 -1092 0
-1370 -119 0
-1370 1306 0
1370 119 -1306 0
-1584 -112 0
-1584 1520 0
1584 112 -1520 0
-1798 -105 0
-1798 1734 0
1798 105 -1734 0
-2012 -98 0
-2012 1948 0
2012 98 -1948 0
-2102 -1798 0
-2102 -2012 0
2102 1798 2012 0
-2192 -1584 0
-2192 2102 0
2192 1584 -2102 0
-2282 -1370 0
-2282 2192 0
2282 1370 -2192 0
-2372 -1156 0
-2372 2282 0
2372 1156 -2282 0
-2462 -942 0
-2462 2372 0
2462 942 -2372 0
-2552 -728 0
-2552 2462 0
2552 728 -2462 0
-2642 -514 0
-2642 2552 0
2642 514 -2552 0
-2732 -300 0
-2732 2642 0
2732 300 -2642 0
-2864 23 0
-2864 2732 0
2864 -23 -2732 0
-2865 -23 0
-2865 -2732 0
2865 23 2732 0
-2866 -2864 0
-2866 -2865 0
2866 2864 2865 0
22 -9302 0
-22 9302 0
-299 -154 0
-299 235 0
299 154 -235 0
-513 -147 0
-513 449 0
513 147 -449 0
-727 -140 0
-727 663 0
727 140 -663 0
-941 -133 0
-941 877 0
941 133 -877 0
-1155 -126 0
-1155 1091 0
1155 126 -1091 0
-1369 -119 0
-1369 1305 0
1369 119 -1305 0
-1583 -112 0
-1583 1519 0
1583 112 -1519 0
-1797 -105 0
-1797 1733 0
1797 105 -1733 0
-2011 -98 0
-2011 1947 0
2011 98 -1947 0
-2101 -1797 0
-2101 -2011 0
2101 1797 2011 0
-2191 -1583 0
-2191 2101 0
2191 1583 -2101 0
-2281 -1369 0
-2281 2191 0
2281 1369 -2191 0
-2371 -1155 0
-2371 2281 0
2371 1155 -2281 0
-2461 -941 0
-2461 2371 0
2461 941 -2371 0
-2551 -727 0
-2551 2461 0
2551 727 -2461 0
-2641 -513 0
-2641 2551 0
2641 513 -2551 0
-2731 -299 0
-2731 2641 0
2731 299 -2641 0
-2861 22 0
-2861 2731 0
2861 -22 -2731 0
-2862 -22 0
-2862 -2731 0
2862 22 2731 0
-2863 -2861 0
-2863 -2862 0
2863 2861 2862 0
21 -9301 0
-21 9301 0
-298 -154 0
-298 234 0
298 154 -234 0
-512 -147 0
-512 448 0
512 147 -448 0
-726 -140 0
-726 662 0
726 140 -662 0
-940 -133 0
-940 876 0
940 133 -876 0
-1154 -126 0
-1154 1090 0
1154 126 -1090 0
-1368 -119 0
-1368 1304 0
1368 119 -1304 0
-1582 -112 0
-1582 1518 0
1582 112 -1518 0
-1796 -105 0
-1796 1732 0
1796 105 -1732 0
-2010 -98 0
-2010 1946 0
2010 98 -1946 0
-2100 -1796 0
-2100 -2010 0
2100 1796 2010 0
-2190 -1582 0
-2190 2100 0
2190 1582 -2100 0
-2280 -1368 0
-2280 2190 0
2280 1368 -2190 0
-2370 -1154 0
-2370 2280 0
2370 1154 -2280 0
-2460 -940 0
-2460 2370 0
2460 940 -2370 0
-2550 -726 0
-2550 2460 0
2550 726 -2460 0
-2640 -512 0
-2640 2550 0
2640 512 -2550 0
-2730 -298 0
-2730 2640 0
2730 298 -2640 0
-2858 21 0
-2858 2730 0
2858 -21 -2730 0
-2859 -21 0
-2859 -2730 0
2859 21 2730 0
-2860 -2858 0
-2860 -2859 0
2860 2858 2859 0
20 -9300 0
-20 9300 0
-297 -154 0
-297 233 0
297 154 -233 0
-511 -147 0
-511 447 0
511 147 -447 0
-725 -140 0
-725 661 0
725 140 -661 0
-939 -133 0
-939 875 0
939 133 -875 0
-1153 -126 0
-1153 1089 0
1153 126 -1089 0
-1367 -119 0
-1367 1303 0
1367 119 -1303 0
-1581 -112 0
-1581 1517 0
1581 112 -1517 0
-1795 -105 0
-1795 1731 0
1795 105 -1731 0
-2009 -98 0
-2009 1945 0
2009 98 -1945 0
-2099 -1795 0
-2099 -2009 0
2099 1795 2009 0
-2189 -1581 0
-2189 2099 0
2189 1581 -2099 0
-2279 -1367 0
-2279 2189 0
2279 1367 -2189 0
-2369 -1153 0
-2369 2279 0
2369 1153 -2279 0
-2459 -939 0
-2459 2369 0
2459 939 -2369 0
-2549 -725 0
-2549 2459 0
2549 725 -2459 0
-2639 -511 0
-2639 2549 0
2639 511 -2549 0
-2729 -297 0
-2729 2639 0
2729 297 -2639 0
-2855 20 0
-2855 2729 0
2855 -20 -2729 0
-2856 -20 0
-2856 -2729 0
2856 20 2729 0
-2857 -2855 0
-2857 -2856 0
2857 2855 2856 0
19 -9299 0
-19 9299 0
-296 -154 0
-296 232 0
296 154 -232 0
-510 -147 0
-510 446 0
510 147 -446 0
-724 -140 0
-724 660 0
724 140 -660 0
-938 -133 0
-938 874 0
938 133 -874 0
-1152 -126 0
-1152 1088 0
1152 126 -1088 0
-1366 -119 0
-1366 1302 0
1366 119 -1302 0
-1580 -112 0
-1580 1516 0
1580 112 -1516 0
-1794 -105 0
-1794 1730 0
1794 105 -1730 0
-2008 -98 0
-2008 1944 0
2008 98 -1944 0
-2098 -1794 0
-2098 -2008 0
2098 1794 2008 0
-2188 -1580 0
-2188 2098 0
2188 1580 -2098 0
-2278 -1366 0
-2278 2188 0
2278 1366 -2188 0
-2368 -1152 0
-2368 2278 0
2368 1152 -2278 0
-2458 -938 0
-2458 2368 0
2458 938 -2368 0
-2548 -724 0
-2548 2458 0
2548 724 -2458 0
-2638 -510 0
-2638 2548 0
2638 510 -2548 0
-2728 -296 0
-2728 2638 0
2728 296 -2638 0
-2852 19 0
-2852 2728 0
2852 -19 -2728 0
-2853 -19 0
-2853 -2728 0
2853 19 2728 0
-2854 -2852 0
-2854 -2853 0
2854 2852 2853 0
18 -9298 0
-18 9298 0
-295 -154 0
-295 231 0
295 154 -231 0
-509 -147 0
-509 445 0
509 147 -445 0
-723 -140 0
-723 659 0
723 140 -659 0
-937 -133 0
-937 873 0
937 133 -873 0
-1151 -126 0
-1151 1087 0
1151 126 -1087 0
-1365 -119 0
-1365 1301 0
1365 119 -1301 0
-1579 -112 0
-1579 1515 0
1579 112 -1515 0
-1793 -105 0
-1793 1729 0
1793 105 -1729 0
-2007 -98 0
-2007 1943 0
2007 98 -1943 0
-2097 -1793 0
-2097 -2007 0
2097 1793 2007 0
-2187 -1579 0
-2187 2097 0
2187 1579 -2097 0
-2277 -1365 0
-2277 2187 0
2277 1365 -2187 0
-2367 -1151 0
-2367 2277 0
2367 1151 -2277 0
-2457 -937 0
-2457 2367 0
2457 937 -2367 0
-2547 -723 0
-2547 2457 0
2547 723 -2457 0
-2637 -509 0
-2637 2547 0
2637 509 -2547 0
-2727 -295 0
-2727 2637 0
2727 295 -2637 0
-2849 18 0
-2849 2727 0
2849 -18 -2727 0
-2850 -18 0
-2850 -2727 0
2850 18 2727 0
-2851 -2849 0
-2851 -2850 0
2851 2849 2850 0
17 -9297 0
-17 9297 0
-294 -154 0
-294 230 0
294 154 -230 0
-508 -147 0
-508 444 0
508 147 -444 0
-722 -140 0
-722 658 0
722 140 -658 0
-936 -133 0
-936 872 0
936 133 -872 0
-1150 -126 0
-1150 1086 0
1150 126 -1086 0
-1364 -119 0
-1364 1300 0
1364 119 -1300 0
-1578 -112 0
-1578 1514 0
1578 112 -1514 0
-1792 -105 0
-1792 1728 0
1792 105 -1728 0
-2006 -98 0
-2006 1942 0
2006 98 -1942 0
-2096 -1792 0
-2096 -2006 0
2096 1792 2006 0
-2186 -1578 0
-2186 2096 0
2186 1578 -2096 0
-2276 -1364 0
-2276 2186 0
2276 1364 -2186 0
-2366 -1150 0
-2366 2276 0
2366 1150 -2276 0
-2456 -936 0
-2456 2366 0
2456 936 -2366 0
-2546 -722 0
-2546 2456 0
2546 722 -2456 0
-2636 -508 0
-2636 2546 0
2636 508 -2546 0
-2726 -294 0
-2726 2636 0
2726 294 -2636 0
-2846 17 0
-2846 2726 0
2846 -17 -2726 0
-2847 -17 0
-2847 -2726 0
2847 17 2726 0
-2848 -2846 0
-2848 -2847 0
2848 2846 2847 0
16 -9296 0
-16 9296 0
-293 -154 0
-293 229 0
293 154 -229 0
-507 -147 0
-507 443 0
507 147 -443 0
-721 -140 0
-721 657 0
721 140 -657 0
-935 -133 0
-935 871 0
935 133 -871 0
-1149 -126 0
-1149 1085 0
1149 126 -1085 0
-1363 -119 0
-1363 1299 0
1363 119 -1299 0
-1577 -112 0
-1577 1513 0
1577 112 -1513 0
-1791 -105 0
-1791 1727 0
1791 105 -1727 0
-2005 -98 0
-2005 1941 0
2005 98 -1941 0
-2095 -1791 0
-2095 -2005 0
2095 1791 2005 0
-2185 -1577 0
-2185 2095 0
2185 1577 -2095 0
-2275 -1363 0
-2275 2185 0
2275 1363 -2185 0
-2365 -1149 0
-2365 2275 0
2365 1149 -2275 0
-2455 -935 0
-2455 2365 0
2455 935 -2365 0
-2545 -721 0
-2545 2455 0
2545 721 -2455 0
-2635 -507 0
-2635 2545 0
2635 507 -2545 0
-2725 -293 0
-2725 2635 0
2725 293 -2635 0
-2843 16 0
-2843 2725 0
2843 -16 -2725 0
-2844 -16 0
-2844 -2725 0
2844 16 2725 0
-2845 -2843 0
-2845 -2844 0
2845 2843 2844 0
15 -9295 0
-15 9295 0
-292 -154 0
-292 228 0
292 154 -228 0
-506 -147 0
-506 442 0
506 147 -442 0
-720 -140 0
-720 656 0
720 140 -656 0
-934 -133 0
-934 870 0
934 133 -870 0
-1148 -126 0
-1148 1084 0
1148 126 -1084 0
-1362 -119 0
-1362 1298 0
1362 119 -1298 0
-1576 -112 0
-1576 1512 0
1576 112 -1512 0
-1790 -105 0
-1790 1726 0
1790 105 -1726 0
-2004 -98 0
-2004 1940 0
2004 98 -1940 0
-2094 -1790 0
-2094 -2004 0
2094 1790 2004 0
-2184 -1576 0
-2184 2094 0
2184 1576 -2094 0
-2274 -1362 0
-2274 2184 0
2274 1362 -2184 0
-2364 -1148 0
-2364 2274 0
2364 1148 -2274 0
-2454 -934 0
-2454 2364 0
2454 934 -2364 0
-2544 -720 0
-2544 2454 0
2544 720 -2454 0
-2634 -506 0
-2634 2544 0
2634 506 -2544 0
-2724 -292 0
-2724 2634 0
2724 292 -2634 0
-2840 15 0
-2840 2724 0
2840 -15 -2724 0
-2841 -15 0
-2841 -2724 0
2841 15 2724 0
-2842 -2840 0
-2842 -2841 0
2842 2840 2841 0
14 -9294 0
-14 9294 0
-291 -154 0
-291 227 0
291 154 -227 0
-505 -147 0
-505 441 0
505 147 -441 0
-719 -140 0
-719 655 0
719 140 -655 0
-933 -133 0
-933 869 0
933 133 -869 0
-1147 -126 0
-1147 1083 0
1147 126 -1083 0
-1361 -119 0
-1361 1297 0
1361 119 -1297 0
-1575 -112 0
-1575 1511 0
1575 112 -1511 0
-1789 -105 0
-1789 1725 0
1789 105 -1725 0
-2003 -98 0
-2003 1939 0
2003 98 -1939 0
-2093 -1789 0
-2093 -2003 0
2093 1789 2003 0
-2183 -1575 0
-2183 2093 0
2183 1575 -2093 0
-2273 -1361 0
-2273 2183 0
2273 1361 -2183 0
-2363 -1147 0
-2363 2273 0
2363 1147 -2273 0
-2453 -933 0
-2453 2363 0
2453 933 -2363 0
-2543 -719 0
-2543 2453 0
2543 719 -2453 0
-2633 -505 0
-2633 2543 0
2633 505 -2543 0
-2723 -291 0
-2723 2633 0
2723 291 -2633 0
-2837 14 0
-2837 2723 0
2837 -14 -2723 0
-2838 -14 0
-2838 -2723 0
2838 14 2723 0
-2839 -2837 0
-2839 -2838 0
2839 2837 2838 0
13 -9293 0
-13 9293 0
-290 -154 0
-290 226 0
290 154 -226 0
-504 -147 0
-504 440 0
504 147 -440 0
-718 -140 0
-718 654 0
718 140 -654 0
-932 -133 0
-932 868 0
932 133 -868 0
-1146 -126 0
-1146 1082 0
1146 126 -1082 0
-1360 -119 0
-1360 1296 0
1360 119 -1296 0
-1574 -112 0
-1574 1510 0
1574 112 -1510 0
-1788 -105 0
-1788 1724 0
1788 105 -1724 0
-2002 -98 0
-2002 1938 0
2002 98 -1938 0
-2092 -1788 0
-2092 -2002 0
2092 1788 2002 0
-2182 -1574 0
-2182 2092 0
2182 1574 -2092 0
-2272 -1360 0
-2272 2182 0
2272 1360 -2182 0
-2362 -1146 0
-2362 2272 0
2362 1146 -2272 0
-2452 -932 0
-2452 2362 0
2452 932 -2362 0
-2542 -718 0
-2542 2452 0
2542 718 -2452 0
-2632 -504 0
-2632 2542 0
2632 504 -2542 0
-2722 -290 0
-2722 2632 0
2722 290 -2632 0
-2834 13 0
-2834 2722 0
2834 -13 -2722 0
-2835 -13 0
-2835 -2722 0
2835 13 2722 0
-2836 -2834 0
-2836 -2835 0
2836 2834 2835 0
12 -9292 0
-12 9292 0
-289 -154 0
-289 225 0
289 154 -225 0
-503 -147 0
-503 439 0
503 147 -439 0
-717 -140 0
-717 653 0
717 140 -653 0
-931 -133 0
-931 867 0
931 133 -867 0
-1145 -126 0
-1145 1081 0
1145 126 -1081 0
-1359 -119 0
-1359 1295 0
1359 119 -1295 0
-1573 -112 0
-1573 1509 0
1573 112 -1509 0
-1787 -105 0
-1787 1723 0
1787 105 -1723 0
-2001 -98 0
-2001 1937 0
2001 98 -1937 0
-2091 -1787 0
-2091 -2001 0
2091 1787 2001 0
-2181 -1573 0
-2181 2091 0
2181 1573 -2091 0
-2271 -1359 0
-2271 2181 0
2271 1359 -2181 0
-2361 -1145 0
-2361 2271 0
2361 1145 -2271 0
-2451 -931 0
-2451 2361 0
2451 931 -2361 0
-2541 -717 0
-2541 2451 0
2541 717 -2451 0
-2631 -503 0
-2631 2541 0
2631 503 -2541 0
-2721 -289 0
-2721 2631 0
2721 289 -2631 0
-2831 12 0
-2831 2721 0
2831 -12 -2721 0
-2832 -12 0
-2832 -2721 0
2832 12 2721 0
-2833 -2831 0
-2833 -2832 0
2833 2831 2832 0
11 -9291 0
-11 9291 0
-288 -154 0
-288 224 0
288 154 -224 0
-502 -147 0
-502 438 0
502 147 -438 0
-716 -140 0
-716 652 0
716 140 -652 0
-930 -133 0
-930 866 0
930 133 -866 0
-1144 -126 0
-1144 1080 0
1144 126 -1080 0
-1358 -119 0
-1358 1294 0
1358 119 -1294 0
-1572 -112 0
-1572 1508 0
1572 112 -1508 0
-1786 -105 0
-1786 1722 0
1786 105 -1722 0
-2000 -98 0
-2000 1936 0
2000 98 -1936 0
-2090 -1786 0
-2090 -2000 0
2090 1786 2000 0
-2180 -1572 0
-2180 2090 0
2180 1572 -2090 0
-2270 -1358 0
-2270 2180 0
2270 1358 -2180 0
-2360 -1144 0
-2360 2270 0
2360 1144 -2270 0
-2450 -930 0
-2450 2360 0
2450 930 -2360 0
-2540 -716 0
-2540 2450 0
2540 716 -2450 0
-2630 -502 0
-2630 2540 0
2630 502 -2540 0
-2720 -288 0
-2720 2630 0
2720 288 -2630 0
-2828 11 0
-2828 2720 0
2828 -11 -2720 0
-2829 -11 0
-2829 -2720 0
2829 11 2720 0
-2830 -2828 0
-2830 -2829 0
2830 2828 2829 0
10 -9290 0
-10 9290 0
-287 -154 0
-287 223 0
287 154 -223 0
-501 -147 0
-501 437 0
501 147 -437 0
-715 -140 0
-715 651 0
715 140 -651 0
-929 -133 0
-929 865 0
929 133 -865 0
-1143 -126 0
-1143 1079 0
1143 126 -1079 0
-1357 -119 0
-1357 1293 0
1357 119 -1293 0
-1571 -112 0
-1571 1507 0
1571 112 -1507 0
-1785 -105 0
-1785 1721 0
1785 105 -1721 0
-1999 -98 0
-1999 1935 0
1999 98 -1935 0
-2089 -1785 0
-2089 -1999 0
2089 1785 1999 0
-2179 -1571 0
-2179 2089 0
2179 1571 -2089 0
-2269 -1357 0
-2269 2179 0
2269 1357 -2179 0
-2359 -1143 0
-2359 2269 0
2359 1143 -2269 0
-2449 -929 0
-2449 2359 0
2449 929 -2359 0
-2539 -715 0
-2539 2449 0
2539 715 -2449 0
-2629 -501 0
-2629 2539 0
2629 501 -2539 0
-2719 -287 0
-2719 2629 0
2719 287 -2629 0
-2825 10 0
-2825 2719 0
2825 -10 -2719 0
-2826 -10 0
-2826 -2719 0
2826 10 2719 0
-2827 -2825 0
-2827 -2826 0
2827 2825 2826 0
9 -9289 0
-9 9289 0
-286 -154 0
-286 222 0
286 154 -222 0
-500 -147 0
-500 436 0
500 147 -436 0
-714 -140 0
-714 650 0
714 140 -650 0
-928 -133 0
-928 864 0
928 133 -864 0
-1142 -126 0
-1142 1078 0
1142 126 -1078 0
-1356 -119 0
-1356 1292 0
1356 119 -1292 0
-1570 -112 0
-1570 1506 0
1570 112 -1506 0
-1784 -105 0
-1784 1720 0
1784 105 -1720 0
-1998 -98 0
-1998 1934 0
1998 98 -1934 0
-2088 -1784 0
-2088 -1998 0
2088 1784 1998 0
-2178 -1570 0
-2178 2088 0
2178 1570 -2088 0
-2268 -1356 0
-2268 2178 0
2268 1356 -2178 0
-2358 -1142 0
-2358 2268 0
2358 1142 -2268 0
-2448 -928 0
-2448 2358 0
2448 928 -2358 0
-2538 -714 0
-2538 2448 0
2538 714 -2448 0
-2628 -500 0
-2628 2538 0
2628 500 -2538 0
-2718 -286 0
-2718 2628 0
2718 286 -2628 0
-2822 9 0
-2822 2718 0
2822 -9 -2718 0
-2823 -9 0
-2823 -2718 0
2823 9 2718 0
-2824 -2822 0
-2824 -2823 0
2824 2822 2823 0
8 -9288 0
-8 9288 0
-285 -154 0
-285 221 0
285 154 -221 0
-499 -147 0
-499 435 0
499 147 -435 0
-713 -140 0
-713 649 0
713 140 -649 0
-927 -133 0
-927 863 0
927 133 -863 0
-1141 -126 0
-1141 1077 0
1141 126 -1077 0
-1355 -119 0
-1355 1291 0
1355 119 -1291 0
-1569 -112 0
-1569 1505 0
1569 112 -1505 0
-1783 -105 0
-1783 1719 0
1783 105 -1719 0
-1997 -98 0
-1997 1933 0
1997 98 -1933 0
-2087 -1783 0
-2087 -1997 0
2087 1783 1997 0
-2177 -1569 0
-2177 2087 0
2177 1569 -2087 0
-2267 -1355 0
-2267 2177 0
2267 1355 -2177 0
-2357 -1141 0
-2357 2267 0
2357 1141 -2267 0
-2447 -927 0
-2447 2357 0
2447 927 -2357 0
-2537 -713 0
-2537 2447 0
2537 713 -2447 0
-2627 -499 0
-2627 2537 0
2627 499 -2537 0
-2717 -285 0
-2717 2627 0
2717 285 -2627 0
-2819 8 0
-2819 2717 0
2819 -8 -2717 0
-2820 -8 0
-2820 -2717 0
2820 8 2717 0
-2821 -2819 0
-2821 -2820 0
2821 2819 2820 0
7 -9287 0
-7 9287 0
-284 -154 0
-284 220 0
284 154 -220 0
-498 -147 0
-498 434 0
498 147 -434 0
-712 -140 0
-712 648 0
712 140 -648 0
-926 -133 0
-926 862 0
926 133 -862 0
-1140 -126 0
-1140 1076 0
1140 126 -1076 0
-1354 -119 0
-1354 1290 0
1354 119 -1290 0
-1568 -112 0
-1568 1504 0
1568 112 -1504 0
-1782 -105 0
-1782 1718 0
1782 105 -1718 0
-1996 -98 0
-1996 1932 0
1996 98 -1932 0
-2086 -1782 0
-2086 -1996 0
2086 1782 1996 0
-2176 -1568 0
-2176 2086 0
2176 1568 -2086 0
-2266 -1354 0
-2266 2176 0
2266 1354 -2176 0
-2356 -1140 0
-2356 2266 0
2356 1140 -2266 0
-2446 -926 0
-2446 2356 0
2446 926 -2356 0
-2536 -712 0
-2536 2446 0
2536 712 -2446 0
-2626 -498 0
-2626 2536 0
2626 498 -2536 0
-2716 -284 0
-2716 2626 0
2716 284 -2626 0
-2816 7 0
-2816 2716 0
2816 -7 -2716 0
-2817 -7 0
-2817 -2716 0
2817 7 2716 0
-2818 -2816 0
-2818 -2817 0
2818 2816 2817 0
6 -9286 0
-6 9286 0
-283 -154 0
-283 219 0
283 154 -219 0
-497 -147 0
-497 433 0
497 147 -433 0
-711 -140 0
-711 647 0
711 140 -647 0
-925 -133 0
-925 861 0
925 133 -861 0
-1139 -126 0
-1139 1075 0
1139 126 -1075 0
-1353 -119 0
-1353 1289 0
1353 119 -1289 0
-1567 -112 0
-1567 1503 0
1567 112 -1503 0
-1781 -105 0
-1781 1717 0
1781 105 -1717 0
-1995 -98 0
-1995 1931 0
1995 98 -1931 0
-2085 -1781 0
-2085 -1995 0
2085 1781 1995 0
-2175 -1567 0
-2175 2085 0
2175 1567 -2085 0
-2265 -1353 0
-2265 2175 0
2265 1353 -2175 0
-2355 -1139 0
-2355 2265 0
2355 1139 -2265 0
-2445 -925 0
-2445 2355 0
2445 925 -2355 0
-2535 -711 0
-2535 2445 0
2535 711 -2445 0
-2625 -497 0
-2625 2535 0
2625 497 -2535 0
-2715 -283 0
-2715 2625 0
2715 283 -2625 0
-2813 6 0
-2813 2715 0
2813 -6 -2715 0
-2814 -6 0
-2814 -2715 0
2814 6 2715 0
-2815 -2813 0
-2815 -2814 0
2815 2813 2814 0
5 -9285 0
-5 9285 0
-282 -154 0
-282 218 0
282 154 -218 0
-496 -147 0
-496 432 0
496 147 -432 0
-710 -140 0
-710 646 0
710 140 -646 0
-924 -133 0
-924 860 0
924 133 -860 0
-1138 -126 0
-1138 1074 0
1138 126 -1074 0
-1352 -119 0
-1352 1288 0
1352 119 -1288 0
-1566 -112 0
-1566 1502 0
1566 112 -1502 0
-1780 -105 0
-1780 1716 0
1780 105 -1716 0
-1994 -98 0
-1994 1930 0
1994 98 -1930 0
-2084 -1780 0
-2084 -1994 0
2084 1780 1994 0
-2174 -1566 0
-2174 2084 0
2174 1566 -2084 0
-2264 -1352 0
-2264 2174 0
2264 1352 -2174 0
-2354 -1138 0
-2354 2264 0
2354 1138 -2264 0
-2444 -924 0
-2444 2354 0
2444 924 -2354 0
-2534 -710 0
-2534 2444 0
2534 710 -2444 0
-2624 -496 0
-2624 2534 0
2624 496 -2534 0
-2714 -282 0
-2714 2624 0
2714 282 -2624 0
-2810 5 0
-2810 2714 0
2810 -5 -2714 0
-2811 -5 0
-2811 -2714 0
2811 5 2714 0
-2812 -2810 0
-2812 -2811 0
2812 2810 2811 0
4 -9284 0
-4 9284 0
-281 -154 0
-281 217 0
281 154 -217 0
-495 -147 0
-495 431 0
495 147 -431 0
-709 -140 0
-709 645 0
709 140 -645 0
-923 -133 0
-923 859 0
923 133 -859 0
-1137 -126 0
-1137 1073 0
1137 126 -1073 0
-1351 -119 0
-1351 1287 0
1351 119 -1287 0
-1565 -112 0
-1565 1501 0
1565 112 -1501 0
-1779 -105 0
-1779 1715 0
1779 105 -1715 0
-1993 -98 0
-1993 1929 0
1993 98 -1929 0
-2083 -1779 0
-2083 -1993 0
2083 1779 1993 0
-2173 -1565 0
-2173 2083 0
2173 1565 -2083 0
-2263 -1351 0
-2263 2173 0
2263 1351 -2173 0
-2353 -1137 0
-2353 2263 0
2353 1137 -2263 0
-2443 -923 0
-2443 2353 0
2443 923 -2353 0
-2533 -709 0
-2533 2443 0
2533 709 -2443 0
-2623 -495 0
-2623 2533 0
2623 495 -2533 0
-2713 -281 0
-2713 2623 0
2713 281 -2623 0
-2807 4 0
-2807 2713 0
2807 -4 -2713 0
-2808 -4 0
-2808 -2713 0
2808 4 2713 0
-2809 -2807 0
-2809 -2808 0
2809 2807 2808 0
2 -9282 0
-2 9282 0
-279 -154 0
-279 215 0
279 154 -215 0
-493 -147 0
-493 429 0
493 147 -429 0
-707 -140 0
-707 643 0
707 140 -643 0
-921 -133 0
-921 857 0
921 133 -857 0
-1135 -126 0
-1135 1071 0
1135 126 -1071 0
-1349 -119 0
-1349 1285 0
1349 119 -1285 0
-1563 -112 0
-1563 1499 0
1563 112 -1499 0
-1777 -105 0
-1777 1713 0
1777 105 -1713 0
-1991 -98 0
-1991 1927 0
1991 98 -1927 0
-2081 -1777 0
-2081 -1991 0
2081 1777 1991 0
-2171 -1563 0
-2171 2081 0
2171 1563 -2081 0
-2261 -1349 0
-2261 2171 0
2261 1349 -2171 0
-2351 -1135 0
-2351 2261 0
2351 1135 -2261 0
-2441 -921 0
-2441 2351 0
2441 921 -2351 0
-2531 -707 0
-2531 2441 0
2531 707 -2441 0
-2621 -493 0
-2621 2531 0
2621 493 -2531 0
-2711 -279 0
-2711 2621 0
2711 279 -2621 0
-2801 2 0
-2801 2711 0
2801 -2 -2711 0
-2802 -2 0
-2802 -2711 0
2802 2 2711 0
-2803 -2801 0
-2803 -2802 0
2803 2801 2802 0
3 -9283 0
-3 9283 0
-280 -154 0
-280 216 0
280 154 -216 0
-494 -147 0
-494 430 0
494 147 -430 0
-708 -140 0
-708 644 0
708 140 -644 0
-922 -133 0
-922 858 0
922 133 -858 0
-1136 -126 0
-1136 1072 0
1136 126 -1072 0
-1350 -119 0
-1350 1286 0
1350 119 -1286 0
-1564 -112 0
-1564 1500 0
1564 112 -1500 0
-1778 -105 0
-1778 1714 0
1778 105 -1714 0
-1992 -98 0
-1992 1928 0
1992 98 -1928 0
-2082 -1778 0
-2082 -1992 0
2082 1778 1992 0
-2172 -1564 0
-2172 2082 0
2172 1564 -2082 0
-2262 -1350 0
-2262 2172 0
2262 1350 -2172 0
-2352 -1136 0
-2352 2262 0
2352 1136 -2262 0
-2442 -922 0
-2442 2352 0
2442 922 -2352 0
-2532 -708 0
-2532 2442 0
2532 708 -2442 0
-2622 -494 0
-2622 2532 0
2622 494 -2532 0
-2712 -280 0
-2712 2622 0
2712 280 -2622 0
-2804 3 0
-2804 2712 0
2804 -3 -2712 0
-2805 -3 0
-2805 -2712 0
2805 3 2712 0
-2806 -2804 0
-2806 -2805 0
2806 2804 2805 0
-3071 2803 0
-3071 2806 0
3071 -2803 -2806 0
-3072 2809 0
-3072 3071 0
3072 -2809 -3071 0
-3073 2812 0
-3073 3072 0
3073 -2812 -3072 0
-3074 2815 0
-3074 3073 0
3074 -2815 -3073 0
-3075 2818 0
-3075 3074 0
3075 -2818 -3074 0
-3076 2821 0
-3076 3075 0
3076 -2821 -3075 0
-3077 2824 0
-3077 3076 0
3077 -2824 -3076 0
-3078 2827 0
-3078 3077 0
3078 -2827 -3077 0
-3079 2830 0
-3079 3078 0
3079 -2830 -3078 0
-3080 2833 0
-3080 3079 0
3080 -2833 -3079 0
-3081 2836 0
-3081 3080 0
3081 -2836 -3080 0
-3082 2839 0
-3082 3081 0
3082 -2839 -3081 0
-3083 2842 0
-3083 3082 0
3083 -2842 -3082 0
-3084 2845 0
-3084 3083 0
3084 -2845 -3083 0
-3085 2848 0
-3085 3084 0
3085 -2848 -3084 0
-3086 2851 0
-3086 3085 0
3086 -2851 -3085 0
-3087 2854 0
-3087 3086 0
3087 -2854 -3086 0
-3088 2857 0
-3088 3087 0
3088 -2857 -3087 0
-3089 2860 0
-3089 3088 0
3089 -2860 -3088 0
-3090 2863 0
-3090 3089 0
3090 -2863 -3089 0
-3091 2866 0
-3091 3090 0
3091 -2866 -3090 0
-3092 2869 0
-3092 3091 0
3092 -2869 -3091 0
-3093 2872 0
-3093 3092 0
3093 -2872 -3092 0
-3094 2875 0
-3094 3093 0
3094 -2875 -3093 0
-3095 2878 0
-3095 3094 0
3095 -2878 -3094 0
-3096 2881 0
-3096 3095 0
3096 -2881 -3095 0
-3097 2884 0
-3097 3096 0
3097 -2884 -3096 0
-3098 2887 0
-3098 3097 0
3098 -2887 -3097 0
-3099 2890 0
-3099 3098 0
3099 -2890 -3098 0
-3100 2893 0
-3100 3099 0
3100 -2893 -3099 0
-3101 2896 0
-3101 3100 0
3101 -2896 -3100 0
-3102 2899 0
-3102 3101 0
3102 -2899 -3101 0
-3103 2902 0
-3103 3102 0
3103 -2902 -3102 0
-3104 2905 0
-3104 3103 0
3104 -2905 -3103 0
-3105 2908 0
-3105 3104 0
3105 -2908 -3104 0
-3106 2911 0
-3106 3105 0
3106 -2911 -3105 0
-3107 2914 0
-3107 3106 0
3107 -2914 -3106 0
-3108 2917 0
-3108 3107 0
3108 -2917 -3107 0
-3109 2920 0
-3109 3108 0
3109 -2920 -3108 0
-3110 2923 0
-3110 3109 0
3110 -2923 -3109 0
-3111 2926 0
-3111 3110 0
3111 -2926 -3110 0
-3112 2929 0
-3112 3111 0
3112 -2929 -3111 0
-3113 2932 0
-3113 3112 0
3113 -2932 -3112 0
-3114 2935 0
-3114 3113 0
3114 -2935 -3113 0
-3115 2938 0
-3115 3114 0
3115 -2938 -3114 0
-3116 2941 0
-3116 3115 0
3116 -2941 -3115 0
-3117 2944 0
-3117 3116 0
3117 -2944 -3116 0
-3118 2947 0
-3118 3117 0
3118 -2947 -3117 0
-3119 2950 0
-3119 3118 0
3119 -2950 -3118 0
-3120 2953 0
-3120 3119 0
3120 -2953 -3119 0
-3121 2956 0
-3121 3120 0
3121 -2956 -3120 0
-3122 2959 0
-3122 3121 0
3122 -2959 -3121 0
-3123 2962 0
-3123 3122 0
3123 -2962 -3122 0
-3124 2965 0
-3124 3123 0
3124 -2965 -3123 0
-3125 2968 0
-3125 3124 0
3125 -2968 -3124 0
-3126 2971 0
-3126 3125 0
3126 -2971 -3125 0
-3127 2974 0
-3127 3126 0
3127 -2974 -3126 0
-3128 2977 0
-3128 3127 0
3128 -2977 -3127 0
-3129 2980 0
-3129 3128 0
3129 -2980 -3128 0
-3130 2983 0
-3130 3129 0
3130 -2983 -3129 0
-3131 2986 0
-3131 3130 0
3131 -2986 -3130 0
-3132 2989 0
-3132 3131 0
3132 -2989 -3131 0
-3133 2992 0
-3133 3132 0
3133 -2992 -3132 0
-3134 2995 0
-3134 3133 0
3134 -2995 -3133 0
-3135 2998 0
-3135 3134 0
3135 -2998 -3134 0
-3136 3001 0
-3136 3135 0
3136 -3001 -3135 0
-3137 3004 0
-3137 3136 0
3137 -3004 -3136 0
-3138 3007 0
-3138 3137 0
3138 -3007 -3137 0
-3139 3010 0
-3139 3138 0
3139 -3010 -3138 0
-3140 3013 0
-3140 3139 0
3140 -3013 -3139 0
-3141 3016 0
-3141 3140 0
3141 -3016 -3140 0
-3142 3019 0
-3142 3141 0
3142 -3019 -3141 0
-3143 3022 0
-3143 3142 0
3143 -3022 -3142 0
-3144 3025 0
-3144 3143 0
3144 -3025 -3143 0
-3145 3028 0
-3145 3144 0
3145 -3028 -3144 0
-3146 3031 0
-3146 3145 0
3146 -3031 -3145 0
-3147 3034 0
-3147 3146 0
3147 -3034 -3146 0
-3148 3037 0
-3148 3147 0
3148 -3037 -3147 0
-3149 3040 0
-3149 3148 0
3149 -3040 -3148 0
-3150 3043 0
-3150 3149 0
3150 -3043 -3149 0
-3151 3046 0
-3151 3150 0
3151 -3046 -3150 0
-3152 3049 0
-3152 3151 0
3152 -3049 -3151 0
-3153 3052 0
-3153 3152 0
3153 -3052 -3152 0
-3154 3055 0
-3154 3153 0
3154 -3055 -3153 0
-3155 3058 0
-3155 3154 0
3155 -3058 -3154 0
-3156 3061 0
-3156 3155 0
3156 -3061 -3155 0
-3157 3064 0
-3157 3156 0
3157 -3064 -3156 0
-3158 3067 0
-3158 3157 0
3158 -3067 -3157 0
-3159 3070 0
-3159 3158 0
3159 -3070 -3158 0
-3160 44 0
-3160 45 0
3160 -44 -45 0
-3161 -44 0
-3161 -45 0
3161 44 45 0
-3162 -3160 0
-3162 -3161 0
3162 3160 3161 0
-3169 52 0
-3169 3162 0
3169 -52 -3162 0
-3170 -52 0
-3170 -3162 0
3170 52 3162 0
-3171 -3169 0
-3171 -3170 0
3171 3169 3170 0
-3175 28 0
-3175 3171 0
3175 -28 -3171 0
-3176 -28 0
-3176 -3171 0
3176 28 3171 0
-3177 -3175 0
-3177 -3176 0
3177 3175 3176 0
-3178 67 0
-3178 91 0
3178 -67 -91 0
-3179 -67 0
-3179 -91 0
3179 67 91 0
-3180 -3178 0
-3180 -3179 0
3180 3178 3179 0
-3181 3177 0
-3181 3180 0
3181 -3177 -3180 0
-3182 -3177 0
-3182 -3180 0
3182 3177 3180 0
-3183 -3181 0
-3183 -3182 0
3183 3181 3182 0
-3184 3159 0
-3184 -3183 0
3184 -3159 3183 0
-3185 44 0
-3185 46 0
3185 -44 -46 0
-3186 -44 0
-3186 -46 0
3186 44 46 0
-3187 -3185 0
-3187 -3186 0
3187 3185 3186 0
-3188 51 0
-3188 3187 0
3188 -51 -3187 0
-3189 -51 0
-3189 -3187 0
3189 51 3187 0
-3190 -3188 0
-3190 -3189 0
3190 3188 3189 0
-3200 27 0
-3200 3190 0
3200 -27 -3190 0
-3201 -27 0
-3201 -3190 0
3201 27 3190 0
-3202 -3200 0
-3202 -3201 0
3202 3200 3201 0
-3203 66 0
-3203 90 0
3203 -66 -90 0
-3204 -66 0
-3204 -90 0
3204 66 90 0
-3205 -3203 0
-3205 -3204 0
3205 3203 3204 0
-3206 3202 0
-3206 3205 0
3206 -3202 -3205 0
-3207 -3202 0
-3207 -3205 0
3207 3202 3205 0
-3208 -3206 0
-3208 -3207 0
3208 3206 3207 0
-3209 3184 0
-3209 -3208 0
3209 -3184 3208 0
-3210 45 0
-3210 46 0
3210 -45 -46 0
-3211 -45 0
-3211 -46 0
3211 45 46 0
-3212 -3210 0
-3212 -3211 0
3212 3210 3211 0
-3222 50 0
-3222 65 0
3222 -50 -65 0
-3223 -50 0
-3223 -65 0
3223 50 65 0
-3224 -3222 0
-3224 -3223 0
3224 3222 3223 0
-3225 3212 0
-3225 3224 0
3225 -3212 -3224 0
-3226 -3212 0
-3226 -3224 0
3226 3212 3224 0
-3227 -3225 0
-3227 -3226 0
3227 3225 3226 0
-3228 26 0
-3228 3227 0
3228 -26 -3227 0
-3229 -26 0
-3229 -3227 0
3229 26 3227 0
-3230 -3228 0
-3230 -3229 0
3230 3228 3229 0
-3231 89 0
-3231 3230 0
3231 -89 -3230 0
-3232 -89 0
-3232 -3230 0
3232 89 3230 0
-3233 -3231 0
-3233 -3232 0
3233 3231 3232 0
-3234 3209 0
-3234 -3233 0
3234 -3209 3233 0
-3238 42 0
-3238 49 0
3238 -42 -49 0
-3239 -42 0
-3239 -49 0
3239 42 49 0
-3240 -3238 0
-3240 -3239 0
3240 3238 3239 0
-3241 41 0
-3241 3240 0
3241 -41 -3240 0
-3242 -41 0
-3242 -3240 0
3242 41 3240 0
-3243 -3241 0
-3243 -3242 0
3243 3241 3242 0
-3250 64 0
-3250 3243 0
3250 -64 -3243 0
-3251 -64 0
-3251 -3243 0
3251 64 3243 0
-3252 -3250 0
-3252 -3251 0
3252 3250 3251 0
-3253 25 0
-3253 3252 0
3253 -25 -3252 0
-3254 -25 0
-3254 -3252 0
3254 25 3252 0
-3255 -3253 0
-3255 -3254 0
3255 3253 3254 0
-3256 88 0
-3256 3255 0
3256 -88 -3255 0
-3257 -88 0
-3257 -3255 0
3257 88 3255 0
-3258 -3256 0
-3258 -3257 0
3258 3256 3257 0
-3259 3234 0
-3259 -3258 0
3259 -3234 3258 0
-3266 43 0
-3266 48 0
3266 -43 -48 0
-3267 -43 0
-3267 -48 0
3267 43 48 0
-3268 -3266 0
-3268 -3267 0
3268 3266 3267 0
-3269 41 0
-3269 3268 0
3269 -41 -3268 0
-3270 -41 0
-3270 -3268 0
3270 41 3268 0
-3271 -3269 0
-3271 -3270 0
3271 3269 3270 0
-3275 63 0
-3275 3271 0
3275 -63 -3271 0
-3276 -63 0
-3276 -3271 0
3276 63 3271 0
-3277 -3275 0
-3277 -3276 0
3277 3275 3276 0
-3278 24 0
-3278 3277 0
3278 -24 -3277 0
-3279 -24 0
-3279 -3277 0
3279 24 3277 0
-3280 -3278 0
-3280 -3279 0
3280 3278 3279 0
-3281 87 0
-3281 3280 0
3281 -87 -3280 0
-3282 -87 0
-3282 -3280 0
3282 87 3280 0
-3283 -3281 0
-3283 -3282 0
3283 3281 3282 0
-3284 3259 0
-3284 -3283 0
3284 -3259 3283 0
-3285 42 0
-3285 43 0
3285 -42 -43 0
-3286 -42 0
-3286 -43 0
3286 42 43 0
-3287 -3285 0
-3287 -3286 0
3287 3285 3286 0
-3288 47 0
-3288 3287 0
3288 -47 -3287 0
-3289 -47 0
-3289 -3287 0
3289 47 3287 0
-3290 -3288 0
-3290 -3289 0
3290 3288 3289 0
-3300 62 0
-3300 3290 0
3300 -62 -3290 0
-3301 -62 0
-3301 -3290 0
3301 62 3290 0
-3302 -3300 0
-3302 -3301 0
3302 3300 3301 0
-3303 23 0
-3303 3302 0
3303 -23 -3302 0
-3304 -23 0
-3304 -3302 0
3304 23 3302 0
-3305 -3303 0
-3305 -3304 0
3305 3303 3304 0
-3306 86 0
-3306 3305 0
3306 -86 -3305 0
-3307 -86 0
-3307 -3305 0
3307 86 3305 0
-3308 -3306 0
-3308 -3307 0
3308 3306 3307 0
-3309 3284 0
-3309 -3308 0
3309 -3284 3308 0
-3313 85 0
-3313 91 0
3313 -85 -91 0
-3314 -85 0
-3314 -91 0
3314 85 91 0
-3315 -3313 0
-3315 -3314 0
3315 3313 3314 0
-3310 38 0
-3310 39 0
3310 -38 -39 0
-3311 -38 0
-3311 -39 0
3311 38 39 0
-3312 -3310 0
-3312 -3311 0
3312 3310 3311 0
-3316 61 0
-3316 3312 0
3316 -61 -3312 0
-3317 -61 0
-3317 -3312 0
3317 61 3312 0
-3318 -3316 0
-3318 -3317 0
3318 3316 3317 0
-3319 22 0
-3319 3318 0
3319 -22 -3318 0
-3320 -22 0
-3320 -3318 0
3320 22 3318 0
-3321 -3319 0
-3321 -3320 0
3321 3319 3320 0
-3322 3315 0
-3322 3321 0
3322 -3315 -3321 0
-3323 -3315 0
-3323 -3321 0
3323 3315 3321 0
-3324 -3322 0
-3324 -3323 0
3324 3322 3323 0
-3325 3309 0
-3325 -3324 0
3325 -3309 3324 0
-3329 84 0
-3329 90 0
3329 -84 -90 0
-3330 -84 0
-3330 -90 0
3330 84 90 0
-3331 -3329 0
-3331 -3330 0
3331 3329 3330 0
-3326 38 0
-3326 40 0
3326 -38 -40 0
-3327 -38 0
-3327 -40 0
3327 38 40 0
-3328 -3326 0
-3328 -3327 0
3328 3326 3327 0
-3332 60 0
-3332 3328 0
3332 -60 -3328 0
-3333 -60 0
-3333 -3328 0
3333 60 3328 0
-3334 -3332 0
-3334 -3333 0
3334 3332 3333 0
-3335 21 0
-3335 3334 0
3335 -21 -3334 0
-3336 -21 0
-3336 -3334 0
3336 21 3334 0
-3337 -3335 0
-3337 -3336 0
3337 3335 3336 0
-3338 3331 0
-3338 3337 0
3338 -3331 -3337 0
-3339 -3331 0
-3339 -3337 0
3339 3331 3337 0
-3340 -3338 0
-3340 -3339 0
3340 3338 3339 0
-3341 3325 0
-3341 -3340 0
3341 -3325 3340 0
-3345 83 0
-3345 89 0
3345 -83 -89 0
-3346 -83 0
-3346 -89 0
3346 83 89 0
-3347 -3345 0
-3347 -3346 0
3347 3345 3346 0
-3342 39 0
-3342 40 0
3342 -39 -40 0
-3343 -39 0
-3343 -40 0
3343 39 40 0
-3344 -3342 0
-3344 -3343 0
3344 3342 3343 0
-3348 59 0
-3348 3344 0
3348 -59 -3344 0
-3349 -59 0
-3349 -3344 0
3349 59 3344 0
-3350 -3348 0
-3350 -3349 0
3350 3348 3349 0
-3351 20 0
-3351 3350 0
3351 -20 -3350 0
-3352 -20 0
-3352 -3350 0
3352 20 3350 0
-3353 -3351 0
-3353 -3352 0
3353 3351 3352 0
-3354 3347 0
-3354 3353 0
3354 -3347 -3353 0
-3355 -3347 0
-3355 -3353 0
3355 3347 3353 0
-3356 -3354 0
-3356 -3355 0
3356 3354 3355 0
-3357 3341 0
-3357 -3356 0
3357 -3341 3356 0
-3361 82 0
-3361 88 0
3361 -82 -88 0
-3362 -82 0
-3362 -88 0
3362 82 88 0
-3363 -3361 0
-3363 -3362 0
3363 3361 3362 0
-3358 35 0
-3358 36 0
3358 -35 -36 0
-3359 -35 0
-3359 -36 0
3359 35 36 0
-3360 -3358 0
-3360 -3359 0
3360 3358 3359 0
-3364 58 0
-3364 3360 0
3364 -58 -3360 0
-3365 -58 0
-3365 -3360 0
3365 58 3360 0
-3366 -3364 0
-3366 -3365 0
3366 3364 3365 0
-3367 19 0
-3367 3366 0
3367 -19 -3366 0
-3368 -19 0
-3368 -3366 0
3368 19 3366 0
-3369 -3367 0
-3369 -3368 0
3369 3367 3368 0
-3370 3363 0
-3370 3369 0
3370 -3363 -3369 0
-3371 -3363 0
-3371 -3369 0
3371 3363 3369 0
-3372 -3370 0
-3372 -3371 0
3372 3370 3371 0
-3373 3357 0
-3373 -3372 0
3373 -3357 3372 0
-3377 81 0
-3377 87 0
3377 -81 -87 0
-3378 -81 0
-3378 -87 0
3378 81 87 0
-3379 -3377 0
-3379 -3378 0
3379 3377 3378 0
-3374 35 0
-3374 37 0
3374 -35 -37 0
-3375 -35 0
-3375 -37 0
3375 35 37 0
-3376 -3374 0
-3376 -3375 0
3376 3374 3375 0
-3380 57 0
-3380 3376 0
3380 -57 -3376 0
-3381 -57 0
-3381 -3376 0
3381 57 3376 0
-3382 -3380 0
-3382 -3381 0
3382 3380 3381 0
-3383 18 0
-3383 3382 0
3383 -18 -3382 0
-3384 -18 0
-3384 -3382 0
3384 18 3382 0
-3385 -3383 0
-3385 -3384 0
3385 3383 3384 0
-3386 3379 0
-3386 3385 0
3386 -3379 -3385 0
-3387 -3379 0
-3387 -3385 0
3387 3379 3385 0
-3388 -3386 0
-3388 -3387 0
3388 3386 3387 0
-3389 3373 0
-3389 -3388 0
3389 -3373 3388 0
-3393 80 0
-3393 86 0
3393 -80 -86 0
-3394 -80 0
-3394 -86 0
3394 80 86 0
-3395 -3393 0
-3395 -3394 0
3395 3393 3394 0
-3390 36 0
-3390 37 0
3390 -36 -37 0
-3391 -36 0
-3391 -37 0
3391 36 37 0
-3392 -3390 0
-3392 -3391 0
3392 3390 3391 0
-3396 56 0
-3396 3392 0
3396 -56 -3392 0
-3397 -56 0
-3397 -3392 0
3397 56 3392 0
-3398 -3396 0
-3398 -3397 0
3398 3396 3397 0
-3399 17 0
-3399 3398 0
3399 -17 -3398 0
-3400 -17 0
-3400 -3398 0
3400 17 3398 0
-3401 -3399 0
-3401 -3400 0
3401 3399 3400 0
-3402 3395 0
-3402 3401 0
3402 -3395 -3401 0
-3403 -3395 0
-3403 -3401 0
3403 3395 3401 0
-3404 -3402 0
-3404 -3403 0
3404 3402 3403 0
-3405 3389 0
-3405 -3404 0
3405 -3389 3404 0
-3409 79 0
-3409 85 0
3409 -79 -85 0
-3410 -79 0
-3410 -85 0
3410 79 85 0
-3411 -3409 0
-3411 -3410 0
3411 3409 3410 0
-3406 32 0
-3406 33 0
3406 -32 -33 0
-3407 -32 0
-3407 -33 0
3407 32 33 0
-3408 -3406 0
-3408 -3407 0
3408 3406 3407 0
-3412 16 0
-3412 3408 0
3412 -16 -3408 0
-3413 -16 0
-3413 -3408 0
3413 16 3408 0
-3414 -3412 0
-3414 -3413 0
3414 3412 3413 0
-3415 55 0
-3415 3414 0
3415 -55 -3414 0
-3416 -55 0
-3416 -3414 0
3416 55 3414 0
-3417 -3415 0
-3417 -3416 0
3417 3415 3416 0
-3418 3411 0
-3418 3417 0
3418 -3411 -3417 0
-3419 -3411 0
-3419 -3417 0
3419 3411 3417 0
-3420 -3418 0
-3420 -3419 0
3420 3418 3419 0
-3421 3405 0
-3421 -3420 0
3421 -3405 3420 0
-3425 78 0
-3425 84 0
3425 -78 -84 0
-3426 -78 0
-3426 -84 0
3426 78 84 0
-3427 -3425 0
-3427 -3426 0
3427 3425 3426 0
-3428 15 0
-3428 32 0
3428 -15 -32 0
-3429 -15 0
-3429 -32 0
3429 15 32 0
-3430 -3428 0
-3430 -3429 0
3430 3428 3429 0
-3431 34 0
-3431 54 0
3431 -34 -54 0
-3432 -34 0
-3432 -54 0
3432 34 54 0
-3433 -3431 0
-3433 -3432 0
3433 3431 3432 0
-3434 3430 0
-3434 3433 0
3434 -3430 -3433 0
-3435 -3430 0
-3435 -3433 0
3435 3430 3433 0
-3436 -3434 0
-3436 -3435 0
3436 3434 3435 0
-3437 3427 0
-3437 3436 0
3437 -3427 -3436 0
-3438 -3427 0
-3438 -3436 0
3438 3427 3436 0
-3439 -3437 0
-3439 -3438 0
3439 3437 3438 0
-3440 3421 0
-3440 -3439 0
3440 -3421 3439 0
-3444 77 0
-3444 83 0
3444 -77 -83 0
-3445 -77 0
-3445 -83 0
3445 77 83 0
-3446 -3444 0
-3446 -3445 0
3446 3444 3445 0
-3447 14 0
-3447 33 0
3447 -14 -33 0
-3448 -14 0
-3448 -33 0
3448 14 33 0
-3449 -3447 0
-3449 -3448 0
3449 3447 3448 0
-3450 34 0
-3450 53 0
3450 -34 -53 0
-3451 -34 0
-3451 -53 0
3451 34 53 0
-3452 -3450 0
-3452 -3451 0
3452 3450 3451 0
-3453 3449 0
-3453 3452 0
3453 -3449 -3452 0
-3454 -3449 0
-3454 -3452 0
3454 3449 3452 0
-3455 -3453 0
-3455 -3454 0
3455 3453 3454 0
-3456 3446 0
-3456 3455 0
3456 -3446 -3455 0
-3457 -3446 0
-3457 -3455 0
3457 3446 3455 0
-3458 -3456 0
-3458 -3457 0
3458 3456 3457 0
-3459 3440 0
-3459 -3458 0
3459 -3440 3458 0
-3463 76 0
-3463 82 0
3463 -76 -82 0
-3464 -76 0
-3464 -82 0
3464 76 82 0
-3465 -3463 0
-3465 -3464 0
3465 3463 3464 0
-3460 29 0
-3460 30 0
3460 -29 -30 0
-3461 -29 0
-3461 -30 0
3461 29 30 0
-3462 -3460 0
-3462 -3461 0
3462 3460 3461 0
-3466 13 0
-3466 3462 0
3466 -13 -3462 0
-3467 -13 0
-3467 -3462 0
3467 13 3462 0
-3468 -3466 0
-3468 -3467 0
3468 3466 3467 0
-3469 52 0
-3469 3468 0
3469 -52 -3468 0
-3470 -52 0
-3470 -3468 0
3470 52 3468 0
-3471 -3469 0
-3471 -3470 0
3471 3469 3470 0
-3472 3465 0
-3472 3471 0
3472 -3465 -3471 0
-3473 -3465 0
-3473 -3471 0
3473 3465 3471 0
-3474 -3472 0
-3474 -3473 0
3474 3472 3473 0
-3475 3459 0
-3475 -3474 0
3475 -3459 3474 0
-3479 75 0
-3479 81 0
3479 -75 -81 0
-3480 -75 0
-3480 -81 0
3480 75 81 0
-3481 -3479 0
-3481 -3480 0
3481 3479 3480 0
-3476 29 0
-3476 31 0
3476 -29 -31 0
-3477 -29 0
-3477 -31 0
3477 29 31 0
-3478 -3476 0
-3478 -3477 0
3478 3476 3477 0
-3482 12 0
-3482 3478 0
3482 -12 -3478 0
-3483 -12 0
-3483 -3478 0
3483 12 3478 0
-3484 -3482 0
-3484 -3483 0
3484 3482 3483 0
-3485 51 0
-3485 3484 0
3485 -51 -3484 0
-3486 -51 0
-3486 -3484 0
3486 51 3484 0
-3487 -3485 0
-3487 -3486 0
3487 3485 3486 0
-3488 3481 0
-3488 3487 0
3488 -3481 -3487 0
-3489 -3481 0
-3489 -3487 0
3489 3481 3487 0
-3490 -3488 0
-3490 -3489 0
3490 3488 3489 0
-3491 3475 0
-3491 -3490 0
3491 -3475 3490 0
-3495 74 0
-3495 80 0
3495 -74 -80 0
-3496 -74 0
-3496 -80 0
3496 74 80 0
-3497 -3495 0
-3497 -3496 0
3497 3495 3496 0
-3492 30 0
-3492 31 0
3492 -30 -31 0
-3493 -30 0
-3493 -31 0
3493 30 31 0
-3494 -3492 0
-3494 -3493 0
3494 3492 3493 0
-3498 11 0
-3498 3494 0
3498 -11 -3494 0
-3499 -11 0
-3499 -3494 0
3499 11 3494 0
-3500 -3498 0
-3500 -3499 0
3500 3498 3499 0
-3501 50 0
-3501 3500 0
3501 -50 -3500 0
-3502 -50 0
-3502 -3500 0
3502 50 3500 0
-3503 -3501 0
-3503 -3502 0
3503 3501 3502 0
-3504 3497 0
-3504 3503 0
3504 -3497 -3503 0
-3505 -3497 0
-3505 -3503 0
3505 3497 3503 0
-3506 -3504 0
-3506 -3505 0
3506 3504 3505 0
-3507 3491 0
-3507 -3506 0
3507 -3491 3506 0
-3511 73 0
-3511 79 0
3511 -73 -79 0
-3512 -73 0
-3512 -79 0
3512 73 79 0
-3513 -3511 0
-3513 -3512 0
3513 3511 3512 0
-3508 26 0
-3508 27 0
3508 -26 -27 0
-3509 -26 0
-3509 -27 0
3509 26 27 0
-3510 -3508 0
-3510 -3509 0
3510 3508 3509 0
-3514 10 0
-3514 3510 0
3514 -10 -3510 0
-3515 -10 0
-3515 -3510 0
3515 10 3510 0
-3516 -3514 0
-3516 -3515 0
3516 3514 3515 0
-3517 49 0
-3517 3516 0
3517 -49 -3516 0
-3518 -49 0
-3518 -3516 0
3518 49 3516 0
-3519 -3517 0
-3519 -3518 0
3519 3517 3518 0
-3520 3513 0
-3520 3519 0
3520 -3513 -3519 0
-3521 -3513 0
-3521 -3519 0
3521 3513 3519 0
-3522 -3520 0
-3522 -3521 0
3522 3520 3521 0
-3523 3507 0
-3523 -3522 0
3523 -3507 3522 0
-3527 72 0
-3527 78 0
3527 -72 -78 0
-3528 -72 0
-3528 -78 0
3528 72 78 0
-3529 -3527 0
-3529 -3528 0
3529 3527 3528 0
-3524 26 0
-3524 28 0
3524 -26 -28 0
-3525 -26 0
-3525 -28 0
3525 26 28 0
-3526 -3524 0
-3526 -3525 0
3526 3524 3525 0
-3530 9 0
-3530 3526 0
3530 -9 -3526 0
-3531 -9 0
-3531 -3526 0
3531 9 3526 0
-3532 -3530 0
-3532 -3531 0
3532 3530 3531 0
-3533 48 0
-3533 3532 0
3533 -48 -3532 0
-3534 -48 0
-3534 -3532 0
3534 48 3532 0
-3535 -3533 0
-3535 -3534 0
3535 3533 3534 0
-3536 3529 0
-3536 3535 0
3536 -3529 -3535 0
-3537 -3529 0
-3537 -3535 0
3537 3529 3535 0
-3538 -3536 0
-3538 -3537 0
3538 3536 3537 0
-3539 3523 0
-3539 -3538 0
3539 -3523 3538 0
-3543 71 0
-3543 77 0
3543 -71 -77 0
-3544 -71 0
-3544 -77 0
3544 71 77 0
-3545 -3543 0
-3545 -3544 0
3545 3543 3544 0
-3540 27 0
-3540 28 0
3540 -27 -28 0
-3541 -27 0
-3541 -28 0
3541 27 28 0
-3542 -3540 0
-3542 -3541 0
3542 3540 3541 0
-3546 8 0
-3546 3542 0
3546 -8 -3542 0
-3547 -8 0
-3547 -3542 0
3547 8 3542 0
-3548 -3546 0
-3548 -3547 0
3548 3546 3547 0
-3549 47 0
-3549 3548 0
3549 -47 -3548 0
-3550 -47 0
-3550 -3548 0
3550 47 3548 0
-3551 -3549 0
-3551 -3550 0
3551 3549 3550 0
-3552 3545 0
-3552 3551 0
3552 -3545 -3551 0
-3553 -3545 0
-3553 -3551 0
3553 3545 3551 0
-3554 -3552 0
-3554 -3553 0
3554 3552 3553 0
-3555 3539 0
-3555 -3554 0
3555 -3539 3554 0
-3556 23 0
-3556 24 0
3556 -23 -24 0
-3557 -23 0
-3557 -24 0
3557 23 24 0
-3558 -3556 0
-3558 -3557 0
3558 3556 3557 0
-3562 7 0
-3562 3558 0
3562 -7 -3558 0
-3563 -7 0
-3563 -3558 0
3563 7 3558 0
-3564 -3562 0
-3564 -3563 0
3564 3562 3563 0
-3559 70 0
-3559 76 0
3559 -70 -76 0
-3560 -70 0
-3560 -76 0
3560 70 76 0
-3561 -3559 0
-3561 -3560 0
3561 3559 3560 0
-3568 91 0
-3568 3561 0
3568 -91 -3561 0
-3569 -91 0
-3569 -3561 0
3569 91 3561 0
-3570 -3568 0
-3570 -3569 0
3570 3568 3569 0
-3571 3564 0
-3571 3570 0
3571 -3564 -3570 0
-3572 -3564 0
-3572 -3570 0
3572 3564 3570 0
-3573 -3571 0
-3573 -3572 0
3573 3571 3572 0
-3574 3555 0
-3574 -3573 0
3574 -3555 3573 0
-3575 23 0
-3575 25 0
3575 -23 -25 0
-3576 -23 0
-3576 -25 0
3576 23 25 0
-3577 -3575 0
-3577 -3576 0
3577 3575 3576 0
-3581 6 0
-3581 3577 0
3581 -6 -3577 0
-3582 -6 0
-3582 -3577 0
3582 6 3577 0
-3583 -3581 0
-3583 -3582 0
3583 3581 3582 0
-3578 69 0
-3578 75 0
3578 -69 -75 0
-3579 -69 0
-3579 -75 0
3579 69 75 0
-3580 -3578 0
-3580 -3579 0
3580 3578 3579 0
-3587 90 0
-3587 3580 0
3587 -90 -3580 0
-3588 -90 0
-3588 -3580 0
3588 90 3580 0
-3589 -3587 0
-3589 -3588 0
3589 3587 3588 0
-3590 3583 0
-3590 3589 0
3590 -3583 -3589 0
-3591 -3583 0
-3591 -3589 0
3591 3583 3589 0
-3592 -3590 0
-3592 -3591 0
3592 3590 3591 0
-3593 3574 0
-3593 -3592 0
3593 -3574 3592 0
-3594 24 0
-3594 25 0
3594 -24 -25 0
-3595 -24 0
-3595 -25 0
3595 24 25 0
-3596 -3594 0
-3596 -3595 0
3596 3594 3595 0
-3600 5 0
-3600 3596 0
3600 -5 -3596 0
-3601 -5 0
-3601 -3596 0
3601 5 3596 0
-3602 -3600 0
-3602 -3601 0
3602 3600 3601 0
-3597 68 0
-3597 74 0
3597 -68 -74 0
-3598 -68 0
-3598 -74 0
3598 68 74 0
-3599 -3597 0
-3599 -3598 0
3599 3597 3598 0
-3606 89 0
-3606 3599 0
3606 -89 -3599 0
-3607 -89 0
-3607 -3599 0
3607 89 3599 0
-3608 -3606 0
-3608 -3607 0
3608 3606 3607 0
-3609 3602 0
-3609 3608 0
3609 -3602 -3608 0
-3610 -3602 0
-3610 -3608 0
3610 3602 3608 0
-3611 -3609 0
-3611 -3610 0
3611 3609 3610 0
-3612 3593 0
-3612 -3611 0
3612 -3593 3611 0
-3613 20 0
-3613 21 0
3613 -20 -21 0
-3614 -20 0
-3614 -21 0
3614 20 21 0
-3615 -3613 0
-3615 -3614 0
3615 3613 3614 0
-3619 4 0
-3619 3615 0
3619 -4 -3615 0
-3620 -4 0
-3620 -3615 0
3620 4 3615 0
-3621 -3619 0
-3621 -3620 0
3621 3619 3620 0
-3616 67 0
-3616 73 0
3616 -67 -73 0
-3617 -67 0
-3617 -73 0
3617 67 73 0
-3618 -3616 0
-3618 -3617 0
3618 3616 3617 0
-3625 88 0
-3625 3618 0
3625 -88 -3618 0
-3626 -88 0
-3626 -3618 0
3626 88 3618 0
-3627 -3625 0
-3627 -3626 0
3627 3625 3626 0
-3628 3621 0
-3628 3627 0
3628 -3621 -3627 0
-3629 -3621 0
-3629 -3627 0
3629 3621 3627 0
-3630 -3628 0
-3630 -3629 0
3630 3628 3629 0
-3631 3612 0
-3631 -3630 0
3631 -3612 3630 0
-3632 20 0
-3632 22 0
3632 -20 -22 0
-3633 -20 0
-3633 -22 0
3633 20 22 0
-3634 -3632 0
-3634 -3633 0
3634 3632 3633 0
-3638 3 0
-3638 3634 0
3638 -3 -3634 0
-3639 -3 0
-3639 -3634 0
3639 3 3634 0
-3640 -3638 0
-3640 -3639 0
3640 3638 3639 0
-3635 66 0
-3635 72 0
3635 -66 -72 0
-3636 -66 0
-3636 -72 0
3636 66 72 0
-3637 -3635 0
-3637 -3636 0
3637 3635 3636 0
-3644 87 0
-3644 3637 0
3644 -87 -3637 0
-3645 -87 0
-3645 -3637 0
3645 87 3637 0
-3646 -3644 0
-3646 -3645 0
3646 3644 3645 0
-3647 3640 0
-3647 3646 0
3647 -3640 -3646 0
-3648 -3640 0
-3648 -3646 0
3648 3640 3646 0
-3649 -3647 0
-3649 -3648 0
3649 3647 3648 0
-3650 3631 0
-3650 -3649 0
3650 -3631 3649 0
-3660 71 0
-3660 86 0
3660 -71 -86 0
-3661 -71 0
-3661 -86 0
3661 71 86 0
-3662 -3660 0
-3662 -3661 0
3662 3660 3661 0
-3651 21 0
-3651 22 0
3651 -21 -22 0
-3652 -21 0
-3652 -22 0
3652 21 22 0
-3653 -3651 0
-3653 -3652 0
3653 3651 3652 0
-3657 2 0
-3657 3653 0
3657 -2 -3653 0
-3658 -2 0
-3658 -3653 0
3658 2 3653 0
-3659 -3657 0
-3659 -3658 0
3659 3657 3658 0
-3663 65 0
-3663 3659 0
3663 -65 -3659 0
-3664 -65 0
-3664 -3659 0
3664 65 3659 0
-3665 -3663 0
-3665 -3664 0
3665 3663 3664 0
-3666 3662 0
-3666 3665 0
3666 -3662 -3665 0
-3667 -3662 0
-3667 -3665 0
3667 3662 3665 0
-3668 -3666 0
-3668 -3667 0
3668 3666 3667 0
-3669 3650 0
-3669 -3668 0
3669 -3650 3668 0
-3676 70 0
-3676 85 0
3676 -70 -85 0
-3677 -70 0
-3677 -85 0
3677 70 85 0
-3678 -3676 0
-3678 -3677 0
3678 3676 3677 0
-3670 17 0
-3670 18 0
3670 -17 -18 0
-3671 -17 0
-3671 -18 0
3671 17 18 0
-3672 -3670 0
-3672 -3671 0
3672 3670 3671 0
-3679 46 0
-3679 64 0
3679 -46 -64 0
-3680 -46 0
-3680 -64 0
3680 46 64 0
-3681 -3679 0
-3681 -3680 0
3681 3679 3680 0
-3682 3672 0
-3682 3681 0
3682 -3672 -3681 0
-3683 -3672 0
-3683 -3681 0
3683 3672 3681 0
-3684 -3682 0
-3684 -3683 0
3684 3682 3683 0
-3685 3678 0
-3685 3684 0
3685 -3678 -3684 0
-3686 -3678 0
-3686 -3684 0
3686 3678 3684 0
-3687 -3685 0
-3687 -3686 0
3687 3685 3686 0
-3688 3669 0
-3688 -3687 0
3688 -3669 3687 0
-3695 69 0
-3695 84 0
3695 -69 -84 0
-3696 -69 0
-3696 -84 0
3696 69 84 0
-3697 -3695 0
-3697 -3696 0
3697 3695 3696 0
-3689 17 0
-3689 19 0
3689 -17 -19 0
-3690 -17 0
-3690 -19 0
3690 17 19 0
-3691 -3689 0
-3691 -3690 0
3691 3689 3690 0
-3698 45 0
-3698 63 0
3698 -45 -63 0
-3699 -45 0
-3699 -63 0
3699 45 63 0
-3700 -3698 0
-3700 -3699 0
3700 3698 3699 0
-3701 3691 0
-3701 3700 0
3701 -3691 -3700 0
-3702 -3691 0
-3702 -3700 0
3702 3691 3700 0
-3703 -3701 0
-3703 -3702 0
3703 3701 3702 0
-3704 3697 0
-3704 3703 0
3704 -3697 -3703 0
-3705 -3697 0
-3705 -3703 0
3705 3697 3703 0
-3706 -3704 0
-3706 -3705 0
3706 3704 3705 0
-3707 3688 0
-3707 -3706 0
3707 -3688 3706 0
-3714 68 0
-3714 83 0
3714 -68 -83 0
-3715 -68 0
-3715 -83 0
3715 68 83 0
-3716 -3714 0
-3716 -3715 0
3716 3714 3715 0
-3708 18 0
-3708 19 0
3708 -18 -19 0
-3709 -18 0
-3709 -19 0
3709 18 19 0
-3710 -3708 0
-3710 -3709 0
3710 3708 3709 0
-3717 44 0
-3717 62 0
3717 -44 -62 0
-3718 -44 0
-3718 -62 0
3718 44 62 0
-3719 -3717 0
-3719 -3718 0
3719 3717 3718 0
-3720 3710 0
-3720 3719 0
3720 -3710 -3719 0
-3721 -3710 0
-3721 -3719 0
3721 3710 3719 0
-3722 -3720 0
-3722 -3721 0
3722 3720 3721 0
-3723 3716 0
-3723 3722 0
3723 -3716 -3722 0
-3724 -3716 0
-3724 -3722 0
3724 3716 3722 0
-3725 -3723 0
-3725 -3724 0
3725 3723 3724 0
-3726 3707 0
-3726 -3725 0
3726 -3707 3725 0
-3733 67 0
-3733 82 0
3733 -67 -82 0
-3734 -67 0
-3734 -82 0
3734 67 82 0
-3735 -3733 0
-3735 -3734 0
3735 3733 3734 0
-3727 14 0
-3727 15 0
3727 -14 -15 0
-3728 -14 0
-3728 -15 0
3728 14 15 0
-3729 -3727 0
-3729 -3728 0
3729 3727 3728 0
-3736 43 0
-3736 61 0
3736 -43 -61 0
-3737 -43 0
-3737 -61 0
3737 43 61 0
-3738 -3736 0
-3738 -3737 0
3738 3736 3737 0
-3739 3729 0
-3739 3738 0
3739 -3729 -3738 0
-3740 -3729 0
-3740 -3738 0
3740 3729 3738 0
-3741 -3739 0
-3741 -3740 0
3741 3739 3740 0
-3742 3735 0
-3742 3741 0
3742 -3735 -3741 0
-3743 -3735 0
-3743 -3741 0
3743 3735 3741 0
-3744 -3742 0
-3744 -3743 0
3744 3742 3743 0
-3745 3726 0
-3745 -3744 0
3745 -3726 3744 0
-3752 66 0
-3752 81 0
3752 -66 -81 0
-3753 -66 0
-3753 -81 0
3753 66 81 0
-3754 -3752 0
-3754 -3753 0
3754 3752 3753 0
-3746 14 0
-3746 16 0
3746 -14 -16 0
-3747 -14 0
-3747 -16 0
3747 14 16 0
-3748 -3746 0
-3748 -3747 0
3748 3746 3747 0
-3755 42 0
-3755 60 0
3755 -42 -60 0
-3756 -42 0
-3756 -60 0
3756 42 60 0
-3757 -3755 0
-3757 -3756 0
3757 3755 3756 0
-3758 3748 0
-3758 3757 0
3758 -3748 -3757 0
-3759 -3748 0
-3759 -3757 0
3759 3748 3757 0
-3760 -3758 0
-3760 -3759 0
3760 3758 3759 0
-3761 3754 0
-3761 3760 0
3761 -3754 -3760 0
-3762 -3754 0
-3762 -3760 0
3762 3754 3760 0
-3763 -3761 0
-3763 -3762 0
3763 3761 3762 0
-3764 3745 0
-3764 -3763 0
3764 -3745 3763 0
-3765 15 0
-3765 16 0
3765 -15 -16 0
-3766 -15 0
-3766 -16 0
3766 15 16 0
-3767 -3765 0
-3767 -3766 0
3767 3765 3766 0
-3768 59 0
-3768 65 0
3768 -59 -65 0
-3769 -59 0
-3769 -65 0
3769 59 65 0
-3770 -3768 0
-3770 -3769 0
3770 3768 3769 0
-3774 41 0
-3774 3770 0
3774 -41 -3770 0
-3775 -41 0
-3775 -3770 0
3775 41 3770 0
-3776 -3774 0
-3776 -3775 0
3776 3774 3775 0
-3777 3767 0
-3777 3776 0
3777 -3767 -3776 0
-3778 -3767 0
-3778 -3776 0
3778 3767 3776 0
-3779 -3777 0
-3779 -3778 0
3779 3777 3778 0
-3780 80 0
-3780 3779 0
3780 -80 -3779 0
-3781 -80 0
-3781 -3779 0
3781 80 3779 0
-3782 -3780 0
-3782 -3781 0
3782 3780 3781 0
-3783 3764 0
-3783 -3782 0
3783 -3764 3782 0
-3784 11 0
-3784 12 0
3784 -11 -12 0
-3785 -11 0
-3785 -12 0
3785 11 12 0
-3786 -3784 0
-3786 -3785 0
3786 3784 3785 0
-3787 58 0
-3787 64 0
3787 -58 -64 0
-3788 -58 0
-3788 -64 0
3788 58 64 0
-3789 -3787 0
-3789 -3788 0
3789 3787 3788 0
-3793 40 0
-3793 3789 0
3793 -40 -3789 0
-3794 -40 0
-3794 -3789 0
3794 40 3789 0
-3795 -3793 0
-3795 -3794 0
3795 3793 3794 0
-3796 3786 0
-3796 3795 0
3796 -3786 -3795 0
-3797 -3786 0
-3797 -3795 0
3797 3786 3795 0
-3798 -3796 0
-3798 -3797 0
3798 3796 3797 0
-3799 79 0
-3799 3798 0
3799 -79 -3798 0
-3800 -79 0
-3800 -3798 0
3800 79 3798 0
-3801 -3799 0
-3801 -3800 0
3801 3799 3800 0
-3802 3783 0
-3802 -3801 0
3802 -3783 3801 0
-3803 11 0
-3803 13 0
3803 -11 -13 0
-3804 -11 0
-3804 -13 0
3804 11 13 0
-3805 -3803 0
-3805 -3804 0
3805 3803 3804 0
-3806 57 0
-3806 63 0
3806 -57 -63 0
-3807 -57 0
-3807 -63 0
3807 57 63 0
-3808 -3806 0
-3808 -3807 0
3808 3806 3807 0
-3812 39 0
-3812 3808 0
3812 -39 -3808 0
-3813 -39 0
-3813 -3808 0
3813 39 3808 0
-3814 -3812 0
-3814 -3813 0
3814 3812 3813 0
-3815 3805 0
-3815 3814 0
3815 -3805 -3814 0
-3816 -3805 0
-3816 -3814 0
3816 3805 3814 0
-3817 -3815 0
-3817 -3816 0
3817 3815 3816 0
-3818 78 0
-3818 3817 0
3818 -78 -3817 0
-3819 -78 0
-3819 -3817 0
3819 78 3817 0
-3820 -3818 0
-3820 -3819 0
3820 3818 3819 0
-3821 3802 0
-3821 -3820 0
3821 -3802 3820 0
-3822 12 0
-3822 13 0
3822 -12 -13 0
-3823 -12 0
-3823 -13 0
3823 12 13 0
-3824 -3822 0
-3824 -3823 0
3824 3822 3823 0
-3825 56 0
-3825 62 0
3825 -56 -62 0
-3826 -56 0
-3826 -62 0
3826 56 62 0
-3827 -3825 0
-3827 -3826 0
3827 3825 3826 0
-3831 38 0
-3831 3827 0
3831 -38 -3827 0
-3832 -38 0
-3832 -3827 0
3832 38 3827 0
-3833 -3831 0
-3833 -3832 0
3833 3831 3832 0
-3834 3824 0
-3834 3833 0
3834 -3824 -3833 0
-3835 -3824 0
-3835 -3833 0
3835 3824 3833 0
-3836 -3834 0
-3836 -3835 0
3836 3834 3835 0
-3837 77 0
-3837 3836 0
3837 -77 -3836 0
-3838 -77 0
-3838 -3836 0
3838 77 3836 0
-3839 -3837 0
-3839 -3838 0
3839 3837 3838 0
-3840 3821 0
-3840 -3839 0
3840 -3821 3839 0
-3841 8 0
-3841 9 0
3841 -8 -9 0
-3842 -8 0
-3842 -9 0
3842 8 9 0
-3843 -3841 0
-3843 -3842 0
3843 3841 3842 0
-3844 55 0
-3844 61 0
3844 -55 -61 0
-3845 -55 0
-3845 -61 0
3845 55 61 0
-3846 -3844 0
-3846 -3845 0
3846 3844 3845 0
-3850 37 0
-3850 3846 0
3850 -37 -3846 0
-3851 -37 0
-3851 -3846 0
3851 37 3846 0
-3852 -3850 0
-3852 -3851 0
3852 3850 3851 0
-3853 3843 0
-3853 3852 0
3853 -3843 -3852 0
-3854 -3843 0
-3854 -3852 0
3854 3843 3852 0
-3855 -3853 0
-3855 -3854 0
3855 3853 3854 0
-3856 76 0
-3856 3855 0
3856 -76 -3855 0
-3857 -76 0
-3857 -3855 0
3857 76 3855 0
-3858 -3856 0
-3858 -3857 0
3858 3856 3857 0
-3859 3840 0
-3859 -3858 0
3859 -3840 3858 0
-3860 8 0
-3860 10 0
3860 -8 -10 0
-3861 -8 0
-3861 -10 0
3861 8 10 0
-3862 -3860 0
-3862 -3861 0
3862 3860 3861 0
-3863 54 0
-3863 60 0
3863 -54 -60 0
-3864 -54 0
-3864 -60 0
3864 54 60 0
-3865 -3863 0
-3865 -3864 0
3865 3863 3864 0
-3869 36 0
-3869 3865 0
3869 -36 -3865 0
-3870 -36 0
-3870 -3865 0
3870 36 3865 0
-3871 -3869 0
-3871 -3870 0
3871 3869 3870 0
-3872 3862 0
-3872 3871 0
3872 -3862 -3871 0
-3873 -3862 0
-3873 -3871 0
3873 3862 3871 0
-3874 -3872 0
-3874 -3873 0
3874 3872 3873 0
-3875 75 0
-3875 3874 0
3875 -75 -3874 0
-3876 -75 0
-3876 -3874 0
3876 75 3874 0
-3877 -3875 0
-3877 -3876 0
3877 3875 3876 0
-3878 3859 0
-3878 -3877 0
3878 -3859 3877 0
-3879 9 0
-3879 10 0
3879 -9 -10 0
-3880 -9 0
-3880 -10 0
3880 9 10 0
-3881 -3879 0
-3881 -3880 0
3881 3879 3880 0
-3882 53 0
-3882 59 0
3882 -53 -59 0
-3883 -53 0
-3883 -59 0
3883 53 59 0
-3884 -3882 0
-3884 -3883 0
3884 3882 3883 0
-3888 35 0
-3888 3884 0
3888 -35 -3884 0
-3889 -35 0
-3889 -3884 0
3889 35 3884 0
-3890 -3888 0
-3890 -3889 0
3890 3888 3889 0
-3891 3881 0
-3891 3890 0
3891 -3881 -3890 0
-3892 -3881 0
-3892 -3890 0
3892 3881 3890 0
-3893 -3891 0
-3893 -3892 0
3893 3891 3892 0
-3894 74 0
-3894 3893 0
3894 -74 -3893 0
-3895 -74 0
-3895 -3893 0
3895 74 3893 0
-3896 -3894 0
-3896 -3895 0
3896 3894 3895 0
-3897 3878 0
-3897 -3896 0
3897 -3878 3896 0
-3898 5 0
-3898 6 0
3898 -5 -6 0
-3899 -5 0
-3899 -6 0
3899 5 6 0
-3900 -3898 0
-3900 -3899 0
3900 3898 3899 0
-3901 52 0
-3901 58 0
3901 -52 -58 0
-3902 -52 0
-3902 -58 0
3902 52 58 0
-3903 -3901 0
-3903 -3902 0
3903 3901 3902 0
-3907 34 0
-3907 3903 0
3907 -34 -3903 0
-3908 -34 0
-3908 -3903 0
3908 34 3903 0
-3909 -3907 0
-3909 -3908 0
3909 3907 3908 0
-3910 3900 0
-3910 3909 0
3910 -3900 -3909 0
-3911 -3900 0
-3911 -3909 0
3911 3900 3909 0
-3912 -3910 0
-3912 -3911 0
3912 3910 3911 0
-3913 73 0
-3913 3912 0
3913 -73 -3912 0
-3914 -73 0
-3914 -3912 0
3914 73 3912 0
-3915 -3913 0
-3915 -3914 0
3915 3913 3914 0
-3916 3897 0
-3916 -3915 0
3916 -3897 3915 0
-3920 51 0
-3920 57 0
3920 -51 -57 0
-3921 -51 0
-3921 -57 0
3921 51 57 0
-3922 -3920 0
-3922 -3921 0
3922 3920 3921 0
-3917 5 0
-3917 7 0
3917 -5 -7 0
-3918 -5 0
-3918 -7 0
3918 5 7 0
-3919 -3917 0
-3919 -3918 0
3919 3917 3918 0
-3923 33 0
-3923 3919 0
3923 -33 -3919 0
-3924 -33 0
-3924 -3919 0
3924 33 3919 0
-3925 -3923 0
-3925 -3924 0
3925 3923 3924 0
-3929 3922 0
-3929 3925 0
3929 -3922 -3925 0
-3930 -3922 0
-3930 -3925 0
3930 3922 3925 0
-3931 -3929 0
-3931 -3930 0
3931 3929 3930 0
-3932 72 0
-3932 3931 0
3932 -72 -3931 0
-3933 -72 0
-3933 -3931 0
3933 72 3931 0
-3934 -3932 0
-3934 -3933 0
3934 3932 3933 0
-3935 3916 0
-3935 -3934 0
3935 -3916 3934 0
-3939 50 0
-3939 56 0
3939 -50 -56 0
-3940 -50 0
-3940 -56 0
3940 50 56 0
-3941 -3939 0
-3941 -3940 0
3941 3939 3940 0
-3936 6 0
-3936 7 0
3936 -6 -7 0
-3937 -6 0
-3937 -7 0
3937 6 7 0
-3938 -3936 0
-3938 -3937 0
3938 3936 3937 0
-3942 32 0
-3942 3938 0
3942 -32 -3938 0
-3943 -32 0
-3943 -3938 0
3943 32 3938 0
-3944 -3942 0
-3944 -3943 0
3944 3942 3943 0
-3948 3941 0
-3948 3944 0
3948 -3941 -3944 0
-3949 -3941 0
-3949 -3944 0
3949 3941 3944 0
-3950 -3948 0
-3950 -3949 0
3950 3948 3949 0
-3951 71 0
-3951 3950 0
3951 -71 -3950 0
-3952 -71 0
-3952 -3950 0
3952 71 3950 0
-3953 -3951 0
-3953 -3952 0
3953 3951 3952 0
-3954 3935 0
-3954 -3953 0
3954 -3935 3953 0
-3958 49 0
-3958 55 0
3958 -49 -55 0
-3959 -49 0
-3959 -55 0
3959 49 55 0
-3960 -3958 0
-3960 -3959 0
3960 3958 3959 0
-3955 2 0
-3955 3 0
3955 -2 -3 0
-3956 -2 0
-3956 -3 0
3956 2 3 0
-3957 -3955 0
-3957 -3956 0
3957 3955 3956 0
-3961 31 0
-3961 3957 0
3961 -31 -3957 0
-3962 -31 0
-3962 -3957 0
3962 31 3957 0
-3963 -3961 0
-3963 -3962 0
3963 3961 3962 0
-3967 3960 0
-3967 3963 0
3967 -3960 -3963 0
-3968 -3960 0
-3968 -3963 0
3968 3960 3963 0
-3969 -3967 0
-3969 -3968 0
3969 3967 3968 0
-3970 70 0
-3970 3969 0
3970 -70 -3969 0
-3971 -70 0
-3971 -3969 0
3971 70 3969 0
-3972 -3970 0
-3972 -3971 0
3972 3970 3971 0
-3973 3954 0
-3973 -3972 0
3973 -3954 3972 0
-3977 48 0
-3977 54 0
3977 -48 -54 0
-3978 -48 0
-3978 -54 0
3978 48 54 0
-3979 -3977 0
-3979 -3978 0
3979 3977 3978 0
-3974 2 0
-3974 4 0
3974 -2 -4 0
-3975 -2 0
-3975 -4 0
3975 2 4 0
-3976 -3974 0
-3976 -3975 0
3976 3974 3975 0
-3980 30 0
-3980 3976 0
3980 -30 -3976 0
-3981 -30 0
-3981 -3976 0
3981 30 3976 0
-3982 -3980 0
-3982 -3981 0
3982 3980 3981 0
-3986 3979 0
-3986 3982 0
3986 -3979 -3982 0
-3987 -3979 0
-3987 -3982 0
3987 3979 3982 0
-3988 -3986 0
-3988 -3987 0
3988 3986 3987 0
-3989 69 0
-3989 3988 0
3989 -69 -3988 0
-3990 -69 0
-3990 -3988 0
3990 69 3988 0
-3991 -3989 0
-3991 -3990 0
3991 3989 3990 0
-3992 3973 0
-3992 -3991 0
3992 -3973 3991 0
-3996 47 0
-3996 53 0
3996 -47 -53 0
-3997 -47 0
-3997 -53 0
3997 47 53 0
-3998 -3996 0
-3998 -3997 0
3998 3996 3997 0
-3993 3 0
-3993 4 0
3993 -3 -4 0
-3994 -3 0
-3994 -4 0
3994 3 4 0
-3995 -3993 0
-3995 -3994 0
3995 3993 3994 0
-3999 29 0
-3999 3995 0
3999 -29 -3995 0
-4000 -29 0
-4000 -3995 0
4000 29 3995 0
-4001 -3999 0
-4001 -4000 0
4001 3999 4000 0
-4005 3998 0
-4005 4001 0
4005 -3998 -4001 0
-4006 -3998 0
-4006 -4001 0
4006 3998 4001 0
-4007 -4005 0
-4007 -4006 0
4007 4005 4006 0
-4008 68 0
-4008 4007 0
4008 -68 -4007 0
-4009 -68 0
-4009 -4007 0
4009 68 4007 0
-4010 -4008 0
-4010 -4009 0
4010 4008 4009 0
-4011 3992 0
-4011 -4010 0
4011 -3992 4010 0
-4015 3843 0
-4015 3938 0
4015 -3843 -3938 0
-4016 -3843 0
-4016 -3938 0
4016 3843 3938 0
-4017 -4015 0
-4017 -4016 0
4017 4015 4016 0
-4018 3995 0
-4018 4017 0
4018 -3995 -4017 0
-4019 -3995 0
-4019 -4017 0
4019 3995 4017 0
-4020 -4018 0
-4020 -4019 0
4020 4018 4019 0
-4024 13 0
-4024 15 0
4024 -13 -15 0
-4025 -13 0
-4025 -15 0
4025 13 15 0
-4026 -4024 0
-4026 -4025 0
4026 4024 4025 0
-4042 4020 0
-4042 4026 0
4042 -4020 -4026 0
-4043 -4020 0
-4043 -4026 0
4043 4020 4026 0
-4044 -4042 0
-4044 -4043 0
4044 4042 4043 0
-4027 19 0
-4027 21 0
4027 -19 -21 0
-4028 -19 0
-4028 -21 0
4028 19 21 0
-4029 -4027 0
-4029 -4028 0
4029 4027 4028 0
-4045 24 0
-4045 4029 0
4045 -24 -4029 0
-4046 -24 0
-4046 -4029 0
4046 24 4029 0
-4047 -4045 0
-4047 -4046 0
4047 4045 4046 0
-4066 32 0
-4066 4047 0
4066 -32 -4047 0
-4067 -32 0
-4067 -4047 0
4067 32 4047 0
-4068 -4066 0
-4068 -4067 0
4068 4066 4067 0
-4069 4044 0
-4069 4068 0
4069 -4044 -4068 0
-4070 -4044 0
-4070 -4068 0
4070 4044 4068 0
-4071 -4069 0
-4071 -4070 0
4071 4069 4070 0
-4033 34 0
-4033 36 0
4033 -34 -36 0
-4034 -34 0
-4034 -36 0
4034 34 36 0
-4035 -4033 0
-4035 -4034 0
4035 4033 4034 0
-4063 38 0
-4063 4035 0
4063 -38 -4035 0
-4064 -38 0
-4064 -4035 0
4064 38 4035 0
-4065 -4063 0
-4065 -4064 0
4065 4063 4064 0
-4072 47 0
-4072 4065 0
4072 -47 -4065 0
-4073 -47 0
-4073 -4065 0
4073 47 4065 0
-4074 -4072 0
-4074 -4073 0
4074 4072 4073 0
-4105 50 0
-4105 4074 0
4105 -50 -4074 0
-4106 -50 0
-4106 -4074 0
4106 50 4074 0
-4107 -4105 0
-4107 -4106 0
4107 4105 4106 0
-4108 4071 0
-4108 4107 0
4108 -4071 -4107 0
-4109 -4071 0
-4109 -4107 0
4109 4071 4107 0
-4110 -4108 0
-4110 -4109 0
4110 4108 4109 0
-4111 -91 0
-4111 4110 0
4111 91 -4110 0
-4112 91 0
-4112 -4110 0
4112 -91 4110 0
-4113 -4111 0
-4113 -4112 0
4113 4111 4112 0
-4117 8 0
-4117 3938 0
4117 -8 -3938 0
-4118 -8 0
-4118 -3938 0
4118 8 3938 0
-4119 -4117 0
-4119 -4118 0
4119 4117 4118 0
-4120 3995 0
-4120 4119 0
4120 -3995 -4119 0
-4121 -3995 0
-4121 -4119 0
4121 3995 4119 0
-4122 -4120 0
-4122 -4121 0
4122 4120 4121 0
-4123 10 0
-4123 12 0
4123 -10 -12 0
-4124 -10 0
-4124 -12 0
4124 10 12 0
-4125 -4123 0
-4125 -4124 0
4125 4123 4124 0
-4135 16 0
-4135 4125 0
4135 -16 -4125 0
-4136 -16 0
-4136 -4125 0
4136 16 4125 0
-4137 -4135 0
-4137 -4136 0
4137 4135 4136 0
-4138 4122 0
-4138 4137 0
4138 -4122 -4137 0
-4139 -4122 0
-4139 -4137 0
4139 4122 4137 0
-4140 -4138 0
-4140 -4139 0
4140 4138 4139 0
-4132 22 0
-4132 25 0
4132 -22 -25 0
-4133 -22 0
-4133 -25 0
4133 22 25 0
-4134 -4132 0
-4134 -4133 0
4134 4132 4133 0
-4141 18 0
-4141 4134 0
4141 -18 -4134 0
-4142 -18 0
-4142 -4134 0
4142 18 4134 0
-4143 -4141 0
-4143 -4142 0
4143 4141 4142 0
-4165 3408 0
-4165 4143 0
4165 -3408 -4143 0
-4166 -3408 0
-4166 -4143 0
4166 3408 4143 0
-4167 -4165 0
-4167 -4166 0
4167 4165 4166 0
-4168 4140 0
-4168 4167 0
4168 -4140 -4167 0
-4169 -4140 0
-4169 -4167 0
4169 4140 4167 0
-4170 -4168 0
-4170 -4169 0
4170 4168 4169 0
-4114 37 0
-4114 38 0
4114 -37 -38 0
-4115 -37 0
-4115 -38 0
4115 37 38 0
-4116 -4114 0
-4116 -4115 0
4116 4114 4115 0
-4171 47 0
-4171 4116 0
4171 -47 -4116 0
-4172 -47 0
-4172 -4116 0
4172 47 4116 0
-4173 -4171 0
-4173 -4172 0
4173 4171 4172 0
-4198 50 0
-4198 4173 0
4198 -50 -4173 0
-4199 -50 0
-4199 -4173 0
4199 50 4173 0
-4200 -4198 0
-4200 -4199 0
4200 4198 4199 0
-4201 4170 0
-4201 4200 0
4201 -4170 -4200 0
-4202 -4170 0
-4202 -4200 0
4202 4170 4200 0
-4203 -4201 0
-4203 -4202 0
4203 4201 4202 0
-4204 -90 0
-4204 4203 0
4204 90 -4203 0
-4205 90 0
-4205 -4203 0
4205 -90 4203 0
-4206 -4204 0
-4206 -4205 0
4206 4204 4205 0
-4216 9 0
-4216 3938 0
4216 -9 -3938 0
-4217 -9 0
-4217 -3938 0
4217 9 3938 0
-4218 -4216 0
-4218 -4217 0
4218 4216 4217 0
-4219 3995 0
-4219 4218 0
4219 -3995 -4218 0
-4220 -3995 0
-4220 -4218 0
4220 3995 4218 0
-4221 -4219 0
-4221 -4220 0
4221 4219 4220 0
-4207 10 0
-4207 11 0
4207 -10 -11 0
-4208 -10 0
-4208 -11 0
4208 10 11 0
-4209 -4207 0
-4209 -4208 0
4209 4207 4208 0
-4210 16 0
-4210 17 0
4210 -16 -17 0
-4211 -16 0
-4211 -17 0
4211 16 17 0
-4212 -4210 0
-4212 -4211 0
4212 4210 4211 0
-4237 3729 0
-4237 4212 0
4237 -3729 -4212 0
-4238 -3729 0
-4238 -4212 0
4238 3729 4212 0
-4239 -4237 0
-4239 -4238 0
4239 4237 4238 0
-4270 4209 0
-4270 4239 0
4270 -4209 -4239 0
-4271 -4209 0
-4271 -4239 0
4271 4209 4239 0
-4272 -4270 0
-4272 -4271 0
4272 4270 4271 0
-4273 4221 0
-4273 4272 0
4273 -4221 -4272 0
-4274 -4221 0
-4274 -4272 0
4274 4221 4272 0
-4275 -4273 0
-4275 -4274 0
4275 4273 4274 0
-4213 22 0
-4213 23 0
4213 -22 -23 0
-4214 -22 0
-4214 -23 0
4214 22 23 0
-4215 -4213 0
-4215 -4214 0
4215 4213 4214 0
-4255 3596 0
-4255 4215 0
4255 -3596 -4215 0
-4256 -3596 0
-4256 -4215 0
4256 3596 4215 0
-4257 -4255 0
-4257 -4256 0
4257 4255 4256 0
-4276 3615 0
-4276 4257 0
4276 -3615 -4257 0
-4277 -3615 0
-4277 -4257 0
4277 3615 4257 0
-4278 -4276 0
-4278 -4277 0
4278 4276 4277 0
-4312 4275 0
-4312 4278 0
4312 -4275 -4278 0
-4313 -4275 0
-4313 -4278 0
4313 4275 4278 0
-4314 -4312 0
-4314 -4313 0
4314 4312 4313 0
-4261 35 0
-4261 3392 0
4261 -35 -3392 0
-4262 -35 0
-4262 -3392 0
4262 35 3392 0
-4263 -4261 0
-4263 -4262 0
4263 4261 4262 0
-4309 38 0
-4309 4263 0
4309 -38 -4263 0
-4310 -38 0
-4310 -4263 0
4310 38 4263 0
-4311 -4309 0
-4311 -4310 0
4311 4309 4310 0
-4315 47 0
-4315 4311 0
4315 -47 -4311 0
-4316 -47 0
-4316 -4311 0
4316 47 4311 0
-4317 -4315 0
-4317 -4316 0
4317 4315 4316 0
-4348 50 0
-4348 4317 0
4348 -50 -4317 0
-4349 -50 0
-4349 -4317 0
4349 50 4317 0
-4350 -4348 0
-4350 -4349 0
4350 4348 4349 0
-4351 4314 0
-4351 4350 0
4351 -4314 -4350 0
-4352 -4314 0
-4352 -4350 0
4352 4314 4350 0
-4353 -4351 0
-4353 -4352 0
4353 4351 4352 0
-4354 -89 0
-4354 4353 0
4354 89 -4353 0
-4355 89 0
-4355 -4353 0
4355 -89 4353 0
-4356 -4354 0
-4356 -4355 0
4356 4354 4355 0
-4357 4 0
-4357 5 0
4357 -4 -5 0
-4358 -4 0
-4358 -5 0
4358 4 5 0
-4359 -4357 0
-4359 -4358 0
4359 4357 4358 0
-4360 3 0
-4360 4359 0
4360 -3 -4359 0
-4361 -3 0
-4361 -4359 0
4361 3 4359 0
-4362 -4360 0
-4362 -4361 0
4362 4360 4361 0
-4372 7 0
-4372 4362 0
4372 -7 -4362 0
-4373 -7 0
-4373 -4362 0
4373 7 4362 0
-4374 -4372 0
-4374 -4373 0
4374 4372 4373 0
-4375 13 0
-4375 4209 0
4375 -13 -4209 0
-4376 -13 0
-4376 -4209 0
4376 13 4209 0
-4377 -4375 0
-4377 -4376 0
4377 4375 4376 0
-4390 17 0
-4390 3729 0
4390 -17 -3729 0
-4391 -17 0
-4391 -3729 0
4391 17 3729 0
-4392 -4390 0
-4392 -4391 0
4392 4390 4391 0
-4438 4377 0
-4438 4392 0
4438 -4377 -4392 0
-4439 -4377 0
-4439 -4392 0
4439 4377 4392 0
-4440 -4438 0
-4440 -4439 0
4440 4438 4439 0
-4441 4374 0
-4441 4440 0
4441 -4374 -4440 0
-4442 -4374 0
-4442 -4440 0
4442 4374 4440 0
-4443 -4441 0
-4443 -4442 0
4443 4441 4442 0
-4399 19 0
-4399 3615 0
4399 -19 -3615 0
-4400 -19 0
-4400 -3615 0
4400 19 3615 0
-4401 -4399 0
-4401 -4400 0
4401 4399 4400 0
-4411 23 0
-4411 3596 0
4411 -23 -3596 0
-4412 -23 0
-4412 -3596 0
4412 23 3596 0
-4413 -4411 0
-4413 -4412 0
4413 4411 4412 0
-4444 4401 0
-4444 4413 0
4444 -4401 -4413 0
-4445 -4401 0
-4445 -4413 0
4445 4401 4413 0
-4446 -4444 0
-4446 -4445 0
4446 4444 4445 0
-4369 28 0
-4369 29 0
4369 -28 -29 0
-4370 -28 0
-4370 -29 0
4370 28 29 0
-4371 -4369 0
-4371 -4370 0
4371 4369 4370 0
-4420 27 0
-4420 4371 0
4420 -27 -4371 0
-4421 -27 0
-4421 -4371 0
4421 27 4371 0
-4422 -4420 0
-4422 -4421 0
4422 4420 4421 0
-4429 30 0
-4429 33 0
4429 -30 -33 0
-4430 -30 0
-4430 -33 0
4430 30 33 0
-4431 -4429 0
-4431 -4430 0
4431 4429 4430 0
-4489 4422 0
-4489 4431 0
4489 -4422 -4431 0
-4490 -4422 0
-4490 -4431 0
4490 4422 4431 0
-4491 -4489 0
-4491 -4490 0
4491 4489 4490 0
-4510 4446 0
-4510 4491 0
4510 -4446 -4491 0
-4511 -4446 0
-4511 -4491 0
4511 4446 4491 0
-4512 -4510 0
-4512 -4511 0
4512 4510 4511 0
-4513 4443 0
-4513 4512 0
4513 -4443 -4512 0
-4514 -4443 0
-4514 -4512 0
4514 4443 4512 0
-4515 -4513 0
-4515 -4514 0
4515 4513 4514 0
-4435 40 0
-4435 3312 0
4435 -40 -3312 0
-4436 -40 0
-4436 -3312 0
4436 40 3312 0
-4437 -4435 0
-4437 -4436 0
4437 4435 4436 0
-4561 50 0
-4561 4437 0
4561 -50 -4437 0
-4562 -50 0
-4562 -4437 0
4562 50 4437 0
-4563 -4561 0
-4563 -4562 0
4563 4561 4562 0
-4570 4515 0
-4570 4563 0
4570 -4515 -4563 0
-4571 -4515 0
-4571 -4563 0
4571 4515 4563 0
-4572 -4570 0
-4572 -4571 0
4572 4570 4571 0
-4573 -88 0
-4573 4572 0
4573 88 -4572 0
-4574 88 0
-4574 -4572 0
4574 -88 4572 0
-4575 -4573 0
-4575 -4574 0
4575 4573 4574 0
-4576 6 0
-4576 9 0
4576 -6 -9 0
-4577 -6 0
-4577 -9 0
4577 6 9 0
-4578 -4576 0
-4578 -4577 0
4578 4576 4577 0
-4579 4362 0
-4579 4578 0
4579 -4362 -4578 0
-4580 -4362 0
-4580 -4578 0
4580 4362 4578 0
-4581 -4579 0
-4581 -4580 0
4581 4579 4580 0
-4594 14 0
-4594 4212 0
4594 -14 -4212 0
-4595 -14 0
-4595 -4212 0
4595 14 4212 0
-4596 -4594 0
-4596 -4595 0
4596 4594 4595 0
-4624 3786 0
-4624 4596 0
4624 -3786 -4596 0
-4625 -3786 0
-4625 -4596 0
4625 3786 4596 0
-4626 -4624 0
-4626 -4625 0
4626 4624 4625 0
-4627 4581 0
-4627 4626 0
4627 -4581 -4626 0
-4628 -4581 0
-4628 -4626 0
4628 4581 4626 0
-4629 -4627 0
-4629 -4628 0
4629 4627 4628 0
-4606 18 0
-4606 20 0
4606 -18 -20 0
-4607 -18 0
-4607 -20 0
4607 18 20 0
-4608 -4606 0
-4608 -4607 0
4608 4606 4607 0
-4630 4257 0
-4630 4608 0
4630 -4257 -4608 0
-4631 -4257 0
-4631 -4608 0
4631 4257 4608 0
-4632 -4630 0
-4632 -4631 0
4632 4630 4631 0
-4675 31 0
-4675 4422 0
4675 -31 -4422 0
-4676 -31 0
-4676 -4422 0
4676 31 4422 0
-4677 -4675 0
-4677 -4676 0
4677 4675 4676 0
-4699 4632 0
-4699 4677 0
4699 -4632 -4677 0
-4700 -4632 0
-4700 -4677 0
4700 4632 4677 0
-4701 -4699 0
-4701 -4700 0
4701 4699 4700 0
-4702 4629 0
-4702 4701 0
4702 -4629 -4701 0
-4703 -4629 0
-4703 -4701 0
4703 4629 4701 0
-4704 -4702 0
-4704 -4703 0
4704 4702 4703 0
-4696 34 0
-4696 4437 0
4696 -34 -4437 0
-4697 -34 0
-4697 -4437 0
4697 34 4437 0
-4698 -4696 0
-4698 -4697 0
4698 4696 4697 0
-4747 50 0
-4747 4698 0
4747 -50 -4698 0
-4748 -50 0
-4748 -4698 0
4748 50 4698 0
-4749 -4747 0
-4749 -4748 0
4749 4747 4748 0
-4750 4704 0
-4750 4749 0
4750 -4704 -4749 0
-4751 -4704 0
-4751 -4749 0
4751 4704 4749 0
-4752 -4750 0
-4752 -4751 0
4752 4750 4751 0
-4753 -87 0
-4753 4752 0
4753 87 -4752 0
-4754 87 0
-4754 -4752 0
4754 -87 4752 0
-4755 -4753 0
-4755 -4754 0
4755 4753 4754 0
-4759 8 0
-4759 3995 0
4759 -8 -3995 0
-4760 -8 0
-4760 -3995 0
4760 8 3995 0
-4761 -4759 0
-4761 -4760 0
4761 4759 4760 0
-4783 3767 0
-4783 4761 0
4783 -3767 -4761 0
-4784 -3767 0
-4784 -4761 0
4784 3767 4761 0
-4785 -4783 0
-4785 -4784 0
4785 4783 4784 0
-4786 21 0
-4786 4257 0
4786 -21 -4257 0
-4787 -21 0
-4787 -4257 0
4787 21 4257 0
-4788 -4786 0
-4788 -4787 0
4788 4786 4787 0
-4774 3408 0
-4774 3494 0
4774 -3408 -3494 0
-4775 -3408 0
-4775 -3494 0
4775 3408 3494 0
-4776 -4774 0
-4776 -4775 0
4776 4774 4775 0
-4819 3542 0
-4819 4776 0
4819 -3542 -4776 0
-4820 -3542 0
-4820 -4776 0
4820 3542 4776 0
-4821 -4819 0
-4821 -4820 0
4821 4819 4820 0
-4843 4788 0
-4843 4821 0
4843 -4788 -4821 0
-4844 -4788 0
-4844 -4821 0
4844 4788 4821 0
-4845 -4843 0
-4845 -4844 0
4845 4843 4844 0
-4846 4785 0
-4846 4845 0
4846 -4785 -4845 0
-4847 -4785 0
-4847 -4845 0
4847 4785 4845 0
-4848 -4846 0
-4848 -4847 0
4848 4846 4847 0
-4891 4749 0
-4891 4848 0
4891 -4749 -4848 0
-4892 -4749 0
-4892 -4848 0
4892 4749 4848 0
-4893 -4891 0
-4893 -4892 0
4893 4891 4892 0
-4894 -86 0
-4894 4893 0
4894 86 -4893 0
-4895 86 0
-4895 -4893 0
4895 -86 4893 0
-4896 -4894 0
-4896 -4895 0
4896 4894 4895 0
-4900 7 0
-4900 3843 0
4900 -7 -3843 0
-4901 -7 0
-4901 -3843 0
4901 7 3843 0
-4902 -4900 0
-4902 -4901 0
4902 4900 4901 0
-4903 3957 0
-4903 4902 0
4903 -3957 -4902 0
-4904 -3957 0
-4904 -4902 0
4904 3957 4902 0
-4905 -4903 0
-4905 -4904 0
4905 4903 4904 0
-4927 3805 0
-4927 4596 0
4927 -3805 -4596 0
-4928 -3805 0
-4928 -4596 0
4928 3805 4596 0
-4929 -4927 0
-4929 -4928 0
4929 4927 4928 0
-4930 4905 0
-4930 4929 0
4930 -4905 -4929 0
-4931 -4905 0
-4931 -4929 0
4931 4905 4929 0
-4932 -4930 0
-4932 -4931 0
4932 4930 4931 0
-4366 19 0
-4366 20 0
4366 -19 -20 0
-4367 -19 0
-4367 -20 0
4367 19 20 0
-4368 -4366 0
-4368 -4367 0
4368 4366 4367 0
-4933 3596 0
-4933 4368 0
4933 -3596 -4368 0
-4934 -3596 0
-4934 -4368 0
4934 3596 4368 0
-4935 -4933 0
-4935 -4934 0
4935 4933 4934 0
-4978 31 0
-4978 3526 0
4978 -31 -3526 0
-4979 -31 0
-4979 -3526 0
4979 31 3526 0
-4980 -4978 0
-4980 -4979 0
4980 4978 4979 0
-4996 4935 0
-4996 4980 0
4996 -4935 -4980 0
-4997 -4935 0
-4997 -4980 0
4997 4935 4980 0
-4998 -4996 0
-4998 -4997 0
4998 4996 4997 0
-4999 4932 0
-4999 4998 0
4999 -4932 -4998 0
-5000 -4932 0
-5000 -4998 0
5000 4932 4998 0
-5001 -4999 0
-5001 -5000 0
5001 4999 5000 0
-4990 35 0
-4990 3344 0
4990 -35 -3344 0
-4991 -35 0
-4991 -3344 0
4991 35 3344 0
-4992 -4990 0
-4992 -4991 0
4992 4990 4991 0
-5002 47 0
-5002 4992 0
5002 -47 -4992 0
-5003 -47 0
-5003 -4992 0
5003 47 4992 0
-5004 -5002 0
-5004 -5003 0
5004 5002 5003 0
-5044 5001 0
-5044 5004 0
5044 -5001 -5004 0
-5045 -5001 0
-5045 -5004 0
5045 5001 5004 0
-5046 -5044 0
-5046 -5045 0
5046 5044 5045 0
-5047 -85 0
-5047 5046 0
5047 85 -5046 0
-5048 85 0
-5048 -5046 0
5048 -85 5046 0
-5049 -5047 0
-5049 -5048 0
5049 5047 5048 0
-5050 6 0
-5050 8 0
5050 -6 -8 0
-5051 -6 0
-5051 -8 0
5051 6 8 0
-5052 -5050 0
-5052 -5051 0
5052 5050 5051 0
-5053 3976 0
-5053 5052 0
5053 -3976 -5052 0
-5054 -3976 0
-5054 -5052 0
5054 3976 5052 0
-5055 -5053 0
-5055 -5054 0
5055 5053 5054 0
-5056 12 0
-5056 4209 0
5056 -12 -4209 0
-5057 -12 0
-5057 -4209 0
5057 12 4209 0
-5058 -5056 0
-5058 -5057 0
5058 5056 5057 0
-5080 4392 0
-5080 5058 0
5080 -4392 -5058 0
-5081 -4392 0
-5081 -5058 0
5081 4392 5058 0
-5082 -5080 0
-5082 -5081 0
5082 5080 5081 0
-5083 5055 0
-5083 5082 0
5083 -5055 -5082 0
-5084 -5055 0
-5084 -5082 0
5084 5055 5082 0
-5085 -5083 0
-5085 -5084 0
5085 5083 5084 0
-5086 3596 0
-5086 4608 0
5086 -3596 -4608 0
-5087 -3596 0
-5087 -4608 0
5087 3596 4608 0
-5088 -5086 0
-5088 -5087 0
5088 5086 5087 0
-5125 30 0
-5125 3510 0
5125 -30 -3510 0
-5126 -30 0
-5126 -3510 0
5126 30 3510 0
-5127 -5125 0
-5127 -5126 0
5127 5125 5126 0
-5131 5088 0
-5131 5127 0
5131 -5088 -5127 0
-5132 -5088 0
-5132 -5127 0
5132 5088 5127 0
-5133 -5131 0
-5133 -5132 0
5133 5131 5132 0
-5134 5085 0
-5134 5133 0
5134 -5085 -5133 0
-5135 -5085 0
-5135 -5133 0
5135 5085 5133 0
-5136 -5134 0
-5136 -5135 0
5136 5134 5135 0
-5167 5004 0
-5167 5136 0
5167 -5004 -5136 0
-5168 -5004 0
-5168 -5136 0
5168 5004 5136 0
-5169 -5167 0
-5169 -5168 0
5169 5167 5168 0
-5170 -84 0
-5170 5169 0
5170 84 -5169 0
-5171 84 0
-5171 -5169 0
5171 -84 5169 0
-5172 -5170 0
-5172 -5171 0
5172 5170 5171 0
-5173 9 0
-5173 4362 0
5173 -9 -4362 0
-5174 -9 0
-5174 -4362 0
5174 9 4362 0
-5175 -5173 0
-5175 -5174 0
5175 5173 5174 0
-5176 10 0
-5176 5175 0
5176 -10 -5175 0
-5177 -10 0
-5177 -5175 0
5177 10 5175 0
-5178 -5176 0
-5178 -5177 0
5178 5176 5177 0
-5179 20 0
-5179 3596 0
5179 -20 -3596 0
-5180 -20 0
-5180 -3596 0
5180 20 3596 0
-5181 -5179 0
-5181 -5180 0
5181 5179 5180 0
-5194 29 0
-5194 5181 0
5194 -29 -5181 0
-5195 -29 0
-5195 -5181 0
5195 29 5181 0
-5196 -5194 0
-5196 -5195 0
5196 5194 5195 0
-5197 5178 0
-5197 5196 0
5197 -5178 -5196 0
-5198 -5178 0
-5198 -5196 0
5198 5178 5196 0
-5199 -5197 0
-5199 -5198 0
5199 5197 5198 0
-5221 5004 0
-5221 5199 0
5221 -5004 -5199 0
-5222 -5004 0
-5222 -5199 0
5222 5004 5199 0
-5223 -5221 0
-5223 -5222 0
5223 5221 5222 0
-5224 -83 0
-5224 5223 0
5224 83 -5223 0
-5225 83 0
-5225 -5223 0
5225 -83 5223 0
-5226 -5224 0
-5226 -5225 0
5226 5224 5225 0
-5227 2 0
-5227 5 0
5227 -2 -5 0
-5228 -2 0
-5228 -5 0
5228 2 5 0
-5229 -5227 0
-5229 -5228 0
5229 5227 5228 0
-5230 7 0
-5230 5229 0
5230 -7 -5229 0
-5231 -7 0
-5231 -5229 0
5231 7 5229 0
-5232 -5230 0
-5232 -5231 0
5232 5230 5231 0
-4393 15 0
-4393 17 0
4393 -15 -17 0
-4394 -15 0
-4394 -17 0
4394 15 17 0
-4395 -4393 0
-4395 -4394 0
4395 4393 4394 0
-5233 11 0
-5233 3824 0
5233 -11 -3824 0
-5234 -11 0
-5234 -3824 0
5234 11 3824 0
-5235 -5233 0
-5235 -5234 0
5235 5233 5234 0
-5266 4395 0
-5266 5235 0
5266 -4395 -5235 0
-5267 -4395 0
-5267 -5235 0
5267 4395 5235 0
-5268 -5266 0
-5268 -5267 0
5268 5266 5267 0
-5269 5232 0
-5269 5268 0
5269 -5232 -5268 0
-5270 -5232 0
-5270 -5268 0
5270 5232 5268 0
-5271 -5269 0
-5271 -5270 0
5271 5269 5270 0
-5242 18 0
-5242 21 0
5242 -18 -21 0
-5243 -18 0
-5243 -21 0
5243 18 21 0
-5244 -5242 0
-5244 -5243 0
5244 5242 5243 0
-5272 24 0
-5272 5244 0
5272 -24 -5244 0
-5273 -24 0
-5273 -5244 0
5273 24 5244 0
-5274 -5272 0
-5274 -5273 0
5274 5272 5273 0
-5254 3510 0
-5254 4371 0
5254 -3510 -4371 0
-5255 -3510 0
-5255 -4371 0
5255 3510 4371 0
-5256 -5254 0
-5256 -5255 0
5256 5254 5255 0
-5260 30 0
-5260 32 0
5260 -30 -32 0
-5261 -30 0
-5261 -32 0
5261 30 32 0
-5262 -5260 0
-5262 -5261 0
5262 5260 5261 0
-5317 5256 0
-5317 5262 0
5317 -5256 -5262 0
-5318 -5256 0
-5318 -5262 0
5318 5256 5262 0
-5319 -5317 0
-5319 -5318 0
5319 5317 5318 0
-5338 5274 0
-5338 5319 0
5338 -5274 -5319 0
-5339 -5274 0
-5339 -5319 0
5339 5274 5319 0
-5340 -5338 0
-5340 -5339 0
5340 5338 5339 0
-5341 5271 0
-5341 5340 0
5341 -5271 -5340 0
-5342 -5271 0
-5342 -5340 0
5342 5271 5340 0
-5343 -5341 0
-5343 -5342 0
5343 5341 5342 0
-5263 36 0
-5263 39 0
5263 -36 -39 0
-5264 -36 0
-5264 -39 0
5264 36 39 0
-5265 -5263 0
-5265 -5264 0
5265 5263 5264 0
-5344 47 0
-5344 5265 0
5344 -47 -5265 0
-5345 -47 0
-5345 -5265 0
5345 47 5265 0
-5346 -5344 0
-5346 -5345 0
5346 5344 5345 0
-5395 50 0
-5395 5346 0
5395 -50 -5346 0
-5396 -50 0
-5396 -5346 0
5396 50 5346 0
-5397 -5395 0
-5397 -5396 0
5397 5395 5396 0
-5398 5343 0
-5398 5397 0
5398 -5343 -5397 0
-5399 -5343 0
-5399 -5397 0
5399 5343 5397 0
-5400 -5398 0
-5400 -5399 0
5400 5398 5399 0
-5401 -82 0
-5401 5400 0
5401 82 -5400 0
-5402 82 0
-5402 -5400 0
5402 -82 5400 0
-5403 -5401 0
-5403 -5402 0
5403 5401 5402 0
-5404 6 0
-5404 5229 0
5404 -6 -5229 0
-5405 -6 0
-5405 -5229 0
5405 6 5229 0
-5406 -5404 0
-5406 -5405 0
5406 5404 5405 0
-5425 4212 0
-5425 5235 0
5425 -4212 -5235 0
-5426 -4212 0
-5426 -5235 0
5426 4212 5235 0
-5427 -5425 0
-5427 -5426 0
5427 5425 5426 0
-5428 5406 0
-5428 5427 0
5428 -5406 -5427 0
-5429 -5406 0
-5429 -5427 0
5429 5406 5427 0
-5430 -5428 0
-5430 -5429 0
5430 5428 5429 0
-5431 19 0
-5431 4134 0
5431 -19 -4134 0
-5432 -19 0
-5432 -4134 0
5432 19 4134 0
-5433 -5431 0
-5433 -5432 0
5433 5431 5432 0
-4756 31 0
-4756 32 0
4756 -31 -32 0
-4757 -31 0
-4757 -32 0
4757 31 32 0
-4758 -4756 0
-4758 -4757 0
4758 4756 4757 0
-5473 4758 0
-5473 5256 0
5473 -4758 -5256 0
-5474 -4758 0
-5474 -5256 0
5474 4758 5256 0
-5475 -5473 0
-5475 -5474 0
5475 5473 5474 0
-5488 5433 0
-5488 5475 0
5488 -5433 -5475 0
-5489 -5433 0
-5489 -5475 0
5489 5433 5475 0
-5490 -5488 0
-5490 -5489 0
5490 5488 5489 0
-5491 5430 0
-5491 5490 0
5491 -5430 -5490 0
-5492 -5430 0
-5492 -5490 0
5492 5430 5490 0
-5493 -5491 0
-5493 -5492 0
5493 5491 5492 0
-5422 37 0
-5422 40 0
5422 -37 -40 0
-5423 -37 0
-5423 -40 0
5423 37 40 0
-5424 -5422 0
-5424 -5423 0
5424 5422 5423 0
-5494 47 0
-5494 5424 0
5494 -47 -5424 0
-5495 -47 0
-5495 -5424 0
5495 47 5424 0
-5496 -5494 0
-5496 -5495 0
5496 5494 5495 0
-5545 50 0
-5545 5496 0
5545 -50 -5496 0
-5546 -50 0
-5546 -5496 0
5546 50 5496 0
-5547 -5545 0
-5547 -5546 0
5547 5545 5546 0
-5548 5493 0
-5548 5547 0
5548 -5493 -5547 0
-5549 -5493 0
-5549 -5547 0
5549 5493 5547 0
-5550 -5548 0
-5550 -5549 0
5550 5548 5549 0
-5551 -81 0
-5551 5550 0
5551 81 -5550 0
-5552 81 0
-5552 -5550 0
5552 -81 5550 0
-5553 -5551 0
-5553 -5552 0
5553 5551 5552 0
-5563 16 0
-5563 3729 0
5563 -16 -3729 0
-5564 -16 0
-5564 -3729 0
5564 16 3729 0
-5565 -5563 0
-5565 -5564 0
5565 5563 5564 0
-5599 5235 0
-5599 5565 0
5599 -5235 -5565 0
-5600 -5235 0
-5600 -5565 0
5600 5235 5565 0
-5601 -5599 0
-5601 -5600 0
5601 5599 5600 0
-5602 2 0
-5602 5601 0
5602 -2 -5601 0
-5603 -2 0
-5603 -5601 0
5603 2 5601 0
-5604 -5602 0
-5604 -5603 0
5604 5602 5603 0
-5575 3615 0
-5575 3710 0
5575 -3615 -3710 0
-5576 -3615 0
-5576 -3710 0
5576 3615 3710 0
-5577 -5575 0
-5577 -5576 0
5577 5575 5576 0
-5605 4257 0
-5605 5577 0
5605 -4257 -5577 0
-5606 -4257 0
-5606 -5577 0
5606 4257 5577 0
-5607 -5605 0
-5607 -5606 0
5607 5605 5606 0
-5584 28 0
-5584 3510 0
5584 -28 -3510 0
-5585 -28 0
-5585 -3510 0
5585 28 3510 0
-5586 -5584 0
-5586 -5585 0
5586 5584 5585 0
-5587 32 0
-5587 3494 0
5587 -32 -3494 0
-5588 -32 0
-5588 -3494 0
5588 32 3494 0
-5589 -5587 0
-5589 -5588 0
5589 5587 5588 0
-5650 5586 0
-5650 5589 0
5650 -5586 -5589 0
-5651 -5586 0
-5651 -5589 0
5651 5586 5589 0
-5652 -5650 0
-5652 -5651 0
5652 5650 5651 0
-5683 5607 0
-5683 5652 0
5683 -5607 -5652 0
-5684 -5607 0
-5684 -5652 0
5684 5607 5652 0
-5685 -5683 0
-5685 -5684 0
5685 5683 5684 0
-5686 5604 0
-5686 5685 0
5686 -5604 -5685 0
-5687 -5604 0
-5687 -5685 0
5687 5604 5685 0
-5688 -5686 0
-5688 -5687 0
5688 5686 5687 0
-5674 4263 0
-5674 4437 0
5674 -4263 -4437 0
-5675 -4263 0
-5675 -4437 0
5675 4263 4437 0
-5676 -5674 0
-5676 -5675 0
5676 5674 5675 0
-5689 47 0
-5689 5676 0
5689 -47 -5676 0
-5690 -47 0
-5690 -5676 0
5690 47 5676 0
-5691 -5689 0
-5691 -5690 0
5691 5689 5690 0
-5752 50 0
-5752 5691 0
5752 -50 -5691 0
-5753 -50 0
-5753 -5691 0
5753 50 5691 0
-5754 -5752 0
-5754 -5753 0
5754 5752 5753 0
-5755 5688 0
-5755 5754 0
5755 -5688 -5754 0
-5756 -5688 0
-5756 -5754 0
5756 5688 5754 0
-5757 -5755 0
-5757 -5756 0
5757 5755 5756 0
-5758 -80 0
-5758 5757 0
5758 80 -5757 0
-5759 80 0
-5759 -5757 0
5759 -80 5757 0
-5760 -5758 0
-5760 -5759 0
5760 5758 5759 0
-5761 3 0
-5761 3938 0
5761 -3 -3938 0
-5762 -3 0
-5762 -3938 0
5762 3 3938 0
-5763 -5761 0
-5763 -5762 0
5763 5761 5762 0
-5764 12 0
-5764 16 0
5764 -12 -16 0
-5765 -12 0
-5765 -16 0
5765 12 16 0
-5766 -5764 0
-5766 -5765 0
5766 5764 5765 0
-5767 5763 0
-5767 5766 0
5767 -5763 -5766 0
-5768 -5763 0
-5768 -5766 0
5768 5763 5766 0
-5769 -5767 0
-5769 -5768 0
5769 5767 5768 0
-4150 18 0
-4150 22 0
4150 -18 -22 0
-4151 -18 0
-4151 -22 0
4151 18 22 0
-4152 -4150 0
-4152 -4151 0
4152 4150 4151 0
-5773 27 0
-5773 33 0
5773 -27 -33 0
-5774 -27 0
-5774 -33 0
5774 27 33 0
-5775 -5773 0
-5775 -5774 0
5775 5773 5774 0
-5779 4152 0
-5779 5775 0
5779 -4152 -5775 0
-5780 -4152 0
-5780 -5775 0
5780 4152 5775 0
-5781 -5779 0
-5781 -5780 0
5781 5779 5780 0
-5782 5769 0
-5782 5781 0
5782 -5769 -5781 0
-5783 -5769 0
-5783 -5781 0
5783 5769 5781 0
-5784 -5782 0
-5784 -5783 0
5784 5782 5783 0
-5800 37 0
-5800 50 0
5800 -37 -50 0
-5801 -37 0
-5801 -50 0
5801 37 50 0
-5802 -5800 0
-5802 -5801 0
5802 5800 5801 0
-5803 5784 0
-5803 5802 0
5803 -5784 -5802 0
-5804 -5784 0
-5804 -5802 0
5804 5784 5802 0
-5805 -5803 0
-5805 -5804 0
5805 5803 5804 0
-5806 -79 0
-5806 5805 0
5806 79 -5805 0
-5807 79 0
-5807 -5805 0
5807 -79 5805 0
-5808 -5806 0
-5808 -5807 0
5808 5806 5807 0
-5809 4 0
-5809 3938 0
5809 -4 -3938 0
-5810 -4 0
-5810 -3938 0
5810 4 3938 0
-5811 -5809 0
-5811 -5810 0
5811 5809 5810 0
-5812 4026 0
-5812 5811 0
5812 -4026 -5811 0
-5813 -4026 0
-5813 -5811 0
5813 4026 5811 0
-5814 -5812 0
-5814 -5813 0
5814 5812 5813 0
-5821 28 0
-5821 4029 0
5821 -28 -4029 0
-5822 -28 0
-5822 -4029 0
5822 28 4029 0
-5823 -5821 0
-5823 -5822 0
5823 5821 5822 0
-5824 5814 0
-5824 5823 0
5824 -5814 -5823 0
-5825 -5814 0
-5825 -5823 0
5825 5814 5823 0
-5826 -5824 0
-5826 -5825 0
5826 5824 5825 0
-5845 50 0
-5845 4035 0
5845 -50 -4035 0
-5846 -50 0
-5846 -4035 0
5846 50 4035 0
-5847 -5845 0
-5847 -5846 0
5847 5845 5846 0
-5848 5826 0
-5848 5847 0
5848 -5826 -5847 0
-5849 -5826 0
-5849 -5847 0
5849 5826 5847 0
-5850 -5848 0
-5850 -5849 0
5850 5848 5849 0
-5851 -78 0
-5851 5850 0
5851 78 -5850 0
-5852 78 0
-5852 -5850 0
5852 -78 5850 0
-5853 -5851 0
-5853 -5852 0
5853 5851 5852 0
-5854 4 0
-5854 3957 0
5854 -4 -3957 0
-5855 -4 0
-5855 -3957 0
5855 4 3957 0
-5856 -5854 0
-5856 -5855 0
5856 5854 5855 0
-5860 3938 0
-5860 5856 0
5860 -3938 -5856 0
-5861 -3938 0
-5861 -5856 0
5861 3938 5856 0
-5862 -5860 0
-5862 -5861 0
5862 5860 5861 0
-5866 14 0
-5866 17 0
5866 -14 -17 0
-5867 -14 0
-5867 -17 0
5867 14 17 0
-5868 -5866 0
-5868 -5867 0
5868 5866 5867 0
-5887 5235 0
-5887 5868 0
5887 -5235 -5868 0
-5888 -5235 0
-5888 -5868 0
5888 5235 5868 0
-5889 -5887 0
-5889 -5888 0
5889 5887 5888 0
-5890 5862 0
-5890 5889 0
5890 -5862 -5889 0
-5891 -5862 0
-5891 -5889 0
5891 5862 5889 0
-5892 -5890 0
-5892 -5891 0
5892 5890 5891 0
-5875 20 0
-5875 3710 0
5875 -20 -3710 0
-5876 -20 0
-5876 -3710 0
5876 20 3710 0
-5877 -5875 0
-5877 -5876 0
5877 5875 5876 0
-5917 3408 0
-5917 5586 0
5917 -3408 -5586 0
-5918 -3408 0
-5918 -5586 0
5918 3408 5586 0
-5919 -5917 0
-5919 -5918 0
5919 5917 5918 0
-5932 5877 0
-5932 5919 0
5932 -5877 -5919 0
-5933 -5877 0
-5933 -5919 0
5933 5877 5919 0
-5934 -5932 0
-5934 -5933 0
5934 5932 5933 0
-5935 5892 0
-5935 5934 0
5935 -5892 -5934 0
-5936 -5892 0
-5936 -5934 0
5936 5892 5934 0
-5937 -5935 0
-5937 -5936 0
5937 5935 5936 0
-5857 34 0
-5857 35 0
5857 -34 -35 0
-5858 -34 0
-5858 -35 0
5858 34 35 0
-5859 -5857 0
-5859 -5858 0
5859 5857 5858 0
-5965 50 0
-5965 5859 0
5965 -50 -5859 0
-5966 -50 0
-5966 -5859 0
5966 50 5859 0
-5967 -5965 0
-5967 -5966 0
5967 5965 5966 0
-5968 5937 0
-5968 5967 0
5968 -5937 -5967 0
-5969 -5937 0
-5969 -5967 0
5969 5937 5967 0
-5970 -5968 0
-5970 -5969 0
5970 5968 5969 0
-5971 -77 0
-5971 5970 0
5971 77 -5970 0
-5972 77 0
-5972 -5970 0
5972 -77 5970 0
-5973 -5971 0
-5973 -5972 0
5973 5971 5972 0
-5239 15 0
-5239 3824 0
5239 -15 -3824 0
-5240 -15 0
-5240 -3824 0
5240 15 3824 0
-5241 -5239 0
-5241 -5240 0
5241 5239 5240 0
-5983 4 0
-5983 5241 0
5983 -4 -5241 0
-5984 -4 0
-5984 -5241 0
5984 4 5241 0
-5985 -5983 0
-5985 -5984 0
5985 5983 5984 0
-5977 21 0
-5977 3710 0
5977 -21 -3710 0
-5978 -21 0
-5978 -3710 0
5978 21 3710 0
-5979 -5977 0
-5979 -5978 0
5979 5977 5978 0
-5986 24 0
-5986 5979 0
5986 -24 -5979 0
-5987 -24 0
-5987 -5979 0
5987 24 5979 0
-5988 -5986 0
-5988 -5987 0
5988 5986 5987 0
-6022 27 0
-6022 5988 0
6022 -27 -5988 0
-6023 -27 0
-6023 -5988 0
6023 27 5988 0
-6024 -6022 0
-6024 -6023 0
6024 6022 6023 0
-6025 5985 0
-6025 6024 0
6025 -5985 -6024 0
-6026 -5985 0
-6026 -6024 0
6026 5985 6024 0
-6027 -6025 0
-6027 -6026 0
6027 6025 6026 0
-6019 39 0
-6019 4035 0
6019 -39 -4035 0
-6020 -39 0
-6020 -4035 0
6020 39 4035 0
-6021 -6019 0
-6021 -6020 0
6021 6019 6020 0
-6028 47 0
-6028 6021 0
6028 -47 -6021 0
-6029 -47 0
-6029 -6021 0
6029 47 6021 0
-6030 -6028 0
-6030 -6029 0
6030 6028 6029 0
-6058 6027 0
-6058 6030 0
6058 -6027 -6030 0
-6059 -6027 0
-6059 -6030 0
6059 6027 6030 0
-6060 -6058 0
-6060 -6059 0
6060 6058 6059 0
-6061 -76 0
-6061 6060 0
6061 76 -6060 0
-6062 76 0
-6062 -6060 0
6062 -76 6060 0
-6063 -6061 0
-6063 -6062 0
6063 6061 6062 0
-6067 16 0
-6067 3824 0
6067 -16 -3824 0
-6068 -16 0
-6068 -3824 0
6068 16 3824 0
-6069 -6067 0
-6069 -6068 0
6069 6067 6068 0
-6070 3 0
-6070 6069 0
6070 -3 -6069 0
-6071 -3 0
-6071 -6069 0
6071 3 6069 0
-6072 -6070 0
-6072 -6071 0
6072 6070 6071 0
-6073 3710 0
-6073 4134 0
6073 -3710 -4134 0
-6074 -3710 0
-6074 -4134 0
6074 3710 4134 0
-6075 -6073 0
-6075 -6074 0
6075 6073 6074 0
-6103 28 0
-6103 33 0
6103 -28 -33 0
-6104 -28 0
-6104 -33 0
6104 28 33 0
-6105 -6103 0
-6105 -6104 0
6105 6103 6104 0
-6109 6075 0
-6109 6105 0
6109 -6075 -6105 0
-6110 -6075 0
-6110 -6105 0
6110 6075 6105 0
-6111 -6109 0
-6111 -6110 0
6111 6109 6110 0
-6112 6072 0
-6112 6111 0
6112 -6072 -6111 0
-6113 -6072 0
-6113 -6111 0
6113 6072 6111 0
-6114 -6112 0
-6114 -6113 0
6114 6112 6113 0
-6145 5496 0
-6145 6114 0
6145 -5496 -6114 0
-6146 -5496 0
-6146 -6114 0
6146 5496 6114 0
-6147 -6145 0
-6147 -6146 0
6147 6145 6146 0
-6148 -75 0
-6148 6147 0
6148 75 -6147 0
-6149 75 0
-6149 -6147 0
6149 -75 6147 0
-6150 -6148 0
-6150 -6149 0
6150 6148 6149 0
-6154 3824 0
-6154 5565 0
6154 -3824 -5565 0
-6155 -3824 0
-6155 -5565 0
6155 3824 5565 0
-6156 -6154 0
-6156 -6155 0
6156 6154 6155 0
-6157 2 0
-6157 6156 0
6157 -2 -6156 0
-6158 -2 0
-6158 -6156 0
6158 2 6156 0
-6159 -6157 0
-6159 -6158 0
6159 6157 6158 0
-6172 32 0
-6172 5586 0
6172 -32 -5586 0
-6173 -32 0
-6173 -5586 0
6173 32 5586 0
-6174 -6172 0
-6174 -6173 0
6174 6172 6173 0
-6190 5607 0
-6190 6174 0
6190 -5607 -6174 0
-6191 -5607 0
-6191 -6174 0
6191 5607 6174 0
-6192 -6190 0
-6192 -6191 0
6192 6190 6191 0
-6193 6159 0
-6193 6192 0
6193 -6159 -6192 0
-6194 -6159 0
-6194 -6192 0
6194 6159 6192 0
-6195 -6193 0
-6195 -6194 0
6195 6193 6194 0
-6247 5691 0
-6247 6195 0
6247 -5691 -6195 0
-6248 -5691 0
-6248 -6195 0
6248 5691 6195 0
-6249 -6247 0
-6249 -6248 0
6249 6247 6248 0
-6250 -74 0
-6250 6249 0
6250 74 -6249 0
-6251 74 0
-6251 -6249 0
6251 -74 6249 0
-6252 -6250 0
-6252 -6251 0
6252 6250 6251 0
-6253 3824 0
-6253 4209 0
6253 -3824 -4209 0
-6254 -3824 0
-6254 -4209 0
6254 3824 4209 0
-6255 -6253 0
-6255 -6254 0
6255 6253 6254 0
-6265 5868 0
-6265 6255 0
6265 -5868 -6255 0
-6266 -5868 0
-6266 -6255 0
6266 5868 6255 0
-6267 -6265 0
-6267 -6266 0
6267 6265 6266 0
-6268 5763 0
-6268 6267 0
6268 -5763 -6267 0
-6269 -5763 0
-6269 -6267 0
6269 5763 6267 0
-6270 -6268 0
-6270 -6269 0
6270 6268 6269 0
-6271 3577 0
-6271 5877 0
6271 -3577 -5877 0
-6272 -3577 0
-6272 -5877 0
6272 3577 5877 0
-6273 -6271 0
-6273 -6272 0
6273 6271 6272 0
-6310 6105 0
-6310 6273 0
6310 -6105 -6273 0
-6311 -6105 0
-6311 -6273 0
6311 6105 6273 0
-6312 -6310 0
-6312 -6311 0
6312 6310 6311 0
-6313 6270 0
-6313 6312 0
6313 -6270 -6312 0
-6314 -6270 0
-6314 -6312 0
6314 6270 6312 0
-6315 -6313 0
-6315 -6314 0
6315 6313 6314 0
-6304 35 0
-6304 3328 0
6304 -35 -3328 0
-6305 -35 0
-6305 -3328 0
6305 35 3328 0
-6306 -6304 0
-6306 -6305 0
6306 6304 6305 0
-6316 47 0
-6316 6306 0
6316 -47 -6306 0
-6317 -47 0
-6317 -6306 0
6317 47 6306 0
-6318 -6316 0
-6318 -6317 0
6318 6316 6317 0
-6364 50 0
-6364 6318 0
6364 -50 -6318 0
-6365 -50 0
-6365 -6318 0
6365 50 6318 0
-6366 -6364 0
-6366 -6365 0
6366 6364 6365 0
-6367 6315 0
-6367 6366 0
6367 -6315 -6366 0
-6368 -6315 0
-6368 -6366 0
6368 6315 6366 0
-6369 -6367 0
-6369 -6368 0
6369 6367 6368 0
-6370 -73 0
-6370 6369 0
6370 73 -6369 0
-6371 73 0
-6371 -6369 0
6371 -73 6369 0
-6372 -6370 0
-6372 -6371 0
6372 6370 6371 0
-6373 4 0
-6373 4218 0
6373 -4 -4218 0
-6374 -4 0
-6374 -4218 0
6374 4 4218 0
-6375 -6373 0
-6375 -6374 0
6375 6373 6374 0
-6379 5889 0
-6379 6375 0
6379 -5889 -6375 0
-6380 -5889 0
-6380 -6375 0
6380 5889 6375 0
-6381 -6379 0
-6381 -6380 0
6381 6379 6380 0
-6382 3558 0
-6382 5877 0
6382 -3558 -5877 0
-6383 -3558 0
-6383 -5877 0
6383 3558 5877 0
-6384 -6382 0
-6384 -6383 0
6384 6382 6383 0
-6406 27 0
-6406 6384 0
6406 -27 -6384 0
-6407 -27 0
-6407 -6384 0
6407 27 6384 0
-6408 -6406 0
-6408 -6407 0
6408 6406 6407 0
-6409 6381 0
-6409 6408 0
6409 -6381 -6408 0
-6410 -6381 0
-6410 -6408 0
6410 6381 6408 0
-6411 -6409 0
-6411 -6410 0
6411 6409 6410 0
-6400 3312 0
-6400 5859 0
6400 -3312 -5859 0
-6401 -3312 0
-6401 -5859 0
6401 3312 5859 0
-6402 -6400 0
-6402 -6401 0
6402 6400 6401 0
-6412 47 0
-6412 6402 0
6412 -47 -6402 0
-6413 -47 0
-6413 -6402 0
6413 47 6402 0
-6414 -6412 0
-6414 -6413 0
6414 6412 6413 0
-6445 50 0
-6445 6414 0
6445 -50 -6414 0
-6446 -50 0
-6446 -6414 0
6446 50 6414 0
-6447 -6445 0
-6447 -6446 0
6447 6445 6446 0
-6448 6411 0
-6448 6447 0
6448 -6411 -6447 0
-6449 -6411 0
-6449 -6447 0
6449 6411 6447 0
-6450 -6448 0
-6450 -6449 0
6450 6448 6449 0
-6451 -72 0
-6451 6450 0
6451 72 -6450 0
-6452 72 0
-6452 -6450 0
6452 -72 6450 0
-6453 -6451 0
-6453 -6452 0
6453 6451 6452 0
-6454 4119 0
-6454 5856 0
6454 -4119 -5856 0
-6455 -4119 0
-6455 -5856 0
6455 4119 5856 0
-6456 -6454 0
-6456 -6455 0
6456 6454 6455 0
-6460 5889 0
-6460 6456 0
6460 -5889 -6456 0
-6461 -5889 0
-6461 -6456 0
6461 5889 6456 0
-6462 -6460 0
-6462 -6461 0
6462 6460 6461 0
-6469 26 0
-6469 3408 0
6469 -26 -3408 0
-6470 -26 0
-6470 -3408 0
6470 26 3408 0
-6471 -6469 0
-6471 -6470 0
6471 6469 6470 0
-6472 5877 0
-6472 6471 0
6472 -5877 -6471 0
-6473 -5877 0
-6473 -6471 0
6473 5877 6471 0
-6474 -6472 0
-6474 -6473 0
6474 6472 6473 0
-6475 6462 0
-6475 6474 0
6475 -6462 -6474 0
-6476 -6462 0
-6476 -6474 0
6476 6462 6474 0
-6477 -6475 0
-6477 -6476 0
6477 6475 6476 0
-6478 47 0
-6478 5859 0
6478 -47 -5859 0
-6479 -47 0
-6479 -5859 0
6479 47 5859 0
-6480 -6478 0
-6480 -6479 0
6480 6478 6479 0
-6511 50 0
-6511 6480 0
6511 -50 -6480 0
-6512 -50 0
-6512 -6480 0
6512 50 6480 0
-6513 -6511 0
-6513 -6512 0
6513 6511 6512 0
-6514 6477 0
-6514 6513 0
6514 -6477 -6513 0
-6515 -6477 0
-6515 -6513 0
6515 6477 6513 0
-6516 -6514 0
-6516 -6515 0
6516 6514 6515 0
-6517 -71 0
-6517 6516 0
6517 71 -6516 0
-6518 71 0
-6518 -6516 0
6518 -71 6516 0
-6519 -6517 0
-6519 -6518 0
6519 6517 6518 0
-6520 6 0
-6520 3843 0
6520 -6 -3843 0
-6521 -6 0
-6521 -3843 0
6521 6 3843 0
-6522 -6520 0
-6522 -6521 0
6522 6520 6521 0
-6523 3 0
-6523 6522 0
6523 -3 -6522 0
-6524 -3 0
-6524 -6522 0
6524 3 6522 0
-6525 -6523 0
-6525 -6524 0
6525 6523 6524 0
-6529 12 0
-6529 6525 0
6529 -12 -6525 0
-6530 -12 0
-6530 -6525 0
6530 12 6525 0
-6531 -6529 0
-6531 -6530 0
6531 6529 6530 0
-6532 18 0
-6532 3558 0
6532 -18 -3558 0
-6533 -18 0
-6533 -3558 0
6533 18 3558 0
-6534 -6532 0
-6534 -6533 0
6534 6532 6533 0
-6544 27 0
-6544 32 0
6544 -27 -32 0
-6545 -27 0
-6545 -32 0
6545 27 32 0
-6546 -6544 0
-6546 -6545 0
6546 6544 6545 0
-6553 6534 0
-6553 6546 0
6553 -6534 -6546 0
-6554 -6534 0
-6554 -6546 0
6554 6534 6546 0
-6555 -6553 0
-6555 -6554 0
6555 6553 6554 0
-6556 6531 0
-6556 6555 0
6556 -6531 -6555 0
-6557 -6531 0
-6557 -6555 0
6557 6531 6555 0
-6558 -6556 0
-6558 -6557 0
6558 6556 6557 0
-6580 50 0
-6580 3312 0
6580 -50 -3312 0
-6581 -50 0
-6581 -3312 0
6581 50 3312 0
-6582 -6580 0
-6582 -6581 0
6582 6580 6581 0
-6586 6558 0
-6586 6582 0
6586 -6558 -6582 0
-6587 -6558 0
-6587 -6582 0
6587 6558 6582 0
-6588 -6586 0
-6588 -6587 0
6588 6586 6587 0
-6589 -70 0
-6589 6588 0
6589 70 -6588 0
-6590 70 0
-6590 -6588 0
6590 -70 6588 0
-6591 -6589 0
-6591 -6590 0
6591 6589 6590 0
-4012 7 0
-4012 8 0
4012 -7 -8 0
-4013 -7 0
-4013 -8 0
4013 7 8 0
-4014 -4012 0
-4014 -4013 0
4014 4012 4013 0
-6592 4 0
-6592 4014 0
6592 -4 -4014 0
-6593 -4 0
-6593 -4014 0
6593 4 4014 0
-6594 -6592 0
-6594 -6593 0
6594 6592 6593 0
-6595 10 0
-6595 13 0
6595 -10 -13 0
-6596 -10 0
-6596 -13 0
6596 10 13 0
-6597 -6595 0
-6597 -6596 0
6597 6595 6596 0
-6598 6594 0
-6598 6597 0
6598 -6594 -6597 0
-6599 -6594 0
-6599 -6597 0
6599 6594 6597 0
-6600 -6598 0
-6600 -6599 0
6600 6598 6599 0
-6601 19 0
-6601 3577 0
6601 -19 -3577 0
-6602 -19 0
-6602 -3577 0
6602 19 3577 0
-6603 -6601 0
-6603 -6602 0
6603 6601 6602 0
-6613 28 0
-6613 32 0
6613 -28 -32 0
-6614 -28 0
-6614 -32 0
6614 28 32 0
-6615 -6613 0
-6615 -6614 0
6615 6613 6614 0
-6616 6603 0
-6616 6615 0
6616 -6603 -6615 0
-6617 -6603 0
-6617 -6615 0
6617 6603 6615 0
-6618 -6616 0
-6618 -6617 0
6618 6616 6617 0
-6619 6600 0
-6619 6618 0
6619 -6600 -6618 0
-6620 -6600 0
-6620 -6618 0
6620 6600 6618 0
-6621 -6619 0
-6621 -6620 0
6621 6619 6620 0
-6649 50 0
-6649 3328 0
6649 -50 -3328 0
-6650 -50 0
-6650 -3328 0
6650 50 3328 0
-6651 -6649 0
-6651 -6650 0
6651 6649 6650 0
-6652 6621 0
-6652 6651 0
6652 -6621 -6651 0
-6653 -6621 0
-6653 -6651 0
6653 6621 6651 0
-6654 -6652 0
-6654 -6653 0
6654 6652 6653 0
-6655 -69 0
-6655 6654 0
6655 69 -6654 0
-6656 69 0
-6656 -6654 0
6656 -69 6654 0
-6657 -6655 0
-6657 -6656 0
6657 6655 6656 0
-4564 50 0
-4564 3344 0
4564 -50 -3344 0
-4565 -50 0
-4565 -3344 0
4565 50 3344 0
-4566 -4564 0
-4566 -4565 0
4566 4564 4565 0
-6658 3957 0
-6658 4359 0
6658 -3957 -4359 0
-6659 -3957 0
-6659 -4359 0
6659 3957 4359 0
-6660 -6658 0
-6660 -6659 0
6660 6658 6659 0
-6661 4218 0
-6661 6660 0
6661 -4218 -6660 0
-6662 -4218 0
-6662 -6660 0
6662 4218 6660 0
-6663 -6661 0
-6663 -6662 0
6663 6661 6662 0
-6670 17 0
-6670 6255 0
6670 -17 -6255 0
-6671 -17 0
-6671 -6255 0
6671 17 6255 0
-6672 -6670 0
-6672 -6671 0
6672 6670 6671 0
-6673 6663 0
-6673 6672 0
6673 -6663 -6672 0
-6674 -6663 0
-6674 -6672 0
6674 6663 6672 0
-6675 -6673 0
-6675 -6674 0
6675 6673 6674 0
-6676 3596 0
-6676 3710 0
6676 -3596 -3710 0
-6677 -3596 0
-6677 -3710 0
6677 3596 3710 0
-6678 -6676 0
-6678 -6677 0
6678 6676 6677 0
-6706 6174 0
-6706 6678 0
6706 -6174 -6678 0
-6707 -6174 0
-6707 -6678 0
6707 6174 6678 0
-6708 -6706 0
-6708 -6707 0
6708 6706 6707 0
-6709 6675 0
-6709 6708 0
6709 -6675 -6708 0
-6710 -6675 0
-6710 -6708 0
6710 6675 6708 0
-6711 -6709 0
-6711 -6710 0
6711 6709 6710 0
-6748 4566 0
-6748 6711 0
6748 -4566 -6711 0
-6749 -4566 0
-6749 -6711 0
6749 4566 6711 0
-6750 -6748 0
-6750 -6749 0
6750 6748 6749 0
-6751 -68 0
-6751 6750 0
6751 68 -6750 0
-6752 68 0
-6752 -6750 0
6752 -68 6750 0
-6753 -6751 0
-6753 -6752 0
6753 6751 6752 0
-6754 12 0
-6754 15 0
6754 -12 -15 0
-6755 -12 0
-6755 -15 0
6755 12 15 0
-6756 -6754 0
-6756 -6755 0
6756 6754 6755 0
-6763 3900 0
-6763 6756 0
6763 -3900 -6756 0
-6764 -3900 0
-6764 -6756 0
6764 3900 6756 0
-6765 -6763 0
-6765 -6764 0
6765 6763 6764 0
-6766 24 0
-6766 4608 0
6766 -24 -4608 0
-6767 -24 0
-6767 -4608 0
6767 24 4608 0
-6768 -6766 0
-6768 -6767 0
6768 6766 6767 0
-6757 27 0
-6757 29 0
6757 -27 -29 0
-6758 -27 0
-6758 -29 0
6758 27 29 0
-6759 -6757 0
-6759 -6758 0
6759 6757 6758 0
-6793 30 0
-6793 6759 0
6793 -30 -6759 0
-6794 -30 0
-6794 -6759 0
6794 30 6759 0
-6795 -6793 0
-6795 -6794 0
6795 6793 6794 0
-6799 6768 0
-6799 6795 0
6799 -6768 -6795 0
-6800 -6768 0
-6800 -6795 0
6800 6768 6795 0
-6801 -6799 0
-6801 -6800 0
6801 6799 6800 0
-6802 6765 0
-6802 6801 0
6802 -6765 -6801 0
-6803 -6765 0
-6803 -6801 0
6803 6765 6801 0
-6804 -6802 0
-6804 -6803 0
6804 6802 6803 0
-4987 35 0
-4987 39 0
4987 -35 -39 0
-4988 -35 0
-4988 -39 0
4988 35 39 0
-4989 -4987 0
-4989 -4988 0
4989 4987 4988 0
-6805 47 0
-6805 4989 0
6805 -47 -4989 0
-6806 -47 0
-6806 -4989 0
6806 47 4989 0
-6807 -6805 0
-6807 -6806 0
6807 6805 6806 0
-6838 6804 0
-6838 6807 0
6838 -6804 -6807 0
-6839 -6804 0
-6839 -6807 0
6839 6804 6807 0
-6840 -6838 0
-6840 -6839 0
6840 6838 6839 0
-6841 -67 0
-6841 6840 0
6841 67 -6840 0
-6842 67 0
-6842 -6840 0
6842 -67 6840 0
-6843 -6841 0
-6843 -6842 0
6843 6841 6842 0
-5407 13 0
-5407 16 0
5407 -13 -16 0
-5408 -13 0
-5408 -16 0
5408 13 16 0
-5409 -5407 0
-5409 -5408 0
5409 5407 5408 0
-6847 3919 0
-6847 5409 0
6847 -3919 -5409 0
-6848 -3919 0
-6848 -5409 0
6848 3919 5409 0
-6849 -6847 0
-6849 -6848 0
6849 6847 6848 0
-4618 31 0
-4618 4371 0
4618 -31 -4371 0
-4619 -31 0
-4619 -4371 0
4619 31 4371 0
-4620 -4618 0
-4620 -4619 0
4620 4618 4619 0
-6850 25 0
-6850 4368 0
6850 -25 -4368 0
-6851 -25 0
-6851 -4368 0
6851 25 4368 0
-6852 -6850 0
-6852 -6851 0
6852 6850 6851 0
-6886 4620 0
-6886 6852 0
6886 -4620 -6852 0
-6887 -4620 0
-6887 -6852 0
6887 4620 6852 0
-6888 -6886 0
-6888 -6887 0
6888 6886 6887 0
-6889 6849 0
-6889 6888 0
6889 -6849 -6888 0
-6890 -6849 0
-6890 -6888 0
6890 6849 6888 0
-6891 -6889 0
-6891 -6890 0
6891 6889 6890 0
-6883 35 0
-6883 40 0
6883 -35 -40 0
-6884 -35 0
-6884 -40 0
6884 35 40 0
-6885 -6883 0
-6885 -6884 0
6885 6883 6884 0
-6892 47 0
-6892 6885 0
6892 -47 -6885 0
-6893 -47 0
-6893 -6885 0
6893 47 6885 0
-6894 -6892 0
-6894 -6893 0
6894 6892 6893 0
-6925 6891 0
-6925 6894 0
6925 -6891 -6894 0
-6926 -6891 0
-6926 -6894 0
6926 6891 6894 0
-6927 -6925 0
-6927 -6926 0
6927 6925 6926 0
-6928 -66 0
-6928 6927 0
6928 66 -6927 0
-6929 66 0
-6929 -6927 0
6929 -66 6927 0
-6930 -6928 0
-6930 -6929 0
6930 6928 6929 0
-6937 4239 0
-6937 5235 0
6937 -4239 -5235 0
-6938 -4239 0
-6938 -5235 0
6938 4239 5235 0
-6939 -6937 0
-6939 -6938 0
6939 6937 6938 0
-6940 3938 0
-6940 6939 0
6940 -3938 -6939 0
-6941 -3938 0
-6941 -6939 0
6941 3938 6939 0
-6942 -6940 0
-6942 -6941 0
6942 6940 6941 0
-6943 4413 0
-6943 5877 0
6943 -4413 -5877 0
-6944 -4413 0
-6944 -5877 0
6944 4413 5877 0
-6945 -6943 0
-6945 -6944 0
6945 6943 6944 0
-6979 3494 0
-6979 5586 0
6979 -3494 -5586 0
-6980 -3494 0
-6980 -5586 0
6980 3494 5586 0
-6981 -6979 0
-6981 -6980 0
6981 6979 6980 0
-7006 6945 0
-7006 6981 0
7006 -6945 -6981 0
-7007 -6945 0
-7007 -6981 0
7007 6945 6981 0
-7008 -7006 0
-7008 -7007 0
7008 7006 7007 0
-7009 6942 0
-7009 7008 0
7009 -6942 -7008 0
-7010 -6942 0
-7010 -7008 0
7010 6942 7008 0
-7011 -7009 0
-7011 -7010 0
7011 7009 7010 0
-7000 35 0
-7000 4437 0
7000 -35 -4437 0
-7001 -35 0
-7001 -4437 0
7001 35 4437 0
-7002 -7000 0
-7002 -7001 0
7002 7000 7001 0
-7012 47 0
-7012 7002 0
7012 -47 -7002 0
-7013 -47 0
-7013 -7002 0
7013 47 7002 0
-7014 -7012 0
-7014 -7013 0
7014 7012 7013 0
-7066 65 0
-7066 7014 0
7066 -65 -7014 0
-7067 -65 0
-7067 -7014 0
7067 65 7014 0
-7068 -7066 0
-7068 -7067 0
7068 7066 7067 0
-7069 7011 0
-7069 7068 0
7069 -7011 -7068 0
-7070 -7011 0
-7070 -7068 0
7070 7011 7068 0
-7071 -7069 0
-7071 -7070 0
7071 7069 7070 0
-7072 3938 0
-7072 3976 0
7072 -3938 -3976 0
-7073 -3938 0
-7073 -3976 0
7073 3938 3976 0
-7074 -7072 0
-7074 -7073 0
7074 7072 7073 0
-7084 3748 0
-7084 5058 0
7084 -3748 -5058 0
-7085 -3748 0
-7085 -5058 0
7085 3748 5058 0
-7086 -7084 0
-7086 -7085 0
7086 7084 7085 0
-7087 7074 0
-7087 7086 0
7087 -7074 -7086 0
-7088 -7074 0
-7088 -7086 0
7088 7074 7086 0
-7089 -7087 0
-7089 -7088 0
7089 7087 7088 0
-7075 25 0
-7075 4215 0
7075 -25 -4215 0
-7076 -25 0
-7076 -4215 0
7076 25 4215 0
-7077 -7075 0
-7077 -7076 0
7077 7075 7076 0
-7090 20 0
-7090 7077 0
7090 -20 -7077 0
-7091 -20 0
-7091 -7077 0
7091 20 7077 0
-7092 -7090 0
-7092 -7091 0
7092 7090 7091 0
-7126 32 0
-7126 3510 0
7126 -32 -3510 0
-7127 -32 0
-7127 -3510 0
7127 32 3510 0
-7128 -7126 0
-7128 -7127 0
7128 7126 7127 0
-7141 7092 0
-7141 7128 0
7141 -7092 -7128 0
-7142 -7092 0
-7142 -7128 0
7142 7092 7128 0
-7143 -7141 0
-7143 -7142 0
7143 7141 7142 0
-7144 7089 0
-7144 7143 0
7144 -7089 -7143 0
-7145 -7089 0
-7145 -7143 0
7145 7089 7143 0
-7146 -7144 0
-7146 -7145 0
7146 7144 7145 0
-7138 38 0
-7138 3376 0
7138 -38 -3376 0
-7139 -38 0
-7139 -3376 0
7139 38 3376 0
-7140 -7138 0
-7140 -7139 0
7140 7138 7139 0
-7147 47 0
-7147 7140 0
7147 -47 -7140 0
-7148 -47 0
-7148 -7140 0
7148 47 7140 0
-7149 -7147 0
-7149 -7148 0
7149 7147 7148 0
-7189 50 0
-7189 64 0
7189 -50 -64 0
-7190 -50 0
-7190 -64 0
7190 50 64 0
-7191 -7189 0
-7191 -7190 0
7191 7189 7190 0
-7192 7149 0
-7192 7191 0
7192 -7149 -7191 0
-7193 -7149 0
-7193 -7191 0
7193 7149 7191 0
-7194 -7192 0
-7194 -7193 0
7194 7192 7193 0
-7195 7146 0
-7195 7194 0
7195 -7146 -7194 0
-7196 -7146 0
-7196 -7194 0
7196 7146 7194 0
-7197 -7195 0
-7197 -7196 0
7197 7195 7196 0
-7198 3957 0
-7198 4218 0
7198 -3957 -4218 0
-7199 -3957 0
-7199 -4218 0
7199 3957 4218 0
-7200 -7198 0
-7200 -7199 0
7200 7198 7199 0
-7207 3729 0
-7207 3805 0
7207 -3729 -3805 0
-7208 -3729 0
-7208 -3805 0
7208 3729 3805 0
-7209 -7207 0
-7209 -7208 0
7209 7207 7208 0
-7210 7200 0
-7210 7209 0
7210 -7200 -7209 0
-7211 -7200 0
-7211 -7209 0
7211 7200 7209 0
-7212 -7210 0
-7212 -7211 0
7212 7210 7211 0
-7213 3558 0
-7213 3615 0
7213 -3558 -3615 0
-7214 -3558 0
-7214 -3615 0
7214 3558 3615 0
-7215 -7213 0
-7215 -7214 0
7215 7213 7214 0
-7249 32 0
-7249 3526 0
7249 -32 -3526 0
-7250 -32 0
-7250 -3526 0
7250 32 3526 0
-7251 -7249 0
-7251 -7250 0
7251 7249 7250 0
-7258 7215 0
-7258 7251 0
7258 -7215 -7251 0
-7259 -7215 0
-7259 -7251 0
7259 7215 7251 0
-7260 -7258 0
-7260 -7259 0
7260 7258 7259 0
-7261 7212 0
-7261 7260 0
7261 -7212 -7260 0
-7262 -7212 0
-7262 -7260 0
7262 7212 7260 0
-7263 -7261 0
-7263 -7262 0
7263 7261 7262 0
-7204 38 0
-7204 3360 0
7204 -38 -3360 0
-7205 -38 0
-7205 -3360 0
7205 38 3360 0
-7206 -7204 0
-7206 -7205 0
7206 7204 7205 0
-7264 47 0
-7264 7206 0
7264 -47 -7206 0
-7265 -47 0
-7265 -7206 0
7265 47 7206 0
-7266 -7264 0
-7266 -7265 0
7266 7264 7265 0
-7303 50 0
-7303 63 0
7303 -50 -63 0
-7304 -50 0
-7304 -63 0
7304 50 63 0
-7305 -7303 0
-7305 -7304 0
7305 7303 7304 0
-7306 7266 0
-7306 7305 0
7306 -7266 -7305 0
-7307 -7266 0
-7307 -7305 0
7307 7266 7305 0
-7308 -7306 0
-7308 -7307 0
7308 7306 7307 0
-7309 7263 0
-7309 7308 0
7309 -7263 -7308 0
-7310 -7263 0
-7310 -7308 0
7310 7263 7308 0
-7311 -7309 0
-7311 -7310 0
7311 7309 7310 0
-6175 32 0
-6175 3542 0
6175 -32 -3542 0
-6176 -32 0
-6176 -3542 0
6176 32 3542 0
-6177 -6175 0
-6177 -6176 0
6177 6175 6176 0
-7312 3824 0
-7312 4119 0
7312 -3824 -4119 0
-7313 -3824 0
-7313 -4119 0
7313 3824 4119 0
-7314 -7312 0
-7314 -7313 0
7314 7312 7313 0
-7315 6177 0
-7315 7314 0
7315 -6177 -7314 0
-7316 -6177 0
-7316 -7314 0
7316 6177 7314 0
-7317 -7315 0
-7317 -7316 0
7317 7315 7316 0
-7318 38 0
-7318 47 0
7318 -38 -47 0
-7319 -38 0
-7319 -47 0
7319 38 47 0
-7320 -7318 0
-7320 -7319 0
7320 7318 7319 0
-7339 50 0
-7339 62 0
7339 -50 -62 0
-7340 -50 0
-7340 -62 0
7340 50 62 0
-7341 -7339 0
-7341 -7340 0
7341 7339 7340 0
-7342 7320 0
-7342 7341 0
7342 -7320 -7341 0
-7343 -7320 0
-7343 -7341 0
7343 7320 7341 0
-7344 -7342 0
-7344 -7343 0
7344 7342 7343 0
-7345 7317 0
-7345 7344 0
7345 -7317 -7344 0
-7346 -7317 0
-7346 -7344 0
7346 7317 7344 0
-7347 -7345 0
-7347 -7346 0
7347 7345 7346 0
-7348 6 0
-7348 3976 0
7348 -6 -3976 0
-7349 -6 0
-7349 -3976 0
7349 6 3976 0
-7350 -7348 0
-7350 -7349 0
7350 7348 7349 0
-7366 11 0
-7366 4239 0
7366 -11 -4239 0
-7367 -11 0
-7367 -4239 0
7367 11 4239 0
-7368 -7366 0
-7368 -7367 0
7368 7366 7367 0
-7369 7350 0
-7369 7368 0
7369 -7350 -7368 0
-7370 -7350 0
-7370 -7368 0
7370 7350 7368 0
-7371 -7369 0
-7371 -7370 0
7371 7369 7370 0
-7372 3615 0
-7372 4134 0
7372 -3615 -4134 0
-7373 -3615 0
-7373 -4134 0
7373 3615 4134 0
-7374 -7372 0
-7374 -7373 0
7374 7372 7373 0
-7399 3526 0
-7399 4758 0
7399 -3526 -4758 0
-7400 -3526 0
-7400 -4758 0
7400 3526 4758 0
-7401 -7399 0
-7401 -7400 0
7401 7399 7400 0
-7432 7374 0
-7432 7401 0
7432 -7374 -7401 0
-7433 -7374 0
-7433 -7401 0
7433 7374 7401 0
-7434 -7432 0
-7434 -7433 0
7434 7432 7433 0
-7435 7371 0
-7435 7434 0
7435 -7371 -7434 0
-7436 -7371 0
-7436 -7434 0
7436 7371 7434 0
-7437 -7435 0
-7437 -7436 0
7437 7435 7436 0
-7363 36 0
-7363 5859 0
7363 -36 -5859 0
-7364 -36 0
-7364 -5859 0
7364 36 5859 0
-7365 -7363 0
-7365 -7364 0
7365 7363 7364 0
-7423 40 0
-7423 7365 0
7423 -40 -7365 0
-7424 -40 0
-7424 -7365 0
7424 40 7365 0
-7425 -7423 0
-7425 -7424 0
7425 7423 7424 0
-7486 50 0
-7486 61 0
7486 -50 -61 0
-7487 -50 0
-7487 -61 0
7487 50 61 0
-7488 -7486 0
-7488 -7487 0
7488 7486 7487 0
-7489 7425 0
-7489 7488 0
7489 -7425 -7488 0
-7490 -7425 0
-7490 -7488 0
7490 7425 7488 0
-7491 -7489 0
-7491 -7490 0
7491 7489 7490 0
-7492 7437 0
-7492 7491 0
7492 -7437 -7491 0
-7493 -7437 0
-7493 -7491 0
7493 7437 7491 0
-7494 -7492 0
-7494 -7493 0
7494 7492 7493 0
-7495 7 0
-7495 3957 0
7495 -7 -3957 0
-7496 -7 0
-7496 -3957 0
7496 7 3957 0
-7497 -7495 0
-7497 -7496 0
7497 7495 7496 0
-7513 7368 0
-7513 7497 0
7513 -7368 -7497 0
-7514 -7368 0
-7514 -7497 0
7514 7368 7497 0
-7515 -7513 0
-7515 -7514 0
7515 7513 7514 0
-7501 22 0
-7501 24 0
7501 -22 -24 0
-7502 -22 0
-7502 -24 0
7502 22 24 0
-7503 -7501 0
-7503 -7502 0
7503 7501 7502 0
-7516 3615 0
-7516 7503 0
7516 -3615 -7503 0
-7517 -3615 0
-7517 -7503 0
7517 3615 7503 0
-7518 -7516 0
-7518 -7517 0
7518 7516 7517 0
-7504 30 0
-7504 3408 0
7504 -30 -3408 0
-7505 -30 0
-7505 -3408 0
7505 30 3408 0
-7506 -7504 0
-7506 -7505 0
7506 7504 7505 0
-7543 3510 0
-7543 7506 0
7543 -3510 -7506 0
-7544 -3510 0
-7544 -7506 0
7544 3510 7506 0
-7545 -7543 0
-7545 -7544 0
7545 7543 7544 0
-7570 7518 0
-7570 7545 0
7570 -7518 -7545 0
-7571 -7518 0
-7571 -7545 0
7571 7518 7545 0
-7572 -7570 0
-7572 -7571 0
7572 7570 7571 0
-7573 7515 0
-7573 7572 0
7573 -7515 -7572 0
-7574 -7515 0
-7574 -7572 0
7574 7515 7572 0
-7575 -7573 0
-7575 -7574 0
7575 7573 7574 0
-7567 39 0
-7567 3376 0
7567 -39 -3376 0
-7568 -39 0
-7568 -3376 0
7568 39 3376 0
-7569 -7567 0
-7569 -7568 0
7569 7567 7568 0
-7621 50 0
-7621 60 0
7621 -50 -60 0
-7622 -50 0
-7622 -60 0
7622 50 60 0
-7623 -7621 0
-7623 -7622 0
7623 7621 7622 0
-7624 7569 0
-7624 7623 0
7624 -7569 -7623 0
-7625 -7569 0
-7625 -7623 0
7625 7569 7623 0
-7626 -7624 0
-7626 -7625 0
7626 7624 7625 0
-7627 7575 0
-7627 7626 0
7627 -7575 -7626 0
-7628 -7575 0
-7628 -7626 0
7628 7575 7626 0
-7629 -7627 0
-7629 -7628 0
7629 7627 7628 0
-7630 5 0
-7630 3938 0
7630 -5 -3938 0
-7631 -5 0
-7631 -3938 0
7631 5 3938 0
-7632 -7630 0
-7632 -7631 0
7632 7630 7631 0
-7639 7368 0
-7639 7632 0
7639 -7368 -7632 0
-7640 -7368 0
-7640 -7632 0
7640 7368 7632 0
-7641 -7639 0
-7641 -7640 0
7641 7639 7640 0
-4249 3615 0
-4249 4215 0
4249 -3615 -4215 0
-4250 -3615 0
-4250 -4215 0
4250 3615 4215 0
-4251 -4249 0
-4251 -4250 0
4251 4249 4250 0
-7657 29 0
-7657 4251 0
7657 -29 -4251 0
-7658 -29 0
-7658 -4251 0
7658 29 4251 0
-7659 -7657 0
-7659 -7658 0
7659 7657 7658 0
-7660 7641 0
-7660 7659 0
7660 -7641 -7659 0
-7661 -7641 0
-7661 -7659 0
7661 7641 7659 0
-7662 -7660 0
-7662 -7661 0
7662 7660 7661 0
-4267 38 0
-4267 3392 0
4267 -38 -3392 0
-4268 -38 0
-4268 -3392 0
4268 38 3392 0
-4269 -4267 0
-4269 -4268 0
4269 4267 4268 0
-7696 50 0
-7696 59 0
7696 -50 -59 0
-7697 -50 0
-7697 -59 0
7697 50 59 0
-7698 -7696 0
-7698 -7697 0
7698 7696 7697 0
-7699 4269 0
-7699 7698 0
7699 -4269 -7698 0
-7700 -4269 0
-7700 -7698 0
7700 4269 7698 0
-7701 -7699 0
-7701 -7700 0
7701 7699 7700 0
-7702 7662 0
-7702 7701 0
7702 -7662 -7701 0
-7703 -7662 0
-7703 -7701 0
7703 7662 7701 0
-7704 -7702 0
-7704 -7703 0
7704 7702 7703 0
-7705 14 0
-7705 4125 0
7705 -14 -4125 0
-7706 -14 0
-7706 -4125 0
7706 14 4125 0
-7707 -7705 0
-7707 -7706 0
7707 7705 7706 0
-7708 5856 0
-7708 7707 0
7708 -5856 -7707 0
-7709 -5856 0
-7709 -7707 0
7709 5856 7707 0
-7710 -7708 0
-7710 -7709 0
7710 7708 7709 0
-7711 3577 0
-7711 4608 0
7711 -3577 -4608 0
-7712 -3577 0
-7712 -4608 0
7712 3577 4608 0
-7713 -7711 0
-7713 -7712 0
7713 7711 7712 0
-7747 6471 0
-7747 7713 0
7747 -6471 -7713 0
-7748 -6471 0
-7748 -7713 0
7748 6471 7713 0
-7749 -7747 0
-7749 -7748 0
7749 7747 7748 0
-7750 7710 0
-7750 7749 0
7750 -7710 -7749 0
-7751 -7710 0
-7751 -7749 0
7751 7710 7749 0
-7752 -7750 0
-7752 -7751 0
7752 7750 7751 0
-7801 58 0
-7801 6318 0
7801 -58 -6318 0
-7802 -58 0
-7802 -6318 0
7802 58 6318 0
-7803 -7801 0
-7803 -7802 0
7803 7801 7802 0
-7804 7752 0
-7804 7803 0
7804 -7752 -7803 0
-7805 -7752 0
-7805 -7803 0
7805 7752 7803 0
-7806 -7804 0
-7806 -7805 0
7806 7804 7805 0
-4363 13 0
-4363 14 0
4363 -13 -14 0
-4364 -13 0
-4364 -14 0
4364 13 14 0
-4365 -4363 0
-4365 -4364 0
4365 4363 4364 0
-7807 9 0
-7807 5856 0
7807 -9 -5856 0
-7808 -9 0
-7808 -5856 0
7808 9 5856 0
-7809 -7807 0
-7809 -7808 0
7809 7807 7808 0
-7810 4365 0
-7810 7809 0
7810 -4365 -7809 0
-7811 -4365 0
-7811 -7809 0
7811 4365 7809 0
-7812 -7810 0
-7812 -7811 0
7812 7810 7811 0
-6388 3558 0
-6388 4368 0
6388 -3558 -4368 0
-6389 -3558 0
-6389 -4368 0
6389 3558 4368 0
-6390 -6388 0
-6390 -6389 0
6390 6388 6389 0
-6466 26 0
-6466 32 0
6466 -26 -32 0
-6467 -26 0
-6467 -32 0
6467 26 32 0
-6468 -6466 0
-6468 -6467 0
6468 6466 6467 0
-7837 6390 0
-7837 6468 0
7837 -6390 -6468 0
-7838 -6390 0
-7838 -6468 0
7838 6390 6468 0
-7839 -7837 0
-7839 -7838 0
7839 7837 7838 0
-7840 7812 0
-7840 7839 0
7840 -7812 -7839 0
-7841 -7812 0
-7841 -7839 0
7841 7812 7839 0
-7842 -7840 0
-7842 -7841 0
7842 7840 7841 0
-7879 57 0
-7879 6414 0
7879 -57 -6414 0
-7880 -57 0
-7880 -6414 0
7880 57 6414 0
-7881 -7879 0
-7881 -7880 0
7881 7879 7880 0
-7882 7842 0
-7882 7881 0
7882 -7842 -7881 0
-7883 -7842 0
-7883 -7881 0
7883 7842 7881 0
-7884 -7882 0
-7884 -7883 0
7884 7882 7883 0
-7885 8 0
-7885 5856 0
7885 -8 -5856 0
-7886 -8 0
-7886 -5856 0
7886 8 5856 0
-7887 -7885 0
-7887 -7886 0
7887 7885 7886 0
-7891 5889 0
-7891 7887 0
7891 -5889 -7887 0
-7892 -5889 0
-7892 -7887 0
7892 5889 7887 0
-7893 -7891 0
-7893 -7892 0
7893 7891 7892 0
-7894 26 0
-7894 33 0
7894 -26 -33 0
-7895 -26 0
-7895 -33 0
7895 26 33 0
-7896 -7894 0
-7896 -7895 0
7896 7894 7895 0
-7897 5877 0
-7897 7896 0
7897 -5877 -7896 0
-7898 -5877 0
-7898 -7896 0
7898 5877 7896 0
-7899 -7897 0
-7899 -7898 0
7899 7897 7898 0
-7900 7893 0
-7900 7899 0
7900 -7893 -7899 0
-7901 -7893 0
-7901 -7899 0
7901 7893 7899 0
-7902 -7900 0
-7902 -7901 0
7902 7900 7901 0
-7927 56 0
-7927 6480 0
7927 -56 -6480 0
-7928 -56 0
-7928 -6480 0
7928 56 6480 0
-7929 -7927 0
-7929 -7928 0
7929 7927 7928 0
-7930 7902 0
-7930 7929 0
7930 -7902 -7929 0
-7931 -7902 0
-7931 -7929 0
7931 7902 7929 0
-7932 -7930 0
-7932 -7931 0
7932 7930 7931 0
-7933 2 0
-7933 6522 0
7933 -2 -6522 0
-7934 -2 0
-7934 -6522 0
7934 2 6522 0
-7935 -7933 0
-7935 -7934 0
7935 7933 7934 0
-7945 4596 0
-7945 5235 0
7945 -4596 -5235 0
-7946 -4596 0
-7946 -5235 0
7946 4596 5235 0
-7947 -7945 0
-7947 -7946 0
7947 7945 7946 0
-7948 7935 0
-7948 7947 0
7948 -7935 -7947 0
-7949 -7935 0
-7949 -7947 0
7949 7935 7947 0
-7950 -7948 0
-7950 -7949 0
7950 7948 7949 0
-7939 22 0
-7939 3596 0
7939 -22 -3596 0
-7940 -22 0
-7940 -3596 0
7940 22 3596 0
-7941 -7939 0
-7941 -7940 0
7941 7939 7940 0
-7951 5877 0
-7951 7941 0
7951 -5877 -7941 0
-7952 -5877 0
-7952 -7941 0
7952 5877 7941 0
-7953 -7951 0
-7953 -7952 0
7953 7951 7952 0
-7993 4758 0
-7993 5586 0
7993 -4758 -5586 0
-7994 -4758 0
-7994 -5586 0
7994 4758 5586 0
-7995 -7993 0
-7995 -7994 0
7995 7993 7994 0
-8023 7953 0
-8023 7995 0
8023 -7953 -7995 0
-8024 -7953 0
-8024 -7995 0
8024 7953 7995 0
-8025 -8023 0
-8025 -8024 0
8025 8023 8024 0
-8026 7950 0
-8026 8025 0
8026 -7950 -8025 0
-8027 -7950 0
-8027 -8025 0
8027 7950 8025 0
-8028 -8026 0
-8028 -8027 0
8028 8026 8027 0
-8020 50 0
-8020 55 0
8020 -50 -55 0
-8021 -50 0
-8021 -55 0
8021 50 55 0
-8022 -8020 0
-8022 -8021 0
8022 8020 8021 0
-8014 3344 0
-8014 3376 0
8014 -3344 -3376 0
-8015 -3344 0
-8015 -3376 0
8015 3344 3376 0
-8016 -8014 0
-8016 -8015 0
8016 8014 8015 0
-8029 47 0
-8029 8016 0
8029 -47 -8016 0
-8030 -47 0
-8030 -8016 0
8030 47 8016 0
-8031 -8029 0
-8031 -8030 0
8031 8029 8030 0
-8092 8022 0
-8092 8031 0
8092 -8022 -8031 0
-8093 -8022 0
-8093 -8031 0
8093 8022 8031 0
-8094 -8092 0
-8094 -8093 0
8094 8092 8093 0
-8095 8028 0
-8095 8094 0
8095 -8028 -8094 0
-8096 -8028 0
-8096 -8094 0
8096 8028 8094 0
-8097 -8095 0
-8097 -8096 0
8097 8095 8096 0
-8098 2 0
-8098 4014 0
8098 -2 -4014 0
-8099 -2 0
-8099 -4014 0
8099 2 4014 0
-8100 -8098 0
-8100 -8099 0
8100 8098 8099 0
-8104 4392 0
-8104 6255 0
8104 -4392 -6255 0
-8105 -4392 0
-8105 -6255 0
8105 4392 6255 0
-8106 -8104 0
-8106 -8105 0
8106 8104 8105 0
-8107 8100 0
-8107 8106 0
8107 -8100 -8106 0
-8108 -8100 0
-8108 -8106 0
8108 8100 8106 0
-8109 -8107 0
-8109 -8108 0
8109 8107 8108 0
-8110 3596 0
-8110 5577 0
8110 -3596 -5577 0
-8111 -3596 0
-8111 -5577 0
8111 3596 5577 0
-8112 -8110 0
-8112 -8111 0
8112 8110 8111 0
-8152 5262 0
-8152 5586 0
8152 -5262 -5586 0
-8153 -5262 0
-8153 -5586 0
8153 5262 5586 0
-8154 -8152 0
-8154 -8153 0
8154 8152 8153 0
-8179 8112 0
-8179 8154 0
8179 -8112 -8154 0
-8180 -8112 0
-8180 -8154 0
8180 8112 8154 0
-8181 -8179 0
-8181 -8180 0
8181 8179 8180 0
-8182 8109 0
-8182 8181 0
8182 -8109 -8181 0
-8183 -8109 0
-8183 -8181 0
8183 8109 8181 0
-8184 -8182 0
-8184 -8183 0
8184 8182 8183 0
-8176 50 0
-8176 54 0
8176 -50 -54 0
-8177 -50 0
-8177 -54 0
8177 50 54 0
-8178 -8176 0
-8178 -8177 0
8178 8176 8177 0
-8167 3344 0
-8167 3360 0
8167 -3344 -3360 0
-8168 -3344 0
-8168 -3360 0
8168 3344 3360 0
-8169 -8167 0
-8169 -8168 0
8169 8167 8168 0
-8185 47 0
-8185 8169 0
8185 -47 -8169 0
-8186 -47 0
-8186 -8169 0
8186 47 8169 0
-8187 -8185 0
-8187 -8186 0
8187 8185 8186 0
-8242 8178 0
-8242 8187 0
8242 -8178 -8187 0
-8243 -8178 0
-8243 -8187 0
8243 8178 8187 0
-8244 -8242 0
-8244 -8243 0
8244 8242 8243 0
-8245 8184 0
-8245 8244 0
8245 -8184 -8244 0
-8246 -8184 0
-8246 -8244 0
8246 8184 8244 0
-8247 -8245 0
-8247 -8246 0
8247 8245 8246 0
-8248 4218 0
-8248 5229 0
8248 -4218 -5229 0
-8249 -4218 0
-8249 -5229 0
8249 4218 5229 0
-8250 -8248 0
-8250 -8249 0
8250 8248 8249 0
-8257 6672 0
-8257 8250 0
8257 -6672 -8250 0
-8258 -6672 0
-8258 -8250 0
8258 6672 8250 0
-8259 -8257 0
-8259 -8258 0
8259 8257 8258 0
-8272 32 0
-8272 5256 0
8272 -32 -5256 0
-8273 -32 0
-8273 -5256 0
8273 32 5256 0
-8274 -8272 0
-8274 -8273 0
8274 8272 8273 0
-8287 6678 0
-8287 8274 0
8287 -6678 -8274 0
-8288 -6678 0
-8288 -8274 0
8288 6678 8274 0
-8289 -8287 0
-8289 -8288 0
8289 8287 8288 0
-8290 8259 0
-8290 8289 0
8290 -8259 -8289 0
-8291 -8259 0
-8291 -8289 0
8291 8259 8289 0
-8292 -8290 0
-8292 -8291 0
8292 8290 8291 0
-5041 47 0
-5041 3344 0
5041 -47 -3344 0
-5042 -47 0
-5042 -3344 0
5042 47 3344 0
-5043 -5041 0
-5043 -5042 0
5043 5041 5042 0
-8254 50 0
-8254 53 0
8254 -50 -53 0
-8255 -50 0
-8255 -53 0
8255 50 53 0
-8256 -8254 0
-8256 -8255 0
8256 8254 8255 0
-8338 5043 0
-8338 8256 0
8338 -5043 -8256 0
-8339 -5043 0
-8339 -8256 0
8339 5043 8256 0
-8340 -8338 0
-8340 -8339 0
8340 8338 8339 0
-8341 8292 0
-8341 8340 0
8341 -8292 -8340 0
-8342 -8292 0
-8342 -8340 0
8342 8292 8340 0
-8343 -8341 0
-8343 -8342 0
8343 8341 8342 0
-8344 2 0
-8344 4359 0
8344 -2 -4359 0
-8345 -2 0
-8345 -4359 0
8345 2 4359 0
-8346 -8344 0
-8346 -8345 0
8346 8344 8345 0
-8347 7 0
-8347 8346 0
8347 -7 -8346 0
-8348 -7 0
-8348 -8346 0
8348 7 8346 0
-8349 -8347 0
-8349 -8348 0
8349 8347 8348 0
-8353 17 0
-8353 3805 0
8353 -17 -3805 0
-8354 -17 0
-8354 -3805 0
8354 17 3805 0
-8355 -8353 0
-8355 -8354 0
8355 8353 8354 0
-8356 8349 0
-8356 8355 0
8356 -8349 -8355 0
-8357 -8349 0
-8357 -8355 0
8357 8349 8355 0
-8358 -8356 0
-8358 -8357 0
8358 8356 8357 0
-8368 19 0
-8368 7251 0
8368 -19 -7251 0
-8369 -19 0
-8369 -7251 0
8369 19 7251 0
-8370 -8368 0
-8370 -8369 0
8370 8368 8369 0
-8371 8358 0
-8371 8370 0
8371 -8358 -8370 0
-8372 -8358 0
-8372 -8370 0
8372 8358 8370 0
-8373 -8371 0
-8373 -8372 0
8373 8371 8372 0
-8350 50 0
-8350 52 0
8350 -50 -52 0
-8351 -50 0
-8351 -52 0
8351 50 52 0
-8352 -8350 0
-8352 -8351 0
8352 8350 8351 0
-8386 34 0
-8386 8352 0
8386 -34 -8352 0
-8387 -34 0
-8387 -8352 0
8387 34 8352 0
-8388 -8386 0
-8388 -8387 0
8388 8386 8387 0
-8389 8373 0
-8389 8388 0
8389 -8373 -8388 0
-8390 -8373 0
-8390 -8388 0
8390 8373 8388 0
-8391 -8389 0
-8391 -8390 0
8391 8389 8390 0
-8395 50 0
-8395 51 0
8395 -50 -51 0
-8396 -50 0
-8396 -51 0
8396 50 51 0
-8397 -8395 0
-8397 -8396 0
8397 8395 8396 0
-8392 5 0
-8392 3957 0
8392 -5 -3957 0
-8393 -5 0
-8393 -3957 0
8393 5 3957 0
-8394 -8392 0
-8394 -8393 0
8394 8392 8393 0
-8398 6 0
-8398 8394 0
8398 -6 -8394 0
-8399 -6 0
-8399 -8394 0
8399 6 8394 0
-8400 -8398 0
-8400 -8399 0
8400 8398 8399 0
-8401 17 0
-8401 3786 0
8401 -17 -3786 0
-8402 -17 0
-8402 -3786 0
8402 17 3786 0
-8403 -8401 0
-8403 -8402 0
8403 8401 8402 0
-8404 8400 0
-8404 8403 0
8404 -8400 -8403 0
-8405 -8400 0
-8405 -8403 0
8405 8400 8403 0
-8406 -8404 0
-8406 -8405 0
8406 8404 8405 0
-8413 3408 0
-8413 3510 0
8413 -3408 -3510 0
-8414 -3408 0
-8414 -3510 0
8414 3408 3510 0
-8415 -8413 0
-8415 -8414 0
8415 8413 8414 0
-8419 18 0
-8419 8415 0
8419 -18 -8415 0
-8420 -18 0
-8420 -8415 0
8420 18 8415 0
-8421 -8419 0
-8421 -8420 0
8421 8419 8420 0
-8422 8406 0
-8422 8421 0
8422 -8406 -8421 0
-8423 -8406 0
-8423 -8421 0
8423 8406 8421 0
-8424 -8422 0
-8424 -8423 0
8424 8422 8423 0
-8431 8397 0
-8431 8424 0
8431 -8397 -8424 0
-8432 -8397 0
-8432 -8424 0
8432 8397 8424 0
-8433 -8431 0
-8433 -8432 0
8433 8431 8432 0
-8440 4368 0
-8440 7077 0
8440 -4368 -7077 0
-8441 -4368 0
-8441 -7077 0
8441 4368 7077 0
-8442 -8440 0
-8442 -8441 0
8442 8440 8441 0
-8479 3526 0
-8479 8442 0
8479 -3526 -8442 0
-8480 -3526 0
-8480 -8442 0
8480 3526 8442 0
-8481 -8479 0
-8481 -8480 0
8481 8479 8480 0
-8482 4929 0
-8482 8481 0
8482 -4929 -8481 0
-8483 -4929 0
-8483 -8481 0
8483 4929 8481 0
-8484 -8482 0
-8484 -8483 0
8484 8482 8483 0
-8437 47 0
-8437 49 0
8437 -47 -49 0
-8438 -47 0
-8438 -49 0
8438 47 49 0
-8439 -8437 0
-8439 -8438 0
8439 8437 8438 0
-8473 3328 0
-8473 3376 0
8473 -3328 -3376 0
-8474 -3328 0
-8474 -3376 0
8474 3328 3376 0
-8475 -8473 0
-8475 -8474 0
8475 8473 8474 0
-8485 8439 0
-8485 8475 0
8485 -8439 -8475 0
-8486 -8439 0
-8486 -8475 0
8486 8439 8475 0
-8487 -8485 0
-8487 -8486 0
8487 8485 8486 0
-8539 8484 0
-8539 8487 0
8539 -8484 -8487 0
-8540 -8484 0
-8540 -8487 0
8540 8484 8487 0
-8541 -8539 0
-8541 -8540 0
8541 8539 8540 0
-8551 3786 0
-8551 4392 0
8551 -3786 -4392 0
-8552 -3786 0
-8552 -4392 0
8552 3786 4392 0
-8553 -8551 0
-8553 -8552 0
8553 8551 8552 0
-8545 18 0
-8545 3615 0
8545 -18 -3615 0
-8546 -18 0
-8546 -3615 0
8546 18 3615 0
-8547 -8545 0
-8547 -8546 0
8547 8545 8546 0
-8554 3558 0
-8554 8547 0
8554 -3558 -8547 0
-8555 -3558 0
-8555 -8547 0
8555 3558 8547 0
-8556 -8554 0
-8556 -8555 0
8556 8554 8555 0
-8590 3510 0
-8590 8556 0
8590 -3510 -8556 0
-8591 -3510 0
-8591 -8556 0
8591 3510 8556 0
-8592 -8590 0
-8592 -8591 0
8592 8590 8591 0
-8593 8553 0
-8593 8592 0
8593 -8553 -8592 0
-8594 -8553 0
-8594 -8592 0
8594 8553 8592 0
-8595 -8593 0
-8595 -8594 0
8595 8593 8594 0
-8542 47 0
-8542 48 0
8542 -47 -48 0
-8543 -47 0
-8543 -48 0
8543 47 48 0
-8544 -8542 0
-8544 -8543 0
8544 8542 8543 0
-8584 3312 0
-8584 3360 0
8584 -3312 -3360 0
-8585 -3312 0
-8585 -3360 0
8585 3312 3360 0
-8586 -8584 0
-8586 -8585 0
8586 8584 8585 0
-8596 8544 0
-8596 8586 0
8596 -8544 -8586 0
-8597 -8544 0
-8597 -8586 0
8597 8544 8586 0
-8598 -8596 0
-8598 -8597 0
8598 8596 8597 0
-8638 8595 0
-8638 8598 0
8638 -8595 -8598 0
-8639 -8595 0
-8639 -8598 0
8639 8595 8598 0
-8640 -8638 0
-8640 -8639 0
8640 8638 8639 0
-8641 4 0
-8641 6597 0
8641 -4 -6597 0
-8642 -4 0
-8642 -6597 0
8642 4 6597 0
-8643 -8641 0
-8643 -8642 0
8643 8641 8642 0
-4924 28 0
-4924 31 0
4924 -28 -31 0
-4925 -28 0
-4925 -31 0
4925 28 31 0
-4926 -4924 0
-4926 -4925 0
4926 4924 4925 0
-5410 19 0
-5410 22 0
5410 -19 -22 0
-5411 -19 0
-5411 -22 0
5411 19 22 0
-5412 -5410 0
-5412 -5411 0
5412 5410 5411 0
-8653 4926 0
-8653 5412 0
8653 -4926 -5412 0
-8654 -4926 0
-8654 -5412 0
8654 4926 5412 0
-8655 -8653 0
-8655 -8654 0
8655 8653 8654 0
-8656 8643 0
-8656 8655 0
8656 -8643 -8655 0
-8657 -8643 0
-8657 -8655 0
8657 8643 8655 0
-8658 -8656 0
-8658 -8657 0
8658 8656 8657 0
-8659 46 0
-8659 5424 0
8659 -46 -5424 0
-8660 -46 0
-8660 -5424 0
8660 46 5424 0
-8661 -8659 0
-8661 -8660 0
8661 8659 8660 0
-8692 8658 0
-8692 8661 0
8692 -8658 -8661 0
-8693 -8658 0
-8693 -8661 0
8693 8658 8661 0
-8694 -8692 0
-8694 -8693 0
8694 8692 8693 0
-8695 3 0
-8695 9 0
8695 -3 -9 0
-8696 -3 0
-8696 -9 0
8696 3 9 0
-8697 -8695 0
-8697 -8696 0
8697 8695 8696 0
-8698 12 0
-8698 8697 0
8698 -12 -8697 0
-8699 -12 0
-8699 -8697 0
8699 12 8697 0
-8700 -8698 0
-8700 -8699 0
8700 8698 8699 0
-5077 27 0
-5077 30 0
5077 -27 -30 0
-5078 -27 0
-5078 -30 0
5078 27 30 0
-5079 -5077 0
-5079 -5078 0
5079 5077 5078 0
-8710 5079 0
-8710 5244 0
8710 -5079 -5244 0
-8711 -5079 0
-8711 -5244 0
8711 5079 5244 0
-8712 -8710 0
-8712 -8711 0
8712 8710 8711 0
-8713 8700 0
-8713 8712 0
8713 -8700 -8712 0
-8714 -8700 0
-8714 -8712 0
8714 8700 8712 0
-8715 -8713 0
-8715 -8714 0
8715 8713 8714 0
-8716 45 0
-8716 5265 0
8716 -45 -5265 0
-8717 -45 0
-8717 -5265 0
8717 45 5265 0
-8718 -8716 0
-8718 -8717 0
8718 8716 8717 0
-8749 8715 0
-8749 8718 0
8749 -8715 -8718 0
-8750 -8715 0
-8750 -8718 0
8750 8715 8718 0
-8751 -8749 0
-8751 -8750 0
8751 8749 8750 0
-8752 2 0
-8752 8 0
8752 -2 -8 0
-8753 -2 0
-8753 -8 0
8753 2 8 0
-8754 -8752 0
-8754 -8753 0
8754 8752 8753 0
-8758 11 0
-8758 17 0
8758 -11 -17 0
-8759 -11 0
-8759 -17 0
8759 11 17 0
-8760 -8758 0
-8760 -8759 0
8760 8758 8759 0
-8761 8754 0
-8761 8760 0
8761 -8754 -8760 0
-8762 -8754 0
-8762 -8760 0
8762 8754 8760 0
-8763 -8761 0
-8763 -8762 0
8763 8761 8762 0
-8755 26 0
-8755 29 0
8755 -26 -29 0
-8756 -26 0
-8756 -29 0
8756 26 29 0
-8757 -8755 0
-8757 -8756 0
8757 8755 8756 0
-8767 20 0
-8767 8757 0
8767 -20 -8757 0
-8768 -20 0
-8768 -8757 0
8768 20 8757 0
-8769 -8767 0
-8769 -8768 0
8769 8767 8768 0
-8770 8763 0
-8770 8769 0
8770 -8763 -8769 0
-8771 -8763 0
-8771 -8769 0
8771 8763 8769 0
-8772 -8770 0
-8772 -8771 0
8772 8770 8771 0
-6262 35 0
-6262 38 0
6262 -35 -38 0
-6263 -35 0
-6263 -38 0
6263 35 38 0
-6264 -6262 0
-6264 -6263 0
6264 6262 6263 0
-8773 44 0
-8773 6264 0
8773 -44 -6264 0
-8774 -44 0
-8774 -6264 0
8774 44 6264 0
-8775 -8773 0
-8775 -8774 0
8775 8773 8774 0
-8803 8772 0
-8803 8775 0
8803 -8772 -8775 0
-8804 -8772 0
-8804 -8775 0
8804 8772 8775 0
-8805 -8803 0
-8805 -8804 0
8805 8803 8804 0
-8806 4 0
-8806 7 0
8806 -4 -7 0
-8807 -4 0
-8807 -7 0
8807 4 7 0
-8808 -8806 0
-8808 -8807 0
8808 8806 8807 0
-8812 5409 0
-8812 8808 0
8812 -5409 -8808 0
-8813 -5409 0
-8813 -8808 0
8813 5409 8808 0
-8814 -8812 0
-8814 -8813 0
8814 8812 8813 0
-8824 31 0
-8824 4134 0
8824 -31 -4134 0
-8825 -31 0
-8825 -4134 0
8825 31 4134 0
-8826 -8824 0
-8826 -8825 0
8826 8824 8825 0
-8827 8814 0
-8827 8826 0
8827 -8814 -8826 0
-8828 -8814 0
-8828 -8826 0
8828 8814 8826 0
-8829 -8827 0
-8829 -8828 0
8829 8827 8828 0
-8821 34 0
-8821 40 0
8821 -34 -40 0
-8822 -34 0
-8822 -40 0
8822 34 40 0
-8823 -8821 0
-8823 -8822 0
8823 8821 8822 0
-8830 43 0
-8830 8823 0
8830 -43 -8823 0
-8831 -43 0
-8831 -8823 0
8831 43 8823 0
-8832 -8830 0
-8832 -8831 0
8832 8830 8831 0
-8857 8829 0
-8857 8832 0
8857 -8829 -8832 0
-8858 -8829 0
-8858 -8832 0
8858 8829 8832 0
-8859 -8857 0
-8859 -8858 0
8859 8857 8858 0
-8863 39 0
-8863 42 0
8863 -39 -42 0
-8864 -39 0
-8864 -42 0
8864 39 42 0
-8865 -8863 0
-8865 -8864 0
8865 8863 8864 0
-8860 3 0
-8860 6 0
8860 -3 -6 0
-8861 -3 0
-8861 -6 0
8861 3 6 0
-8862 -8860 0
-8862 -8861 0
8862 8860 8861 0
-8866 6756 0
-8866 8862 0
8866 -6756 -8862 0
-8867 -6756 0
-8867 -8862 0
8867 6756 8862 0
-8868 -8866 0
-8868 -8867 0
8868 8866 8867 0
-4030 21 0
-4030 24 0
4030 -21 -24 0
-4031 -21 0
-4031 -24 0
4031 21 24 0
-4032 -4030 0
-4032 -4031 0
4032 4030 4031 0
-8878 4032 0
-8878 4431 0
8878 -4032 -4431 0
-8879 -4032 0
-8879 -4431 0
8879 4032 4431 0
-8880 -8878 0
-8880 -8879 0
8880 8878 8879 0
-8881 8868 0
-8881 8880 0
8881 -8868 -8880 0
-8882 -8868 0
-8882 -8880 0
8882 8868 8880 0
-8883 -8881 0
-8883 -8882 0
8883 8881 8882 0
-8908 8865 0
-8908 8883 0
8908 -8865 -8883 0
-8909 -8865 0
-8909 -8883 0
8909 8865 8883 0
-8910 -8908 0
-8910 -8909 0
8910 8908 8909 0
-8911 38 0
-8911 41 0
8911 -38 -41 0
-8912 -38 0
-8912 -41 0
8912 38 41 0
-8913 -8911 0
-8913 -8912 0
8913 8911 8912 0
-4231 11 0
-4231 14 0
4231 -11 -14 0
-4232 -11 0
-4232 -14 0
4232 11 14 0
-4233 -4231 0
-4233 -4232 0
4233 4231 4232 0
-8914 4233 0
-8914 5229 0
8914 -4233 -5229 0
-8915 -4233 0
-8915 -5229 0
8915 4233 5229 0
-8916 -8914 0
-8916 -8915 0
8916 8914 8915 0
-6256 20 0
-6256 23 0
6256 -20 -23 0
-6257 -20 0
-6257 -23 0
6257 20 23 0
-6258 -6256 0
-6258 -6257 0
6258 6256 6257 0
-8251 29 0
-8251 32 0
8251 -29 -32 0
-8252 -29 0
-8252 -32 0
8252 29 32 0
-8253 -8251 0
-8253 -8252 0
8253 8251 8252 0
-8920 6258 0
-8920 8253 0
8920 -6258 -8253 0
-8921 -6258 0
-8921 -8253 0
8921 6258 8253 0
-8922 -8920 0
-8922 -8921 0
8922 8920 8921 0
-8923 8916 0
-8923 8922 0
8923 -8916 -8922 0
-8924 -8916 0
-8924 -8922 0
8924 8916 8922 0
-8925 -8923 0
-8925 -8924 0
8925 8923 8924 0
-8950 8913 0
-8950 8925 0
8950 -8913 -8925 0
-8951 -8913 0
-8951 -8925 0
8951 8913 8925 0
-8952 -8950 0
-8952 -8951 0
8952 8950 8951 0
-8953 -8910 0
-8953 -8952 0
8953 8910 8952 0
-8954 -8859 0
-8954 8953 0
8954 8859 -8953 0
-8955 -8805 0
-8955 8954 0
8955 8805 -8954 0
-8956 -8751 0
-8956 8955 0
8956 8751 -8955 0
-8957 -8694 0
-8957 8956 0
8957 8694 -8956 0
-8958 -8640 0
-8958 8957 0
8958 8640 -8957 0
-8959 -8541 0
-8959 8958 0
8959 8541 -8958 0
-8960 -8433 0
-8960 8959 0
8960 8433 -8959 0
-8961 -8391 0
-8961 8960 0
8961 8391 -8960 0
-8962 -8343 0
-8962 8961 0
8962 8343 -8961 0
-8963 -8247 0
-8963 8962 0
8963 8247 -8962 0
-8964 -8097 0
-8964 8963 0
8964 8097 -8963 0
-8965 -7932 0
-8965 8964 0
8965 7932 -8964 0
-8966 -7884 0
-8966 8965 0
8966 7884 -8965 0
-8967 -7806 0
-8967 8966 0
8967 7806 -8966 0
-8968 -7704 0
-8968 8967 0
8968 7704 -8967 0
-8969 -7629 0
-8969 8968 0
8969 7629 -8968 0
-8970 -7494 0
-8970 8969 0
8970 7494 -8969 0
-8971 -7347 0
-8971 8970 0
8971 7347 -8970 0
-8972 -7311 0
-8972 8971 0
8972 7311 -8971 0
-8973 -7197 0
-8973 8972 0
8973 7197 -8972 0
-8974 -7071 0
-8974 8973 0
8974 7071 -8973 0
-8975 6930 0
-8975 8974 0
8975 -6930 -8974 0
-8976 6843 0
-8976 8975 0
8976 -6843 -8975 0
-8977 6753 0
-8977 8976 0
8977 -6753 -8976 0
-8978 6657 0
-8978 8977 0
8978 -6657 -8977 0
-8979 6591 0
-8979 8978 0
8979 -6591 -8978 0
-8980 6519 0
-8980 8979 0
8980 -6519 -8979 0
-8981 6453 0
-8981 8980 0
8981 -6453 -8980 0
-8982 6372 0
-8982 8981 0
8982 -6372 -8981 0
-8983 6252 0
-8983 8982 0
8983 -6252 -8982 0
-8984 6150 0
-8984 8983 0
8984 -6150 -8983 0
-8985 6063 0
-8985 8984 0
8985 -6063 -8984 0
-8986 5973 0
-8986 8985 0
8986 -5973 -8985 0
-8987 5853 0
-8987 8986 0
8987 -5853 -8986 0
-8988 5808 0
-8988 8987 0
8988 -5808 -8987 0
-8989 5760 0
-8989 8988 0
8989 -5760 -8988 0
-8990 5553 0
-8990 8989 0
8990 -5553 -8989 0
-8991 5403 0
-8991 8990 0
8991 -5403 -8990 0
-8992 5226 0
-8992 8991 0
8992 -5226 -8991 0
-8993 5172 0
-8993 8992 0
8993 -5172 -8992 0
-8994 5049 0
-8994 8993 0
8994 -5049 -8993 0
-8995 4896 0
-8995 8994 0
8995 -4896 -8994 0
-8996 4755 0
-8996 8995 0
8996 -4755 -8995 0
-8997 4575 0
-8997 8996 0
8997 -4575 -8996 0
-8998 4356 0
-8998 8997 0
8998 -4356 -8997 0
-8999 4206 0
-8999 8998 0
8999 -4206 -8998 0
-9000 4113 0
-9000 8999 0
9000 -4113 -8999 0
-9001 4011 0
-9001 -9000 0
9001 -4011 9000 0
-9031 -147 0
-9031 154 0
9031 147 -154 0
-9026 -146 0
-9026 153 0
9026 146 -153 0
-9021 -145 0
-9021 152 0
9021 145 -152 0
-9016 -144 0
-9016 151 0
9016 144 -151 0
-9011 -143 0
-9011 150 0
9011 143 -150 0
-9006 -142 0
-9006 149 0
9006 142 -149 0
-9002 -141 0
-9002 148 0
9002 141 -148 0
-9003 141 0
-9003 -148 0
9003 -141 148 0
-9004 -9002 0
-9004 -9003 0
9004 9002 9003 0
-9005 -9002 0
-9005 -9004 0
9005 9002 9004 0
-9007 142 0
-9007 -149 0
9007 -142 149 0
-9008 -9006 0
-9008 -9007 0
9008 9006 9007 0
-9009 -9005 0
-9009 9008 0
9009 9005 -9008 0
-9010 -9006 0
-9010 -9009 0
9010 9006 9009 0
-9012 143 0
-9012 -150 0
9012 -143 150 0
-9013 -9011 0
-9013 -9012 0
9013 9011 9012 0
-9014 -9010 0
-9014 9013 0
9014 9010 -9013 0
-9015 -9011 0
-9015 -9014 0
9015 9011 9014 0
-9017 144 0
-9017 -151 0
9017 -144 151 0
-9018 -9016 0
-9018 -9017 0
9018 9016 9017 0
-9019 -9015 0
-9019 9018 0
9019 9015 -9018 0
-9020 -9016 0
-9020 -9019 0
9020 9016 9019 0
-9022 145 0
-9022 -152 0
9022 -145 152 0
-9023 -9021 0
-9023 -9022 0
9023 9021 9022 0
-9024 -9020 0
-9024 9023 0
9024 9020 -9023 0
-9025 -9021 0
-9025 -9024 0
9025 9021 9024 0
-9027 146 0
-9027 -153 0
9027 -146 153 0
-9028 -9026 0
-9028 -9027 0
9028 9026 9027 0
-9029 -9025 0
-9029 9028 0
9029 9025 -9028 0
-9030 -9026 0
-9030 -9029 0
9030 9026 9029 0
-9032 147 0
-9032 -154 0
9032 -147 154 0
-9033 -9031 0
-9033 -9032 0
9033 9031 9032 0
-9034 -9030 0
-9034 9033 0
9034 9030 -9033 0
-9035 -9031 0
-9035 -9034 0
9035 9031 9034 0
-9036 9001 0
-9036 -9035 0
9036 -9001 9035 0
-9066 -140 0
-9066 147 0
9066 140 -147 0
-9061 -139 0
-9061 146 0
9061 139 -146 0
-9056 -138 0
-9056 145 0
9056 138 -145 0
-9051 -137 0
-9051 144 0
9051 137 -144 0
-9046 -136 0
-9046 143 0
9046 136 -143 0
-9041 -135 0
-9041 142 0
9041 135 -142 0
-9037 -134 0
-9037 141 0
9037 134 -141 0
-9038 134 0
-9038 -141 0
9038 -134 141 0
-9039 -9037 0
-9039 -9038 0
9039 9037 9038 0
-9040 -9037 0
-9040 -9039 0
9040 9037 9039 0
-9042 135 0
-9042 -142 0
9042 -135 142 0
-9043 -9041 0
-9043 -9042 0
9043 9041 9042 0
-9044 -9040 0
-9044 9043 0
9044 9040 -9043 0
-9045 -9041 0
-9045 -9044 0
9045 9041 9044 0
-9047 136 0
-9047 -143 0
9047 -136 143 0
-9048 -9046 0
-9048 -9047 0
9048 9046 9047 0
-9049 -9045 0
-9049 9048 0
9049 9045 -9048 0
-9050 -9046 0
-9050 -9049 0
9050 9046 9049 0
-9052 137 0
-9052 -144 0
9052 -137 144 0
-9053 -9051 0
-9053 -9052 0
9053 9051 9052 0
-9054 -9050 0
-9054 9053 0
9054 9050 -9053 0
-9055 -9051 0
-9055 -9054 0
9055 9051 9054 0
-9057 138 0
-9057 -145 0
9057 -138 145 0
-9058 -9056 0
-9058 -9057 0
9058 9056 9057 0
-9059 -9055 0
-9059 9058 0
9059 9055 -9058 0
-9060 -9056 0
-9060 -9059 0
9060 9056 9059 0
-9062 139 0
-9062 -146 0
9062 -139 146 0
-9063 -9061 0
-9063 -9062 0
9063 9061 9062 0
-9064 -9060 0
-9064 9063 0
9064 9060 -9063 0
-9065 -9061 0
-9065 -9064 0
9065 9061 9064 0
-9067 140 0
-9067 -147 0
9067 -140 147 0
-9068 -9066 0
-9068 -9067 0
9068 9066 9067 0
-9069 -9065 0
-9069 9068 0
9069 9065 -9068 0
-9070 -9066 0
-9070 -9069 0
9070 9066 9069 0
-9071 9036 0
-9071 -9070 0
9071 -9036 9070 0
-9101 -133 0
-9101 140 0
9101 133 -140 0
-9096 -132 0
-9096 139 0
9096 132 -139 0
-9091 -131 0
-9091 138 0
9091 131 -138 0
-9086 -130 0
-9086 137 0
9086 130 -137 0
-9081 -129 0
-9081 136 0
9081 129 -136 0
-9076 -128 0
-9076 135 0
9076 128 -135 0
-9072 -127 0
-9072 134 0
9072 127 -134 0
-9073 127 0
-9073 -134 0
9073 -127 134 0
-9074 -9072 0
-9074 -9073 0
9074 9072 9073 0
-9075 -9072 0
-9075 -9074 0
9075 9072 9074 0
-9077 128 0
-9077 -135 0
9077 -128 135 0
-9078 -9076 0
-9078 -9077 0
9078 9076 9077 0
-9079 -9075 0
-9079 9078 0
9079 9075 -9078 0
-9080 -9076 0
-9080 -9079 0
9080 9076 9079 0
-9082 129 0
-9082 -136 0
9082 -129 136 0
-9083 -9081 0
-9083 -9082 0
9083 9081 9082 0
-9084 -9080 0
-9084 9083 0
9084 9080 -9083 0
-9085 -9081 0
-9085 -9084 0
9085 9081 9084 0
-9087 130 0
-9087 -137 0
9087 -130 137 0
-9088 -9086 0
-9088 -9087 0
9088 9086 9087 0
-9089 -9085 0
-9089 9088 0
9089 9085 -9088 0
-9090 -9086 0
-9090 -9089 0
9090 9086 9089 0
-9092 131 0
-9092 -138 0
9092 -131 138 0
-9093 -9091 0
-9093 -9092 0
9093 9091 9092 0
-9094 -9090 0
-9094 9093 0
9094 9090 -9093 0
-9095 -9091 0
-9095 -9094 0
9095 9091 9094 0
-9097 132 0
-9097 -139 0
9097 -132 139 0
-9098 -9096 0
-9098 -9097 0
9098 9096 9097 0
-9099 -9095 0
-9099 9098 0
9099 9095 -9098 0
-9100 -9096 0
-9100 -9099 0
9100 9096 9099 0
-9102 133 0
-9102 -140 0
9102 -133 140 0
-9103 -9101 0
-9103 -9102 0
9103 9101 9102 0
-9104 -9100 0
-9104 9103 0
9104 9100 -9103 0
-9105 -9101 0
-9105 -9104 0
9105 9101 9104 0
-9106 9071 0
-9106 -9105 0
9106 -9071 9105 0
-9136 -126 0
-9136 133 0
9136 126 -133 0
-9131 -125 0
-9131 132 0
9131 125 -132 0
-9126 -124 0
-9126 131 0
9126 124 -131 0
-9121 -123 0
-9121 130 0
9121 123 -130 0
-9116 -122 0
-9116 129 0
9116 122 -129 0
-9111 -121 0
-9111 128 0
9111 121 -128 0
-9107 -120 0
-9107 127 0
9107 120 -127 0
-9108 120 0
-9108 -127 0
9108 -120 127 0
-9109 -9107 0
-9109 -9108 0
9109 9107 9108 0
-9110 -9107 0
-9110 -9109 0
9110 9107 9109 0
-9112 121 0
-9112 -128 0
9112 -121 128 0
-9113 -9111 0
-9113 -9112 0
9113 9111 9112 0
-9114 -9110 0
-9114 9113 0
9114 9110 -9113 0
-9115 -9111 0
-9115 -9114 0
9115 9111 9114 0
-9117 122 0
-9117 -129 0
9117 -122 129 0
-9118 -9116 0
-9118 -9117 0
9118 9116 9117 0
-9119 -9115 0
-9119 9118 0
9119 9115 -9118 0
-9120 -9116 0
-9120 -9119 0
9120 9116 9119 0
-9122 123 0
-9122 -130 0
9122 -123 130 0
-9123 -9121 0
-9123 -9122 0
9123 9121 9122 0
-9124 -9120 0
-9124 9123 0
9124 9120 -9123 0
-9125 -9121 0
-9125 -9124 0
9125 9121 9124 0
-9127 124 0
-9127 -131 0
9127 -124 131 0
-9128 -9126 0
-9128 -9127 0
9128 9126 9127 0
-9129 -9125 0
-9129 9128 0
9129 9125 -9128 0
-9130 -9126 0
-9130 -9129 0
9130 9126 9129 0
-9132 125 0
-9132 -132 0
9132 -125 132 0
-9133 -9131 0
-9133 -9132 0
9133 9131 9132 0
-9134 -9130 0
-9134 9133 0
9134 9130 -9133 0
-9135 -9131 0
-9135 -9134 0
9135 9131 9134 0
-9137 126 0
-9137 -133 0
9137 -126 133 0
-9138 -9136 0
-9138 -9137 0
9138 9136 9137 0
-9139 -9135 0
-9139 9138 0
9139 9135 -9138 0
-9140 -9136 0
-9140 -9139 0
9140 9136 9139 0
-9141 9106 0
-9141 -9140 0
9141 -9106 9140 0
-9171 -119 0
-9171 126 0
9171 119 -126 0
-9166 -118 0
-9166 125 0
9166 118 -125 0
-9161 -117 0
-9161 124 0
9161 117 -124 0
-9156 -116 0
-9156 123 0
9156 116 -123 0
-9151 -115 0
-9151 122 0
9151 115 -122 0
-9146 -114 0
-9146 121 0
9146 114 -121 0
-9142 -113 0
-9142 120 0
9142 113 -120 0
-9143 113 0
-9143 -120 0
9143 -113 120 0
-9144 -9142 0
-9144 -9143 0
9144 9142 9143 0
-9145 -9142 0
-9145 -9144 0
9145 9142 9144 0
-9147 114 0
-9147 -121 0
9147 -114 121 0
-9148 -9146 0
-9148 -9147 0
9148 9146 9147 0
-9149 -9145 0
-9149 9148 0
9149 9145 -9148 0
-9150 -9146 0
-9150 -9149 0
9150 9146 9149 0
-9152 115 0
-9152 -122 0
9152 -115 122 0
-9153 -9151 0
-9153 -9152 0
9153 9151 9152 0
-9154 -9150 0
-9154 9153 0
9154 9150 -9153 0
-9155 -9151 0
-9155 -9154 0
9155 9151 9154 0
-9157 116 0
-9157 -123 0
9157 -116 123 0
-9158 -9156 0
-9158 -9157 0
9158 9156 9157 0
-9159 -9155 0
-9159 9158 0
9159 9155 -9158 0
-9160 -9156 0
-9160 -9159 0
9160 9156 9159 0
-9162 117 0
-9162 -124 0
9162 -117 124 0
-9163 -9161 0
-9163 -9162 0
9163 9161 9162 0
-9164 -9160 0
-9164 9163 0
9164 9160 -9163 0
-9165 -9161 0
-9165 -9164 0
9165 9161 9164 0
-9167 118 0
-9167 -125 0
9167 -118 125 0
-9168 -9166 0
-9168 -9167 0
9168 9166 9167 0
-9169 -9165 0
-9169 9168 0
9169 9165 -9168 0
-9170 -9166 0
-9170 -9169 0
9170 9166 9169 0
-9172 119 0
-9172 -126 0
9172 -119 126 0
-9173 -9171 0
-9173 -9172 0
9173 9171 9172 0
-9174 -9170 0
-9174 9173 0
9174 9170 -9173 0
-9175 -9171 0
-9175 -9174 0
9175 9171 9174 0
-9176 9141 0
-9176 -9175 0
9176 -9141 9175 0
-9206 -112 0
-9206 119 0
9206 112 -119 0
-9201 -111 0
-9201 118 0
9201 111 -118 0
-9196 -110 0
-9196 117 0
9196 110 -117 0
-9191 -109 0
-9191 116 0
9191 109 -116 0
-9186 -108 0
-9186 115 0
9186 108 -115 0
-9181 -107 0
-9181 114 0
9181 107 -114 0
-9177 -106 0
-9177 113 0
9177 106 -113 0
-9178 106 0
-9178 -113 0
9178 -106 113 0
-9179 -9177 0
-9179 -9178 0
9179 9177 9178 0
-9180 -9177 0
-9180 -9179 0
9180 9177 9179 0
-9182 107 0
-9182 -114 0
9182 -107 114 0
-9183 -9181 0
-9183 -9182 0
9183 9181 9182 0
-9184 -9180 0
-9184 9183 0
9184 9180 -9183 0
-9185 -9181 0
-9185 -9184 0
9185 9181 9184 0
-9187 108 0
-9187 -115 0
9187 -108 115 0
-9188 -9186 0
-9188 -9187 0
9188 9186 9187 0
-9189 -9185 0
-9189 9188 0
9189 9185 -9188 0
-9190 -9186 0
-9190 -9189 0
9190 9186 9189 0
-9192 109 0
-9192 -116 0
9192 -109 116 0
-9193 -9191 0
-9193 -9192 0
9193 9191 9192 0
-9194 -9190 0
-9194 9193 0
9194 9190 -9193 0
-9195 -9191 0
-9195 -9194 0
9195 9191 9194 0
-9197 110 0
-9197 -117 0
9197 -110 117 0
-9198 -9196 0
-9198 -9197 0
9198 9196 9197 0
-9199 -9195 0
-9199 9198 0
9199 9195 -9198 0
-9200 -9196 0
-9200 -9199 0
9200 9196 9199 0
-9202 111 0
-9202 -118 0
9202 -111 118 0
-9203 -9201 0
-9203 -9202 0
9203 9201 9202 0
-9204 -9200 0
-9204 9203 0
9204 9200 -9203 0
-9205 -9201 0
-9205 -9204 0
9205 9201 9204 0
-9207 112 0
-9207 -119 0
9207 -112 119 0
-9208 -9206 0
-9208 -9207 0
9208 9206 9207 0
-9209 -9205 0
-9209 9208 0
9209 9205 -9208 0
-9210 -9206 0
-9210 -9209 0
9210 9206 9209 0
-9211 9176 0
-9211 -9210 0
9211 -9176 9210 0
-9241 -105 0
-9241 112 0
9241 105 -112 0
-9236 -104 0
-9236 111 0
9236 104 -111 0
-9231 -103 0
-9231 110 0
9231 103 -110 0
-9226 -102 0
-9226 109 0
9226 102 -109 0
-9221 -101 0
-9221 108 0
9221 101 -108 0
-9216 -100 0
-9216 107 0
9216 100 -107 0
-9212 -99 0
-9212 106 0
9212 99 -106 0
-9213 99 0
-9213 -106 0
9213 -99 106 0
-9214 -9212 0
-9214 -9213 0
9214 9212 9213 0
-9215 -9212 0
-9215 -9214 0
9215 9212 9214 0
-9217 100 0
-9217 -107 0
9217 -100 107 0
-9218 -9216 0
-9218 -9217 0
9218 9216 9217 0
-9219 -9215 0
-9219 9218 0
9219 9215 -9218 0
-9220 -9216 0
-9220 -9219 0
9220 9216 9219 0
-9222 101 0
-9222 -108 0
9222 -101 108 0
-9223 -9221 0
-9223 -9222 0
9223 9221 9222 0
-9224 -9220 0
-9224 9223 0
9224 9220 -9223 0
-9225 -9221 0
-9225 -9224 0
9225 9221 9224 0
-9227 102 0
-9227 -109 0
9227 -102 109 0
-9228 -9226 0
-9228 -9227 0
9228 9226 9227 0
-9229 -9225 0
-9229 9228 0
9229 9225 -9228 0
-9230 -9226 0
-9230 -9229 0
9230 9226 9229 0
-9232 103 0
-9232 -110 0
9232 -103 110 0
-9233 -9231 0
-9233 -9232 0
9233 9231 9232 0
-9234 -9230 0
-9234 9233 0
9234 9230 -9233 0
-9235 -9231 0
-9235 -9234 0
9235 9231 9234 0
-9237 104 0
-9237 -111 0
9237 -104 111 0
-9238 -9236 0
-9238 -9237 0
9238 9236 9237 0
-9239 -9235 0
-9239 9238 0
9239 9235 -9238 0
-9240 -9236 0
-9240 -9239 0
9240 9236 9239 0
-9242 105 0
-9242 -112 0
9242 -105 112 0
-9243 -9241 0
-9243 -9242 0
9243 9241 9242 0
-9244 -9240 0
-9244 9243 0
9244 9240 -9243 0
-9245 -9241 0
-9245 -9244 0
9245 9241 9244 0
-9246 9211 0
-9246 -9245 0
9246 -9211 9245 0
-9276 -98 0
-9276 105 0
9276 98 -105 0
-9271 -97 0
-9271 104 0
9271 97 -104 0
-9266 -96 0
-9266 103 0
9266 96 -103 0
-9261 -95 0
-9261 102 0
9261 95 -102 0
-9256 -94 0
-9256 101 0
9256 94 -101 0
-9251 -93 0
-9251 100 0
9251 93 -100 0
-9247 -92 0
-9247 99 0
9247 92 -99 0
-9248 92 0
-9248 -99 0
9248 -92 99 0
-9249 -9247 0
-9249 -9248 0
9249 9247 9248 0
-9250 -9247 0
-9250 -9249 0
9250 9247 9249 0
-9252 93 0
-9252 -100 0
9252 -93 100 0
-9253 -9251 0
-9253 -9252 0
9253 9251 9252 0
-9254 -9250 0
-9254 9253 0
9254 9250 -9253 0
-9255 -9251 0
-9255 -9254 0
9255 9251 9254 0
-9257 94 0
-9257 -101 0
9257 -94 101 0
-9258 -9256 0
-9258 -9257 0
9258 9256 9257 0
-9259 -9255 0
-9259 9258 0
9259 9255 -9258 0
-9260 -9256 0
-9260 -9259 0
9260 9256 9259 0
-9262 95 0
-9262 -102 0
9262 -95 102 0
-9263 -9261 0
-9263 -9262 0
9263 9261 9262 0
-9264 -9260 0
-9264 9263 0
9264 9260 -9263 0
-9265 -9261 0
-9265 -9264 0
9265 9261 9264 0
-9267 96 0
-9267 -103 0
9267 -96 103 0
-9268 -9266 0
-9268 -9267 0
9268 9266 9267 0
-9269 -9265 0
-9269 9268 0
9269 9265 -9268 0
-9270 -9266 0
-9270 -9269 0
9270 9266 9269 0
-9272 97 0
-9272 -104 0
9272 -97 104 0
-9273 -9271 0
-9273 -9272 0
9273 9271 9272 0
-9274 -9270 0
-9274 9273 0
9274 9270 -9273 0
-9275 -9271 0
-9275 -9274 0
9275 9271 9274 0
-9277 98 0
-9277 -105 0
9277 -98 105 0
-9278 -9276 0
-9278 -9277 0
9278 9276 9277 0
-9279 -9275 0
-9279 9278 0
9279 9275 -9278 0
-9280 -9276 0
-9280 -9279 0
9280 9276 9279 0
-9281 9246 0
-9281 -9280 0
9281 -9246 9280 0
9281 0
