p cnf 1419 3663
9 -1279 0
-9 1279 0
522 -1361 0
-522 1361 0
-525 -9 0
-525 522 0
525 9 -522 0
-523 9 0
-523 -522 0
523 -9 522 0
10 -1280 0
-10 1280 0
539 -1363 0
-539 1363 0
-542 -10 0
-542 539 0
542 10 -539 0
-540 10 0
-540 -539 0
540 -10 539 0
12 -1282 0
-12 1282 0
474 -1356 0
-474 1356 0
-477 -12 0
-477 474 0
477 12 -474 0
-475 12 0
-475 -474 0
475 -12 474 0
13 -1283 0
-13 1283 0
491 -1358 0
-491 1358 0
-494 -13 0
-494 491 0
494 13 -491 0
-492 13 0
-492 -491 0
492 -13 491 0
15 -1285 0
-15 1285 0
442 -1353 0
-442 1353 0
-445 -15 0
-445 442 0
445 15 -442 0
-443 15 0
-443 -442 0
443 -15 442 0
16 -1286 0
-16 1286 0
451 -1354 0
-451 1354 0
-454 -16 0
-454 451 0
454 16 -451 0
-452 16 0
-452 -451 0
452 -16 451 0
17 -1287 0
-17 1287 0
707 -1378 0
-707 1378 0
-710 -17 0
-710 707 0
710 17 -707 0
-708 17 0
-708 -707 0
708 -17 707 0
18 -1288 0
-18 1288 0
410 -1350 0
-410 1350 0
-413 -18 0
-413 410 0
413 18 -410 0
-411 18 0
-411 -410 0
411 -18 410 0
19 -1289 0
-19 1289 0
419 -1351 0
-419 1351 0
-422 -19 0
-422 419 0
422 19 -419 0
-420 19 0
-420 -419 0
420 -19 419 0
20 -1290 0
-20 1290 0
362 -1345 0
-362 1345 0
-365 -20 0
-365 362 0
365 20 -362 0
-363 20 0
-363 -362 0
363 -20 362 0
21 -1291 0
-21 1291 0
393 -1348 0
-393 1348 0
-396 -21 0
-396 393 0
396 21 -393 0
-394 21 0
-394 -393 0
394 -21 393 0
22 -1292 0
-22 1292 0
666 -1376 0
-666 1376 0
-669 -22 0
-669 666 0
669 22 -666 0
-667 22 0
-667 -666 0
667 -22 666 0
23 -1293 0
-23 1293 0
314 -1340 0
-314 1340 0
-317 -23 0
-317 314 0
317 23 -314 0
-315 23 0
-315 -314 0
315 -23 314 0
24 -1294 0
-24 1294 0
345 -1343 0
-345 1343 0
-348 -24 0
-348 345 0
348 24 -345 0
-346 24 0
-346 -345 0
346 -24 345 0
26 -1296 0
-26 1296 0
266 -1335 0
-266 1335 0
-269 -26 0
-269 266 0
269 26 -266 0
-267 26 0
-267 -266 0
267 -26 266 0
27 -1297 0
-27 1297 0
297 -1338 0
-297 1338 0
-300 -27 0
-300 297 0
300 27 -297 0
-298 27 0
-298 -297 0
298 -27 297 0
28 -1298 0
-28 1298 0
872 -1392 0
-872 1392 0
-875 -28 0
-875 872 0
875 28 -872 0
-873 28 0
-873 -872 0
873 -28 872 0
29 -1299 0
-29 1299 0
218 -1330 0
-218 1330 0
-221 -29 0
-221 218 0
221 29 -218 0
-219 29 0
-219 -218 0
219 -29 218 0
30 -1300 0
-30 1300 0
249 -1333 0
-249 1333 0
-252 -30 0
-252 249 0
252 30 -249 0
-250 30 0
-250 -249 0
250 -30 249 0
31 -1301 0
-31 1301 0
827 -1388 0
-827 1388 0
-830 -31 0
-830 827 0
830 31 -827 0
-828 31 0
-828 -827 0
828 -31 827 0
32 -1302 0
-32 1302 0
170 -1325 0
-170 1325 0
-173 -32 0
-173 170 0
173 32 -170 0
-171 32 0
-171 -170 0
171 -32 170 0
33 -1303 0
-33 1303 0
201 -1328 0
-201 1328 0
-204 -33 0
-204 201 0
204 33 -201 0
-202 33 0
-202 -201 0
202 -33 201 0
35 -1305 0
-35 1305 0
122 -1320 0
-122 1320 0
-125 -35 0
-125 122 0
125 35 -122 0
-123 35 0
-123 -122 0
123 -35 122 0
36 -1306 0
-36 1306 0
153 -1323 0
-153 1323 0
-156 -36 0
-156 153 0
156 36 -153 0
-154 36 0
-154 -153 0
154 -36 153 0
38 -1308 0
-38 1308 0
74 -1315 0
-74 1315 0
-77 -38 0
-77 74 0
77 38 -74 0
-75 38 0
-75 -74 0
75 -38 74 0
39 -1309 0
-39 1309 0
105 -1318 0
-105 1318 0
-108 -39 0
-108 105 0
108 39 -105 0
-106 39 0
-106 -105 0
106 -39 105 0
4 -1274 0
-4 1274 0
635 -1373 0
-635 1373 0
-638 -4 0
-638 635 0
638 4 -635 0
-636 4 0
-636 -635 0
636 -4 635 0
7 -1277 0
-7 1277 0
587 -1368 0
-587 1368 0
-590 -7 0
-590 587 0
590 7 -587 0
-588 7 0
-588 -587 0
588 -7 587 0
41 -1311 0
-41 1311 0
58 -1314 0
-58 1314 0
-61 -41 0
-61 58 0
61 41 -58 0
-59 41 0
-59 -58 0
59 -41 58 0
42 -1312 0
-42 1312 0
43 -1313 0
-43 1313 0
-45 -42 0
-45 43 0
45 42 -43 0
-44 42 0
-44 -43 0
44 -42 43 0
-46 -44 0
-46 -45 0
46 44 45 0
-47 28 0
-47 -43 0
47 -28 43 0
-48 -28 0
-48 43 0
48 28 -43 0
-49 -47 0
-49 -48 0
49 47 48 0
-50 46 0
-50 49 0
50 -46 -49 0
-51 -44 0
-51 50 0
51 44 -50 0
-52 -45 0
-52 51 0
52 45 -51 0
-53 27 0
-53 -43 0
53 -27 43 0
-54 -27 0
-54 43 0
54 27 -43 0
-55 -53 0
-55 -54 0
55 53 54 0
-56 52 0
-56 55 0
56 -52 -55 0
-57 -26 0
-57 56 0
57 26 -56 0
-60 57 0
-60 -59 0
60 -57 59 0
-62 60 0
-62 -61 0
62 -60 61 0
25 -1295 0
-25 1295 0
-63 25 0
-63 -58 0
63 -25 58 0
-64 -25 0
-64 58 0
64 25 -58 0
-65 -63 0
-65 -64 0
65 63 64 0
-66 62 0
-66 65 0
66 -62 -65 0
-67 -59 0
-67 66 0
67 59 -66 0
-68 -61 0
-68 67 0
68 61 -67 0
-69 24 0
-69 -58 0
69 -24 58 0
-70 -24 0
-70 58 0
70 24 -58 0
-71 -69 0
-71 -70 0
71 69 70 0
-72 68 0
-72 71 0
72 -68 -71 0
-73 -23 0
-73 72 0
73 23 -72 0
-76 73 0
-76 -75 0
76 -73 75 0
-78 76 0
-78 -77 0
78 -76 77 0
-79 22 0
-79 -74 0
79 -22 74 0
-80 -22 0
-80 74 0
80 22 -74 0
-81 -79 0
-81 -80 0
81 79 80 0
82 -1316 0
-82 1316 0
-83 81 0
-83 82 0
83 -81 -82 0
-84 78 0
-84 -83 0
84 -78 83 0
-85 -81 0
-85 -82 0
85 81 82 0
-86 84 0
-86 -85 0
86 -84 85 0
-87 39 0
-87 -82 0
87 -39 82 0
-88 -39 0
-88 82 0
88 39 -82 0
-89 -87 0
-89 -88 0
89 87 88 0
-90 86 0
-90 89 0
90 -86 -89 0
-91 -75 0
-91 90 0
91 75 -90 0
-92 -77 0
-92 91 0
92 77 -91 0
-93 21 0
-93 -74 0
93 -21 74 0
-94 -21 0
-94 74 0
94 21 -74 0
-95 -93 0
-95 -94 0
95 93 94 0
96 -1317 0
-96 1317 0
-97 95 0
-97 96 0
97 -95 -96 0
-98 92 0
-98 -97 0
98 -92 97 0
-99 -95 0
-99 -96 0
99 95 96 0
-100 98 0
-100 -99 0
100 -98 99 0
40 -1310 0
-40 1310 0
-101 40 0
-101 -96 0
101 -40 96 0
-102 -40 0
-102 96 0
102 40 -96 0
-103 -101 0
-103 -102 0
103 101 102 0
-104 100 0
-104 103 0
104 -100 -103 0
-107 104 0
-107 -106 0
107 -104 106 0
-109 107 0
-109 -108 0
109 -107 108 0
-110 20 0
-110 -105 0
110 -20 105 0
-111 -20 0
-111 105 0
111 20 -105 0
-112 -110 0
-112 -111 0
112 110 111 0
113 -1319 0
-113 1319 0
-114 112 0
-114 113 0
114 -112 -113 0
-115 109 0
-115 -114 0
115 -109 114 0
-116 -112 0
-116 -113 0
116 112 113 0
-117 115 0
-117 -116 0
117 -115 116 0
-118 40 0
-118 -113 0
118 -40 113 0
-119 -40 0
-119 113 0
119 40 -113 0
-120 -118 0
-120 -119 0
120 118 119 0
-121 117 0
-121 120 0
121 -117 -120 0
-124 121 0
-124 -123 0
124 -121 123 0
-126 124 0
-126 -125 0
126 -124 125 0
-127 19 0
-127 -122 0
127 -19 122 0
-128 -19 0
-128 122 0
128 19 -122 0
-129 -127 0
-129 -128 0
129 127 128 0
130 -1321 0
-130 1321 0
-131 129 0
-131 130 0
131 -129 -130 0
-132 126 0
-132 -131 0
132 -126 131 0
-133 -129 0
-133 -130 0
133 129 130 0
-134 132 0
-134 -133 0
134 -132 133 0
-135 36 0
-135 -130 0
135 -36 130 0
-136 -36 0
-136 130 0
136 36 -130 0
-137 -135 0
-137 -136 0
137 135 136 0
-138 134 0
-138 137 0
138 -134 -137 0
-139 -123 0
-139 138 0
139 123 -138 0
-140 -125 0
-140 139 0
140 125 -139 0
-141 18 0
-141 -122 0
141 -18 122 0
-142 -18 0
-142 122 0
142 18 -122 0
-143 -141 0
-143 -142 0
143 141 142 0
144 -1322 0
-144 1322 0
-145 143 0
-145 144 0
145 -143 -144 0
-146 140 0
-146 -145 0
146 -140 145 0
-147 -143 0
-147 -144 0
147 143 144 0
-148 146 0
-148 -147 0
148 -146 147 0
37 -1307 0
-37 1307 0
-149 37 0
-149 -144 0
149 -37 144 0
-150 -37 0
-150 144 0
150 37 -144 0
-151 -149 0
-151 -150 0
151 149 150 0
-152 148 0
-152 151 0
152 -148 -151 0
-155 152 0
-155 -154 0
155 -152 154 0
-157 155 0
-157 -156 0
157 -155 156 0
-158 17 0
-158 -153 0
158 -17 153 0
-159 -17 0
-159 153 0
159 17 -153 0
-160 -158 0
-160 -159 0
160 158 159 0
161 -1324 0
-161 1324 0
-162 160 0
-162 161 0
162 -160 -161 0
-163 157 0
-163 -162 0
163 -157 162 0
-164 -160 0
-164 -161 0
164 160 161 0
-165 163 0
-165 -164 0
165 -163 164 0
-166 37 0
-166 -161 0
166 -37 161 0
-167 -37 0
-167 161 0
167 37 -161 0
-168 -166 0
-168 -167 0
168 166 167 0
-169 165 0
-169 168 0
169 -165 -168 0
-172 169 0
-172 -171 0
172 -169 171 0
-174 172 0
-174 -173 0
174 -172 173 0
-175 16 0
-175 -170 0
175 -16 170 0
-176 -16 0
-176 170 0
176 16 -170 0
-177 -175 0
-177 -176 0
177 175 176 0
178 -1326 0
-178 1326 0
-179 177 0
-179 178 0
179 -177 -178 0
-180 174 0
-180 -179 0
180 -174 179 0
-181 -177 0
-181 -178 0
181 177 178 0
-182 180 0
-182 -181 0
182 -180 181 0
-183 33 0
-183 -178 0
183 -33 178 0
-184 -33 0
-184 178 0
184 33 -178 0
-185 -183 0
-185 -184 0
185 183 184 0
-186 182 0
-186 185 0
186 -182 -185 0
-187 -171 0
-187 186 0
187 171 -186 0
-188 -173 0
-188 187 0
188 173 -187 0
-189 15 0
-189 -170 0
189 -15 170 0
-190 -15 0
-190 170 0
190 15 -170 0
-191 -189 0
-191 -190 0
191 189 190 0
192 -1327 0
-192 1327 0
-193 191 0
-193 192 0
193 -191 -192 0
-194 188 0
-194 -193 0
194 -188 193 0
-195 -191 0
-195 -192 0
195 191 192 0
-196 194 0
-196 -195 0
196 -194 195 0
34 -1304 0
-34 1304 0
-197 34 0
-197 -192 0
197 -34 192 0
-198 -34 0
-198 192 0
198 34 -192 0
-199 -197 0
-199 -198 0
199 197 198 0
-200 196 0
-200 199 0
200 -196 -199 0
-203 200 0
-203 -202 0
203 -200 202 0
-205 203 0
-205 -204 0
205 -203 204 0
14 -1284 0
-14 1284 0
-206 14 0
-206 -201 0
206 -14 201 0
-207 -14 0
-207 201 0
207 14 -201 0
-208 -206 0
-208 -207 0
208 206 207 0
209 -1329 0
-209 1329 0
-210 208 0
-210 209 0
210 -208 -209 0
-211 205 0
-211 -210 0
211 -205 210 0
-212 -208 0
-212 -209 0
212 208 209 0
-213 211 0
-213 -212 0
213 -211 212 0
-214 34 0
-214 -209 0
214 -34 209 0
-215 -34 0
-215 209 0
215 34 -209 0
-216 -214 0
-216 -215 0
216 214 215 0
-217 213 0
-217 216 0
217 -213 -216 0
-220 217 0
-220 -219 0
220 -217 219 0
-222 220 0
-222 -221 0
222 -220 221 0
-223 13 0
-223 -218 0
223 -13 218 0
-224 -13 0
-224 218 0
224 13 -218 0
-225 -223 0
-225 -224 0
225 223 224 0
226 -1331 0
-226 1331 0
-227 225 0
-227 226 0
227 -225 -226 0
-228 222 0
-228 -227 0
228 -222 227 0
-229 -225 0
-229 -226 0
229 225 226 0
-230 228 0
-230 -229 0
230 -228 229 0
-231 30 0
-231 -226 0
231 -30 226 0
-232 -30 0
-232 226 0
232 30 -226 0
-233 -231 0
-233 -232 0
233 231 232 0
-234 230 0
-234 233 0
234 -230 -233 0
-235 -219 0
-235 234 0
235 219 -234 0
-236 -221 0
-236 235 0
236 221 -235 0
-237 12 0
-237 -218 0
237 -12 218 0
-238 -12 0
-238 218 0
238 12 -218 0
-239 -237 0
-239 -238 0
239 237 238 0
240 -1332 0
-240 1332 0
-241 239 0
-241 240 0
241 -239 -240 0
-242 236 0
-242 -241 0
242 -236 241 0
-243 -239 0
-243 -240 0
243 239 240 0
-244 242 0
-244 -243 0
244 -242 243 0
-245 31 0
-245 -240 0
245 -31 240 0
-246 -31 0
-246 240 0
246 31 -240 0
-247 -245 0
-247 -246 0
247 245 246 0
-248 244 0
-248 247 0
248 -244 -247 0
-251 248 0
-251 -250 0
251 -248 250 0
-253 251 0
-253 -252 0
253 -251 252 0
11 -1281 0
-11 1281 0
-254 11 0
-254 -249 0
254 -11 249 0
-255 -11 0
-255 249 0
255 11 -249 0
-256 -254 0
-256 -255 0
256 254 255 0
257 -1334 0
-257 1334 0
-258 256 0
-258 257 0
258 -256 -257 0
-259 253 0
-259 -258 0
259 -253 258 0
-260 -256 0
-260 -257 0
260 256 257 0
-261 259 0
-261 -260 0
261 -259 260 0
-262 31 0
-262 -257 0
262 -31 257 0
-263 -31 0
-263 257 0
263 31 -257 0
-264 -262 0
-264 -263 0
264 262 263 0
-265 261 0
-265 264 0
265 -261 -264 0
-268 265 0
-268 -267 0
268 -265 267 0
-270 268 0
-270 -269 0
270 -268 269 0
-271 10 0
-271 -266 0
271 -10 266 0
-272 -10 0
-272 266 0
272 10 -266 0
-273 -271 0
-273 -272 0
273 271 272 0
274 -1336 0
-274 1336 0
-275 273 0
-275 274 0
275 -273 -274 0
-276 270 0
-276 -275 0
276 -270 275 0
-277 -273 0
-277 -274 0
277 273 274 0
-278 276 0
-278 -277 0
278 -276 277 0
-279 27 0
-279 -274 0
279 -27 274 0
-280 -27 0
-280 274 0
280 27 -274 0
-281 -279 0
-281 -280 0
281 279 280 0
-282 278 0
-282 281 0
282 -278 -281 0
-283 -267 0
-283 282 0
283 267 -282 0
-284 -269 0
-284 283 0
284 269 -283 0
-285 9 0
-285 -266 0
285 -9 266 0
-286 -9 0
-286 266 0
286 9 -266 0
-287 -285 0
-287 -286 0
287 285 286 0
288 -1337 0
-288 1337 0
-289 287 0
-289 288 0
289 -287 -288 0
-290 284 0
-290 -289 0
290 -284 289 0
-291 -287 0
-291 -288 0
291 287 288 0
-292 290 0
-292 -291 0
292 -290 291 0
-293 28 0
-293 -288 0
293 -28 288 0
-294 -28 0
-294 288 0
294 28 -288 0
-295 -293 0
-295 -294 0
295 293 294 0
-296 292 0
-296 295 0
296 -292 -295 0
-299 296 0
-299 -298 0
299 -296 298 0
-301 299 0
-301 -300 0
301 -299 300 0
8 -1278 0
-8 1278 0
-302 8 0
-302 -297 0
302 -8 297 0
-303 -8 0
-303 297 0
303 8 -297 0
-304 -302 0
-304 -303 0
304 302 303 0
305 -1339 0
-305 1339 0
-306 304 0
-306 305 0
306 -304 -305 0
-307 301 0
-307 -306 0
307 -301 306 0
-308 -304 0
-308 -305 0
308 304 305 0
-309 307 0
-309 -308 0
309 -307 308 0
-310 28 0
-310 -305 0
310 -28 305 0
-311 -28 0
-311 305 0
311 28 -305 0
-312 -310 0
-312 -311 0
312 310 311 0
-313 309 0
-313 312 0
313 -309 -312 0
-316 313 0
-316 -315 0
316 -313 315 0
-318 316 0
-318 -317 0
318 -316 317 0
-319 7 0
-319 -314 0
319 -7 314 0
-320 -7 0
-320 314 0
320 7 -314 0
-321 -319 0
-321 -320 0
321 319 320 0
322 -1341 0
-322 1341 0
-323 321 0
-323 322 0
323 -321 -322 0
-324 318 0
-324 -323 0
324 -318 323 0
-325 -321 0
-325 -322 0
325 321 322 0
-326 324 0
-326 -325 0
326 -324 325 0
-327 24 0
-327 -322 0
327 -24 322 0
-328 -24 0
-328 322 0
328 24 -322 0
-329 -327 0
-329 -328 0
329 327 328 0
-330 326 0
-330 329 0
330 -326 -329 0
-331 -315 0
-331 330 0
331 315 -330 0
-332 -317 0
-332 331 0
332 317 -331 0
6 -1276 0
-6 1276 0
-333 6 0
-333 -314 0
333 -6 314 0
-334 -6 0
-334 314 0
334 6 -314 0
-335 -333 0
-335 -334 0
335 333 334 0
336 -1342 0
-336 1342 0
-337 335 0
-337 336 0
337 -335 -336 0
-338 332 0
-338 -337 0
338 -332 337 0
-339 -335 0
-339 -336 0
339 335 336 0
-340 338 0
-340 -339 0
340 -338 339 0
-341 25 0
-341 -336 0
341 -25 336 0
-342 -25 0
-342 336 0
342 25 -336 0
-343 -341 0
-343 -342 0
343 341 342 0
-344 340 0
-344 343 0
344 -340 -343 0
-347 344 0
-347 -346 0
347 -344 346 0
-349 347 0
-349 -348 0
349 -347 348 0
5 -1275 0
-5 1275 0
-350 5 0
-350 -345 0
350 -5 345 0
-351 -5 0
-351 345 0
351 5 -345 0
-352 -350 0
-352 -351 0
352 350 351 0
353 -1344 0
-353 1344 0
-354 352 0
-354 353 0
354 -352 -353 0
-355 349 0
-355 -354 0
355 -349 354 0
-356 -352 0
-356 -353 0
356 352 353 0
-357 355 0
-357 -356 0
357 -355 356 0
-358 25 0
-358 -353 0
358 -25 353 0
-359 -25 0
-359 353 0
359 25 -353 0
-360 -358 0
-360 -359 0
360 358 359 0
-361 357 0
-361 360 0
361 -357 -360 0
-364 361 0
-364 -363 0
364 -361 363 0
-366 364 0
-366 -365 0
366 -364 365 0
-367 4 0
-367 -362 0
367 -4 362 0
-368 -4 0
-368 362 0
368 4 -362 0
-369 -367 0
-369 -368 0
369 367 368 0
370 -1346 0
-370 1346 0
-371 369 0
-371 370 0
371 -369 -370 0
-372 366 0
-372 -371 0
372 -366 371 0
-373 -369 0
-373 -370 0
373 369 370 0
-374 372 0
-374 -373 0
374 -372 373 0
-375 21 0
-375 -370 0
375 -21 370 0
-376 -21 0
-376 370 0
376 21 -370 0
-377 -375 0
-377 -376 0
377 375 376 0
-378 374 0
-378 377 0
378 -374 -377 0
-379 -363 0
-379 378 0
379 363 -378 0
-380 -365 0
-380 379 0
380 365 -379 0
3 -1273 0
-3 1273 0
-381 3 0
-381 -362 0
381 -3 362 0
-382 -3 0
-382 362 0
382 3 -362 0
-383 -381 0
-383 -382 0
383 381 382 0
384 -1347 0
-384 1347 0
-385 383 0
-385 384 0
385 -383 -384 0
-386 380 0
-386 -385 0
386 -380 385 0
-387 -383 0
-387 -384 0
387 383 384 0
-388 386 0
-388 -387 0
388 -386 387 0
-389 22 0
-389 -384 0
389 -22 384 0
-390 -22 0
-390 384 0
390 22 -384 0
-391 -389 0
-391 -390 0
391 389 390 0
-392 388 0
-392 391 0
392 -388 -391 0
-395 392 0
-395 -394 0
395 -392 394 0
-397 395 0
-397 -396 0
397 -395 396 0
2 -1272 0
-2 1272 0
-398 2 0
-398 -393 0
398 -2 393 0
-399 -2 0
-399 393 0
399 2 -393 0
-400 -398 0
-400 -399 0
400 398 399 0
401 -1349 0
-401 1349 0
-402 400 0
-402 401 0
402 -400 -401 0
-403 397 0
-403 -402 0
403 -397 402 0
-404 -400 0
-404 -401 0
404 400 401 0
-405 403 0
-405 -404 0
405 -403 404 0
-406 22 0
-406 -401 0
406 -22 401 0
-407 -22 0
-407 401 0
407 22 -401 0
-408 -406 0
-408 -407 0
408 406 407 0
-409 405 0
-409 408 0
409 -405 -408 0
-412 409 0
-412 -411 0
412 -409 411 0
-414 412 0
-414 -413 0
414 -412 413 0
-415 17 0
-415 -410 0
415 -17 410 0
-416 -17 0
-416 410 0
416 17 -410 0
-417 -415 0
-417 -416 0
417 415 416 0
-418 414 0
-418 417 0
418 -414 -417 0
-421 418 0
-421 -420 0
421 -418 420 0
-423 421 0
-423 -422 0
423 -421 422 0
-424 17 0
-424 -419 0
424 -17 419 0
-425 -17 0
-425 419 0
425 17 -419 0
-426 -424 0
-426 -425 0
426 424 425 0
-427 423 0
-427 426 0
427 -423 -426 0
-428 -420 0
-428 427 0
428 420 -427 0
-429 -422 0
-429 428 0
429 422 -428 0
-430 18 0
-430 -419 0
430 -18 419 0
-431 -18 0
-431 419 0
431 18 -419 0
-432 -430 0
-432 -431 0
432 430 431 0
433 -1352 0
-433 1352 0
-434 432 0
-434 433 0
434 -432 -433 0
-435 429 0
-435 -434 0
435 -429 434 0
-436 -432 0
-436 -433 0
436 432 433 0
-437 435 0
-437 -436 0
437 -435 436 0
-438 42 0
-438 -433 0
438 -42 433 0
-439 -42 0
-439 433 0
439 42 -433 0
-440 -438 0
-440 -439 0
440 438 439 0
-441 437 0
-441 440 0
441 -437 -440 0
-444 441 0
-444 -443 0
444 -441 443 0
-446 444 0
-446 -445 0
446 -444 445 0
-447 14 0
-447 -442 0
447 -14 442 0
-448 -14 0
-448 442 0
448 14 -442 0
-449 -447 0
-449 -448 0
449 447 448 0
-450 446 0
-450 449 0
450 -446 -449 0
-453 450 0
-453 -452 0
453 -450 452 0
-455 453 0
-455 -454 0
455 -453 454 0
-456 14 0
-456 -451 0
456 -14 451 0
-457 -14 0
-457 451 0
457 14 -451 0
-458 -456 0
-458 -457 0
458 456 457 0
-459 455 0
-459 458 0
459 -455 -458 0
-460 -452 0
-460 459 0
460 452 -459 0
-461 -454 0
-461 460 0
461 454 -460 0
-462 15 0
-462 -451 0
462 -15 451 0
-463 -15 0
-463 451 0
463 15 -451 0
-464 -462 0
-464 -463 0
464 462 463 0
465 -1355 0
-465 1355 0
-466 464 0
-466 465 0
466 -464 -465 0
-467 461 0
-467 -466 0
467 -461 466 0
-468 -464 0
-468 -465 0
468 464 465 0
-469 467 0
-469 -468 0
469 -467 468 0
-470 41 0
-470 -465 0
470 -41 465 0
-471 -41 0
-471 465 0
471 41 -465 0
-472 -470 0
-472 -471 0
472 470 471 0
-473 469 0
-473 472 0
473 -469 -472 0
-476 473 0
-476 -475 0
476 -473 475 0
-478 476 0
-478 -477 0
478 -476 477 0
-479 11 0
-479 -474 0
479 -11 474 0
-480 -11 0
-480 474 0
480 11 -474 0
-481 -479 0
-481 -480 0
481 479 480 0
482 -1357 0
-482 1357 0
-483 481 0
-483 482 0
483 -481 -482 0
-484 478 0
-484 -483 0
484 -478 483 0
-485 -481 0
-485 -482 0
485 481 482 0
-486 484 0
-486 -485 0
486 -484 485 0
-487 40 0
-487 -482 0
487 -40 482 0
-488 -40 0
-488 482 0
488 40 -482 0
-489 -487 0
-489 -488 0
489 487 488 0
-490 486 0
-490 489 0
490 -486 -489 0
-493 490 0
-493 -492 0
493 -490 492 0
-495 493 0
-495 -494 0
495 -493 494 0
-496 11 0
-496 -491 0
496 -11 491 0
-497 -11 0
-497 491 0
497 11 -491 0
-498 -496 0
-498 -497 0
498 496 497 0
499 -1359 0
-499 1359 0
-500 498 0
-500 499 0
500 -498 -499 0
-501 495 0
-501 -500 0
501 -495 500 0
-502 -498 0
-502 -499 0
502 498 499 0
-503 501 0
-503 -502 0
503 -501 502 0
-504 39 0
-504 -499 0
504 -39 499 0
-505 -39 0
-505 499 0
505 39 -499 0
-506 -504 0
-506 -505 0
506 504 505 0
-507 503 0
-507 506 0
507 -503 -506 0
-508 -492 0
-508 507 0
508 492 -507 0
-509 -494 0
-509 508 0
509 494 -508 0
-510 12 0
-510 -491 0
510 -12 491 0
-511 -12 0
-511 491 0
511 12 -491 0
-512 -510 0
-512 -511 0
512 510 511 0
513 -1360 0
-513 1360 0
-514 512 0
-514 513 0
514 -512 -513 0
-515 509 0
-515 -514 0
515 -509 514 0
-516 -512 0
-516 -513 0
516 512 513 0
-517 515 0
-517 -516 0
517 -515 516 0
-518 38 0
-518 -513 0
518 -38 513 0
-519 -38 0
-519 513 0
519 38 -513 0
-520 -518 0
-520 -519 0
520 518 519 0
-521 517 0
-521 520 0
521 -517 -520 0
-524 521 0
-524 -523 0
524 -521 523 0
-526 524 0
-526 -525 0
526 -524 525 0
-527 8 0
-527 -522 0
527 -8 522 0
-528 -8 0
-528 522 0
528 8 -522 0
-529 -527 0
-529 -528 0
529 527 528 0
530 -1362 0
-530 1362 0
-531 529 0
-531 530 0
531 -529 -530 0
-532 526 0
-532 -531 0
532 -526 531 0
-533 -529 0
-533 -530 0
533 529 530 0
-534 532 0
-534 -533 0
534 -532 533 0
-535 37 0
-535 -530 0
535 -37 530 0
-536 -37 0
-536 530 0
536 37 -530 0
-537 -535 0
-537 -536 0
537 535 536 0
-538 534 0
-538 537 0
538 -534 -537 0
-541 538 0
-541 -540 0
541 -538 540 0
-543 541 0
-543 -542 0
543 -541 542 0
-544 8 0
-544 -539 0
544 -8 539 0
-545 -8 0
-545 539 0
545 8 -539 0
-546 -544 0
-546 -545 0
546 544 545 0
547 -1364 0
-547 1364 0
-548 546 0
-548 547 0
548 -546 -547 0
-549 543 0
-549 -548 0
549 -543 548 0
-550 -546 0
-550 -547 0
550 546 547 0
-551 549 0
-551 -550 0
551 -549 550 0
-552 36 0
-552 -547 0
552 -36 547 0
-553 -36 0
-553 547 0
553 36 -547 0
-554 -552 0
-554 -553 0
554 552 553 0
-555 551 0
-555 554 0
555 -551 -554 0
-556 -540 0
-556 555 0
556 540 -555 0
-557 -542 0
-557 556 0
557 542 -556 0
-558 9 0
-558 -539 0
558 -9 539 0
-559 -9 0
-559 539 0
559 9 -539 0
-560 -558 0
-560 -559 0
560 558 559 0
561 -1365 0
-561 1365 0
-562 560 0
-562 561 0
562 -560 -561 0
-563 557 0
-563 -562 0
563 -557 562 0
-564 -560 0
-564 -561 0
564 560 561 0
-565 563 0
-565 -564 0
565 -563 564 0
-566 35 0
-566 -561 0
566 -35 561 0
-567 -35 0
-567 561 0
567 35 -561 0
-568 -566 0
-568 -567 0
568 566 567 0
-569 565 0
-569 568 0
569 -565 -568 0
570 -1366 0
-570 1366 0
-571 6 0
-571 -570 0
571 -6 570 0
-572 569 0
-572 -571 0
572 -569 571 0
-573 -6 0
-573 570 0
573 6 -570 0
-574 572 0
-574 -573 0
574 -572 573 0
-575 5 0
-575 -570 0
575 -5 570 0
-576 -5 0
-576 570 0
576 5 -570 0
-577 -575 0
-577 -576 0
577 575 576 0
578 -1367 0
-578 1367 0
-579 577 0
-579 578 0
579 -577 -578 0
-580 574 0
-580 -579 0
580 -574 579 0
-581 -577 0
-581 -578 0
581 577 578 0
-582 580 0
-582 -581 0
582 -580 581 0
-583 34 0
-583 -578 0
583 -34 578 0
-584 -34 0
-584 578 0
584 34 -578 0
-585 -583 0
-585 -584 0
585 583 584 0
-586 582 0
-586 585 0
586 -582 -585 0
-589 586 0
-589 -588 0
589 -586 588 0
-591 589 0
-591 -590 0
591 -589 590 0
-592 5 0
-592 -587 0
592 -5 587 0
-593 -5 0
-593 587 0
593 5 -587 0
-594 -592 0
-594 -593 0
594 592 593 0
595 -1369 0
-595 1369 0
-596 594 0
-596 595 0
596 -594 -595 0
-597 591 0
-597 -596 0
597 -591 596 0
-598 -594 0
-598 -595 0
598 594 595 0
-599 597 0
-599 -598 0
599 -597 598 0
-600 33 0
-600 -595 0
600 -33 595 0
-601 -33 0
-601 595 0
601 33 -595 0
-602 -600 0
-602 -601 0
602 600 601 0
-603 599 0
-603 602 0
603 -599 -602 0
-604 -588 0
-604 603 0
604 588 -603 0
-605 -590 0
-605 604 0
605 590 -604 0
-606 6 0
-606 -587 0
606 -6 587 0
-607 -6 0
-607 587 0
607 6 -587 0
-608 -606 0
-608 -607 0
608 606 607 0
609 -1370 0
-609 1370 0
-610 608 0
-610 609 0
610 -608 -609 0
-611 605 0
-611 -610 0
611 -605 610 0
-612 -608 0
-612 -609 0
612 608 609 0
-613 611 0
-613 -612 0
613 -611 612 0
-614 32 0
-614 -609 0
614 -32 609 0
-615 -32 0
-615 609 0
615 32 -609 0
-616 -614 0
-616 -615 0
616 614 615 0
-617 613 0
-617 616 0
617 -613 -616 0
618 -1371 0
-618 1371 0
-619 3 0
-619 -618 0
619 -3 618 0
-620 617 0
-620 -619 0
620 -617 619 0
-621 -3 0
-621 618 0
621 3 -618 0
-622 620 0
-622 -621 0
622 -620 621 0
-623 2 0
-623 -618 0
623 -2 618 0
-624 -2 0
-624 618 0
624 2 -618 0
-625 -623 0
-625 -624 0
625 623 624 0
626 -1372 0
-626 1372 0
-627 625 0
-627 626 0
627 -625 -626 0
-628 622 0
-628 -627 0
628 -622 627 0
-629 -625 0
-629 -626 0
629 625 626 0
-630 628 0
-630 -629 0
630 -628 629 0
-631 31 0
-631 -626 0
631 -31 626 0
-632 -31 0
-632 626 0
632 31 -626 0
-633 -631 0
-633 -632 0
633 631 632 0
-634 630 0
-634 633 0
634 -630 -633 0
-637 634 0
-637 -636 0
637 -634 636 0
-639 637 0
-639 -638 0
639 -637 638 0
-640 2 0
-640 -635 0
640 -2 635 0
-641 -2 0
-641 635 0
641 2 -635 0
-642 -640 0
-642 -641 0
642 640 641 0
643 -1374 0
-643 1374 0
-644 642 0
-644 643 0
644 -642 -643 0
-645 639 0
-645 -644 0
645 -639 644 0
-646 -642 0
-646 -643 0
646 642 643 0
-647 645 0
-647 -646 0
647 -645 646 0
-648 30 0
-648 -643 0
648 -30 643 0
-649 -30 0
-649 643 0
649 30 -643 0
-650 -648 0
-650 -649 0
650 648 649 0
-651 647 0
-651 650 0
651 -647 -650 0
-652 -636 0
-652 651 0
652 636 -651 0
-653 -638 0
-653 652 0
653 638 -652 0
-654 3 0
-654 -635 0
654 -3 635 0
-655 -3 0
-655 635 0
655 3 -635 0
-656 -654 0
-656 -655 0
656 654 655 0
657 -1375 0
-657 1375 0
-658 656 0
-658 657 0
658 -656 -657 0
-659 653 0
-659 -658 0
659 -653 658 0
-660 -656 0
-660 -657 0
660 656 657 0
-661 659 0
-661 -660 0
661 -659 660 0
-662 29 0
-662 -657 0
662 -29 657 0
-663 -29 0
-663 657 0
663 29 -657 0
-664 -662 0
-664 -663 0
664 662 663 0
-665 661 0
-665 664 0
665 -661 -664 0
-668 665 0
-668 -667 0
668 -665 667 0
-670 668 0
-670 -669 0
670 -668 669 0
-671 7 0
-671 -666 0
671 -7 666 0
-672 -7 0
-672 666 0
672 7 -666 0
-673 -671 0
-673 -672 0
673 671 672 0
-674 670 0
-674 673 0
674 -670 -673 0
-675 -394 0
-675 674 0
675 394 -674 0
-676 -396 0
-676 675 0
676 396 -675 0
-677 6 0
-677 -393 0
677 -6 393 0
-678 -6 0
-678 393 0
678 6 -393 0
-679 -677 0
-679 -678 0
679 677 678 0
-680 676 0
-680 679 0
680 -676 -679 0
-681 -363 0
-681 680 0
681 363 -680 0
-682 -365 0
-682 681 0
682 365 -681 0
-683 5 0
-683 -362 0
683 -5 362 0
-684 -5 0
-684 362 0
684 5 -362 0
-685 -683 0
-685 -684 0
685 683 684 0
686 -1377 0
-686 1377 0
-687 685 0
-687 686 0
687 -685 -686 0
-688 682 0
-688 -687 0
688 -682 687 0
-689 -685 0
-689 -686 0
689 685 686 0
-690 688 0
-690 -689 0
690 -688 689 0
-691 42 0
-691 -686 0
691 -42 686 0
-692 -42 0
-692 686 0
692 42 -686 0
-693 -691 0
-693 -692 0
693 691 692 0
-694 690 0
-694 693 0
694 -690 -693 0
-695 -420 0
-695 694 0
695 420 -694 0
-696 -422 0
-696 695 0
696 422 -695 0
-697 4 0
-697 -419 0
697 -4 419 0
-698 -4 0
-698 419 0
698 4 -419 0
-699 -697 0
-699 -698 0
699 697 698 0
-700 696 0
-700 699 0
700 -696 -699 0
-701 -411 0
-701 700 0
701 411 -700 0
-702 -413 0
-702 701 0
702 413 -701 0
-703 3 0
-703 -410 0
703 -3 410 0
-704 -3 0
-704 410 0
704 3 -410 0
-705 -703 0
-705 -704 0
705 703 704 0
-706 702 0
-706 705 0
706 -702 -705 0
-709 706 0
-709 -708 0
709 -706 708 0
-711 709 0
-711 -710 0
711 -709 710 0
-712 2 0
-712 -707 0
712 -2 707 0
-713 -2 0
-713 707 0
713 2 -707 0
-714 -712 0
-714 -713 0
714 712 713 0
715 -1379 0
-715 1379 0
-716 714 0
-716 715 0
716 -714 -715 0
-717 711 0
-717 -716 0
717 -711 716 0
-718 -714 0
-718 -715 0
718 714 715 0
-719 717 0
-719 -718 0
719 -717 718 0
-720 41 0
-720 -715 0
720 -41 715 0
-721 -41 0
-721 715 0
721 41 -715 0
-722 -720 0
-722 -721 0
722 720 721 0
-723 719 0
-723 722 0
723 -719 -722 0
724 -1380 0
-724 1380 0
-725 40 0
-725 -724 0
725 -40 724 0
-726 723 0
-726 -725 0
726 -723 725 0
-727 -40 0
-727 724 0
727 40 -724 0
-728 726 0
-728 -727 0
728 -726 727 0
-729 16 0
-729 -724 0
729 -16 724 0
-730 -16 0
-730 724 0
730 16 -724 0
-731 -729 0
-731 -730 0
731 729 730 0
-732 728 0
-732 731 0
732 -728 -731 0
-733 -106 0
-733 732 0
733 106 -732 0
-734 -108 0
-734 733 0
734 108 -733 0
-735 15 0
-735 -105 0
735 -15 105 0
-736 -15 0
-736 105 0
736 15 -105 0
-737 -735 0
-737 -736 0
737 735 736 0
-738 734 0
-738 737 0
738 -734 -737 0
-739 -75 0
-739 738 0
739 75 -738 0
-740 -77 0
-740 739 0
740 77 -739 0
-741 14 0
-741 -74 0
741 -14 74 0
-742 -14 0
-742 74 0
742 14 -74 0
-743 -741 0
-743 -742 0
743 741 742 0
744 -1381 0
-744 1381 0
-745 743 0
-745 744 0
745 -743 -744 0
-746 740 0
-746 -745 0
746 -740 745 0
-747 -743 0
-747 -744 0
747 743 744 0
-748 746 0
-748 -747 0
748 -746 747 0
-749 42 0
-749 -744 0
749 -42 744 0
-750 -42 0
-750 744 0
750 42 -744 0
-751 -749 0
-751 -750 0
751 749 750 0
-752 748 0
-752 751 0
752 -748 -751 0
753 -1382 0
-753 1382 0
-754 37 0
-754 -753 0
754 -37 753 0
-755 752 0
-755 -754 0
755 -752 754 0
-756 -37 0
-756 753 0
756 37 -753 0
-757 755 0
-757 -756 0
757 -755 756 0
-758 13 0
-758 -753 0
758 -13 753 0
-759 -13 0
-759 753 0
759 13 -753 0
-760 -758 0
-760 -759 0
760 758 759 0
-761 757 0
-761 760 0
761 -757 -760 0
-762 -154 0
-762 761 0
762 154 -761 0
-763 -156 0
-763 762 0
763 156 -762 0
-764 12 0
-764 -153 0
764 -12 153 0
-765 -12 0
-765 153 0
765 12 -153 0
-766 -764 0
-766 -765 0
766 764 765 0
-767 763 0
-767 766 0
767 -763 -766 0
-768 -123 0
-768 767 0
768 123 -767 0
-769 -125 0
-769 768 0
769 125 -768 0
-770 11 0
-770 -122 0
770 -11 122 0
-771 -11 0
-771 122 0
771 11 -122 0
-772 -770 0
-772 -771 0
772 770 771 0
773 -1383 0
-773 1383 0
-774 772 0
-774 773 0
774 -772 -773 0
-775 769 0
-775 -774 0
775 -769 774 0
-776 -772 0
-776 -773 0
776 772 773 0
-777 775 0
-777 -776 0
777 -775 776 0
-778 41 0
-778 -773 0
778 -41 773 0
-779 -41 0
-779 773 0
779 41 -773 0
-780 -778 0
-780 -779 0
780 778 779 0
-781 777 0
-781 780 0
781 -777 -780 0
782 -1384 0
-782 1384 0
-783 34 0
-783 -782 0
783 -34 782 0
-784 781 0
-784 -783 0
784 -781 783 0
-785 -34 0
-785 782 0
785 34 -782 0
-786 784 0
-786 -785 0
786 -784 785 0
-787 10 0
-787 -782 0
787 -10 782 0
-788 -10 0
-788 782 0
788 10 -782 0
-789 -787 0
-789 -788 0
789 787 788 0
790 -1385 0
-790 1385 0
-791 789 0
-791 790 0
791 -789 -790 0
-792 786 0
-792 -791 0
792 -786 791 0
-793 -789 0
-793 -790 0
793 789 790 0
-794 792 0
-794 -793 0
794 -792 793 0
-795 40 0
-795 -790 0
795 -40 790 0
-796 -40 0
-796 790 0
796 40 -790 0
-797 -795 0
-797 -796 0
797 795 796 0
-798 794 0
-798 797 0
798 -794 -797 0
-799 -202 0
-799 798 0
799 202 -798 0
-800 -204 0
-800 799 0
800 204 -799 0
-801 9 0
-801 -201 0
801 -9 201 0
-802 -9 0
-802 201 0
802 9 -201 0
-803 -801 0
-803 -802 0
803 801 802 0
804 -1386 0
-804 1386 0
-805 803 0
-805 804 0
805 -803 -804 0
-806 800 0
-806 -805 0
806 -800 805 0
-807 -803 0
-807 -804 0
807 803 804 0
-808 806 0
-808 -807 0
808 -806 807 0
-809 39 0
-809 -804 0
809 -39 804 0
-810 -39 0
-810 804 0
810 39 -804 0
-811 -809 0
-811 -810 0
811 809 810 0
-812 808 0
-812 811 0
812 -808 -811 0
-813 -171 0
-813 812 0
813 171 -812 0
-814 -173 0
-814 813 0
814 173 -813 0
-815 8 0
-815 -170 0
815 -8 170 0
-816 -8 0
-816 170 0
816 8 -170 0
-817 -815 0
-817 -816 0
817 815 816 0
818 -1387 0
-818 1387 0
-819 817 0
-819 818 0
819 -817 -818 0
-820 814 0
-820 -819 0
820 -814 819 0
-821 -817 0
-821 -818 0
821 817 818 0
-822 820 0
-822 -821 0
822 -820 821 0
-823 38 0
-823 -818 0
823 -38 818 0
-824 -38 0
-824 818 0
824 38 -818 0
-825 -823 0
-825 -824 0
825 823 824 0
-826 822 0
-826 825 0
826 -822 -825 0
-829 826 0
-829 -828 0
829 -826 828 0
-831 829 0
-831 -830 0
831 -829 830 0
-832 7 0
-832 -827 0
832 -7 827 0
-833 -7 0
-833 827 0
833 7 -827 0
-834 -832 0
-834 -833 0
834 832 833 0
835 -1389 0
-835 1389 0
-836 834 0
-836 835 0
836 -834 -835 0
-837 831 0
-837 -836 0
837 -831 836 0
-838 -834 0
-838 -835 0
838 834 835 0
-839 837 0
-839 -838 0
839 -837 838 0
-840 37 0
-840 -835 0
840 -37 835 0
-841 -37 0
-841 835 0
841 37 -835 0
-842 -840 0
-842 -841 0
842 840 841 0
-843 839 0
-843 842 0
843 -839 -842 0
-844 -250 0
-844 843 0
844 250 -843 0
-845 -252 0
-845 844 0
845 252 -844 0
-846 6 0
-846 -249 0
846 -6 249 0
-847 -6 0
-847 249 0
847 6 -249 0
-848 -846 0
-848 -847 0
848 846 847 0
849 -1390 0
-849 1390 0
-850 848 0
-850 849 0
850 -848 -849 0
-851 845 0
-851 -850 0
851 -845 850 0
-852 -848 0
-852 -849 0
852 848 849 0
-853 851 0
-853 -852 0
853 -851 852 0
-854 36 0
-854 -849 0
854 -36 849 0
-855 -36 0
-855 849 0
855 36 -849 0
-856 -854 0
-856 -855 0
856 854 855 0
-857 853 0
-857 856 0
857 -853 -856 0
-858 -219 0
-858 857 0
858 219 -857 0
-859 -221 0
-859 858 0
859 221 -858 0
-860 5 0
-860 -218 0
860 -5 218 0
-861 -5 0
-861 218 0
861 5 -218 0
-862 -860 0
-862 -861 0
862 860 861 0
863 -1391 0
-863 1391 0
-864 862 0
-864 863 0
864 -862 -863 0
-865 859 0
-865 -864 0
865 -859 864 0
-866 -862 0
-866 -863 0
866 862 863 0
-867 865 0
-867 -866 0
867 -865 866 0
-868 35 0
-868 -863 0
868 -35 863 0
-869 -35 0
-869 863 0
869 35 -863 0
-870 -868 0
-870 -869 0
870 868 869 0
-871 867 0
-871 870 0
871 -867 -870 0
-874 871 0
-874 -873 0
874 -871 873 0
-876 874 0
-876 -875 0
876 -874 875 0
-877 4 0
-877 -872 0
877 -4 872 0
-878 -4 0
-878 872 0
878 4 -872 0
-879 -877 0
-879 -878 0
879 877 878 0
880 -1393 0
-880 1393 0
-881 879 0
-881 880 0
881 -879 -880 0
-882 876 0
-882 -881 0
882 -876 881 0
-883 -879 0
-883 -880 0
883 879 880 0
-884 882 0
-884 -883 0
884 -882 883 0
-885 34 0
-885 -880 0
885 -34 880 0
-886 -34 0
-886 880 0
886 34 -880 0
-887 -885 0
-887 -886 0
887 885 886 0
-888 884 0
-888 887 0
888 -884 -887 0
-889 -298 0
-889 888 0
889 298 -888 0
-890 -300 0
-890 889 0
890 300 -889 0
-891 3 0
-891 -297 0
891 -3 297 0
-892 -3 0
-892 297 0
892 3 -297 0
-893 -891 0
-893 -892 0
893 891 892 0
894 -1394 0
-894 1394 0
-895 893 0
-895 894 0
895 -893 -894 0
-896 890 0
-896 -895 0
896 -890 895 0
-897 -893 0
-897 -894 0
897 893 894 0
-898 896 0
-898 -897 0
898 -896 897 0
-899 33 0
-899 -894 0
899 -33 894 0
-900 -33 0
-900 894 0
900 33 -894 0
-901 -899 0
-901 -900 0
901 899 900 0
-902 898 0
-902 901 0
902 -898 -901 0
-903 -267 0
-903 902 0
903 267 -902 0
-904 -269 0
-904 903 0
904 269 -903 0
-905 2 0
-905 -266 0
905 -2 266 0
-906 -2 0
-906 266 0
906 2 -266 0
-907 -905 0
-907 -906 0
907 905 906 0
908 -1395 0
-908 1395 0
-909 907 0
-909 908 0
909 -907 -908 0
-910 904 0
-910 -909 0
910 -904 909 0
-911 -907 0
-911 -908 0
911 907 908 0
-912 910 0
-912 -911 0
912 -910 911 0
-913 32 0
-913 -908 0
913 -32 908 0
-914 -32 0
-914 908 0
914 32 -908 0
-915 -913 0
-915 -914 0
915 913 914 0
-916 912 0
-916 915 0
916 -912 -915 0
-917 -828 0
-917 916 0
917 828 -916 0
-918 -830 0
-918 917 0
918 830 -917 0
-919 25 0
-919 -827 0
919 -25 827 0
-920 -25 0
-920 827 0
920 25 -827 0
-921 -919 0
-921 -920 0
921 919 920 0
-922 918 0
-922 921 0
922 -918 -921 0
-923 -250 0
-923 922 0
923 250 -922 0
-924 -252 0
-924 923 0
924 252 -923 0
-925 24 0
-925 -249 0
925 -24 249 0
-926 -24 0
-926 249 0
926 24 -249 0
-927 -925 0
-927 -926 0
927 925 926 0
-928 924 0
-928 927 0
928 -924 -927 0
-929 -219 0
-929 928 0
929 219 -928 0
-930 -221 0
-930 929 0
930 221 -929 0
-931 23 0
-931 -218 0
931 -23 218 0
-932 -23 0
-932 218 0
932 23 -218 0
-933 -931 0
-933 -932 0
933 931 932 0
934 -1396 0
-934 1396 0
-935 933 0
-935 934 0
935 -933 -934 0
-936 930 0
-936 -935 0
936 -930 935 0
-937 -933 0
-937 -934 0
937 933 934 0
-938 936 0
-938 -937 0
938 -936 937 0
-939 42 0
-939 -934 0
939 -42 934 0
-940 -42 0
-940 934 0
940 42 -934 0
-941 -939 0
-941 -940 0
941 939 940 0
-942 938 0
-942 941 0
942 -938 -941 0
-943 -873 0
-943 942 0
943 873 -942 0
-944 -875 0
-944 943 0
944 875 -943 0
-945 22 0
-945 -872 0
945 -22 872 0
-946 -22 0
-946 872 0
946 22 -872 0
-947 -945 0
-947 -946 0
947 945 946 0
-948 944 0
-948 947 0
948 -944 -947 0
-949 -298 0
-949 948 0
949 298 -948 0
-950 -300 0
-950 949 0
950 300 -949 0
-951 21 0
-951 -297 0
951 -21 297 0
-952 -21 0
-952 297 0
952 21 -297 0
-953 -951 0
-953 -952 0
953 951 952 0
-954 950 0
-954 953 0
954 -950 -953 0
-955 -267 0
-955 954 0
955 267 -954 0
-956 -269 0
-956 955 0
956 269 -955 0
-957 20 0
-957 -266 0
957 -20 266 0
-958 -20 0
-958 266 0
958 20 -266 0
-959 -957 0
-959 -958 0
959 957 958 0
960 -1397 0
-960 1397 0
-961 959 0
-961 960 0
961 -959 -960 0
-962 956 0
-962 -961 0
962 -956 961 0
-963 -959 0
-963 -960 0
963 959 960 0
-964 962 0
-964 -963 0
964 -962 963 0
-965 41 0
-965 -960 0
965 -41 960 0
-966 -41 0
-966 960 0
966 41 -960 0
-967 -965 0
-967 -966 0
967 965 966 0
-968 964 0
-968 967 0
968 -964 -967 0
969 -1398 0
-969 1398 0
-970 25 0
-970 -969 0
970 -25 969 0
-971 968 0
-971 -970 0
971 -968 970 0
-972 -25 0
-972 969 0
972 25 -969 0
-973 971 0
-973 -972 0
973 -971 972 0
-974 19 0
-974 -969 0
974 -19 969 0
-975 -19 0
-975 969 0
975 19 -969 0
-976 -974 0
-976 -975 0
976 974 975 0
977 -1399 0
-977 1399 0
-978 976 0
-978 977 0
978 -976 -977 0
-979 973 0
-979 -978 0
979 -973 978 0
-980 -976 0
-980 -977 0
980 976 977 0
-981 979 0
-981 -980 0
981 -979 980 0
-982 40 0
-982 -977 0
982 -40 977 0
-983 -40 0
-983 977 0
983 40 -977 0
-984 -982 0
-984 -983 0
984 982 983 0
-985 981 0
-985 984 0
985 -981 -984 0
-986 -346 0
-986 985 0
986 346 -985 0
-987 -348 0
-987 986 0
987 348 -986 0
-988 18 0
-988 -345 0
988 -18 345 0
-989 -18 0
-989 345 0
989 18 -345 0
-990 -988 0
-990 -989 0
990 988 989 0
991 -1400 0
-991 1400 0
-992 990 0
-992 991 0
992 -990 -991 0
-993 987 0
-993 -992 0
993 -987 992 0
-994 -990 0
-994 -991 0
994 990 991 0
-995 993 0
-995 -994 0
995 -993 994 0
-996 39 0
-996 -991 0
996 -39 991 0
-997 -39 0
-997 991 0
997 39 -991 0
-998 -996 0
-998 -997 0
998 996 997 0
-999 995 0
-999 998 0
999 -995 -998 0
-1000 -315 0
-1000 999 0
1000 315 -999 0
-1001 -317 0
-1001 1000 0
1001 317 -1000 0
-1002 17 0
-1002 -314 0
1002 -17 314 0
-1003 -17 0
-1003 314 0
1003 17 -314 0
-1004 -1002 0
-1004 -1003 0
1004 1002 1003 0
1005 -1401 0
-1005 1401 0
-1006 1004 0
-1006 1005 0
1006 -1004 -1005 0
-1007 1001 0
-1007 -1006 0
1007 -1001 1006 0
-1008 -1004 0
-1008 -1005 0
1008 1004 1005 0
-1009 1007 0
-1009 -1008 0
1009 -1007 1008 0
-1010 38 0
-1010 -1005 0
1010 -38 1005 0
-1011 -38 0
-1011 1005 0
1011 38 -1005 0
-1012 -1010 0
-1012 -1011 0
1012 1010 1011 0
-1013 1009 0
-1013 1012 0
1013 -1009 -1012 0
-1014 -667 0
-1014 1013 0
1014 667 -1013 0
-1015 -669 0
-1015 1014 0
1015 669 -1014 0
-1016 16 0
-1016 -666 0
1016 -16 666 0
-1017 -16 0
-1017 666 0
1017 16 -666 0
-1018 -1016 0
-1018 -1017 0
1018 1016 1017 0
1019 -1402 0
-1019 1402 0
-1020 1018 0
-1020 1019 0
1020 -1018 -1019 0
-1021 1015 0
-1021 -1020 0
1021 -1015 1020 0
-1022 -1018 0
-1022 -1019 0
1022 1018 1019 0
-1023 1021 0
-1023 -1022 0
1023 -1021 1022 0
-1024 37 0
-1024 -1019 0
1024 -37 1019 0
-1025 -37 0
-1025 1019 0
1025 37 -1019 0
-1026 -1024 0
-1026 -1025 0
1026 1024 1025 0
-1027 1023 0
-1027 1026 0
1027 -1023 -1026 0
-1028 -394 0
-1028 1027 0
1028 394 -1027 0
-1029 -396 0
-1029 1028 0
1029 396 -1028 0
-1030 15 0
-1030 -393 0
1030 -15 393 0
-1031 -15 0
-1031 393 0
1031 15 -393 0
-1032 -1030 0
-1032 -1031 0
1032 1030 1031 0
1033 -1403 0
-1033 1403 0
-1034 1032 0
-1034 1033 0
1034 -1032 -1033 0
-1035 1029 0
-1035 -1034 0
1035 -1029 1034 0
-1036 -1032 0
-1036 -1033 0
1036 1032 1033 0
-1037 1035 0
-1037 -1036 0
1037 -1035 1036 0
-1038 36 0
-1038 -1033 0
1038 -36 1033 0
-1039 -36 0
-1039 1033 0
1039 36 -1033 0
-1040 -1038 0
-1040 -1039 0
1040 1038 1039 0
-1041 1037 0
-1041 1040 0
1041 -1037 -1040 0
-1042 -363 0
-1042 1041 0
1042 363 -1041 0
-1043 -365 0
-1043 1042 0
1043 365 -1042 0
-1044 14 0
-1044 -362 0
1044 -14 362 0
-1045 -14 0
-1045 362 0
1045 14 -362 0
-1046 -1044 0
-1046 -1045 0
1046 1044 1045 0
1047 -1404 0
-1047 1404 0
-1048 1046 0
-1048 1047 0
1048 -1046 -1047 0
-1049 1043 0
-1049 -1048 0
1049 -1043 1048 0
-1050 -1046 0
-1050 -1047 0
1050 1046 1047 0
-1051 1049 0
-1051 -1050 0
1051 -1049 1050 0
-1052 35 0
-1052 -1047 0
1052 -35 1047 0
-1053 -35 0
-1053 1047 0
1053 35 -1047 0
-1054 -1052 0
-1054 -1053 0
1054 1052 1053 0
-1055 1051 0
-1055 1054 0
1055 -1051 -1054 0
-1056 -420 0
-1056 1055 0
1056 420 -1055 0
-1057 -422 0
-1057 1056 0
1057 422 -1056 0
-1058 13 0
-1058 -419 0
1058 -13 419 0
-1059 -13 0
-1059 419 0
1059 13 -419 0
-1060 -1058 0
-1060 -1059 0
1060 1058 1059 0
1061 -1405 0
-1061 1405 0
-1062 1060 0
-1062 1061 0
1062 -1060 -1061 0
-1063 1057 0
-1063 -1062 0
1063 -1057 1062 0
-1064 -1060 0
-1064 -1061 0
1064 1060 1061 0
-1065 1063 0
-1065 -1064 0
1065 -1063 1064 0
-1066 34 0
-1066 -1061 0
1066 -34 1061 0
-1067 -34 0
-1067 1061 0
1067 34 -1061 0
-1068 -1066 0
-1068 -1067 0
1068 1066 1067 0
-1069 1065 0
-1069 1068 0
1069 -1065 -1068 0
-1070 -411 0
-1070 1069 0
1070 411 -1069 0
-1071 -413 0
-1071 1070 0
1071 413 -1070 0
-1072 12 0
-1072 -410 0
1072 -12 410 0
-1073 -12 0
-1073 410 0
1073 12 -410 0
-1074 -1072 0
-1074 -1073 0
1074 1072 1073 0
1075 -1406 0
-1075 1406 0
-1076 1074 0
-1076 1075 0
1076 -1074 -1075 0
-1077 1071 0
-1077 -1076 0
1077 -1071 1076 0
-1078 -1074 0
-1078 -1075 0
1078 1074 1075 0
-1079 1077 0
-1079 -1078 0
1079 -1077 1078 0
-1080 33 0
-1080 -1075 0
1080 -33 1075 0
-1081 -33 0
-1081 1075 0
1081 33 -1075 0
-1082 -1080 0
-1082 -1081 0
1082 1080 1081 0
-1083 1079 0
-1083 1082 0
1083 -1079 -1082 0
-1084 -708 0
-1084 1083 0
1084 708 -1083 0
-1085 -710 0
-1085 1084 0
1085 710 -1084 0
-1086 11 0
-1086 -707 0
1086 -11 707 0
-1087 -11 0
-1087 707 0
1087 11 -707 0
-1088 -1086 0
-1088 -1087 0
1088 1086 1087 0
1089 -1407 0
-1089 1407 0
-1090 1088 0
-1090 1089 0
1090 -1088 -1089 0
-1091 1085 0
-1091 -1090 0
1091 -1085 1090 0
-1092 -1088 0
-1092 -1089 0
1092 1088 1089 0
-1093 1091 0
-1093 -1092 0
1093 -1091 1092 0
-1094 32 0
-1094 -1089 0
1094 -32 1089 0
-1095 -32 0
-1095 1089 0
1095 32 -1089 0
-1096 -1094 0
-1096 -1095 0
1096 1094 1095 0
-1097 1093 0
-1097 1096 0
1097 -1093 -1096 0
-1098 -452 0
-1098 1097 0
1098 452 -1097 0
-1099 -454 0
-1099 1098 0
1099 454 -1098 0
-1100 10 0
-1100 -451 0
1100 -10 451 0
-1101 -10 0
-1101 451 0
1101 10 -451 0
-1102 -1100 0
-1102 -1101 0
1102 1100 1101 0
1103 -1408 0
-1103 1408 0
-1104 1102 0
-1104 1103 0
1104 -1102 -1103 0
-1105 1099 0
-1105 -1104 0
1105 -1099 1104 0
-1106 -1102 0
-1106 -1103 0
1106 1102 1103 0
-1107 1105 0
-1107 -1106 0
1107 -1105 1106 0
-1108 31 0
-1108 -1103 0
1108 -31 1103 0
-1109 -31 0
-1109 1103 0
1109 31 -1103 0
-1110 -1108 0
-1110 -1109 0
1110 1108 1109 0
-1111 1107 0
-1111 1110 0
1111 -1107 -1110 0
-1112 -443 0
-1112 1111 0
1112 443 -1111 0
-1113 -445 0
-1113 1112 0
1113 445 -1112 0
-1114 9 0
-1114 -442 0
1114 -9 442 0
-1115 -9 0
-1115 442 0
1115 9 -442 0
-1116 -1114 0
-1116 -1115 0
1116 1114 1115 0
1117 -1409 0
-1117 1409 0
-1118 1116 0
-1118 1117 0
1118 -1116 -1117 0
-1119 1113 0
-1119 -1118 0
1119 -1113 1118 0
-1120 -1116 0
-1120 -1117 0
1120 1116 1117 0
-1121 1119 0
-1121 -1120 0
1121 -1119 1120 0
-1122 30 0
-1122 -1117 0
1122 -30 1117 0
-1123 -30 0
-1123 1117 0
1123 30 -1117 0
-1124 -1122 0
-1124 -1123 0
1124 1122 1123 0
-1125 1121 0
-1125 1124 0
1125 -1121 -1124 0
1126 -1410 0
-1126 1410 0
-1127 14 0
-1127 -1126 0
1127 -14 1126 0
-1128 1125 0
-1128 -1127 0
1128 -1125 1127 0
-1129 -14 0
-1129 1126 0
1129 14 -1126 0
-1130 1128 0
-1130 -1129 0
1130 -1128 1129 0
-1131 8 0
-1131 -1126 0
1131 -8 1126 0
-1132 -8 0
-1132 1126 0
1132 8 -1126 0
-1133 -1131 0
-1133 -1132 0
1133 1131 1132 0
1134 -1411 0
-1134 1411 0
-1135 1133 0
-1135 1134 0
1135 -1133 -1134 0
-1136 1130 0
-1136 -1135 0
1136 -1130 1135 0
-1137 -1133 0
-1137 -1134 0
1137 1133 1134 0
-1138 1136 0
-1138 -1137 0
1138 -1136 1137 0
-1139 29 0
-1139 -1134 0
1139 -29 1134 0
-1140 -29 0
-1140 1134 0
1140 29 -1134 0
-1141 -1139 0
-1141 -1140 0
1141 1139 1140 0
-1142 1138 0
-1142 1141 0
1142 -1138 -1141 0
-1143 -492 0
-1143 1142 0
1143 492 -1142 0
-1144 -494 0
-1144 1143 0
1144 494 -1143 0
-1145 7 0
-1145 -491 0
1145 -7 491 0
-1146 -7 0
-1146 491 0
1146 7 -491 0
-1147 -1145 0
-1147 -1146 0
1147 1145 1146 0
1148 -1412 0
-1148 1412 0
-1149 1147 0
-1149 1148 0
1149 -1147 -1148 0
-1150 1144 0
-1150 -1149 0
1150 -1144 1149 0
-1151 -1147 0
-1151 -1148 0
1151 1147 1148 0
-1152 1150 0
-1152 -1151 0
1152 -1150 1151 0
-1153 28 0
-1153 -1148 0
1153 -28 1148 0
-1154 -28 0
-1154 1148 0
1154 28 -1148 0
-1155 -1153 0
-1155 -1154 0
1155 1153 1154 0
-1156 1152 0
-1156 1155 0
1156 -1152 -1155 0
-1157 -475 0
-1157 1156 0
1157 475 -1156 0
-1158 -477 0
-1158 1157 0
1158 477 -1157 0
-1159 6 0
-1159 -474 0
1159 -6 474 0
-1160 -6 0
-1160 474 0
1160 6 -474 0
-1161 -1159 0
-1161 -1160 0
1161 1159 1160 0
1162 -1413 0
-1162 1413 0
-1163 1161 0
-1163 1162 0
1163 -1161 -1162 0
-1164 1158 0
-1164 -1163 0
1164 -1158 1163 0
-1165 -1161 0
-1165 -1162 0
1165 1161 1162 0
-1166 1164 0
-1166 -1165 0
1166 -1164 1165 0
-1167 27 0
-1167 -1162 0
1167 -27 1162 0
-1168 -27 0
-1168 1162 0
1168 27 -1162 0
-1169 -1167 0
-1169 -1168 0
1169 1167 1168 0
-1170 1166 0
-1170 1169 0
1170 -1166 -1169 0
1171 -1414 0
-1171 1414 0
-1172 11 0
-1172 -1171 0
1172 -11 1171 0
-1173 1170 0
-1173 -1172 0
1173 -1170 1172 0
-1174 -11 0
-1174 1171 0
1174 11 -1171 0
-1175 1173 0
-1175 -1174 0
1175 -1173 1174 0
-1176 5 0
-1176 -1171 0
1176 -5 1171 0
-1177 -5 0
-1177 1171 0
1177 5 -1171 0
-1178 -1176 0
-1178 -1177 0
1178 1176 1177 0
1179 -1415 0
-1179 1415 0
-1180 1178 0
-1180 1179 0
1180 -1178 -1179 0
-1181 1175 0
-1181 -1180 0
1181 -1175 1180 0
-1182 -1178 0
-1182 -1179 0
1182 1178 1179 0
-1183 1181 0
-1183 -1182 0
1183 -1181 1182 0
-1184 26 0
-1184 -1179 0
1184 -26 1179 0
-1185 -26 0
-1185 1179 0
1185 26 -1179 0
-1186 -1184 0
-1186 -1185 0
1186 1184 1185 0
-1187 1183 0
-1187 1186 0
1187 -1183 -1186 0
-1188 -540 0
-1188 1187 0
1188 540 -1187 0
-1189 -542 0
-1189 1188 0
1189 542 -1188 0
-1190 4 0
-1190 -539 0
1190 -4 539 0
-1191 -4 0
-1191 539 0
1191 4 -539 0
-1192 -1190 0
-1192 -1191 0
1192 1190 1191 0
1193 -1416 0
-1193 1416 0
-1194 1192 0
-1194 1193 0
1194 -1192 -1193 0
-1195 1189 0
-1195 -1194 0
1195 -1189 1194 0
-1196 -1192 0
-1196 -1193 0
1196 1192 1193 0
-1197 1195 0
-1197 -1196 0
1197 -1195 1196 0
-1198 25 0
-1198 -1193 0
1198 -25 1193 0
-1199 -25 0
-1199 1193 0
1199 25 -1193 0
-1200 -1198 0
-1200 -1199 0
1200 1198 1199 0
-1201 1197 0
-1201 1200 0
1201 -1197 -1200 0
-1202 -523 0
-1202 1201 0
1202 523 -1201 0
-1203 -525 0
-1203 1202 0
1203 525 -1202 0
-1204 3 0
-1204 -522 0
1204 -3 522 0
-1205 -3 0
-1205 522 0
1205 3 -522 0
-1206 -1204 0
-1206 -1205 0
1206 1204 1205 0
1207 -1417 0
-1207 1417 0
-1208 1206 0
-1208 1207 0
1208 -1206 -1207 0
-1209 1203 0
-1209 -1208 0
1209 -1203 1208 0
-1210 -1206 0
-1210 -1207 0
1210 1206 1207 0
-1211 1209 0
-1211 -1210 0
1211 -1209 1210 0
-1212 24 0
-1212 -1207 0
1212 -24 1207 0
-1213 -24 0
-1213 1207 0
1213 24 -1207 0
-1214 -1212 0
-1214 -1213 0
1214 1212 1213 0
-1215 1211 0
-1215 1214 0
1215 -1211 -1214 0
1216 -1418 0
-1216 1418 0
-1217 8 0
-1217 -1216 0
1217 -8 1216 0
-1218 1215 0
-1218 -1217 0
1218 -1215 1217 0
-1219 -8 0
-1219 1216 0
1219 8 -1216 0
-1220 1218 0
-1220 -1219 0
1220 -1218 1219 0
-1221 2 0
-1221 -1216 0
1221 -2 1216 0
-1222 -2 0
-1222 1216 0
1222 2 -1216 0
-1223 -1221 0
-1223 -1222 0
1223 1221 1222 0
1224 -1419 0
-1224 1419 0
-1225 1223 0
-1225 1224 0
1225 -1223 -1224 0
-1226 1220 0
-1226 -1225 0
1226 -1220 1225 0
-1227 -1223 0
-1227 -1224 0
1227 1223 1224 0
-1228 1226 0
-1228 -1227 0
1228 -1226 1227 0
-1229 23 0
-1229 -1224 0
1229 -23 1224 0
-1230 -23 0
-1230 1224 0
1230 23 -1224 0
-1231 -1229 0
-1231 -1230 0
1231 1229 1230 0
-1232 1228 0
-1232 1231 0
1232 -1228 -1231 0
-1233 -2 0
-1233 -3 0
1233 2 3 0
-1234 -4 0
-1234 1233 0
1234 4 -1233 0
-1235 -5 0
-1235 1234 0
1235 5 -1234 0
-1236 -6 0
-1236 1235 0
1236 6 -1235 0
-1237 -7 0
-1237 1236 0
1237 7 -1236 0
-1238 -8 0
-1238 1237 0
1238 8 -1237 0
-1239 -9 0
-1239 1238 0
1239 9 -1238 0
-1240 -10 0
-1240 1239 0
1240 10 -1239 0
-1241 -11 0
-1241 1240 0
1241 11 -1240 0
-1242 -12 0
-1242 1241 0
1242 12 -1241 0
-1243 -13 0
-1243 1242 0
1243 13 -1242 0
-1244 -14 0
-1244 1243 0
1244 14 -1243 0
-1245 -15 0
-1245 1244 0
1245 15 -1244 0
-1246 -16 0
-1246 1245 0
1246 16 -1245 0
-1247 -17 0
-1247 1246 0
1247 17 -1246 0
-1248 -18 0
-1248 1247 0
1248 18 -1247 0
-1249 -19 0
-1249 1248 0
1249 19 -1248 0
-1250 -20 0
-1250 1249 0
1250 20 -1249 0
-1251 -21 0
-1251 1250 0
1251 21 -1250 0
-1252 -22 0
-1252 1251 0
1252 22 -1251 0
-1253 -24 0
-1253 1252 0
1253 24 -1252 0
-1254 -25 0
-1254 1253 0
1254 25 -1253 0
-1255 -27 0
-1255 1254 0
1255 27 -1254 0
-1256 -28 0
-1256 1255 0
1256 28 -1255 0
-1257 -29 0
-1257 1256 0
1257 29 -1256 0
-1258 -30 0
-1258 1257 0
1258 30 -1257 0
-1259 -31 0
-1259 1258 0
1259 31 -1258 0
-1260 -32 0
-1260 1259 0
1260 32 -1259 0
-1261 -33 0
-1261 1260 0
1261 33 -1260 0
-1262 -34 0
-1262 1261 0
1262 34 -1261 0
-1263 -35 0
-1263 1262 0
1263 35 -1262 0
-1264 -36 0
-1264 1263 0
1264 36 -1263 0
-1265 -37 0
-1265 1264 0
1265 37 -1264 0
-1266 -38 0
-1266 1265 0
1266 38 -1265 0
-1267 -39 0
-1267 1266 0
1267 39 -1266 0
-1268 -40 0
-1268 1267 0
1268 40 -1267 0
-1269 -41 0
-1269 1268 0
1269 41 -1268 0
-1270 -42 0
-1270 1269 0
1270 42 -1269 0
-1271 1232 0
-1271 -1270 0
1271 -1232 1270 0
1271 0
