p cnf 1352 3482
14 -1222 0
-14 1222 0
153 -1248 0
-153 1248 0
-156 -14 0
-156 153 0
156 14 -153 0
-154 14 0
-154 -153 0
154 -14 153 0
15 -1223 0
-15 1223 0
128 -1245 0
-128 1245 0
-131 -15 0
-131 128 0
131 15 -128 0
-129 15 0
-129 -128 0
129 -15 128 0
16 -1224 0
-16 1224 0
103 -1242 0
-103 1242 0
-106 -16 0
-106 103 0
106 16 -103 0
-104 16 0
-104 -103 0
104 -16 103 0
17 -1225 0
-17 1225 0
78 -1239 0
-78 1239 0
-81 -17 0
-81 78 0
81 17 -78 0
-79 17 0
-79 -78 0
79 -17 78 0
18 -1226 0
-18 1226 0
53 -1236 0
-53 1236 0
-56 -18 0
-56 53 0
56 18 -53 0
-54 18 0
-54 -53 0
54 -18 53 0
19 -1227 0
-19 1227 0
659 -1306 0
-659 1306 0
-662 -19 0
-662 659 0
662 19 -659 0
-660 19 0
-660 -659 0
660 -19 659 0
20 -1228 0
-20 1228 0
634 -1303 0
-634 1303 0
-637 -20 0
-637 634 0
637 20 -634 0
-635 20 0
-635 -634 0
635 -20 634 0
21 -1229 0
-21 1229 0
503 -1288 0
-503 1288 0
-506 -21 0
-506 503 0
506 21 -503 0
-504 21 0
-504 -503 0
504 -21 503 0
2 -1210 0
-2 1210 0
-508 2 0
-508 -503 0
508 -2 503 0
-509 -2 0
-509 503 0
509 2 -503 0
-510 -508 0
-510 -509 0
510 508 509 0
511 -1289 0
-511 1289 0
-514 -510 0
-514 -511 0
514 510 511 0
-512 510 0
-512 511 0
512 -510 -511 0
22 -1230 0
-22 1230 0
587 -1298 0
-587 1298 0
-590 -22 0
-590 587 0
590 22 -587 0
-588 22 0
-588 -587 0
588 -22 587 0
23 -1231 0
-23 1231 0
562 -1295 0
-562 1295 0
-565 -23 0
-565 562 0
565 23 -562 0
-563 23 0
-563 -562 0
563 -23 562 0
24 -1232 0
-24 1232 0
537 -1292 0
-537 1292 0
-540 -24 0
-540 537 0
540 24 -537 0
-538 24 0
-538 -537 0
538 -24 537 0
25 -1233 0
-25 1233 0
520 -1290 0
-520 1290 0
-523 -25 0
-523 520 0
523 25 -520 0
-521 25 0
-521 -520 0
521 -25 520 0
328 -1269 0
-328 1269 0
-333 2 0
-333 -328 0
333 -2 328 0
-334 -2 0
-334 328 0
334 2 -328 0
-335 -333 0
-335 -334 0
335 333 334 0
336 -1270 0
-336 1270 0
-339 -335 0
-339 -336 0
339 335 336 0
-337 335 0
-337 336 0
337 -335 -336 0
7 -1215 0
-7 1215 0
-331 -7 0
-331 328 0
331 7 -328 0
-329 7 0
-329 -328 0
329 -7 328 0
3 -1211 0
-3 1211 0
303 -1266 0
-303 1266 0
-308 3 0
-308 -303 0
308 -3 303 0
-309 -3 0
-309 303 0
309 3 -303 0
-310 -308 0
-310 -309 0
310 308 309 0
311 -1267 0
-311 1267 0
-314 -310 0
-314 -311 0
314 310 311 0
-312 310 0
-312 311 0
312 -310 -311 0
8 -1216 0
-8 1216 0
-306 -8 0
-306 303 0
306 8 -303 0
-304 8 0
-304 -303 0
304 -8 303 0
439 -1281 0
-439 1281 0
-444 2 0
-444 -439 0
444 -2 439 0
-445 -2 0
-445 439 0
445 2 -439 0
-446 -444 0
-446 -445 0
446 444 445 0
447 -1282 0
-447 1282 0
-450 -446 0
-450 -447 0
450 446 447 0
-448 446 0
-448 447 0
448 -446 -447 0
4 -1212 0
-4 1212 0
-442 -4 0
-442 439 0
442 4 -439 0
-440 4 0
-440 -439 0
440 -4 439 0
478 -1285 0
-478 1285 0
-483 2 0
-483 -478 0
483 -2 478 0
-484 -2 0
-484 478 0
484 2 -478 0
-485 -483 0
-485 -484 0
485 483 484 0
486 -1286 0
-486 1286 0
-489 -485 0
-489 -486 0
489 485 486 0
-487 485 0
-487 486 0
487 -485 -486 0
-481 -3 0
-481 478 0
481 3 -478 0
-479 3 0
-479 -478 0
479 -3 478 0
-466 3 0
-466 -439 0
466 -3 439 0
-467 -3 0
-467 439 0
467 3 -439 0
-468 -466 0
-468 -467 0
468 466 467 0
469 -1284 0
-469 1284 0
-472 -468 0
-472 -469 0
472 468 469 0
-470 468 0
-470 469 0
470 -468 -469 0
5 -1213 0
-5 1213 0
414 -1278 0
-414 1278 0
-417 -5 0
-417 414 0
417 5 -414 0
-415 5 0
-415 -414 0
415 -5 414 0
6 -1214 0
-6 1214 0
389 -1275 0
-389 1275 0
-392 -6 0
-392 389 0
392 6 -389 0
-390 6 0
-390 -389 0
390 -6 389 0
9 -1217 0
-9 1217 0
278 -1263 0
-278 1263 0
-281 -9 0
-281 278 0
281 9 -278 0
-279 9 0
-279 -278 0
279 -9 278 0
10 -1218 0
-10 1218 0
253 -1260 0
-253 1260 0
-256 -10 0
-256 253 0
256 10 -253 0
-254 10 0
-254 -253 0
254 -10 253 0
11 -1219 0
-11 1219 0
228 -1257 0
-228 1257 0
-231 -11 0
-231 228 0
231 11 -228 0
-229 11 0
-229 -228 0
229 -11 228 0
12 -1220 0
-12 1220 0
203 -1254 0
-203 1254 0
-206 -12 0
-206 203 0
206 12 -203 0
-204 12 0
-204 -203 0
204 -12 203 0
13 -1221 0
-13 1221 0
178 -1251 0
-178 1251 0
-181 -13 0
-181 178 0
181 13 -178 0
-179 13 0
-179 -178 0
179 -13 178 0
27 -1235 0
-27 1235 0
26 -1234 0
-26 1234 0
-28 -2 0
-28 -3 0
28 2 3 0
-29 -4 0
-29 28 0
29 4 -28 0
-30 -5 0
-30 29 0
30 5 -29 0
-31 -6 0
-31 30 0
31 6 -30 0
-32 -7 0
-32 31 0
32 7 -31 0
-33 -8 0
-33 32 0
33 8 -32 0
-34 -9 0
-34 33 0
34 9 -33 0
-35 -10 0
-35 34 0
35 10 -34 0
-36 -11 0
-36 35 0
36 11 -35 0
-37 -12 0
-37 36 0
37 12 -36 0
-38 -13 0
-38 37 0
38 13 -37 0
-39 -14 0
-39 38 0
39 14 -38 0
-40 -15 0
-40 39 0
40 15 -39 0
-41 -16 0
-41 40 0
41 16 -40 0
-42 -17 0
-42 41 0
42 17 -41 0
-43 -18 0
-43 42 0
43 18 -42 0
-44 -19 0
-44 43 0
44 19 -43 0
-45 -20 0
-45 44 0
45 20 -44 0
-46 -21 0
-46 45 0
46 21 -45 0
-47 -22 0
-47 46 0
47 22 -46 0
-48 -23 0
-48 47 0
48 23 -47 0
-49 -24 0
-49 48 0
49 24 -48 0
-50 -25 0
-50 49 0
50 25 -49 0
-51 -26 0
-51 50 0
51 26 -50 0
-52 -27 0
-52 51 0
52 27 -51 0
-55 -52 0
-55 -54 0
55 52 54 0
-57 55 0
-57 -56 0
57 -55 56 0
-58 13 0
-58 -53 0
58 -13 53 0
-59 -13 0
-59 53 0
59 13 -53 0
-60 -58 0
-60 -59 0
60 58 59 0
61 -1237 0
-61 1237 0
-62 60 0
-62 61 0
62 -60 -61 0
-63 57 0
-63 -62 0
63 -57 62 0
-64 -60 0
-64 -61 0
64 60 61 0
-65 63 0
-65 -64 0
65 -63 64 0
-66 20 0
-66 -61 0
66 -20 61 0
-67 -20 0
-67 61 0
67 20 -61 0
-68 -66 0
-68 -67 0
68 66 67 0
69 -1238 0
-69 1238 0
-70 68 0
-70 69 0
70 -68 -69 0
-71 65 0
-71 -70 0
71 -65 70 0
-72 -68 0
-72 -69 0
72 68 69 0
-73 71 0
-73 -72 0
73 -71 72 0
-74 21 0
-74 -69 0
74 -21 69 0
-75 -21 0
-75 69 0
75 21 -69 0
-76 -74 0
-76 -75 0
76 74 75 0
-77 73 0
-77 76 0
77 -73 -76 0
-80 77 0
-80 -79 0
80 -77 79 0
-82 80 0
-82 -81 0
82 -80 81 0
-83 12 0
-83 -78 0
83 -12 78 0
-84 -12 0
-84 78 0
84 12 -78 0
-85 -83 0
-85 -84 0
85 83 84 0
86 -1240 0
-86 1240 0
-87 85 0
-87 86 0
87 -85 -86 0
-88 82 0
-88 -87 0
88 -82 87 0
-89 -85 0
-89 -86 0
89 85 86 0
-90 88 0
-90 -89 0
90 -88 89 0
-91 19 0
-91 -86 0
91 -19 86 0
-92 -19 0
-92 86 0
92 19 -86 0
-93 -91 0
-93 -92 0
93 91 92 0
94 -1241 0
-94 1241 0
-95 93 0
-95 94 0
95 -93 -94 0
-96 90 0
-96 -95 0
96 -90 95 0
-97 -93 0
-97 -94 0
97 93 94 0
-98 96 0
-98 -97 0
98 -96 97 0
-99 20 0
-99 -94 0
99 -20 94 0
-100 -20 0
-100 94 0
100 20 -94 0
-101 -99 0
-101 -100 0
101 99 100 0
-102 98 0
-102 101 0
102 -98 -101 0
-105 102 0
-105 -104 0
105 -102 104 0
-107 105 0
-107 -106 0
107 -105 106 0
-108 11 0
-108 -103 0
108 -11 103 0
-109 -11 0
-109 103 0
109 11 -103 0
-110 -108 0
-110 -109 0
110 108 109 0
111 -1243 0
-111 1243 0
-112 110 0
-112 111 0
112 -110 -111 0
-113 107 0
-113 -112 0
113 -107 112 0
-114 -110 0
-114 -111 0
114 110 111 0
-115 113 0
-115 -114 0
115 -113 114 0
-116 18 0
-116 -111 0
116 -18 111 0
-117 -18 0
-117 111 0
117 18 -111 0
-118 -116 0
-118 -117 0
118 116 117 0
119 -1244 0
-119 1244 0
-120 118 0
-120 119 0
120 -118 -119 0
-121 115 0
-121 -120 0
121 -115 120 0
-122 -118 0
-122 -119 0
122 118 119 0
-123 121 0
-123 -122 0
123 -121 122 0
-124 19 0
-124 -119 0
124 -19 119 0
-125 -19 0
-125 119 0
125 19 -119 0
-126 -124 0
-126 -125 0
126 124 125 0
-127 123 0
-127 126 0
127 -123 -126 0
-130 127 0
-130 -129 0
130 -127 129 0
-132 130 0
-132 -131 0
132 -130 131 0
-133 10 0
-133 -128 0
133 -10 128 0
-134 -10 0
-134 128 0
134 10 -128 0
-135 -133 0
-135 -134 0
135 133 134 0
136 -1246 0
-136 1246 0
-137 135 0
-137 136 0
137 -135 -136 0
-138 132 0
-138 -137 0
138 -132 137 0
-139 -135 0
-139 -136 0
139 135 136 0
-140 138 0
-140 -139 0
140 -138 139 0
-141 17 0
-141 -136 0
141 -17 136 0
-142 -17 0
-142 136 0
142 17 -136 0
-143 -141 0
-143 -142 0
143 141 142 0
144 -1247 0
-144 1247 0
-145 143 0
-145 144 0
145 -143 -144 0
-146 140 0
-146 -145 0
146 -140 145 0
-147 -143 0
-147 -144 0
147 143 144 0
-148 146 0
-148 -147 0
148 -146 147 0
-149 18 0
-149 -144 0
149 -18 144 0
-150 -18 0
-150 144 0
150 18 -144 0
-151 -149 0
-151 -150 0
151 149 150 0
-152 148 0
-152 151 0
152 -148 -151 0
-155 152 0
-155 -154 0
155 -152 154 0
-157 155 0
-157 -156 0
157 -155 156 0
-158 9 0
-158 -153 0
158 -9 153 0
-159 -9 0
-159 153 0
159 9 -153 0
-160 -158 0
-160 -159 0
160 158 159 0
161 -1249 0
-161 1249 0
-162 160 0
-162 161 0
162 -160 -161 0
-163 157 0
-163 -162 0
163 -157 162 0
-164 -160 0
-164 -161 0
164 160 161 0
-165 163 0
-165 -164 0
165 -163 164 0
-166 16 0
-166 -161 0
166 -16 161 0
-167 -16 0
-167 161 0
167 16 -161 0
-168 -166 0
-168 -167 0
168 166 167 0
169 -1250 0
-169 1250 0
-170 168 0
-170 169 0
170 -168 -169 0
-171 165 0
-171 -170 0
171 -165 170 0
-172 -168 0
-172 -169 0
172 168 169 0
-173 171 0
-173 -172 0
173 -171 172 0
-174 17 0
-174 -169 0
174 -17 169 0
-175 -17 0
-175 169 0
175 17 -169 0
-176 -174 0
-176 -175 0
176 174 175 0
-177 173 0
-177 176 0
177 -173 -176 0
-180 177 0
-180 -179 0
180 -177 179 0
-182 180 0
-182 -181 0
182 -180 181 0
-183 8 0
-183 -178 0
183 -8 178 0
-184 -8 0
-184 178 0
184 8 -178 0
-185 -183 0
-185 -184 0
185 183 184 0
186 -1252 0
-186 1252 0
-187 185 0
-187 186 0
187 -185 -186 0
-188 182 0
-188 -187 0
188 -182 187 0
-189 -185 0
-189 -186 0
189 185 186 0
-190 188 0
-190 -189 0
190 -188 189 0
-191 15 0
-191 -186 0
191 -15 186 0
-192 -15 0
-192 186 0
192 15 -186 0
-193 -191 0
-193 -192 0
193 191 192 0
194 -1253 0
-194 1253 0
-195 193 0
-195 194 0
195 -193 -194 0
-196 190 0
-196 -195 0
196 -190 195 0
-197 -193 0
-197 -194 0
197 193 194 0
-198 196 0
-198 -197 0
198 -196 197 0
-199 16 0
-199 -194 0
199 -16 194 0
-200 -16 0
-200 194 0
200 16 -194 0
-201 -199 0
-201 -200 0
201 199 200 0
-202 198 0
-202 201 0
202 -198 -201 0
-205 202 0
-205 -204 0
205 -202 204 0
-207 205 0
-207 -206 0
207 -205 206 0
-208 7 0
-208 -203 0
208 -7 203 0
-209 -7 0
-209 203 0
209 7 -203 0
-210 -208 0
-210 -209 0
210 208 209 0
211 -1255 0
-211 1255 0
-212 210 0
-212 211 0
212 -210 -211 0
-213 207 0
-213 -212 0
213 -207 212 0
-214 -210 0
-214 -211 0
214 210 211 0
-215 213 0
-215 -214 0
215 -213 214 0
-216 14 0
-216 -211 0
216 -14 211 0
-217 -14 0
-217 211 0
217 14 -211 0
-218 -216 0
-218 -217 0
218 216 217 0
219 -1256 0
-219 1256 0
-220 218 0
-220 219 0
220 -218 -219 0
-221 215 0
-221 -220 0
221 -215 220 0
-222 -218 0
-222 -219 0
222 218 219 0
-223 221 0
-223 -222 0
223 -221 222 0
-224 15 0
-224 -219 0
224 -15 219 0
-225 -15 0
-225 219 0
225 15 -219 0
-226 -224 0
-226 -225 0
226 224 225 0
-227 223 0
-227 226 0
227 -223 -226 0
-230 227 0
-230 -229 0
230 -227 229 0
-232 230 0
-232 -231 0
232 -230 231 0
-233 6 0
-233 -228 0
233 -6 228 0
-234 -6 0
-234 228 0
234 6 -228 0
-235 -233 0
-235 -234 0
235 233 234 0
236 -1258 0
-236 1258 0
-237 235 0
-237 236 0
237 -235 -236 0
-238 232 0
-238 -237 0
238 -232 237 0
-239 -235 0
-239 -236 0
239 235 236 0
-240 238 0
-240 -239 0
240 -238 239 0
-241 13 0
-241 -236 0
241 -13 236 0
-242 -13 0
-242 236 0
242 13 -236 0
-243 -241 0
-243 -242 0
243 241 242 0
244 -1259 0
-244 1259 0
-245 243 0
-245 244 0
245 -243 -244 0
-246 240 0
-246 -245 0
246 -240 245 0
-247 -243 0
-247 -244 0
247 243 244 0
-248 246 0
-248 -247 0
248 -246 247 0
-249 14 0
-249 -244 0
249 -14 244 0
-250 -14 0
-250 244 0
250 14 -244 0
-251 -249 0
-251 -250 0
251 249 250 0
-252 248 0
-252 251 0
252 -248 -251 0
-255 252 0
-255 -254 0
255 -252 254 0
-257 255 0
-257 -256 0
257 -255 256 0
-258 5 0
-258 -253 0
258 -5 253 0
-259 -5 0
-259 253 0
259 5 -253 0
-260 -258 0
-260 -259 0
260 258 259 0
261 -1261 0
-261 1261 0
-262 260 0
-262 261 0
262 -260 -261 0
-263 257 0
-263 -262 0
263 -257 262 0
-264 -260 0
-264 -261 0
264 260 261 0
-265 263 0
-265 -264 0
265 -263 264 0
-266 12 0
-266 -261 0
266 -12 261 0
-267 -12 0
-267 261 0
267 12 -261 0
-268 -266 0
-268 -267 0
268 266 267 0
269 -1262 0
-269 1262 0
-270 268 0
-270 269 0
270 -268 -269 0
-271 265 0
-271 -270 0
271 -265 270 0
-272 -268 0
-272 -269 0
272 268 269 0
-273 271 0
-273 -272 0
273 -271 272 0
-274 13 0
-274 -269 0
274 -13 269 0
-275 -13 0
-275 269 0
275 13 -269 0
-276 -274 0
-276 -275 0
276 274 275 0
-277 273 0
-277 276 0
277 -273 -276 0
-280 277 0
-280 -279 0
280 -277 279 0
-282 280 0
-282 -281 0
282 -280 281 0
-283 4 0
-283 -278 0
283 -4 278 0
-284 -4 0
-284 278 0
284 4 -278 0
-285 -283 0
-285 -284 0
285 283 284 0
286 -1264 0
-286 1264 0
-287 285 0
-287 286 0
287 -285 -286 0
-288 282 0
-288 -287 0
288 -282 287 0
-289 -285 0
-289 -286 0
289 285 286 0
-290 288 0
-290 -289 0
290 -288 289 0
-291 11 0
-291 -286 0
291 -11 286 0
-292 -11 0
-292 286 0
292 11 -286 0
-293 -291 0
-293 -292 0
293 291 292 0
294 -1265 0
-294 1265 0
-295 293 0
-295 294 0
295 -293 -294 0
-296 290 0
-296 -295 0
296 -290 295 0
-297 -293 0
-297 -294 0
297 293 294 0
-298 296 0
-298 -297 0
298 -296 297 0
-299 12 0
-299 -294 0
299 -12 294 0
-300 -12 0
-300 294 0
300 12 -294 0
-301 -299 0
-301 -300 0
301 299 300 0
-302 298 0
-302 301 0
302 -298 -301 0
-305 302 0
-305 -304 0
305 -302 304 0
-307 305 0
-307 -306 0
307 -305 306 0
-313 307 0
-313 -312 0
313 -307 312 0
-315 313 0
-315 -314 0
315 -313 314 0
-316 10 0
-316 -311 0
316 -10 311 0
-317 -10 0
-317 311 0
317 10 -311 0
-318 -316 0
-318 -317 0
318 316 317 0
319 -1268 0
-319 1268 0
-320 318 0
-320 319 0
320 -318 -319 0
-321 315 0
-321 -320 0
321 -315 320 0
-322 -318 0
-322 -319 0
322 318 319 0
-323 321 0
-323 -322 0
323 -321 322 0
-324 11 0
-324 -319 0
324 -11 319 0
-325 -11 0
-325 319 0
325 11 -319 0
-326 -324 0
-326 -325 0
326 324 325 0
-327 323 0
-327 326 0
327 -323 -326 0
-330 327 0
-330 -329 0
330 -327 329 0
-332 330 0
-332 -331 0
332 -330 331 0
-338 332 0
-338 -337 0
338 -332 337 0
-340 338 0
-340 -339 0
340 -338 339 0
-341 9 0
-341 -336 0
341 -9 336 0
-342 -9 0
-342 336 0
342 9 -336 0
-343 -341 0
-343 -342 0
343 341 342 0
344 -1271 0
-344 1271 0
-345 343 0
-345 344 0
345 -343 -344 0
-346 340 0
-346 -345 0
346 -340 345 0
-347 -343 0
-347 -344 0
347 343 344 0
-348 346 0
-348 -347 0
348 -346 347 0
-349 10 0
-349 -344 0
349 -10 344 0
-350 -10 0
-350 344 0
350 10 -344 0
-351 -349 0
-351 -350 0
351 349 350 0
-352 348 0
-352 351 0
352 -348 -351 0
-353 -304 0
-353 352 0
353 304 -352 0
-354 -306 0
-354 353 0
354 306 -353 0
-355 6 0
-355 -303 0
355 -6 303 0
-356 -6 0
-356 303 0
356 6 -303 0
-357 -355 0
-357 -356 0
357 355 356 0
358 -1272 0
-358 1272 0
-359 357 0
-359 358 0
359 -357 -358 0
-360 354 0
-360 -359 0
360 -354 359 0
-361 -357 0
-361 -358 0
361 357 358 0
-362 360 0
-362 -361 0
362 -360 361 0
-363 9 0
-363 -358 0
363 -9 358 0
-364 -9 0
-364 358 0
364 9 -358 0
-365 -363 0
-365 -364 0
365 363 364 0
-366 362 0
-366 365 0
366 -362 -365 0
-367 -329 0
-367 366 0
367 329 -366 0
-368 -331 0
-368 367 0
368 331 -367 0
-369 5 0
-369 -328 0
369 -5 328 0
-370 -5 0
-370 328 0
370 5 -328 0
-371 -369 0
-371 -370 0
371 369 370 0
372 -1273 0
-372 1273 0
-373 371 0
-373 372 0
373 -371 -372 0
-374 368 0
-374 -373 0
374 -368 373 0
-375 -371 0
-375 -372 0
375 371 372 0
-376 374 0
-376 -375 0
376 -374 375 0
-377 8 0
-377 -372 0
377 -8 372 0
-378 -8 0
-378 372 0
378 8 -372 0
-379 -377 0
-379 -378 0
379 377 378 0
380 -1274 0
-380 1274 0
-381 379 0
-381 380 0
381 -379 -380 0
-382 376 0
-382 -381 0
382 -376 381 0
-383 -379 0
-383 -380 0
383 379 380 0
-384 382 0
-384 -383 0
384 -382 383 0
-385 27 0
-385 -380 0
385 -27 380 0
-386 -27 0
-386 380 0
386 27 -380 0
-387 -385 0
-387 -386 0
387 385 386 0
-388 384 0
-388 387 0
388 -384 -387 0
-391 388 0
-391 -390 0
391 -388 390 0
-393 391 0
-393 -392 0
393 -391 392 0
-394 4 0
-394 -389 0
394 -4 389 0
-395 -4 0
-395 389 0
395 4 -389 0
-396 -394 0
-396 -395 0
396 394 395 0
397 -1276 0
-397 1276 0
-398 396 0
-398 397 0
398 -396 -397 0
-399 393 0
-399 -398 0
399 -393 398 0
-400 -396 0
-400 -397 0
400 396 397 0
-401 399 0
-401 -400 0
401 -399 400 0
-402 7 0
-402 -397 0
402 -7 397 0
-403 -7 0
-403 397 0
403 7 -397 0
-404 -402 0
-404 -403 0
404 402 403 0
405 -1277 0
-405 1277 0
-406 404 0
-406 405 0
406 -404 -405 0
-407 401 0
-407 -406 0
407 -401 406 0
-408 -404 0
-408 -405 0
408 404 405 0
-409 407 0
-409 -408 0
409 -407 408 0
-410 26 0
-410 -405 0
410 -26 405 0
-411 -26 0
-411 405 0
411 26 -405 0
-412 -410 0
-412 -411 0
412 410 411 0
-413 409 0
-413 412 0
413 -409 -412 0
-416 413 0
-416 -415 0
416 -413 415 0
-418 416 0
-418 -417 0
418 -416 417 0
-419 3 0
-419 -414 0
419 -3 414 0
-420 -3 0
-420 414 0
420 3 -414 0
-421 -419 0
-421 -420 0
421 419 420 0
422 -1279 0
-422 1279 0
-423 421 0
-423 422 0
423 -421 -422 0
-424 418 0
-424 -423 0
424 -418 423 0
-425 -421 0
-425 -422 0
425 421 422 0
-426 424 0
-426 -425 0
426 -424 425 0
-427 6 0
-427 -422 0
427 -6 422 0
-428 -6 0
-428 422 0
428 6 -422 0
-429 -427 0
-429 -428 0
429 427 428 0
430 -1280 0
-430 1280 0
-431 429 0
-431 430 0
431 -429 -430 0
-432 426 0
-432 -431 0
432 -426 431 0
-433 -429 0
-433 -430 0
433 429 430 0
-434 432 0
-434 -433 0
434 -432 433 0
-435 25 0
-435 -430 0
435 -25 430 0
-436 -25 0
-436 430 0
436 25 -430 0
-437 -435 0
-437 -436 0
437 435 436 0
-438 434 0
-438 437 0
438 -434 -437 0
-441 438 0
-441 -440 0
441 -438 440 0
-443 441 0
-443 -442 0
443 -441 442 0
-449 443 0
-449 -448 0
449 -443 448 0
-451 449 0
-451 -450 0
451 -449 450 0
-452 5 0
-452 -447 0
452 -5 447 0
-453 -5 0
-453 447 0
453 5 -447 0
-454 -452 0
-454 -453 0
454 452 453 0
455 -1283 0
-455 1283 0
-456 454 0
-456 455 0
456 -454 -455 0
-457 451 0
-457 -456 0
457 -451 456 0
-458 -454 0
-458 -455 0
458 454 455 0
-459 457 0
-459 -458 0
459 -457 458 0
-460 24 0
-460 -455 0
460 -24 455 0
-461 -24 0
-461 455 0
461 24 -455 0
-462 -460 0
-462 -461 0
462 460 461 0
-463 459 0
-463 462 0
463 -459 -462 0
-464 -440 0
-464 463 0
464 440 -463 0
-465 -442 0
-465 464 0
465 442 -464 0
-471 465 0
-471 -470 0
471 -465 470 0
-473 471 0
-473 -472 0
473 -471 472 0
-474 23 0
-474 -469 0
474 -23 469 0
-475 -23 0
-475 469 0
475 23 -469 0
-476 -474 0
-476 -475 0
476 474 475 0
-477 473 0
-477 476 0
477 -473 -476 0
-480 477 0
-480 -479 0
480 -477 479 0
-482 480 0
-482 -481 0
482 -480 481 0
-488 482 0
-488 -487 0
488 -482 487 0
-490 488 0
-490 -489 0
490 -488 489 0
-491 22 0
-491 -486 0
491 -22 486 0
-492 -22 0
-492 486 0
492 22 -486 0
-493 -491 0
-493 -492 0
493 491 492 0
494 -1287 0
-494 1287 0
-495 493 0
-495 494 0
495 -493 -494 0
-496 490 0
-496 -495 0
496 -490 495 0
-497 -493 0
-497 -494 0
497 493 494 0
-498 496 0
-498 -497 0
498 -496 497 0
-499 27 0
-499 -494 0
499 -27 494 0
-500 -27 0
-500 494 0
500 27 -494 0
-501 -499 0
-501 -500 0
501 499 500 0
-502 498 0
-502 501 0
502 -498 -501 0
-505 502 0
-505 -504 0
505 -502 504 0
-507 505 0
-507 -506 0
507 -505 506 0
-513 507 0
-513 -512 0
513 -507 512 0
-515 513 0
-515 -514 0
515 -513 514 0
-516 26 0
-516 -511 0
516 -26 511 0
-517 -26 0
-517 511 0
517 26 -511 0
-518 -516 0
-518 -517 0
518 516 517 0
-519 515 0
-519 518 0
519 -515 -518 0
-522 519 0
-522 -521 0
522 -519 521 0
-524 522 0
-524 -523 0
524 -522 523 0
-525 20 0
-525 -520 0
525 -20 520 0
-526 -20 0
-526 520 0
526 20 -520 0
-527 -525 0
-527 -526 0
527 525 526 0
528 -1291 0
-528 1291 0
-529 527 0
-529 528 0
529 -527 -528 0
-530 524 0
-530 -529 0
530 -524 529 0
-531 -527 0
-531 -528 0
531 527 528 0
-532 530 0
-532 -531 0
532 -530 531 0
-533 27 0
-533 -528 0
533 -27 528 0
-534 -27 0
-534 528 0
534 27 -528 0
-535 -533 0
-535 -534 0
535 533 534 0
-536 532 0
-536 535 0
536 -532 -535 0
-539 536 0
-539 -538 0
539 -536 538 0
-541 539 0
-541 -540 0
541 -539 540 0
-542 19 0
-542 -537 0
542 -19 537 0
-543 -19 0
-543 537 0
543 19 -537 0
-544 -542 0
-544 -543 0
544 542 543 0
545 -1293 0
-545 1293 0
-546 544 0
-546 545 0
546 -544 -545 0
-547 541 0
-547 -546 0
547 -541 546 0
-548 -544 0
-548 -545 0
548 544 545 0
-549 547 0
-549 -548 0
549 -547 548 0
-550 26 0
-550 -545 0
550 -26 545 0
-551 -26 0
-551 545 0
551 26 -545 0
-552 -550 0
-552 -551 0
552 550 551 0
553 -1294 0
-553 1294 0
-554 552 0
-554 553 0
554 -552 -553 0
-555 549 0
-555 -554 0
555 -549 554 0
-556 -552 0
-556 -553 0
556 552 553 0
-557 555 0
-557 -556 0
557 -555 556 0
-558 27 0
-558 -553 0
558 -27 553 0
-559 -27 0
-559 553 0
559 27 -553 0
-560 -558 0
-560 -559 0
560 558 559 0
-561 557 0
-561 560 0
561 -557 -560 0
-564 561 0
-564 -563 0
564 -561 563 0
-566 564 0
-566 -565 0
566 -564 565 0
-567 18 0
-567 -562 0
567 -18 562 0
-568 -18 0
-568 562 0
568 18 -562 0
-569 -567 0
-569 -568 0
569 567 568 0
570 -1296 0
-570 1296 0
-571 569 0
-571 570 0
571 -569 -570 0
-572 566 0
-572 -571 0
572 -566 571 0
-573 -569 0
-573 -570 0
573 569 570 0
-574 572 0
-574 -573 0
574 -572 573 0
-575 25 0
-575 -570 0
575 -25 570 0
-576 -25 0
-576 570 0
576 25 -570 0
-577 -575 0
-577 -576 0
577 575 576 0
578 -1297 0
-578 1297 0
-579 577 0
-579 578 0
579 -577 -578 0
-580 574 0
-580 -579 0
580 -574 579 0
-581 -577 0
-581 -578 0
581 577 578 0
-582 580 0
-582 -581 0
582 -580 581 0
-583 26 0
-583 -578 0
583 -26 578 0
-584 -26 0
-584 578 0
584 26 -578 0
-585 -583 0
-585 -584 0
585 583 584 0
-586 582 0
-586 585 0
586 -582 -585 0
-589 586 0
-589 -588 0
589 -586 588 0
-591 589 0
-591 -590 0
591 -589 590 0
-592 17 0
-592 -587 0
592 -17 587 0
-593 -17 0
-593 587 0
593 17 -587 0
-594 -592 0
-594 -593 0
594 592 593 0
595 -1299 0
-595 1299 0
-596 594 0
-596 595 0
596 -594 -595 0
-597 591 0
-597 -596 0
597 -591 596 0
-598 -594 0
-598 -595 0
598 594 595 0
-599 597 0
-599 -598 0
599 -597 598 0
-600 24 0
-600 -595 0
600 -24 595 0
-601 -24 0
-601 595 0
601 24 -595 0
-602 -600 0
-602 -601 0
602 600 601 0
603 -1300 0
-603 1300 0
-604 602 0
-604 603 0
604 -602 -603 0
-605 599 0
-605 -604 0
605 -599 604 0
-606 -602 0
-606 -603 0
606 602 603 0
-607 605 0
-607 -606 0
607 -605 606 0
-608 25 0
-608 -603 0
608 -25 603 0
-609 -25 0
-609 603 0
609 25 -603 0
-610 -608 0
-610 -609 0
610 608 609 0
-611 607 0
-611 610 0
611 -607 -610 0
-612 -504 0
-612 611 0
612 504 -611 0
-613 -506 0
-613 612 0
613 506 -612 0
-614 16 0
-614 -503 0
614 -16 503 0
-615 -16 0
-615 503 0
615 16 -503 0
-616 -614 0
-616 -615 0
616 614 615 0
617 -1301 0
-617 1301 0
-618 616 0
-618 617 0
618 -616 -617 0
-619 613 0
-619 -618 0
619 -613 618 0
-620 -616 0
-620 -617 0
620 616 617 0
-621 619 0
-621 -620 0
621 -619 620 0
-622 23 0
-622 -617 0
622 -23 617 0
-623 -23 0
-623 617 0
623 23 -617 0
-624 -622 0
-624 -623 0
624 622 623 0
625 -1302 0
-625 1302 0
-626 624 0
-626 625 0
626 -624 -625 0
-627 621 0
-627 -626 0
627 -621 626 0
-628 -624 0
-628 -625 0
628 624 625 0
-629 627 0
-629 -628 0
629 -627 628 0
-630 24 0
-630 -625 0
630 -24 625 0
-631 -24 0
-631 625 0
631 24 -625 0
-632 -630 0
-632 -631 0
632 630 631 0
-633 629 0
-633 632 0
633 -629 -632 0
-636 633 0
-636 -635 0
636 -633 635 0
-638 636 0
-638 -637 0
638 -636 637 0
-639 15 0
-639 -634 0
639 -15 634 0
-640 -15 0
-640 634 0
640 15 -634 0
-641 -639 0
-641 -640 0
641 639 640 0
642 -1304 0
-642 1304 0
-643 641 0
-643 642 0
643 -641 -642 0
-644 638 0
-644 -643 0
644 -638 643 0
-645 -641 0
-645 -642 0
645 641 642 0
-646 644 0
-646 -645 0
646 -644 645 0
-647 22 0
-647 -642 0
647 -22 642 0
-648 -22 0
-648 642 0
648 22 -642 0
-649 -647 0
-649 -648 0
649 647 648 0
650 -1305 0
-650 1305 0
-651 649 0
-651 650 0
651 -649 -650 0
-652 646 0
-652 -651 0
652 -646 651 0
-653 -649 0
-653 -650 0
653 649 650 0
-654 652 0
-654 -653 0
654 -652 653 0
-655 23 0
-655 -650 0
655 -23 650 0
-656 -23 0
-656 650 0
656 23 -650 0
-657 -655 0
-657 -656 0
657 655 656 0
-658 654 0
-658 657 0
658 -654 -657 0
-661 658 0
-661 -660 0
661 -658 660 0
-663 661 0
-663 -662 0
663 -661 662 0
-664 14 0
-664 -659 0
664 -14 659 0
-665 -14 0
-665 659 0
665 14 -659 0
-666 -664 0
-666 -665 0
666 664 665 0
667 -1307 0
-667 1307 0
-668 666 0
-668 667 0
668 -666 -667 0
-669 663 0
-669 -668 0
669 -663 668 0
-670 -666 0
-670 -667 0
670 666 667 0
-671 669 0
-671 -670 0
671 -669 670 0
-672 21 0
-672 -667 0
672 -21 667 0
-673 -21 0
-673 667 0
673 21 -667 0
-674 -672 0
-674 -673 0
674 672 673 0
675 -1308 0
-675 1308 0
-676 674 0
-676 675 0
676 -674 -675 0
-677 671 0
-677 -676 0
677 -671 676 0
-678 -674 0
-678 -675 0
678 674 675 0
-679 677 0
-679 -678 0
679 -677 678 0
-680 22 0
-680 -675 0
680 -22 675 0
-681 -22 0
-681 675 0
681 22 -675 0
-682 -680 0
-682 -681 0
682 680 681 0
-683 679 0
-683 682 0
683 -679 -682 0
-684 -179 0
-684 683 0
684 179 -683 0
-685 -181 0
-685 684 0
685 181 -684 0
-686 12 0
-686 -178 0
686 -12 178 0
-687 -12 0
-687 178 0
687 12 -178 0
-688 -686 0
-688 -687 0
688 686 687 0
689 -1309 0
-689 1309 0
-690 688 0
-690 689 0
690 -688 -689 0
-691 685 0
-691 -690 0
691 -685 690 0
-692 -688 0
-692 -689 0
692 688 689 0
-693 691 0
-693 -692 0
693 -691 692 0
-694 15 0
-694 -689 0
694 -15 689 0
-695 -15 0
-695 689 0
695 15 -689 0
-696 -694 0
-696 -695 0
696 694 695 0
697 -1310 0
-697 1310 0
-698 696 0
-698 697 0
698 -696 -697 0
-699 693 0
-699 -698 0
699 -693 698 0
-700 -696 0
-700 -697 0
700 696 697 0
-701 699 0
-701 -700 0
701 -699 700 0
-702 20 0
-702 -697 0
702 -20 697 0
-703 -20 0
-703 697 0
703 20 -697 0
-704 -702 0
-704 -703 0
704 702 703 0
-705 701 0
-705 704 0
705 -701 -704 0
-706 -204 0
-706 705 0
706 204 -705 0
-707 -206 0
-707 706 0
707 206 -706 0
-708 11 0
-708 -203 0
708 -11 203 0
-709 -11 0
-709 203 0
709 11 -203 0
-710 -708 0
-710 -709 0
710 708 709 0
711 -1311 0
-711 1311 0
-712 710 0
-712 711 0
712 -710 -711 0
-713 707 0
-713 -712 0
713 -707 712 0
-714 -710 0
-714 -711 0
714 710 711 0
-715 713 0
-715 -714 0
715 -713 714 0
-716 14 0
-716 -711 0
716 -14 711 0
-717 -14 0
-717 711 0
717 14 -711 0
-718 -716 0
-718 -717 0
718 716 717 0
719 -1312 0
-719 1312 0
-720 718 0
-720 719 0
720 -718 -719 0
-721 715 0
-721 -720 0
721 -715 720 0
-722 -718 0
-722 -719 0
722 718 719 0
-723 721 0
-723 -722 0
723 -721 722 0
-724 19 0
-724 -719 0
724 -19 719 0
-725 -19 0
-725 719 0
725 19 -719 0
-726 -724 0
-726 -725 0
726 724 725 0
-727 723 0
-727 726 0
727 -723 -726 0
-728 -229 0
-728 727 0
728 229 -727 0
-729 -231 0
-729 728 0
729 231 -728 0
-730 10 0
-730 -228 0
730 -10 228 0
-731 -10 0
-731 228 0
731 10 -228 0
-732 -730 0
-732 -731 0
732 730 731 0
733 -1313 0
-733 1313 0
-734 732 0
-734 733 0
734 -732 -733 0
-735 729 0
-735 -734 0
735 -729 734 0
-736 -732 0
-736 -733 0
736 732 733 0
-737 735 0
-737 -736 0
737 -735 736 0
-738 13 0
-738 -733 0
738 -13 733 0
-739 -13 0
-739 733 0
739 13 -733 0
-740 -738 0
-740 -739 0
740 738 739 0
741 -1314 0
-741 1314 0
-742 740 0
-742 741 0
742 -740 -741 0
-743 737 0
-743 -742 0
743 -737 742 0
-744 -740 0
-744 -741 0
744 740 741 0
-745 743 0
-745 -744 0
745 -743 744 0
-746 18 0
-746 -741 0
746 -18 741 0
-747 -18 0
-747 741 0
747 18 -741 0
-748 -746 0
-748 -747 0
748 746 747 0
-749 745 0
-749 748 0
749 -745 -748 0
-750 -254 0
-750 749 0
750 254 -749 0
-751 -256 0
-751 750 0
751 256 -750 0
-752 9 0
-752 -253 0
752 -9 253 0
-753 -9 0
-753 253 0
753 9 -253 0
-754 -752 0
-754 -753 0
754 752 753 0
755 -1315 0
-755 1315 0
-756 754 0
-756 755 0
756 -754 -755 0
-757 751 0
-757 -756 0
757 -751 756 0
-758 -754 0
-758 -755 0
758 754 755 0
-759 757 0
-759 -758 0
759 -757 758 0
-760 12 0
-760 -755 0
760 -12 755 0
-761 -12 0
-761 755 0
761 12 -755 0
-762 -760 0
-762 -761 0
762 760 761 0
763 -1316 0
-763 1316 0
-764 762 0
-764 763 0
764 -762 -763 0
-765 759 0
-765 -764 0
765 -759 764 0
-766 -762 0
-766 -763 0
766 762 763 0
-767 765 0
-767 -766 0
767 -765 766 0
-768 17 0
-768 -763 0
768 -17 763 0
-769 -17 0
-769 763 0
769 17 -763 0
-770 -768 0
-770 -769 0
770 768 769 0
-771 767 0
-771 770 0
771 -767 -770 0
-772 -279 0
-772 771 0
772 279 -771 0
-773 -281 0
-773 772 0
773 281 -772 0
-774 8 0
-774 -278 0
774 -8 278 0
-775 -8 0
-775 278 0
775 8 -278 0
-776 -774 0
-776 -775 0
776 774 775 0
777 -1317 0
-777 1317 0
-778 776 0
-778 777 0
778 -776 -777 0
-779 773 0
-779 -778 0
779 -773 778 0
-780 -776 0
-780 -777 0
780 776 777 0
-781 779 0
-781 -780 0
781 -779 780 0
-782 11 0
-782 -777 0
782 -11 777 0
-783 -11 0
-783 777 0
783 11 -777 0
-784 -782 0
-784 -783 0
784 782 783 0
785 -1318 0
-785 1318 0
-786 784 0
-786 785 0
786 -784 -785 0
-787 781 0
-787 -786 0
787 -781 786 0
-788 -784 0
-788 -785 0
788 784 785 0
-789 787 0
-789 -788 0
789 -787 788 0
-790 16 0
-790 -785 0
790 -16 785 0
-791 -16 0
-791 785 0
791 16 -785 0
-792 -790 0
-792 -791 0
792 790 791 0
-793 789 0
-793 792 0
793 -789 -792 0
-794 -304 0
-794 793 0
794 304 -793 0
-795 -306 0
-795 794 0
795 306 -794 0
-796 7 0
-796 -303 0
796 -7 303 0
-797 -7 0
-797 303 0
797 7 -303 0
-798 -796 0
-798 -797 0
798 796 797 0
799 -1319 0
-799 1319 0
-800 798 0
-800 799 0
800 -798 -799 0
-801 795 0
-801 -800 0
801 -795 800 0
-802 -798 0
-802 -799 0
802 798 799 0
-803 801 0
-803 -802 0
803 -801 802 0
-804 10 0
-804 -799 0
804 -10 799 0
-805 -10 0
-805 799 0
805 10 -799 0
-806 -804 0
-806 -805 0
806 804 805 0
807 -1320 0
-807 1320 0
-808 806 0
-808 807 0
808 -806 -807 0
-809 803 0
-809 -808 0
809 -803 808 0
-810 -806 0
-810 -807 0
810 806 807 0
-811 809 0
-811 -810 0
811 -809 810 0
-812 15 0
-812 -807 0
812 -15 807 0
-813 -15 0
-813 807 0
813 15 -807 0
-814 -812 0
-814 -813 0
814 812 813 0
-815 811 0
-815 814 0
815 -811 -814 0
-816 -329 0
-816 815 0
816 329 -815 0
-817 -331 0
-817 816 0
817 331 -816 0
-818 6 0
-818 -328 0
818 -6 328 0
-819 -6 0
-819 328 0
819 6 -328 0
-820 -818 0
-820 -819 0
820 818 819 0
821 -1321 0
-821 1321 0
-822 820 0
-822 821 0
822 -820 -821 0
-823 817 0
-823 -822 0
823 -817 822 0
-824 -820 0
-824 -821 0
824 820 821 0
-825 823 0
-825 -824 0
825 -823 824 0
-826 9 0
-826 -821 0
826 -9 821 0
-827 -9 0
-827 821 0
827 9 -821 0
-828 -826 0
-828 -827 0
828 826 827 0
829 -1322 0
-829 1322 0
-830 828 0
-830 829 0
830 -828 -829 0
-831 825 0
-831 -830 0
831 -825 830 0
-832 -828 0
-832 -829 0
832 828 829 0
-833 831 0
-833 -832 0
833 -831 832 0
-834 14 0
-834 -829 0
834 -14 829 0
-835 -14 0
-835 829 0
835 14 -829 0
-836 -834 0
-836 -835 0
836 834 835 0
-837 833 0
-837 836 0
837 -833 -836 0
-838 -390 0
-838 837 0
838 390 -837 0
-839 -392 0
-839 838 0
839 392 -838 0
-840 5 0
-840 -389 0
840 -5 389 0
-841 -5 0
-841 389 0
841 5 -389 0
-842 -840 0
-842 -841 0
842 840 841 0
843 -1323 0
-843 1323 0
-844 842 0
-844 843 0
844 -842 -843 0
-845 839 0
-845 -844 0
845 -839 844 0
-846 -842 0
-846 -843 0
846 842 843 0
-847 845 0
-847 -846 0
847 -845 846 0
-848 8 0
-848 -843 0
848 -8 843 0
-849 -8 0
-849 843 0
849 8 -843 0
-850 -848 0
-850 -849 0
850 848 849 0
851 -1324 0
-851 1324 0
-852 850 0
-852 851 0
852 -850 -851 0
-853 847 0
-853 -852 0
853 -847 852 0
-854 -850 0
-854 -851 0
854 850 851 0
-855 853 0
-855 -854 0
855 -853 854 0
-856 13 0
-856 -851 0
856 -13 851 0
-857 -13 0
-857 851 0
857 13 -851 0
-858 -856 0
-858 -857 0
858 856 857 0
-859 855 0
-859 858 0
859 -855 -858 0
-860 -415 0
-860 859 0
860 415 -859 0
-861 -417 0
-861 860 0
861 417 -860 0
-862 4 0
-862 -414 0
862 -4 414 0
-863 -4 0
-863 414 0
863 4 -414 0
-864 -862 0
-864 -863 0
864 862 863 0
865 -1325 0
-865 1325 0
-866 864 0
-866 865 0
866 -864 -865 0
-867 861 0
-867 -866 0
867 -861 866 0
-868 -864 0
-868 -865 0
868 864 865 0
-869 867 0
-869 -868 0
869 -867 868 0
-870 7 0
-870 -865 0
870 -7 865 0
-871 -7 0
-871 865 0
871 7 -865 0
-872 -870 0
-872 -871 0
872 870 871 0
873 -1326 0
-873 1326 0
-874 872 0
-874 873 0
874 -872 -873 0
-875 869 0
-875 -874 0
875 -869 874 0
-876 -872 0
-876 -873 0
876 872 873 0
-877 875 0
-877 -876 0
877 -875 876 0
-878 12 0
-878 -873 0
878 -12 873 0
-879 -12 0
-879 873 0
879 12 -873 0
-880 -878 0
-880 -879 0
880 878 879 0
-881 877 0
-881 880 0
881 -877 -880 0
-882 -440 0
-882 881 0
882 440 -881 0
-883 -442 0
-883 882 0
883 442 -882 0
-884 -470 0
-884 883 0
884 470 -883 0
-885 -472 0
-885 884 0
885 472 -884 0
-886 6 0
-886 -469 0
886 -6 469 0
-887 -6 0
-887 469 0
887 6 -469 0
-888 -886 0
-888 -887 0
888 886 887 0
889 -1327 0
-889 1327 0
-890 888 0
-890 889 0
890 -888 -889 0
-891 885 0
-891 -890 0
891 -885 890 0
-892 -888 0
-892 -889 0
892 888 889 0
-893 891 0
-893 -892 0
893 -891 892 0
-894 11 0
-894 -889 0
894 -11 889 0
-895 -11 0
-895 889 0
895 11 -889 0
-896 -894 0
-896 -895 0
896 894 895 0
-897 893 0
-897 896 0
897 -893 -896 0
-898 -479 0
-898 897 0
898 479 -897 0
-899 -481 0
-899 898 0
899 481 -898 0
-900 -487 0
-900 899 0
900 487 -899 0
-901 -489 0
-901 900 0
901 489 -900 0
-902 5 0
-902 -486 0
902 -5 486 0
-903 -5 0
-903 486 0
903 5 -486 0
-904 -902 0
-904 -903 0
904 902 903 0
905 -1328 0
-905 1328 0
-906 904 0
-906 905 0
906 -904 -905 0
-907 901 0
-907 -906 0
907 -901 906 0
-908 -904 0
-908 -905 0
908 904 905 0
-909 907 0
-909 -908 0
909 -907 908 0
-910 10 0
-910 -905 0
910 -10 905 0
-911 -10 0
-911 905 0
911 10 -905 0
-912 -910 0
-912 -911 0
912 910 911 0
-913 909 0
-913 912 0
913 -909 -912 0
-914 -440 0
-914 913 0
914 440 -913 0
-915 -442 0
-915 914 0
915 442 -914 0
-916 -448 0
-916 915 0
916 448 -915 0
-917 -450 0
-917 916 0
917 450 -916 0
-918 9 0
-918 -447 0
918 -9 447 0
-919 -9 0
-919 447 0
919 9 -447 0
-920 -918 0
-920 -919 0
920 918 919 0
-921 917 0
-921 920 0
921 -917 -920 0
-922 -304 0
-922 921 0
922 304 -921 0
-923 -306 0
-923 922 0
923 306 -922 0
-924 -312 0
-924 923 0
924 312 -923 0
-925 -314 0
-925 924 0
925 314 -924 0
-926 27 0
-926 -311 0
926 -27 311 0
-927 -27 0
-927 311 0
927 27 -311 0
-928 -926 0
-928 -927 0
928 926 927 0
-929 925 0
-929 928 0
929 -925 -928 0
-930 -329 0
-930 929 0
930 329 -929 0
-931 -331 0
-931 930 0
931 331 -930 0
-932 -337 0
-932 931 0
932 337 -931 0
-933 -339 0
-933 932 0
933 339 -932 0
-934 26 0
-934 -336 0
934 -26 336 0
-935 -26 0
-935 336 0
935 26 -336 0
-936 -934 0
-936 -935 0
936 934 935 0
937 -1329 0
-937 1329 0
-938 936 0
-938 937 0
938 -936 -937 0
-939 933 0
-939 -938 0
939 -933 938 0
-940 -936 0
-940 -937 0
940 936 937 0
-941 939 0
-941 -940 0
941 -939 940 0
-942 27 0
-942 -937 0
942 -27 937 0
-943 -27 0
-943 937 0
943 27 -937 0
-944 -942 0
-944 -943 0
944 942 943 0
-945 941 0
-945 944 0
945 -941 -944 0
-946 -521 0
-946 945 0
946 521 -945 0
-947 -523 0
-947 946 0
947 523 -946 0
-948 6 0
-948 -520 0
948 -6 520 0
-949 -6 0
-949 520 0
949 6 -520 0
-950 -948 0
-950 -949 0
950 948 949 0
951 -1330 0
-951 1330 0
-952 950 0
-952 951 0
952 -950 -951 0
-953 947 0
-953 -952 0
953 -947 952 0
-954 -950 0
-954 -951 0
954 950 951 0
-955 953 0
-955 -954 0
955 -953 954 0
-956 26 0
-956 -951 0
956 -26 951 0
-957 -26 0
-957 951 0
957 26 -951 0
-958 -956 0
-958 -957 0
958 956 957 0
-959 955 0
-959 958 0
959 -955 -958 0
-960 -538 0
-960 959 0
960 538 -959 0
-961 -540 0
-961 960 0
961 540 -960 0
-962 5 0
-962 -537 0
962 -5 537 0
-963 -5 0
-963 537 0
963 5 -537 0
-964 -962 0
-964 -963 0
964 962 963 0
965 -1331 0
-965 1331 0
-966 964 0
-966 965 0
966 -964 -965 0
-967 961 0
-967 -966 0
967 -961 966 0
-968 -964 0
-968 -965 0
968 964 965 0
-969 967 0
-969 -968 0
969 -967 968 0
-970 25 0
-970 -965 0
970 -25 965 0
-971 -25 0
-971 965 0
971 25 -965 0
-972 -970 0
-972 -971 0
972 970 971 0
973 -1332 0
-973 1332 0
-974 972 0
-974 973 0
974 -972 -973 0
-975 969 0
-975 -974 0
975 -969 974 0
-976 -972 0
-976 -973 0
976 972 973 0
-977 975 0
-977 -976 0
977 -975 976 0
-978 27 0
-978 -973 0
978 -27 973 0
-979 -27 0
-979 973 0
979 27 -973 0
-980 -978 0
-980 -979 0
980 978 979 0
-981 977 0
-981 980 0
981 -977 -980 0
-982 -563 0
-982 981 0
982 563 -981 0
-983 -565 0
-983 982 0
983 565 -982 0
-984 4 0
-984 -562 0
984 -4 562 0
-985 -4 0
-985 562 0
985 4 -562 0
-986 -984 0
-986 -985 0
986 984 985 0
987 -1333 0
-987 1333 0
-988 986 0
-988 987 0
988 -986 -987 0
-989 983 0
-989 -988 0
989 -983 988 0
-990 -986 0
-990 -987 0
990 986 987 0
-991 989 0
-991 -990 0
991 -989 990 0
-992 24 0
-992 -987 0
992 -24 987 0
-993 -24 0
-993 987 0
993 24 -987 0
-994 -992 0
-994 -993 0
994 992 993 0
995 -1334 0
-995 1334 0
-996 994 0
-996 995 0
996 -994 -995 0
-997 991 0
-997 -996 0
997 -991 996 0
-998 -994 0
-998 -995 0
998 994 995 0
-999 997 0
-999 -998 0
999 -997 998 0
-1000 26 0
-1000 -995 0
1000 -26 995 0
-1001 -26 0
-1001 995 0
1001 26 -995 0
-1002 -1000 0
-1002 -1001 0
1002 1000 1001 0
-1003 999 0
-1003 1002 0
1003 -999 -1002 0
-1004 -588 0
-1004 1003 0
1004 588 -1003 0
-1005 -590 0
-1005 1004 0
1005 590 -1004 0
-1006 3 0
-1006 -587 0
1006 -3 587 0
-1007 -3 0
-1007 587 0
1007 3 -587 0
-1008 -1006 0
-1008 -1007 0
1008 1006 1007 0
1009 -1335 0
-1009 1335 0
-1010 1008 0
-1010 1009 0
1010 -1008 -1009 0
-1011 1005 0
-1011 -1010 0
1011 -1005 1010 0
-1012 -1008 0
-1012 -1009 0
1012 1008 1009 0
-1013 1011 0
-1013 -1012 0
1013 -1011 1012 0
-1014 23 0
-1014 -1009 0
1014 -23 1009 0
-1015 -23 0
-1015 1009 0
1015 23 -1009 0
-1016 -1014 0
-1016 -1015 0
1016 1014 1015 0
1017 -1336 0
-1017 1336 0
-1018 1016 0
-1018 1017 0
1018 -1016 -1017 0
-1019 1013 0
-1019 -1018 0
1019 -1013 1018 0
-1020 -1016 0
-1020 -1017 0
1020 1016 1017 0
-1021 1019 0
-1021 -1020 0
1021 -1019 1020 0
-1022 25 0
-1022 -1017 0
1022 -25 1017 0
-1023 -25 0
-1023 1017 0
1023 25 -1017 0
-1024 -1022 0
-1024 -1023 0
1024 1022 1023 0
-1025 1021 0
-1025 1024 0
1025 -1021 -1024 0
-1026 -504 0
-1026 1025 0
1026 504 -1025 0
-1027 -506 0
-1027 1026 0
1027 506 -1026 0
-1028 -512 0
-1028 1027 0
1028 512 -1027 0
-1029 -514 0
-1029 1028 0
1029 514 -1028 0
-1030 22 0
-1030 -511 0
1030 -22 511 0
-1031 -22 0
-1031 511 0
1031 22 -511 0
-1032 -1030 0
-1032 -1031 0
1032 1030 1031 0
1033 -1337 0
-1033 1337 0
-1034 1032 0
-1034 1033 0
1034 -1032 -1033 0
-1035 1029 0
-1035 -1034 0
1035 -1029 1034 0
-1036 -1032 0
-1036 -1033 0
1036 1032 1033 0
-1037 1035 0
-1037 -1036 0
1037 -1035 1036 0
-1038 24 0
-1038 -1033 0
1038 -24 1033 0
-1039 -24 0
-1039 1033 0
1039 24 -1033 0
-1040 -1038 0
-1040 -1039 0
1040 1038 1039 0
-1041 1037 0
-1041 1040 0
1041 -1037 -1040 0
-1042 -504 0
-1042 1041 0
1042 504 -1041 0
-1043 -506 0
-1043 1042 0
1043 506 -1042 0
-1044 20 0
-1044 -503 0
1044 -20 503 0
-1045 -20 0
-1045 503 0
1045 20 -503 0
-1046 -1044 0
-1046 -1045 0
1046 1044 1045 0
1047 -1338 0
-1047 1338 0
-1048 1046 0
-1048 1047 0
1048 -1046 -1047 0
-1049 1043 0
-1049 -1048 0
1049 -1043 1048 0
-1050 -1046 0
-1050 -1047 0
1050 1046 1047 0
-1051 1049 0
-1051 -1050 0
1051 -1049 1050 0
-1052 23 0
-1052 -1047 0
1052 -23 1047 0
-1053 -23 0
-1053 1047 0
1053 23 -1047 0
-1054 -1052 0
-1054 -1053 0
1054 1052 1053 0
-1055 1051 0
-1055 1054 0
1055 -1051 -1054 0
-1056 -635 0
-1056 1055 0
1056 635 -1055 0
-1057 -637 0
-1057 1056 0
1057 637 -1056 0
-1058 19 0
-1058 -634 0
1058 -19 634 0
-1059 -19 0
-1059 634 0
1059 19 -634 0
-1060 -1058 0
-1060 -1059 0
1060 1058 1059 0
1061 -1339 0
-1061 1339 0
-1062 1060 0
-1062 1061 0
1062 -1060 -1061 0
-1063 1057 0
-1063 -1062 0
1063 -1057 1062 0
-1064 -1060 0
-1064 -1061 0
1064 1060 1061 0
-1065 1063 0
-1065 -1064 0
1065 -1063 1064 0
-1066 22 0
-1066 -1061 0
1066 -22 1061 0
-1067 -22 0
-1067 1061 0
1067 22 -1061 0
-1068 -1066 0
-1068 -1067 0
1068 1066 1067 0
1069 -1340 0
-1069 1340 0
-1070 1068 0
-1070 1069 0
1070 -1068 -1069 0
-1071 1065 0
-1071 -1070 0
1071 -1065 1070 0
-1072 -1068 0
-1072 -1069 0
1072 1068 1069 0
-1073 1071 0
-1073 -1072 0
1073 -1071 1072 0
-1074 27 0
-1074 -1069 0
1074 -27 1069 0
-1075 -27 0
-1075 1069 0
1075 27 -1069 0
-1076 -1074 0
-1076 -1075 0
1076 1074 1075 0
-1077 1073 0
-1077 1076 0
1077 -1073 -1076 0
-1078 -660 0
-1078 1077 0
1078 660 -1077 0
-1079 -662 0
-1079 1078 0
1079 662 -1078 0
-1080 18 0
-1080 -659 0
1080 -18 659 0
-1081 -18 0
-1081 659 0
1081 18 -659 0
-1082 -1080 0
-1082 -1081 0
1082 1080 1081 0
1083 -1341 0
-1083 1341 0
-1084 1082 0
-1084 1083 0
1084 -1082 -1083 0
-1085 1079 0
-1085 -1084 0
1085 -1079 1084 0
-1086 -1082 0
-1086 -1083 0
1086 1082 1083 0
-1087 1085 0
-1087 -1086 0
1087 -1085 1086 0
-1088 21 0
-1088 -1083 0
1088 -21 1083 0
-1089 -21 0
-1089 1083 0
1089 21 -1083 0
-1090 -1088 0
-1090 -1089 0
1090 1088 1089 0
1091 -1342 0
-1091 1342 0
-1092 1090 0
-1092 1091 0
1092 -1090 -1091 0
-1093 1087 0
-1093 -1092 0
1093 -1087 1092 0
-1094 -1090 0
-1094 -1091 0
1094 1090 1091 0
-1095 1093 0
-1095 -1094 0
1095 -1093 1094 0
-1096 26 0
-1096 -1091 0
1096 -26 1091 0
-1097 -26 0
-1097 1091 0
1097 26 -1091 0
-1098 -1096 0
-1098 -1097 0
1098 1096 1097 0
-1099 1095 0
-1099 1098 0
1099 -1095 -1098 0
-1100 -54 0
-1100 1099 0
1100 54 -1099 0
-1101 -56 0
-1101 1100 0
1101 56 -1100 0
-1102 17 0
-1102 -53 0
1102 -17 53 0
-1103 -17 0
-1103 53 0
1103 17 -53 0
-1104 -1102 0
-1104 -1103 0
1104 1102 1103 0
1105 -1343 0
-1105 1343 0
-1106 1104 0
-1106 1105 0
1106 -1104 -1105 0
-1107 1101 0
-1107 -1106 0
1107 -1101 1106 0
-1108 -1104 0
-1108 -1105 0
1108 1104 1105 0
-1109 1107 0
-1109 -1108 0
1109 -1107 1108 0
-1110 20 0
-1110 -1105 0
1110 -20 1105 0
-1111 -20 0
-1111 1105 0
1111 20 -1105 0
-1112 -1110 0
-1112 -1111 0
1112 1110 1111 0
1113 -1344 0
-1113 1344 0
-1114 1112 0
-1114 1113 0
1114 -1112 -1113 0
-1115 1109 0
-1115 -1114 0
1115 -1109 1114 0
-1116 -1112 0
-1116 -1113 0
1116 1112 1113 0
-1117 1115 0
-1117 -1116 0
1117 -1115 1116 0
-1118 25 0
-1118 -1113 0
1118 -25 1113 0
-1119 -25 0
-1119 1113 0
1119 25 -1113 0
-1120 -1118 0
-1120 -1119 0
1120 1118 1119 0
-1121 1117 0
-1121 1120 0
1121 -1117 -1120 0
-1122 -79 0
-1122 1121 0
1122 79 -1121 0
-1123 -81 0
-1123 1122 0
1123 81 -1122 0
-1124 16 0
-1124 -78 0
1124 -16 78 0
-1125 -16 0
-1125 78 0
1125 16 -78 0
-1126 -1124 0
-1126 -1125 0
1126 1124 1125 0
1127 -1345 0
-1127 1345 0
-1128 1126 0
-1128 1127 0
1128 -1126 -1127 0
-1129 1123 0
-1129 -1128 0
1129 -1123 1128 0
-1130 -1126 0
-1130 -1127 0
1130 1126 1127 0
-1131 1129 0
-1131 -1130 0
1131 -1129 1130 0
-1132 19 0
-1132 -1127 0
1132 -19 1127 0
-1133 -19 0
-1133 1127 0
1133 19 -1127 0
-1134 -1132 0
-1134 -1133 0
1134 1132 1133 0
1135 -1346 0
-1135 1346 0
-1136 1134 0
-1136 1135 0
1136 -1134 -1135 0
-1137 1131 0
-1137 -1136 0
1137 -1131 1136 0
-1138 -1134 0
-1138 -1135 0
1138 1134 1135 0
-1139 1137 0
-1139 -1138 0
1139 -1137 1138 0
-1140 24 0
-1140 -1135 0
1140 -24 1135 0
-1141 -24 0
-1141 1135 0
1141 24 -1135 0
-1142 -1140 0
-1142 -1141 0
1142 1140 1141 0
-1143 1139 0
-1143 1142 0
1143 -1139 -1142 0
-1144 -104 0
-1144 1143 0
1144 104 -1143 0
-1145 -106 0
-1145 1144 0
1145 106 -1144 0
-1146 15 0
-1146 -103 0
1146 -15 103 0
-1147 -15 0
-1147 103 0
1147 15 -103 0
-1148 -1146 0
-1148 -1147 0
1148 1146 1147 0
1149 -1347 0
-1149 1347 0
-1150 1148 0
-1150 1149 0
1150 -1148 -1149 0
-1151 1145 0
-1151 -1150 0
1151 -1145 1150 0
-1152 -1148 0
-1152 -1149 0
1152 1148 1149 0
-1153 1151 0
-1153 -1152 0
1153 -1151 1152 0
-1154 18 0
-1154 -1149 0
1154 -18 1149 0
-1155 -18 0
-1155 1149 0
1155 18 -1149 0
-1156 -1154 0
-1156 -1155 0
1156 1154 1155 0
1157 -1348 0
-1157 1348 0
-1158 1156 0
-1158 1157 0
1158 -1156 -1157 0
-1159 1153 0
-1159 -1158 0
1159 -1153 1158 0
-1160 -1156 0
-1160 -1157 0
1160 1156 1157 0
-1161 1159 0
-1161 -1160 0
1161 -1159 1160 0
-1162 23 0
-1162 -1157 0
1162 -23 1157 0
-1163 -23 0
-1163 1157 0
1163 23 -1157 0
-1164 -1162 0
-1164 -1163 0
1164 1162 1163 0
-1165 1161 0
-1165 1164 0
1165 -1161 -1164 0
-1166 -129 0
-1166 1165 0
1166 129 -1165 0
-1167 -131 0
-1167 1166 0
1167 131 -1166 0
-1168 14 0
-1168 -128 0
1168 -14 128 0
-1169 -14 0
-1169 128 0
1169 14 -128 0
-1170 -1168 0
-1170 -1169 0
1170 1168 1169 0
1171 -1349 0
-1171 1349 0
-1172 1170 0
-1172 1171 0
1172 -1170 -1171 0
-1173 1167 0
-1173 -1172 0
1173 -1167 1172 0
-1174 -1170 0
-1174 -1171 0
1174 1170 1171 0
-1175 1173 0
-1175 -1174 0
1175 -1173 1174 0
-1176 17 0
-1176 -1171 0
1176 -17 1171 0
-1177 -17 0
-1177 1171 0
1177 17 -1171 0
-1178 -1176 0
-1178 -1177 0
1178 1176 1177 0
1179 -1350 0
-1179 1350 0
-1180 1178 0
-1180 1179 0
1180 -1178 -1179 0
-1181 1175 0
-1181 -1180 0
1181 -1175 1180 0
-1182 -1178 0
-1182 -1179 0
1182 1178 1179 0
-1183 1181 0
-1183 -1182 0
1183 -1181 1182 0
-1184 22 0
-1184 -1179 0
1184 -22 1179 0
-1185 -22 0
-1185 1179 0
1185 22 -1179 0
-1186 -1184 0
-1186 -1185 0
1186 1184 1185 0
-1187 1183 0
-1187 1186 0
1187 -1183 -1186 0
-1188 -154 0
-1188 1187 0
1188 154 -1187 0
-1189 -156 0
-1189 1188 0
1189 156 -1188 0
-1190 13 0
-1190 -153 0
1190 -13 153 0
-1191 -13 0
-1191 153 0
1191 13 -153 0
-1192 -1190 0
-1192 -1191 0
1192 1190 1191 0
1193 -1351 0
-1193 1351 0
-1194 1192 0
-1194 1193 0
1194 -1192 -1193 0
-1195 1189 0
-1195 -1194 0
1195 -1189 1194 0
-1196 -1192 0
-1196 -1193 0
1196 1192 1193 0
-1197 1195 0
-1197 -1196 0
1197 -1195 1196 0
-1198 16 0
-1198 -1193 0
1198 -16 1193 0
-1199 -16 0
-1199 1193 0
1199 16 -1193 0
-1200 -1198 0
-1200 -1199 0
1200 1198 1199 0
1201 -1352 0
-1201 1352 0
-1202 1200 0
-1202 1201 0
1202 -1200 -1201 0
-1203 1197 0
-1203 -1202 0
1203 -1197 1202 0
-1204 -1200 0
-1204 -1201 0
1204 1200 1201 0
-1205 1203 0
-1205 -1204 0
1205 -1203 1204 0
-1206 21 0
-1206 -1201 0
1206 -21 1201 0
-1207 -21 0
-1207 1201 0
1207 21 -1201 0
-1208 -1206 0
-1208 -1207 0
1208 1206 1207 0
-1209 1205 0
-1209 1208 0
1209 -1205 -1208 0
1209 0
