p cnf 1352 3482
10 -1218 0
-10 1218 0
153 -1248 0
-153 1248 0
-156 -10 0
-156 153 0
156 10 -153 0
-154 10 0
-154 -153 0
154 -10 153 0
11 -1219 0
-11 1219 0
128 -1245 0
-128 1245 0
-131 -11 0
-131 128 0
131 11 -128 0
-129 11 0
-129 -128 0
129 -11 128 0
12 -1220 0
-12 1220 0
103 -1242 0
-103 1242 0
-106 -12 0
-106 103 0
106 12 -103 0
-104 12 0
-104 -103 0
104 -12 103 0
13 -1221 0
-13 1221 0
78 -1239 0
-78 1239 0
-81 -13 0
-81 78 0
81 13 -78 0
-79 13 0
-79 -78 0
79 -13 78 0
14 -1222 0
-14 1222 0
53 -1236 0
-53 1236 0
-56 -14 0
-56 53 0
56 14 -53 0
-54 14 0
-54 -53 0
54 -14 53 0
15 -1223 0
-15 1223 0
659 -1306 0
-659 1306 0
-662 -15 0
-662 659 0
662 15 -659 0
-660 15 0
-660 -659 0
660 -15 659 0
16 -1224 0
-16 1224 0
634 -1303 0
-634 1303 0
-637 -16 0
-637 634 0
637 16 -634 0
-635 16 0
-635 -634 0
635 -16 634 0
17 -1225 0
-17 1225 0
609 -1300 0
-609 1300 0
-612 -17 0
-612 609 0
612 17 -609 0
-610 17 0
-610 -609 0
610 -17 609 0
18 -1226 0
-18 1226 0
584 -1297 0
-584 1297 0
-587 -18 0
-587 584 0
587 18 -584 0
-585 18 0
-585 -584 0
585 -18 584 0
19 -1227 0
-19 1227 0
559 -1294 0
-559 1294 0
-562 -19 0
-562 559 0
562 19 -559 0
-560 19 0
-560 -559 0
560 -19 559 0
20 -1228 0
-20 1228 0
534 -1291 0
-534 1291 0
-537 -20 0
-537 534 0
537 20 -534 0
-535 20 0
-535 -534 0
535 -20 534 0
21 -1229 0
-21 1229 0
403 -1276 0
-403 1276 0
-406 -21 0
-406 403 0
406 21 -403 0
-404 21 0
-404 -403 0
404 -21 403 0
2 -1210 0
-2 1210 0
-408 2 0
-408 -403 0
408 -2 403 0
-409 -2 0
-409 403 0
409 2 -403 0
-410 -408 0
-410 -409 0
410 408 409 0
411 -1277 0
-411 1277 0
-414 -410 0
-414 -411 0
414 410 411 0
-412 410 0
-412 411 0
412 -410 -411 0
22 -1230 0
-22 1230 0
487 -1286 0
-487 1286 0
-490 -22 0
-490 487 0
490 22 -487 0
-488 22 0
-488 -487 0
488 -22 487 0
23 -1231 0
-23 1231 0
462 -1283 0
-462 1283 0
-465 -23 0
-465 462 0
465 23 -462 0
-463 23 0
-463 -462 0
463 -23 462 0
24 -1232 0
-24 1232 0
437 -1280 0
-437 1280 0
-440 -24 0
-440 437 0
440 24 -437 0
-438 24 0
-438 -437 0
438 -24 437 0
25 -1233 0
-25 1233 0
420 -1278 0
-420 1278 0
-423 -25 0
-423 420 0
423 25 -420 0
-421 25 0
-421 -420 0
421 -25 420 0
228 -1257 0
-228 1257 0
-233 2 0
-233 -228 0
233 -2 228 0
-234 -2 0
-234 228 0
234 2 -228 0
-235 -233 0
-235 -234 0
235 233 234 0
236 -1258 0
-236 1258 0
-239 -235 0
-239 -236 0
239 235 236 0
-237 235 0
-237 236 0
237 -235 -236 0
7 -1215 0
-7 1215 0
-231 -7 0
-231 228 0
231 7 -228 0
-229 7 0
-229 -228 0
229 -7 228 0
3 -1211 0
-3 1211 0
203 -1254 0
-203 1254 0
-208 3 0
-208 -203 0
208 -3 203 0
-209 -3 0
-209 203 0
209 3 -203 0
-210 -208 0
-210 -209 0
210 208 209 0
211 -1255 0
-211 1255 0
-214 -210 0
-214 -211 0
214 210 211 0
-212 210 0
-212 211 0
212 -210 -211 0
8 -1216 0
-8 1216 0
-206 -8 0
-206 203 0
206 8 -203 0
-204 8 0
-204 -203 0
204 -8 203 0
339 -1269 0
-339 1269 0
-344 2 0
-344 -339 0
344 -2 339 0
-345 -2 0
-345 339 0
345 2 -339 0
-346 -344 0
-346 -345 0
346 344 345 0
347 -1270 0
-347 1270 0
-350 -346 0
-350 -347 0
350 346 347 0
-348 346 0
-348 347 0
348 -346 -347 0
4 -1212 0
-4 1212 0
-342 -4 0
-342 339 0
342 4 -339 0
-340 4 0
-340 -339 0
340 -4 339 0
378 -1273 0
-378 1273 0
-383 2 0
-383 -378 0
383 -2 378 0
-384 -2 0
-384 378 0
384 2 -378 0
-385 -383 0
-385 -384 0
385 383 384 0
386 -1274 0
-386 1274 0
-389 -385 0
-389 -386 0
389 385 386 0
-387 385 0
-387 386 0
387 -385 -386 0
-381 -3 0
-381 378 0
381 3 -378 0
-379 3 0
-379 -378 0
379 -3 378 0
-366 3 0
-366 -339 0
366 -3 339 0
-367 -3 0
-367 339 0
367 3 -339 0
-368 -366 0
-368 -367 0
368 366 367 0
369 -1272 0
-369 1272 0
-372 -368 0
-372 -369 0
372 368 369 0
-370 368 0
-370 369 0
370 -368 -369 0
5 -1213 0
-5 1213 0
314 -1266 0
-314 1266 0
-317 -5 0
-317 314 0
317 5 -314 0
-315 5 0
-315 -314 0
315 -5 314 0
6 -1214 0
-6 1214 0
289 -1263 0
-289 1263 0
-292 -6 0
-292 289 0
292 6 -289 0
-290 6 0
-290 -289 0
290 -6 289 0
9 -1217 0
-9 1217 0
178 -1251 0
-178 1251 0
-181 -9 0
-181 178 0
181 9 -178 0
-179 9 0
-179 -178 0
179 -9 178 0
27 -1235 0
-27 1235 0
26 -1234 0
-26 1234 0
-28 -2 0
-28 -3 0
28 2 3 0
-29 -4 0
-29 28 0
29 4 -28 0
-30 -5 0
-30 29 0
30 5 -29 0
-31 -6 0
-31 30 0
31 6 -30 0
-32 -7 0
-32 31 0
32 7 -31 0
-33 -8 0
-33 32 0
33 8 -32 0
-34 -9 0
-34 33 0
34 9 -33 0
-35 -10 0
-35 34 0
35 10 -34 0
-36 -11 0
-36 35 0
36 11 -35 0
-37 -12 0
-37 36 0
37 12 -36 0
-38 -13 0
-38 37 0
38 13 -37 0
-39 -14 0
-39 38 0
39 14 -38 0
-40 -15 0
-40 39 0
40 15 -39 0
-41 -16 0
-41 40 0
41 16 -40 0
-42 -17 0
-42 41 0
42 17 -41 0
-43 -18 0
-43 42 0
43 18 -42 0
-44 -19 0
-44 43 0
44 19 -43 0
-45 -20 0
-45 44 0
45 20 -44 0
-46 -21 0
-46 45 0
46 21 -45 0
-47 -22 0
-47 46 0
47 22 -46 0
-48 -23 0
-48 47 0
48 23 -47 0
-49 -24 0
-49 48 0
49 24 -48 0
-50 -25 0
-50 49 0
50 25 -49 0
-51 -26 0
-51 50 0
51 26 -50 0
-52 -27 0
-52 51 0
52 27 -51 0
-55 -52 0
-55 -54 0
55 52 54 0
-57 55 0
-57 -56 0
57 -55 56 0
-58 9 0
-58 -53 0
58 -9 53 0
-59 -9 0
-59 53 0
59 9 -53 0
-60 -58 0
-60 -59 0
60 58 59 0
61 -1237 0
-61 1237 0
-62 60 0
-62 61 0
62 -60 -61 0
-63 57 0
-63 -62 0
63 -57 62 0
-64 -60 0
-64 -61 0
64 60 61 0
-65 63 0
-65 -64 0
65 -63 64 0
-66 16 0
-66 -61 0
66 -16 61 0
-67 -16 0
-67 61 0
67 16 -61 0
-68 -66 0
-68 -67 0
68 66 67 0
69 -1238 0
-69 1238 0
-70 68 0
-70 69 0
70 -68 -69 0
-71 65 0
-71 -70 0
71 -65 70 0
-72 -68 0
-72 -69 0
72 68 69 0
-73 71 0
-73 -72 0
73 -71 72 0
-74 17 0
-74 -69 0
74 -17 69 0
-75 -17 0
-75 69 0
75 17 -69 0
-76 -74 0
-76 -75 0
76 74 75 0
-77 73 0
-77 76 0
77 -73 -76 0
-80 77 0
-80 -79 0
80 -77 79 0
-82 80 0
-82 -81 0
82 -80 81 0
-83 8 0
-83 -78 0
83 -8 78 0
-84 -8 0
-84 78 0
84 8 -78 0
-85 -83 0
-85 -84 0
85 83 84 0
86 -1240 0
-86 1240 0
-87 85 0
-87 86 0
87 -85 -86 0
-88 82 0
-88 -87 0
88 -82 87 0
-89 -85 0
-89 -86 0
89 85 86 0
-90 88 0
-90 -89 0
90 -88 89 0
-91 15 0
-91 -86 0
91 -15 86 0
-92 -15 0
-92 86 0
92 15 -86 0
-93 -91 0
-93 -92 0
93 91 92 0
94 -1241 0
-94 1241 0
-95 93 0
-95 94 0
95 -93 -94 0
-96 90 0
-96 -95 0
96 -90 95 0
-97 -93 0
-97 -94 0
97 93 94 0
-98 96 0
-98 -97 0
98 -96 97 0
-99 16 0
-99 -94 0
99 -16 94 0
-100 -16 0
-100 94 0
100 16 -94 0
-101 -99 0
-101 -100 0
101 99 100 0
-102 98 0
-102 101 0
102 -98 -101 0
-105 102 0
-105 -104 0
105 -102 104 0
-107 105 0
-107 -106 0
107 -105 106 0
-108 7 0
-108 -103 0
108 -7 103 0
-109 -7 0
-109 103 0
109 7 -103 0
-110 -108 0
-110 -109 0
110 108 109 0
111 -1243 0
-111 1243 0
-112 110 0
-112 111 0
112 -110 -111 0
-113 107 0
-113 -112 0
113 -107 112 0
-114 -110 0
-114 -111 0
114 110 111 0
-115 113 0
-115 -114 0
115 -113 114 0
-116 14 0
-116 -111 0
116 -14 111 0
-117 -14 0
-117 111 0
117 14 -111 0
-118 -116 0
-118 -117 0
118 116 117 0
119 -1244 0
-119 1244 0
-120 118 0
-120 119 0
120 -118 -119 0
-121 115 0
-121 -120 0
121 -115 120 0
-122 -118 0
-122 -119 0
122 118 119 0
-123 121 0
-123 -122 0
123 -121 122 0
-124 15 0
-124 -119 0
124 -15 119 0
-125 -15 0
-125 119 0
125 15 -119 0
-126 -124 0
-126 -125 0
126 124 125 0
-127 123 0
-127 126 0
127 -123 -126 0
-130 127 0
-130 -129 0
130 -127 129 0
-132 130 0
-132 -131 0
132 -130 131 0
-133 6 0
-133 -128 0
133 -6 128 0
-134 -6 0
-134 128 0
134 6 -128 0
-135 -133 0
-135 -134 0
135 133 134 0
136 -1246 0
-136 1246 0
-137 135 0
-137 136 0
137 -135 -136 0
-138 132 0
-138 -137 0
138 -132 137 0
-139 -135 0
-139 -136 0
139 135 136 0
-140 138 0
-140 -139 0
140 -138 139 0
-141 13 0
-141 -136 0
141 -13 136 0
-142 -13 0
-142 136 0
142 13 -136 0
-143 -141 0
-143 -142 0
143 141 142 0
144 -1247 0
-144 1247 0
-145 143 0
-145 144 0
145 -143 -144 0
-146 140 0
-146 -145 0
146 -140 145 0
-147 -143 0
-147 -144 0
147 143 144 0
-148 146 0
-148 -147 0
148 -146 147 0
-149 14 0
-149 -144 0
149 -14 144 0
-150 -14 0
-150 144 0
150 14 -144 0
-151 -149 0
-151 -150 0
151 149 150 0
-152 148 0
-152 151 0
152 -148 -151 0
-155 152 0
-155 -154 0
155 -152 154 0
-157 155 0
-157 -156 0
157 -155 156 0
-158 5 0
-158 -153 0
158 -5 153 0
-159 -5 0
-159 153 0
159 5 -153 0
-160 -158 0
-160 -159 0
160 158 159 0
161 -1249 0
-161 1249 0
-162 160 0
-162 161 0
162 -160 -161 0
-163 157 0
-163 -162 0
163 -157 162 0
-164 -160 0
-164 -161 0
164 160 161 0
-165 163 0
-165 -164 0
165 -163 164 0
-166 12 0
-166 -161 0
166 -12 161 0
-167 -12 0
-167 161 0
167 12 -161 0
-168 -166 0
-168 -167 0
168 166 167 0
169 -1250 0
-169 1250 0
-170 168 0
-170 169 0
170 -168 -169 0
-171 165 0
-171 -170 0
171 -165 170 0
-172 -168 0
-172 -169 0
172 168 169 0
-173 171 0
-173 -172 0
173 -171 172 0
-174 13 0
-174 -169 0
174 -13 169 0
-175 -13 0
-175 169 0
175 13 -169 0
-176 -174 0
-176 -175 0
176 174 175 0
-177 173 0
-177 176 0
177 -173 -176 0
-180 177 0
-180 -179 0
180 -177 179 0
-182 180 0
-182 -181 0
182 -180 181 0
-183 4 0
-183 -178 0
183 -4 178 0
-184 -4 0
-184 178 0
184 4 -178 0
-185 -183 0
-185 -184 0
185 183 184 0
186 -1252 0
-186 1252 0
-187 185 0
-187 186 0
187 -185 -186 0
-188 182 0
-188 -187 0
188 -182 187 0
-189 -185 0
-189 -186 0
189 185 186 0
-190 188 0
-190 -189 0
190 -188 189 0
-191 11 0
-191 -186 0
191 -11 186 0
-192 -11 0
-192 186 0
192 11 -186 0
-193 -191 0
-193 -192 0
193 191 192 0
194 -1253 0
-194 1253 0
-195 193 0
-195 194 0
195 -193 -194 0
-196 190 0
-196 -195 0
196 -190 195 0
-197 -193 0
-197 -194 0
197 193 194 0
-198 196 0
-198 -197 0
198 -196 197 0
-199 12 0
-199 -194 0
199 -12 194 0
-200 -12 0
-200 194 0
200 12 -194 0
-201 -199 0
-201 -200 0
201 199 200 0
-202 198 0
-202 201 0
202 -198 -201 0
-205 202 0
-205 -204 0
205 -202 204 0
-207 205 0
-207 -206 0
207 -205 206 0
-213 207 0
-213 -212 0
213 -207 212 0
-215 213 0
-215 -214 0
215 -213 214 0
-216 10 0
-216 -211 0
216 -10 211 0
-217 -10 0
-217 211 0
217 10 -211 0
-218 -216 0
-218 -217 0
218 216 217 0
219 -1256 0
-219 1256 0
-220 218 0
-220 219 0
220 -218 -219 0
-221 215 0
-221 -220 0
221 -215 220 0
-222 -218 0
-222 -219 0
222 218 219 0
-223 221 0
-223 -222 0
223 -221 222 0
-224 11 0
-224 -219 0
224 -11 219 0
-225 -11 0
-225 219 0
225 11 -219 0
-226 -224 0
-226 -225 0
226 224 225 0
-227 223 0
-227 226 0
227 -223 -226 0
-230 227 0
-230 -229 0
230 -227 229 0
-232 230 0
-232 -231 0
232 -230 231 0
-238 232 0
-238 -237 0
238 -232 237 0
-240 238 0
-240 -239 0
240 -238 239 0
-241 9 0
-241 -236 0
241 -9 236 0
-242 -9 0
-242 236 0
242 9 -236 0
-243 -241 0
-243 -242 0
243 241 242 0
244 -1259 0
-244 1259 0
-245 243 0
-245 244 0
245 -243 -244 0
-246 240 0
-246 -245 0
246 -240 245 0
-247 -243 0
-247 -244 0
247 243 244 0
-248 246 0
-248 -247 0
248 -246 247 0
-249 10 0
-249 -244 0
249 -10 244 0
-250 -10 0
-250 244 0
250 10 -244 0
-251 -249 0
-251 -250 0
251 249 250 0
-252 248 0
-252 251 0
252 -248 -251 0
-253 -204 0
-253 252 0
253 204 -252 0
-254 -206 0
-254 253 0
254 206 -253 0
-255 6 0
-255 -203 0
255 -6 203 0
-256 -6 0
-256 203 0
256 6 -203 0
-257 -255 0
-257 -256 0
257 255 256 0
258 -1260 0
-258 1260 0
-259 257 0
-259 258 0
259 -257 -258 0
-260 254 0
-260 -259 0
260 -254 259 0
-261 -257 0
-261 -258 0
261 257 258 0
-262 260 0
-262 -261 0
262 -260 261 0
-263 9 0
-263 -258 0
263 -9 258 0
-264 -9 0
-264 258 0
264 9 -258 0
-265 -263 0
-265 -264 0
265 263 264 0
-266 262 0
-266 265 0
266 -262 -265 0
-267 -229 0
-267 266 0
267 229 -266 0
-268 -231 0
-268 267 0
268 231 -267 0
-269 5 0
-269 -228 0
269 -5 228 0
-270 -5 0
-270 228 0
270 5 -228 0
-271 -269 0
-271 -270 0
271 269 270 0
272 -1261 0
-272 1261 0
-273 271 0
-273 272 0
273 -271 -272 0
-274 268 0
-274 -273 0
274 -268 273 0
-275 -271 0
-275 -272 0
275 271 272 0
-276 274 0
-276 -275 0
276 -274 275 0
-277 8 0
-277 -272 0
277 -8 272 0
-278 -8 0
-278 272 0
278 8 -272 0
-279 -277 0
-279 -278 0
279 277 278 0
280 -1262 0
-280 1262 0
-281 279 0
-281 280 0
281 -279 -280 0
-282 276 0
-282 -281 0
282 -276 281 0
-283 -279 0
-283 -280 0
283 279 280 0
-284 282 0
-284 -283 0
284 -282 283 0
-285 27 0
-285 -280 0
285 -27 280 0
-286 -27 0
-286 280 0
286 27 -280 0
-287 -285 0
-287 -286 0
287 285 286 0
-288 284 0
-288 287 0
288 -284 -287 0
-291 288 0
-291 -290 0
291 -288 290 0
-293 291 0
-293 -292 0
293 -291 292 0
-294 4 0
-294 -289 0
294 -4 289 0
-295 -4 0
-295 289 0
295 4 -289 0
-296 -294 0
-296 -295 0
296 294 295 0
297 -1264 0
-297 1264 0
-298 296 0
-298 297 0
298 -296 -297 0
-299 293 0
-299 -298 0
299 -293 298 0
-300 -296 0
-300 -297 0
300 296 297 0
-301 299 0
-301 -300 0
301 -299 300 0
-302 7 0
-302 -297 0
302 -7 297 0
-303 -7 0
-303 297 0
303 7 -297 0
-304 -302 0
-304 -303 0
304 302 303 0
305 -1265 0
-305 1265 0
-306 304 0
-306 305 0
306 -304 -305 0
-307 301 0
-307 -306 0
307 -301 306 0
-308 -304 0
-308 -305 0
308 304 305 0
-309 307 0
-309 -308 0
309 -307 308 0
-310 26 0
-310 -305 0
310 -26 305 0
-311 -26 0
-311 305 0
311 26 -305 0
-312 -310 0
-312 -311 0
312 310 311 0
-313 309 0
-313 312 0
313 -309 -312 0
-316 313 0
-316 -315 0
316 -313 315 0
-318 316 0
-318 -317 0
318 -316 317 0
-319 3 0
-319 -314 0
319 -3 314 0
-320 -3 0
-320 314 0
320 3 -314 0
-321 -319 0
-321 -320 0
321 319 320 0
322 -1267 0
-322 1267 0
-323 321 0
-323 322 0
323 -321 -322 0
-324 318 0
-324 -323 0
324 -318 323 0
-325 -321 0
-325 -322 0
325 321 322 0
-326 324 0
-326 -325 0
326 -324 325 0
-327 6 0
-327 -322 0
327 -6 322 0
-328 -6 0
-328 322 0
328 6 -322 0
-329 -327 0
-329 -328 0
329 327 328 0
330 -1268 0
-330 1268 0
-331 329 0
-331 330 0
331 -329 -330 0
-332 326 0
-332 -331 0
332 -326 331 0
-333 -329 0
-333 -330 0
333 329 330 0
-334 332 0
-334 -333 0
334 -332 333 0
-335 25 0
-335 -330 0
335 -25 330 0
-336 -25 0
-336 330 0
336 25 -330 0
-337 -335 0
-337 -336 0
337 335 336 0
-338 334 0
-338 337 0
338 -334 -337 0
-341 338 0
-341 -340 0
341 -338 340 0
-343 341 0
-343 -342 0
343 -341 342 0
-349 343 0
-349 -348 0
349 -343 348 0
-351 349 0
-351 -350 0
351 -349 350 0
-352 5 0
-352 -347 0
352 -5 347 0
-353 -5 0
-353 347 0
353 5 -347 0
-354 -352 0
-354 -353 0
354 352 353 0
355 -1271 0
-355 1271 0
-356 354 0
-356 355 0
356 -354 -355 0
-357 351 0
-357 -356 0
357 -351 356 0
-358 -354 0
-358 -355 0
358 354 355 0
-359 357 0
-359 -358 0
359 -357 358 0
-360 24 0
-360 -355 0
360 -24 355 0
-361 -24 0
-361 355 0
361 24 -355 0
-362 -360 0
-362 -361 0
362 360 361 0
-363 359 0
-363 362 0
363 -359 -362 0
-364 -340 0
-364 363 0
364 340 -363 0
-365 -342 0
-365 364 0
365 342 -364 0
-371 365 0
-371 -370 0
371 -365 370 0
-373 371 0
-373 -372 0
373 -371 372 0
-374 23 0
-374 -369 0
374 -23 369 0
-375 -23 0
-375 369 0
375 23 -369 0
-376 -374 0
-376 -375 0
376 374 375 0
-377 373 0
-377 376 0
377 -373 -376 0
-380 377 0
-380 -379 0
380 -377 379 0
-382 380 0
-382 -381 0
382 -380 381 0
-388 382 0
-388 -387 0
388 -382 387 0
-390 388 0
-390 -389 0
390 -388 389 0
-391 22 0
-391 -386 0
391 -22 386 0
-392 -22 0
-392 386 0
392 22 -386 0
-393 -391 0
-393 -392 0
393 391 392 0
394 -1275 0
-394 1275 0
-395 393 0
-395 394 0
395 -393 -394 0
-396 390 0
-396 -395 0
396 -390 395 0
-397 -393 0
-397 -394 0
397 393 394 0
-398 396 0
-398 -397 0
398 -396 397 0
-399 27 0
-399 -394 0
399 -27 394 0
-400 -27 0
-400 394 0
400 27 -394 0
-401 -399 0
-401 -400 0
401 399 400 0
-402 398 0
-402 401 0
402 -398 -401 0
-405 402 0
-405 -404 0
405 -402 404 0
-407 405 0
-407 -406 0
407 -405 406 0
-413 407 0
-413 -412 0
413 -407 412 0
-415 413 0
-415 -414 0
415 -413 414 0
-416 26 0
-416 -411 0
416 -26 411 0
-417 -26 0
-417 411 0
417 26 -411 0
-418 -416 0
-418 -417 0
418 416 417 0
-419 415 0
-419 418 0
419 -415 -418 0
-422 419 0
-422 -421 0
422 -419 421 0
-424 422 0
-424 -423 0
424 -422 423 0
-425 20 0
-425 -420 0
425 -20 420 0
-426 -20 0
-426 420 0
426 20 -420 0
-427 -425 0
-427 -426 0
427 425 426 0
428 -1279 0
-428 1279 0
-429 427 0
-429 428 0
429 -427 -428 0
-430 424 0
-430 -429 0
430 -424 429 0
-431 -427 0
-431 -428 0
431 427 428 0
-432 430 0
-432 -431 0
432 -430 431 0
-433 27 0
-433 -428 0
433 -27 428 0
-434 -27 0
-434 428 0
434 27 -428 0
-435 -433 0
-435 -434 0
435 433 434 0
-436 432 0
-436 435 0
436 -432 -435 0
-439 436 0
-439 -438 0
439 -436 438 0
-441 439 0
-441 -440 0
441 -439 440 0
-442 19 0
-442 -437 0
442 -19 437 0
-443 -19 0
-443 437 0
443 19 -437 0
-444 -442 0
-444 -443 0
444 442 443 0
445 -1281 0
-445 1281 0
-446 444 0
-446 445 0
446 -444 -445 0
-447 441 0
-447 -446 0
447 -441 446 0
-448 -444 0
-448 -445 0
448 444 445 0
-449 447 0
-449 -448 0
449 -447 448 0
-450 26 0
-450 -445 0
450 -26 445 0
-451 -26 0
-451 445 0
451 26 -445 0
-452 -450 0
-452 -451 0
452 450 451 0
453 -1282 0
-453 1282 0
-454 452 0
-454 453 0
454 -452 -453 0
-455 449 0
-455 -454 0
455 -449 454 0
-456 -452 0
-456 -453 0
456 452 453 0
-457 455 0
-457 -456 0
457 -455 456 0
-458 27 0
-458 -453 0
458 -27 453 0
-459 -27 0
-459 453 0
459 27 -453 0
-460 -458 0
-460 -459 0
460 458 459 0
-461 457 0
-461 460 0
461 -457 -460 0
-464 461 0
-464 -463 0
464 -461 463 0
-466 464 0
-466 -465 0
466 -464 465 0
-467 18 0
-467 -462 0
467 -18 462 0
-468 -18 0
-468 462 0
468 18 -462 0
-469 -467 0
-469 -468 0
469 467 468 0
470 -1284 0
-470 1284 0
-471 469 0
-471 470 0
471 -469 -470 0
-472 466 0
-472 -471 0
472 -466 471 0
-473 -469 0
-473 -470 0
473 469 470 0
-474 472 0
-474 -473 0
474 -472 473 0
-475 25 0
-475 -470 0
475 -25 470 0
-476 -25 0
-476 470 0
476 25 -470 0
-477 -475 0
-477 -476 0
477 475 476 0
478 -1285 0
-478 1285 0
-479 477 0
-479 478 0
479 -477 -478 0
-480 474 0
-480 -479 0
480 -474 479 0
-481 -477 0
-481 -478 0
481 477 478 0
-482 480 0
-482 -481 0
482 -480 481 0
-483 26 0
-483 -478 0
483 -26 478 0
-484 -26 0
-484 478 0
484 26 -478 0
-485 -483 0
-485 -484 0
485 483 484 0
-486 482 0
-486 485 0
486 -482 -485 0
-489 486 0
-489 -488 0
489 -486 488 0
-491 489 0
-491 -490 0
491 -489 490 0
-492 17 0
-492 -487 0
492 -17 487 0
-493 -17 0
-493 487 0
493 17 -487 0
-494 -492 0
-494 -493 0
494 492 493 0
495 -1287 0
-495 1287 0
-496 494 0
-496 495 0
496 -494 -495 0
-497 491 0
-497 -496 0
497 -491 496 0
-498 -494 0
-498 -495 0
498 494 495 0
-499 497 0
-499 -498 0
499 -497 498 0
-500 24 0
-500 -495 0
500 -24 495 0
-501 -24 0
-501 495 0
501 24 -495 0
-502 -500 0
-502 -501 0
502 500 501 0
503 -1288 0
-503 1288 0
-504 502 0
-504 503 0
504 -502 -503 0
-505 499 0
-505 -504 0
505 -499 504 0
-506 -502 0
-506 -503 0
506 502 503 0
-507 505 0
-507 -506 0
507 -505 506 0
-508 25 0
-508 -503 0
508 -25 503 0
-509 -25 0
-509 503 0
509 25 -503 0
-510 -508 0
-510 -509 0
510 508 509 0
-511 507 0
-511 510 0
511 -507 -510 0
-512 -404 0
-512 511 0
512 404 -511 0
-513 -406 0
-513 512 0
513 406 -512 0
-514 16 0
-514 -403 0
514 -16 403 0
-515 -16 0
-515 403 0
515 16 -403 0
-516 -514 0
-516 -515 0
516 514 515 0
517 -1289 0
-517 1289 0
-518 516 0
-518 517 0
518 -516 -517 0
-519 513 0
-519 -518 0
519 -513 518 0
-520 -516 0
-520 -517 0
520 516 517 0
-521 519 0
-521 -520 0
521 -519 520 0
-522 23 0
-522 -517 0
522 -23 517 0
-523 -23 0
-523 517 0
523 23 -517 0
-524 -522 0
-524 -523 0
524 522 523 0
525 -1290 0
-525 1290 0
-526 524 0
-526 525 0
526 -524 -525 0
-527 521 0
-527 -526 0
527 -521 526 0
-528 -524 0
-528 -525 0
528 524 525 0
-529 527 0
-529 -528 0
529 -527 528 0
-530 24 0
-530 -525 0
530 -24 525 0
-531 -24 0
-531 525 0
531 24 -525 0
-532 -530 0
-532 -531 0
532 530 531 0
-533 529 0
-533 532 0
533 -529 -532 0
-536 533 0
-536 -535 0
536 -533 535 0
-538 536 0
-538 -537 0
538 -536 537 0
-539 15 0
-539 -534 0
539 -15 534 0
-540 -15 0
-540 534 0
540 15 -534 0
-541 -539 0
-541 -540 0
541 539 540 0
542 -1292 0
-542 1292 0
-543 541 0
-543 542 0
543 -541 -542 0
-544 538 0
-544 -543 0
544 -538 543 0
-545 -541 0
-545 -542 0
545 541 542 0
-546 544 0
-546 -545 0
546 -544 545 0
-547 22 0
-547 -542 0
547 -22 542 0
-548 -22 0
-548 542 0
548 22 -542 0
-549 -547 0
-549 -548 0
549 547 548 0
550 -1293 0
-550 1293 0
-551 549 0
-551 550 0
551 -549 -550 0
-552 546 0
-552 -551 0
552 -546 551 0
-553 -549 0
-553 -550 0
553 549 550 0
-554 552 0
-554 -553 0
554 -552 553 0
-555 23 0
-555 -550 0
555 -23 550 0
-556 -23 0
-556 550 0
556 23 -550 0
-557 -555 0
-557 -556 0
557 555 556 0
-558 554 0
-558 557 0
558 -554 -557 0
-561 558 0
-561 -560 0
561 -558 560 0
-563 561 0
-563 -562 0
563 -561 562 0
-564 14 0
-564 -559 0
564 -14 559 0
-565 -14 0
-565 559 0
565 14 -559 0
-566 -564 0
-566 -565 0
566 564 565 0
567 -1295 0
-567 1295 0
-568 566 0
-568 567 0
568 -566 -567 0
-569 563 0
-569 -568 0
569 -563 568 0
-570 -566 0
-570 -567 0
570 566 567 0
-571 569 0
-571 -570 0
571 -569 570 0
-572 21 0
-572 -567 0
572 -21 567 0
-573 -21 0
-573 567 0
573 21 -567 0
-574 -572 0
-574 -573 0
574 572 573 0
575 -1296 0
-575 1296 0
-576 574 0
-576 575 0
576 -574 -575 0
-577 571 0
-577 -576 0
577 -571 576 0
-578 -574 0
-578 -575 0
578 574 575 0
-579 577 0
-579 -578 0
579 -577 578 0
-580 22 0
-580 -575 0
580 -22 575 0
-581 -22 0
-581 575 0
581 22 -575 0
-582 -580 0
-582 -581 0
582 580 581 0
-583 579 0
-583 582 0
583 -579 -582 0
-586 583 0
-586 -585 0
586 -583 585 0
-588 586 0
-588 -587 0
588 -586 587 0
-589 13 0
-589 -584 0
589 -13 584 0
-590 -13 0
-590 584 0
590 13 -584 0
-591 -589 0
-591 -590 0
591 589 590 0
592 -1298 0
-592 1298 0
-593 591 0
-593 592 0
593 -591 -592 0
-594 588 0
-594 -593 0
594 -588 593 0
-595 -591 0
-595 -592 0
595 591 592 0
-596 594 0
-596 -595 0
596 -594 595 0
-597 20 0
-597 -592 0
597 -20 592 0
-598 -20 0
-598 592 0
598 20 -592 0
-599 -597 0
-599 -598 0
599 597 598 0
600 -1299 0
-600 1299 0
-601 599 0
-601 600 0
601 -599 -600 0
-602 596 0
-602 -601 0
602 -596 601 0
-603 -599 0
-603 -600 0
603 599 600 0
-604 602 0
-604 -603 0
604 -602 603 0
-605 21 0
-605 -600 0
605 -21 600 0
-606 -21 0
-606 600 0
606 21 -600 0
-607 -605 0
-607 -606 0
607 605 606 0
-608 604 0
-608 607 0
608 -604 -607 0
-611 608 0
-611 -610 0
611 -608 610 0
-613 611 0
-613 -612 0
613 -611 612 0
-614 12 0
-614 -609 0
614 -12 609 0
-615 -12 0
-615 609 0
615 12 -609 0
-616 -614 0
-616 -615 0
616 614 615 0
617 -1301 0
-617 1301 0
-618 616 0
-618 617 0
618 -616 -617 0
-619 613 0
-619 -618 0
619 -613 618 0
-620 -616 0
-620 -617 0
620 616 617 0
-621 619 0
-621 -620 0
621 -619 620 0
-622 19 0
-622 -617 0
622 -19 617 0
-623 -19 0
-623 617 0
623 19 -617 0
-624 -622 0
-624 -623 0
624 622 623 0
625 -1302 0
-625 1302 0
-626 624 0
-626 625 0
626 -624 -625 0
-627 621 0
-627 -626 0
627 -621 626 0
-628 -624 0
-628 -625 0
628 624 625 0
-629 627 0
-629 -628 0
629 -627 628 0
-630 20 0
-630 -625 0
630 -20 625 0
-631 -20 0
-631 625 0
631 20 -625 0
-632 -630 0
-632 -631 0
632 630 631 0
-633 629 0
-633 632 0
633 -629 -632 0
-636 633 0
-636 -635 0
636 -633 635 0
-638 636 0
-638 -637 0
638 -636 637 0
-639 11 0
-639 -634 0
639 -11 634 0
-640 -11 0
-640 634 0
640 11 -634 0
-641 -639 0
-641 -640 0
641 639 640 0
642 -1304 0
-642 1304 0
-643 641 0
-643 642 0
643 -641 -642 0
-644 638 0
-644 -643 0
644 -638 643 0
-645 -641 0
-645 -642 0
645 641 642 0
-646 644 0
-646 -645 0
646 -644 645 0
-647 18 0
-647 -642 0
647 -18 642 0
-648 -18 0
-648 642 0
648 18 -642 0
-649 -647 0
-649 -648 0
649 647 648 0
650 -1305 0
-650 1305 0
-651 649 0
-651 650 0
651 -649 -650 0
-652 646 0
-652 -651 0
652 -646 651 0
-653 -649 0
-653 -650 0
653 649 650 0
-654 652 0
-654 -653 0
654 -652 653 0
-655 19 0
-655 -650 0
655 -19 650 0
-656 -19 0
-656 650 0
656 19 -650 0
-657 -655 0
-657 -656 0
657 655 656 0
-658 654 0
-658 657 0
658 -654 -657 0
-661 658 0
-661 -660 0
661 -658 660 0
-663 661 0
-663 -662 0
663 -661 662 0
-664 10 0
-664 -659 0
664 -10 659 0
-665 -10 0
-665 659 0
665 10 -659 0
-666 -664 0
-666 -665 0
666 664 665 0
667 -1307 0
-667 1307 0
-668 666 0
-668 667 0
668 -666 -667 0
-669 663 0
-669 -668 0
669 -663 668 0
-670 -666 0
-670 -667 0
670 666 667 0
-671 669 0
-671 -670 0
671 -669 670 0
-672 17 0
-672 -667 0
672 -17 667 0
-673 -17 0
-673 667 0
673 17 -667 0
-674 -672 0
-674 -673 0
674 672 673 0
675 -1308 0
-675 1308 0
-676 674 0
-676 675 0
676 -674 -675 0
-677 671 0
-677 -676 0
677 -671 676 0
-678 -674 0
-678 -675 0
678 674 675 0
-679 677 0
-679 -678 0
679 -677 678 0
-680 18 0
-680 -675 0
680 -18 675 0
-681 -18 0
-681 675 0
681 18 -675 0
-682 -680 0
-682 -681 0
682 680 681 0
-683 679 0
-683 682 0
683 -679 -682 0
-684 -179 0
-684 683 0
684 179 -683 0
-685 -181 0
-685 684 0
685 181 -684 0
-686 8 0
-686 -178 0
686 -8 178 0
-687 -8 0
-687 178 0
687 8 -178 0
-688 -686 0
-688 -687 0
688 686 687 0
689 -1309 0
-689 1309 0
-690 688 0
-690 689 0
690 -688 -689 0
-691 685 0
-691 -690 0
691 -685 690 0
-692 -688 0
-692 -689 0
692 688 689 0
-693 691 0
-693 -692 0
693 -691 692 0
-694 11 0
-694 -689 0
694 -11 689 0
-695 -11 0
-695 689 0
695 11 -689 0
-696 -694 0
-696 -695 0
696 694 695 0
697 -1310 0
-697 1310 0
-698 696 0
-698 697 0
698 -696 -697 0
-699 693 0
-699 -698 0
699 -693 698 0
-700 -696 0
-700 -697 0
700 696 697 0
-701 699 0
-701 -700 0
701 -699 700 0
-702 16 0
-702 -697 0
702 -16 697 0
-703 -16 0
-703 697 0
703 16 -697 0
-704 -702 0
-704 -703 0
704 702 703 0
-705 701 0
-705 704 0
705 -701 -704 0
-706 -204 0
-706 705 0
706 204 -705 0
-707 -206 0
-707 706 0
707 206 -706 0
-708 7 0
-708 -203 0
708 -7 203 0
-709 -7 0
-709 203 0
709 7 -203 0
-710 -708 0
-710 -709 0
710 708 709 0
711 -1311 0
-711 1311 0
-712 710 0
-712 711 0
712 -710 -711 0
-713 707 0
-713 -712 0
713 -707 712 0
-714 -710 0
-714 -711 0
714 710 711 0
-715 713 0
-715 -714 0
715 -713 714 0
-716 10 0
-716 -711 0
716 -10 711 0
-717 -10 0
-717 711 0
717 10 -711 0
-718 -716 0
-718 -717 0
718 716 717 0
719 -1312 0
-719 1312 0
-720 718 0
-720 719 0
720 -718 -719 0
-721 715 0
-721 -720 0
721 -715 720 0
-722 -718 0
-722 -719 0
722 718 719 0
-723 721 0
-723 -722 0
723 -721 722 0
-724 15 0
-724 -719 0
724 -15 719 0
-725 -15 0
-725 719 0
725 15 -719 0
-726 -724 0
-726 -725 0
726 724 725 0
-727 723 0
-727 726 0
727 -723 -726 0
-728 -229 0
-728 727 0
728 229 -727 0
-729 -231 0
-729 728 0
729 231 -728 0
-730 6 0
-730 -228 0
730 -6 228 0
-731 -6 0
-731 228 0
731 6 -228 0
-732 -730 0
-732 -731 0
732 730 731 0
733 -1313 0
-733 1313 0
-734 732 0
-734 733 0
734 -732 -733 0
-735 729 0
-735 -734 0
735 -729 734 0
-736 -732 0
-736 -733 0
736 732 733 0
-737 735 0
-737 -736 0
737 -735 736 0
-738 9 0
-738 -733 0
738 -9 733 0
-739 -9 0
-739 733 0
739 9 -733 0
-740 -738 0
-740 -739 0
740 738 739 0
741 -1314 0
-741 1314 0
-742 740 0
-742 741 0
742 -740 -741 0
-743 737 0
-743 -742 0
743 -737 742 0
-744 -740 0
-744 -741 0
744 740 741 0
-745 743 0
-745 -744 0
745 -743 744 0
-746 14 0
-746 -741 0
746 -14 741 0
-747 -14 0
-747 741 0
747 14 -741 0
-748 -746 0
-748 -747 0
748 746 747 0
-749 745 0
-749 748 0
749 -745 -748 0
-750 -290 0
-750 749 0
750 290 -749 0
-751 -292 0
-751 750 0
751 292 -750 0
-752 5 0
-752 -289 0
752 -5 289 0
-753 -5 0
-753 289 0
753 5 -289 0
-754 -752 0
-754 -753 0
754 752 753 0
755 -1315 0
-755 1315 0
-756 754 0
-756 755 0
756 -754 -755 0
-757 751 0
-757 -756 0
757 -751 756 0
-758 -754 0
-758 -755 0
758 754 755 0
-759 757 0
-759 -758 0
759 -757 758 0
-760 8 0
-760 -755 0
760 -8 755 0
-761 -8 0
-761 755 0
761 8 -755 0
-762 -760 0
-762 -761 0
762 760 761 0
763 -1316 0
-763 1316 0
-764 762 0
-764 763 0
764 -762 -763 0
-765 759 0
-765 -764 0
765 -759 764 0
-766 -762 0
-766 -763 0
766 762 763 0
-767 765 0
-767 -766 0
767 -765 766 0
-768 13 0
-768 -763 0
768 -13 763 0
-769 -13 0
-769 763 0
769 13 -763 0
-770 -768 0
-770 -769 0
770 768 769 0
-771 767 0
-771 770 0
771 -767 -770 0
-772 -315 0
-772 771 0
772 315 -771 0
-773 -317 0
-773 772 0
773 317 -772 0
-774 4 0
-774 -314 0
774 -4 314 0
-775 -4 0
-775 314 0
775 4 -314 0
-776 -774 0
-776 -775 0
776 774 775 0
777 -1317 0
-777 1317 0
-778 776 0
-778 777 0
778 -776 -777 0
-779 773 0
-779 -778 0
779 -773 778 0
-780 -776 0
-780 -777 0
780 776 777 0
-781 779 0
-781 -780 0
781 -779 780 0
-782 7 0
-782 -777 0
782 -7 777 0
-783 -7 0
-783 777 0
783 7 -777 0
-784 -782 0
-784 -783 0
784 782 783 0
785 -1318 0
-785 1318 0
-786 784 0
-786 785 0
786 -784 -785 0
-787 781 0
-787 -786 0
787 -781 786 0
-788 -784 0
-788 -785 0
788 784 785 0
-789 787 0
-789 -788 0
789 -787 788 0
-790 12 0
-790 -785 0
790 -12 785 0
-791 -12 0
-791 785 0
791 12 -785 0
-792 -790 0
-792 -791 0
792 790 791 0
-793 789 0
-793 792 0
793 -789 -792 0
-794 -340 0
-794 793 0
794 340 -793 0
-795 -342 0
-795 794 0
795 342 -794 0
-796 -370 0
-796 795 0
796 370 -795 0
-797 -372 0
-797 796 0
797 372 -796 0
-798 6 0
-798 -369 0
798 -6 369 0
-799 -6 0
-799 369 0
799 6 -369 0
-800 -798 0
-800 -799 0
800 798 799 0
801 -1319 0
-801 1319 0
-802 800 0
-802 801 0
802 -800 -801 0
-803 797 0
-803 -802 0
803 -797 802 0
-804 -800 0
-804 -801 0
804 800 801 0
-805 803 0
-805 -804 0
805 -803 804 0
-806 11 0
-806 -801 0
806 -11 801 0
-807 -11 0
-807 801 0
807 11 -801 0
-808 -806 0
-808 -807 0
808 806 807 0
-809 805 0
-809 808 0
809 -805 -808 0
-810 -379 0
-810 809 0
810 379 -809 0
-811 -381 0
-811 810 0
811 381 -810 0
-812 -387 0
-812 811 0
812 387 -811 0
-813 -389 0
-813 812 0
813 389 -812 0
-814 5 0
-814 -386 0
814 -5 386 0
-815 -5 0
-815 386 0
815 5 -386 0
-816 -814 0
-816 -815 0
816 814 815 0
817 -1320 0
-817 1320 0
-818 816 0
-818 817 0
818 -816 -817 0
-819 813 0
-819 -818 0
819 -813 818 0
-820 -816 0
-820 -817 0
820 816 817 0
-821 819 0
-821 -820 0
821 -819 820 0
-822 10 0
-822 -817 0
822 -10 817 0
-823 -10 0
-823 817 0
823 10 -817 0
-824 -822 0
-824 -823 0
824 822 823 0
-825 821 0
-825 824 0
825 -821 -824 0
-826 -340 0
-826 825 0
826 340 -825 0
-827 -342 0
-827 826 0
827 342 -826 0
-828 -348 0
-828 827 0
828 348 -827 0
-829 -350 0
-829 828 0
829 350 -828 0
-830 9 0
-830 -347 0
830 -9 347 0
-831 -9 0
-831 347 0
831 9 -347 0
-832 -830 0
-832 -831 0
832 830 831 0
-833 829 0
-833 832 0
833 -829 -832 0
-834 -204 0
-834 833 0
834 204 -833 0
-835 -206 0
-835 834 0
835 206 -834 0
-836 -212 0
-836 835 0
836 212 -835 0
-837 -214 0
-837 836 0
837 214 -836 0
-838 27 0
-838 -211 0
838 -27 211 0
-839 -27 0
-839 211 0
839 27 -211 0
-840 -838 0
-840 -839 0
840 838 839 0
-841 837 0
-841 840 0
841 -837 -840 0
-842 -229 0
-842 841 0
842 229 -841 0
-843 -231 0
-843 842 0
843 231 -842 0
-844 -237 0
-844 843 0
844 237 -843 0
-845 -239 0
-845 844 0
845 239 -844 0
-846 26 0
-846 -236 0
846 -26 236 0
-847 -26 0
-847 236 0
847 26 -236 0
-848 -846 0
-848 -847 0
848 846 847 0
849 -1321 0
-849 1321 0
-850 848 0
-850 849 0
850 -848 -849 0
-851 845 0
-851 -850 0
851 -845 850 0
-852 -848 0
-852 -849 0
852 848 849 0
-853 851 0
-853 -852 0
853 -851 852 0
-854 27 0
-854 -849 0
854 -27 849 0
-855 -27 0
-855 849 0
855 27 -849 0
-856 -854 0
-856 -855 0
856 854 855 0
-857 853 0
-857 856 0
857 -853 -856 0
-858 -421 0
-858 857 0
858 421 -857 0
-859 -423 0
-859 858 0
859 423 -858 0
-860 6 0
-860 -420 0
860 -6 420 0
-861 -6 0
-861 420 0
861 6 -420 0
-862 -860 0
-862 -861 0
862 860 861 0
863 -1322 0
-863 1322 0
-864 862 0
-864 863 0
864 -862 -863 0
-865 859 0
-865 -864 0
865 -859 864 0
-866 -862 0
-866 -863 0
866 862 863 0
-867 865 0
-867 -866 0
867 -865 866 0
-868 26 0
-868 -863 0
868 -26 863 0
-869 -26 0
-869 863 0
869 26 -863 0
-870 -868 0
-870 -869 0
870 868 869 0
-871 867 0
-871 870 0
871 -867 -870 0
-872 -438 0
-872 871 0
872 438 -871 0
-873 -440 0
-873 872 0
873 440 -872 0
-874 5 0
-874 -437 0
874 -5 437 0
-875 -5 0
-875 437 0
875 5 -437 0
-876 -874 0
-876 -875 0
876 874 875 0
877 -1323 0
-877 1323 0
-878 876 0
-878 877 0
878 -876 -877 0
-879 873 0
-879 -878 0
879 -873 878 0
-880 -876 0
-880 -877 0
880 876 877 0
-881 879 0
-881 -880 0
881 -879 880 0
-882 25 0
-882 -877 0
882 -25 877 0
-883 -25 0
-883 877 0
883 25 -877 0
-884 -882 0
-884 -883 0
884 882 883 0
885 -1324 0
-885 1324 0
-886 884 0
-886 885 0
886 -884 -885 0
-887 881 0
-887 -886 0
887 -881 886 0
-888 -884 0
-888 -885 0
888 884 885 0
-889 887 0
-889 -888 0
889 -887 888 0
-890 27 0
-890 -885 0
890 -27 885 0
-891 -27 0
-891 885 0
891 27 -885 0
-892 -890 0
-892 -891 0
892 890 891 0
-893 889 0
-893 892 0
893 -889 -892 0
-894 -463 0
-894 893 0
894 463 -893 0
-895 -465 0
-895 894 0
895 465 -894 0
-896 4 0
-896 -462 0
896 -4 462 0
-897 -4 0
-897 462 0
897 4 -462 0
-898 -896 0
-898 -897 0
898 896 897 0
899 -1325 0
-899 1325 0
-900 898 0
-900 899 0
900 -898 -899 0
-901 895 0
-901 -900 0
901 -895 900 0
-902 -898 0
-902 -899 0
902 898 899 0
-903 901 0
-903 -902 0
903 -901 902 0
-904 24 0
-904 -899 0
904 -24 899 0
-905 -24 0
-905 899 0
905 24 -899 0
-906 -904 0
-906 -905 0
906 904 905 0
907 -1326 0
-907 1326 0
-908 906 0
-908 907 0
908 -906 -907 0
-909 903 0
-909 -908 0
909 -903 908 0
-910 -906 0
-910 -907 0
910 906 907 0
-911 909 0
-911 -910 0
911 -909 910 0
-912 26 0
-912 -907 0
912 -26 907 0
-913 -26 0
-913 907 0
913 26 -907 0
-914 -912 0
-914 -913 0
914 912 913 0
-915 911 0
-915 914 0
915 -911 -914 0
-916 -488 0
-916 915 0
916 488 -915 0
-917 -490 0
-917 916 0
917 490 -916 0
-918 3 0
-918 -487 0
918 -3 487 0
-919 -3 0
-919 487 0
919 3 -487 0
-920 -918 0
-920 -919 0
920 918 919 0
921 -1327 0
-921 1327 0
-922 920 0
-922 921 0
922 -920 -921 0
-923 917 0
-923 -922 0
923 -917 922 0
-924 -920 0
-924 -921 0
924 920 921 0
-925 923 0
-925 -924 0
925 -923 924 0
-926 23 0
-926 -921 0
926 -23 921 0
-927 -23 0
-927 921 0
927 23 -921 0
-928 -926 0
-928 -927 0
928 926 927 0
929 -1328 0
-929 1328 0
-930 928 0
-930 929 0
930 -928 -929 0
-931 925 0
-931 -930 0
931 -925 930 0
-932 -928 0
-932 -929 0
932 928 929 0
-933 931 0
-933 -932 0
933 -931 932 0
-934 25 0
-934 -929 0
934 -25 929 0
-935 -25 0
-935 929 0
935 25 -929 0
-936 -934 0
-936 -935 0
936 934 935 0
-937 933 0
-937 936 0
937 -933 -936 0
-938 -404 0
-938 937 0
938 404 -937 0
-939 -406 0
-939 938 0
939 406 -938 0
-940 -412 0
-940 939 0
940 412 -939 0
-941 -414 0
-941 940 0
941 414 -940 0
-942 22 0
-942 -411 0
942 -22 411 0
-943 -22 0
-943 411 0
943 22 -411 0
-944 -942 0
-944 -943 0
944 942 943 0
945 -1329 0
-945 1329 0
-946 944 0
-946 945 0
946 -944 -945 0
-947 941 0
-947 -946 0
947 -941 946 0
-948 -944 0
-948 -945 0
948 944 945 0
-949 947 0
-949 -948 0
949 -947 948 0
-950 24 0
-950 -945 0
950 -24 945 0
-951 -24 0
-951 945 0
951 24 -945 0
-952 -950 0
-952 -951 0
952 950 951 0
-953 949 0
-953 952 0
953 -949 -952 0
-954 -404 0
-954 953 0
954 404 -953 0
-955 -406 0
-955 954 0
955 406 -954 0
-956 20 0
-956 -403 0
956 -20 403 0
-957 -20 0
-957 403 0
957 20 -403 0
-958 -956 0
-958 -957 0
958 956 957 0
959 -1330 0
-959 1330 0
-960 958 0
-960 959 0
960 -958 -959 0
-961 955 0
-961 -960 0
961 -955 960 0
-962 -958 0
-962 -959 0
962 958 959 0
-963 961 0
-963 -962 0
963 -961 962 0
-964 23 0
-964 -959 0
964 -23 959 0
-965 -23 0
-965 959 0
965 23 -959 0
-966 -964 0
-966 -965 0
966 964 965 0
-967 963 0
-967 966 0
967 -963 -966 0
-968 -535 0
-968 967 0
968 535 -967 0
-969 -537 0
-969 968 0
969 537 -968 0
-970 19 0
-970 -534 0
970 -19 534 0
-971 -19 0
-971 534 0
971 19 -534 0
-972 -970 0
-972 -971 0
972 970 971 0
973 -1331 0
-973 1331 0
-974 972 0
-974 973 0
974 -972 -973 0
-975 969 0
-975 -974 0
975 -969 974 0
-976 -972 0
-976 -973 0
976 972 973 0
-977 975 0
-977 -976 0
977 -975 976 0
-978 22 0
-978 -973 0
978 -22 973 0
-979 -22 0
-979 973 0
979 22 -973 0
-980 -978 0
-980 -979 0
980 978 979 0
981 -1332 0
-981 1332 0
-982 980 0
-982 981 0
982 -980 -981 0
-983 977 0
-983 -982 0
983 -977 982 0
-984 -980 0
-984 -981 0
984 980 981 0
-985 983 0
-985 -984 0
985 -983 984 0
-986 27 0
-986 -981 0
986 -27 981 0
-987 -27 0
-987 981 0
987 27 -981 0
-988 -986 0
-988 -987 0
988 986 987 0
-989 985 0
-989 988 0
989 -985 -988 0
-990 -560 0
-990 989 0
990 560 -989 0
-991 -562 0
-991 990 0
991 562 -990 0
-992 18 0
-992 -559 0
992 -18 559 0
-993 -18 0
-993 559 0
993 18 -559 0
-994 -992 0
-994 -993 0
994 992 993 0
995 -1333 0
-995 1333 0
-996 994 0
-996 995 0
996 -994 -995 0
-997 991 0
-997 -996 0
997 -991 996 0
-998 -994 0
-998 -995 0
998 994 995 0
-999 997 0
-999 -998 0
999 -997 998 0
-1000 21 0
-1000 -995 0
1000 -21 995 0
-1001 -21 0
-1001 995 0
1001 21 -995 0
-1002 -1000 0
-1002 -1001 0
1002 1000 1001 0
1003 -1334 0
-1003 1334 0
-1004 1002 0
-1004 1003 0
1004 -1002 -1003 0
-1005 999 0
-1005 -1004 0
1005 -999 1004 0
-1006 -1002 0
-1006 -1003 0
1006 1002 1003 0
-1007 1005 0
-1007 -1006 0
1007 -1005 1006 0
-1008 26 0
-1008 -1003 0
1008 -26 1003 0
-1009 -26 0
-1009 1003 0
1009 26 -1003 0
-1010 -1008 0
-1010 -1009 0
1010 1008 1009 0
-1011 1007 0
-1011 1010 0
1011 -1007 -1010 0
-1012 -585 0
-1012 1011 0
1012 585 -1011 0
-1013 -587 0
-1013 1012 0
1013 587 -1012 0
-1014 17 0
-1014 -584 0
1014 -17 584 0
-1015 -17 0
-1015 584 0
1015 17 -584 0
-1016 -1014 0
-1016 -1015 0
1016 1014 1015 0
1017 -1335 0
-1017 1335 0
-1018 1016 0
-1018 1017 0
1018 -1016 -1017 0
-1019 1013 0
-1019 -1018 0
1019 -1013 1018 0
-1020 -1016 0
-1020 -1017 0
1020 1016 1017 0
-1021 1019 0
-1021 -1020 0
1021 -1019 1020 0
-1022 20 0
-1022 -1017 0
1022 -20 1017 0
-1023 -20 0
-1023 1017 0
1023 20 -1017 0
-1024 -1022 0
-1024 -1023 0
1024 1022 1023 0
1025 -1336 0
-1025 1336 0
-1026 1024 0
-1026 1025 0
1026 -1024 -1025 0
-1027 1021 0
-1027 -1026 0
1027 -1021 1026 0
-1028 -1024 0
-1028 -1025 0
1028 1024 1025 0
-1029 1027 0
-1029 -1028 0
1029 -1027 1028 0
-1030 25 0
-1030 -1025 0
1030 -25 1025 0
-1031 -25 0
-1031 1025 0
1031 25 -1025 0
-1032 -1030 0
-1032 -1031 0
1032 1030 1031 0
-1033 1029 0
-1033 1032 0
1033 -1029 -1032 0
-1034 -610 0
-1034 1033 0
1034 610 -1033 0
-1035 -612 0
-1035 1034 0
1035 612 -1034 0
-1036 16 0
-1036 -609 0
1036 -16 609 0
-1037 -16 0
-1037 609 0
1037 16 -609 0
-1038 -1036 0
-1038 -1037 0
1038 1036 1037 0
1039 -1337 0
-1039 1337 0
-1040 1038 0
-1040 1039 0
1040 -1038 -1039 0
-1041 1035 0
-1041 -1040 0
1041 -1035 1040 0
-1042 -1038 0
-1042 -1039 0
1042 1038 1039 0
-1043 1041 0
-1043 -1042 0
1043 -1041 1042 0
-1044 19 0
-1044 -1039 0
1044 -19 1039 0
-1045 -19 0
-1045 1039 0
1045 19 -1039 0
-1046 -1044 0
-1046 -1045 0
1046 1044 1045 0
1047 -1338 0
-1047 1338 0
-1048 1046 0
-1048 1047 0
1048 -1046 -1047 0
-1049 1043 0
-1049 -1048 0
1049 -1043 1048 0
-1050 -1046 0
-1050 -1047 0
1050 1046 1047 0
-1051 1049 0
-1051 -1050 0
1051 -1049 1050 0
-1052 24 0
-1052 -1047 0
1052 -24 1047 0
-1053 -24 0
-1053 1047 0
1053 24 -1047 0
-1054 -1052 0
-1054 -1053 0
1054 1052 1053 0
-1055 1051 0
-1055 1054 0
1055 -1051 -1054 0
-1056 -635 0
-1056 1055 0
1056 635 -1055 0
-1057 -637 0
-1057 1056 0
1057 637 -1056 0
-1058 15 0
-1058 -634 0
1058 -15 634 0
-1059 -15 0
-1059 634 0
1059 15 -634 0
-1060 -1058 0
-1060 -1059 0
1060 1058 1059 0
1061 -1339 0
-1061 1339 0
-1062 1060 0
-1062 1061 0
1062 -1060 -1061 0
-1063 1057 0
-1063 -1062 0
1063 -1057 1062 0
-1064 -1060 0
-1064 -1061 0
1064 1060 1061 0
-1065 1063 0
-1065 -1064 0
1065 -1063 1064 0
-1066 18 0
-1066 -1061 0
1066 -18 1061 0
-1067 -18 0
-1067 1061 0
1067 18 -1061 0
-1068 -1066 0
-1068 -1067 0
1068 1066 1067 0
1069 -1340 0
-1069 1340 0
-1070 1068 0
-1070 1069 0
1070 -1068 -1069 0
-1071 1065 0
-1071 -1070 0
1071 -1065 1070 0
-1072 -1068 0
-1072 -1069 0
1072 1068 1069 0
-1073 1071 0
-1073 -1072 0
1073 -1071 1072 0
-1074 23 0
-1074 -1069 0
1074 -23 1069 0
-1075 -23 0
-1075 1069 0
1075 23 -1069 0
-1076 -1074 0
-1076 -1075 0
1076 1074 1075 0
-1077 1073 0
-1077 1076 0
1077 -1073 -1076 0
-1078 -660 0
-1078 1077 0
1078 660 -1077 0
-1079 -662 0
-1079 1078 0
1079 662 -1078 0
-1080 14 0
-1080 -659 0
1080 -14 659 0
-1081 -14 0
-1081 659 0
1081 14 -659 0
-1082 -1080 0
-1082 -1081 0
1082 1080 1081 0
1083 -1341 0
-1083 1341 0
-1084 1082 0
-1084 1083 0
1084 -1082 -1083 0
-1085 1079 0
-1085 -1084 0
1085 -1079 1084 0
-1086 -1082 0
-1086 -1083 0
1086 1082 1083 0
-1087 1085 0
-1087 -1086 0
1087 -1085 1086 0
-1088 17 0
-1088 -1083 0
1088 -17 1083 0
-1089 -17 0
-1089 1083 0
1089 17 -1083 0
-1090 -1088 0
-1090 -1089 0
1090 1088 1089 0
1091 -1342 0
-1091 1342 0
-1092 1090 0
-1092 1091 0
1092 -1090 -1091 0
-1093 1087 0
-1093 -1092 0
1093 -1087 1092 0
-1094 -1090 0
-1094 -1091 0
1094 1090 1091 0
-1095 1093 0
-1095 -1094 0
1095 -1093 1094 0
-1096 22 0
-1096 -1091 0
1096 -22 1091 0
-1097 -22 0
-1097 1091 0
1097 22 -1091 0
-1098 -1096 0
-1098 -1097 0
1098 1096 1097 0
-1099 1095 0
-1099 1098 0
1099 -1095 -1098 0
-1100 -54 0
-1100 1099 0
1100 54 -1099 0
-1101 -56 0
-1101 1100 0
1101 56 -1100 0
-1102 13 0
-1102 -53 0
1102 -13 53 0
-1103 -13 0
-1103 53 0
1103 13 -53 0
-1104 -1102 0
-1104 -1103 0
1104 1102 1103 0
1105 -1343 0
-1105 1343 0
-1106 1104 0
-1106 1105 0
1106 -1104 -1105 0
-1107 1101 0
-1107 -1106 0
1107 -1101 1106 0
-1108 -1104 0
-1108 -1105 0
1108 1104 1105 0
-1109 1107 0
-1109 -1108 0
1109 -1107 1108 0
-1110 16 0
-1110 -1105 0
1110 -16 1105 0
-1111 -16 0
-1111 1105 0
1111 16 -1105 0
-1112 -1110 0
-1112 -1111 0
1112 1110 1111 0
1113 -1344 0
-1113 1344 0
-1114 1112 0
-1114 1113 0
1114 -1112 -1113 0
-1115 1109 0
-1115 -1114 0
1115 -1109 1114 0
-1116 -1112 0
-1116 -1113 0
1116 1112 1113 0
-1117 1115 0
-1117 -1116 0
1117 -1115 1116 0
-1118 21 0
-1118 -1113 0
1118 -21 1113 0
-1119 -21 0
-1119 1113 0
1119 21 -1113 0
-1120 -1118 0
-1120 -1119 0
1120 1118 1119 0
-1121 1117 0
-1121 1120 0
1121 -1117 -1120 0
-1122 -79 0
-1122 1121 0
1122 79 -1121 0
-1123 -81 0
-1123 1122 0
1123 81 -1122 0
-1124 12 0
-1124 -78 0
1124 -12 78 0
-1125 -12 0
-1125 78 0
1125 12 -78 0
-1126 -1124 0
-1126 -1125 0
1126 1124 1125 0
1127 -1345 0
-1127 1345 0
-1128 1126 0
-1128 1127 0
1128 -1126 -1127 0
-1129 1123 0
-1129 -1128 0
1129 -1123 1128 0
-1130 -1126 0
-1130 -1127 0
1130 1126 1127 0
-1131 1129 0
-1131 -1130 0
1131 -1129 1130 0
-1132 15 0
-1132 -1127 0
1132 -15 1127 0
-1133 -15 0
-1133 1127 0
1133 15 -1127 0
-1134 -1132 0
-1134 -1133 0
1134 1132 1133 0
1135 -1346 0
-1135 1346 0
-1136 1134 0
-1136 1135 0
1136 -1134 -1135 0
-1137 1131 0
-1137 -1136 0
1137 -1131 1136 0
-1138 -1134 0
-1138 -1135 0
1138 1134 1135 0
-1139 1137 0
-1139 -1138 0
1139 -1137 1138 0
-1140 20 0
-1140 -1135 0
1140 -20 1135 0
-1141 -20 0
-1141 1135 0
1141 20 -1135 0
-1142 -1140 0
-1142 -1141 0
1142 1140 1141 0
-1143 1139 0
-1143 1142 0
1143 -1139 -1142 0
-1144 -104 0
-1144 1143 0
1144 104 -1143 0
-1145 -106 0
-1145 1144 0
1145 106 -1144 0
-1146 11 0
-1146 -103 0
1146 -11 103 0
-1147 -11 0
-1147 103 0
1147 11 -103 0
-1148 -1146 0
-1148 -1147 0
1148 1146 1147 0
1149 -1347 0
-1149 1347 0
-1150 1148 0
-1150 1149 0
1150 -1148 -1149 0
-1151 1145 0
-1151 -1150 0
1151 -1145 1150 0
-1152 -1148 0
-1152 -1149 0
1152 1148 1149 0
-1153 1151 0
-1153 -1152 0
1153 -1151 1152 0
-1154 14 0
-1154 -1149 0
1154 -14 1149 0
-1155 -14 0
-1155 1149 0
1155 14 -1149 0
-1156 -1154 0
-1156 -1155 0
1156 1154 1155 0
1157 -1348 0
-1157 1348 0
-1158 1156 0
-1158 1157 0
1158 -1156 -1157 0
-1159 1153 0
-1159 -1158 0
1159 -1153 1158 0
-1160 -1156 0
-1160 -1157 0
1160 1156 1157 0
-1161 1159 0
-1161 -1160 0
1161 -1159 1160 0
-1162 19 0
-1162 -1157 0
1162 -19 1157 0
-1163 -19 0
-1163 1157 0
1163 19 -1157 0
-1164 -1162 0
-1164 -1163 0
1164 1162 1163 0
-1165 1161 0
-1165 1164 0
1165 -1161 -1164 0
-1166 -129 0
-1166 1165 0
1166 129 -1165 0
-1167 -131 0
-1167 1166 0
1167 131 -1166 0
-1168 10 0
-1168 -128 0
1168 -10 128 0
-1169 -10 0
-1169 128 0
1169 10 -128 0
-1170 -1168 0
-1170 -1169 0
1170 1168 1169 0
1171 -1349 0
-1171 1349 0
-1172 1170 0
-1172 1171 0
1172 -1170 -1171 0
-1173 1167 0
-1173 -1172 0
1173 -1167 1172 0
-1174 -1170 0
-1174 -1171 0
1174 1170 1171 0
-1175 1173 0
-1175 -1174 0
1175 -1173 1174 0
-1176 13 0
-1176 -1171 0
1176 -13 1171 0
-1177 -13 0
-1177 1171 0
1177 13 -1171 0
-1178 -1176 0
-1178 -1177 0
1178 1176 1177 0
1179 -1350 0
-1179 1350 0
-1180 1178 0
-1180 1179 0
1180 -1178 -1179 0
-1181 1175 0
-1181 -1180 0
1181 -1175 1180 0
-1182 -1178 0
-1182 -1179 0
1182 1178 1179 0
-1183 1181 0
-1183 -1182 0
1183 -1181 1182 0
-1184 18 0
-1184 -1179 0
1184 -18 1179 0
-1185 -18 0
-1185 1179 0
1185 18 -1179 0
-1186 -1184 0
-1186 -1185 0
1186 1184 1185 0
-1187 1183 0
-1187 1186 0
1187 -1183 -1186 0
-1188 -154 0
-1188 1187 0
1188 154 -1187 0
-1189 -156 0
-1189 1188 0
1189 156 -1188 0
-1190 9 0
-1190 -153 0
1190 -9 153 0
-1191 -9 0
-1191 153 0
1191 9 -153 0
-1192 -1190 0
-1192 -1191 0
1192 1190 1191 0
1193 -1351 0
-1193 1351 0
-1194 1192 0
-1194 1193 0
1194 -1192 -1193 0
-1195 1189 0
-1195 -1194 0
1195 -1189 1194 0
-1196 -1192 0
-1196 -1193 0
1196 1192 1193 0
-1197 1195 0
-1197 -1196 0
1197 -1195 1196 0
-1198 12 0
-1198 -1193 0
1198 -12 1193 0
-1199 -12 0
-1199 1193 0
1199 12 -1193 0
-1200 -1198 0
-1200 -1199 0
1200 1198 1199 0
1201 -1352 0
-1201 1352 0
-1202 1200 0
-1202 1201 0
1202 -1200 -1201 0
-1203 1197 0
-1203 -1202 0
1203 -1197 1202 0
-1204 -1200 0
-1204 -1201 0
1204 1200 1201 0
-1205 1203 0
-1205 -1204 0
1205 -1203 1204 0
-1206 17 0
-1206 -1201 0
1206 -17 1201 0
-1207 -17 0
-1207 1201 0
1207 17 -1201 0
-1208 -1206 0
-1208 -1207 0
1208 1206 1207 0
-1209 1205 0
-1209 1208 0
1209 -1205 -1208 0
1209 0
