p cnf 7032 18506
120 -6448 0
-120 6448 0
2566 -6611 0
-2566 6611 0
-2569 -120 0
-2569 2566 0
2569 120 -2566 0
-2567 120 0
-2567 -2566 0
2567 -120 2566 0
121 -6449 0
-121 6449 0
2509 -6604 0
-2509 6604 0
-2512 -121 0
-2512 2509 0
2512 121 -2509 0
-2510 121 0
-2510 -2509 0
2510 -121 2509 0
122 -6450 0
-122 6450 0
2452 -6597 0
-2452 6597 0
-2455 -122 0
-2455 2452 0
2455 122 -2452 0
-2453 122 0
-2453 -2452 0
2453 -122 2452 0
113 -6441 0
-113 6441 0
2680 -6625 0
-2680 6625 0
-2685 113 0
-2685 -2680 0
2685 -113 2680 0
-2686 -113 0
-2686 2680 0
2686 113 -2680 0
-2687 -2685 0
-2687 -2686 0
2687 2685 2686 0
2688 -6626 0
-2688 6626 0
-2691 -2687 0
-2691 -2688 0
2691 2687 2688 0
-2689 2687 0
-2689 2688 0
2689 -2687 -2688 0
114 -6442 0
-114 6442 0
2623 -6618 0
-2623 6618 0
-2628 114 0
-2628 -2623 0
2628 -114 2623 0
-2629 -114 0
-2629 2623 0
2629 114 -2623 0
-2630 -2628 0
-2630 -2629 0
2630 2628 2629 0
2631 -6619 0
-2631 6619 0
-2634 -2630 0
-2634 -2631 0
2634 2630 2631 0
-2632 2630 0
-2632 2631 0
2632 -2630 -2631 0
119 -6447 0
-119 6447 0
-2626 -119 0
-2626 2623 0
2626 119 -2623 0
-2624 119 0
-2624 -2623 0
2624 -119 2623 0
116 -6444 0
-116 6444 0
2952 -6656 0
-2952 6656 0
-2957 116 0
-2957 -2952 0
2957 -116 2952 0
-2958 -116 0
-2958 2952 0
2958 116 -2952 0
-2959 -2957 0
-2959 -2958 0
2959 2957 2958 0
2960 -6657 0
-2960 6657 0
-2963 -2959 0
-2963 -2960 0
2963 2959 2960 0
-2961 2959 0
-2961 2960 0
2961 -2959 -2960 0
2944 -6655 0
-2944 6655 0
-2949 113 0
-2949 -2944 0
2949 -113 2944 0
-2950 -113 0
-2950 2944 0
2950 113 -2944 0
-2951 -2949 0
-2951 -2950 0
2951 2949 2950 0
-2955 -2951 0
-2955 -2952 0
2955 2951 2952 0
-2953 2951 0
-2953 2952 0
2953 -2951 -2952 0
117 -6445 0
-117 6445 0
2895 -6649 0
-2895 6649 0
-2900 117 0
-2900 -2895 0
2900 -117 2895 0
-2901 -117 0
-2901 2895 0
2901 117 -2895 0
-2902 -2900 0
-2902 -2901 0
2902 2900 2901 0
2903 -6650 0
-2903 6650 0
-2906 -2902 0
-2906 -2903 0
2906 2902 2903 0
-2904 2902 0
-2904 2903 0
2904 -2902 -2903 0
2887 -6648 0
-2887 6648 0
-2892 114 0
-2892 -2887 0
2892 -114 2887 0
-2893 -114 0
-2893 2887 0
2893 114 -2887 0
-2894 -2892 0
-2894 -2893 0
2894 2892 2893 0
-2898 -2894 0
-2898 -2895 0
2898 2894 2895 0
-2896 2894 0
-2896 2895 0
2896 -2894 -2895 0
118 -6446 0
-118 6446 0
2843 -6643 0
-2843 6643 0
-2848 118 0
-2848 -2843 0
2848 -118 2843 0
-2849 -118 0
-2849 2843 0
2849 118 -2843 0
-2850 -2848 0
-2850 -2849 0
2850 2848 2849 0
2851 -6644 0
-2851 6644 0
-2854 -2850 0
-2854 -2851 0
2854 2850 2851 0
-2852 2850 0
-2852 2851 0
2852 -2850 -2851 0
115 -6443 0
-115 6443 0
2835 -6642 0
-2835 6642 0
-2840 115 0
-2840 -2835 0
2840 -115 2835 0
-2841 -115 0
-2841 2835 0
2841 115 -2835 0
-2842 -2840 0
-2842 -2841 0
2842 2840 2841 0
-2846 -2842 0
-2846 -2843 0
2846 2842 2843 0
-2844 2842 0
-2844 2843 0
2844 -2842 -2843 0
2786 -6636 0
-2786 6636 0
-2791 119 0
-2791 -2786 0
2791 -119 2786 0
-2792 -119 0
-2792 2786 0
2792 119 -2786 0
-2793 -2791 0
-2793 -2792 0
2793 2791 2792 0
2794 -6637 0
-2794 6637 0
-2797 -2793 0
-2797 -2794 0
2797 2793 2794 0
-2795 2793 0
-2795 2794 0
2795 -2793 -2794 0
-2783 116 0
-2783 -2680 0
2783 -116 2680 0
-2784 -116 0
-2784 2680 0
2784 116 -2680 0
-2785 -2783 0
-2785 -2784 0
2785 2783 2784 0
-2789 -2785 0
-2789 -2786 0
2789 2785 2786 0
-2787 2785 0
-2787 2786 0
2787 -2785 -2786 0
-3003 114 0
-3003 -2944 0
3003 -114 2944 0
-3004 -114 0
-3004 2944 0
3004 114 -2944 0
-3005 -3003 0
-3005 -3004 0
3005 3003 3004 0
3006 -6662 0
-3006 6662 0
-3009 -3005 0
-3009 -3006 0
3009 3005 3006 0
-3007 3005 0
-3007 3006 0
3007 -3005 -3006 0
-2947 -115 0
-2947 2944 0
2947 115 -2944 0
-2945 115 0
-2945 -2944 0
2945 -115 2944 0
-2890 -116 0
-2890 2887 0
2890 116 -2887 0
-2888 116 0
-2888 -2887 0
2888 -116 2887 0
-2838 -117 0
-2838 2835 0
2838 117 -2835 0
-2836 117 0
-2836 -2835 0
2836 -117 2835 0
-2683 -118 0
-2683 2680 0
2683 118 -2680 0
-2681 118 0
-2681 -2680 0
2681 -118 2680 0
3055 -6668 0
-3055 6668 0
-3060 113 0
-3060 -3055 0
3060 -113 3055 0
-3061 -113 0
-3061 3055 0
3061 113 -3055 0
-3062 -3060 0
-3062 -3061 0
3062 3060 3061 0
3063 -6669 0
-3063 6669 0
-3066 -3062 0
-3066 -3063 0
3066 3062 3063 0
-3064 3062 0
-3064 3063 0
3064 -3062 -3063 0
-3058 -114 0
-3058 3055 0
3058 114 -3055 0
-3056 114 0
-3056 -3055 0
3056 -114 3055 0
132 -6460 0
-132 6460 0
3112 -6675 0
-3112 6675 0
-3115 -132 0
-3115 3112 0
3115 132 -3112 0
-3113 132 0
-3113 -3112 0
3113 -132 3112 0
55 -6439 0
-55 6439 0
54 -6438 0
-54 6438 0
53 -6437 0
-53 6437 0
52 -6436 0
-52 6436 0
50 -6434 0
-50 6434 0
51 -6435 0
-51 6435 0
-56 50 0
-56 -51 0
56 -50 51 0
-57 52 0
-57 56 0
57 -52 -56 0
-58 -53 0
-58 57 0
58 53 -57 0
-59 54 0
-59 58 0
59 -54 -58 0
-60 55 0
-60 59 0
60 -55 -59 0
49 -6433 0
-49 6433 0
48 -6432 0
-48 6432 0
47 -6431 0
-47 6431 0
46 -6430 0
-46 6430 0
44 -6428 0
-44 6428 0
45 -6429 0
-45 6429 0
-61 44 0
-61 -45 0
61 -44 45 0
-62 46 0
-62 61 0
62 -46 -61 0
-63 -47 0
-63 62 0
63 47 -62 0
-64 48 0
-64 63 0
64 -48 -63 0
-65 49 0
-65 64 0
65 -49 -64 0
43 -6427 0
-43 6427 0
42 -6426 0
-42 6426 0
41 -6425 0
-41 6425 0
40 -6424 0
-40 6424 0
38 -6422 0
-38 6422 0
39 -6423 0
-39 6423 0
-66 38 0
-66 -39 0
66 -38 39 0
-67 40 0
-67 66 0
67 -40 -66 0
-68 -41 0
-68 67 0
68 41 -67 0
-69 42 0
-69 68 0
69 -42 -68 0
-70 43 0
-70 69 0
70 -43 -69 0
37 -6421 0
-37 6421 0
36 -6420 0
-36 6420 0
35 -6419 0
-35 6419 0
34 -6418 0
-34 6418 0
32 -6416 0
-32 6416 0
33 -6417 0
-33 6417 0
-71 32 0
-71 -33 0
71 -32 33 0
-72 34 0
-72 71 0
72 -34 -71 0
-73 -35 0
-73 72 0
73 35 -72 0
-74 36 0
-74 73 0
74 -36 -73 0
-75 37 0
-75 74 0
75 -37 -74 0
31 -6415 0
-31 6415 0
30 -6414 0
-30 6414 0
29 -6413 0
-29 6413 0
28 -6412 0
-28 6412 0
26 -6410 0
-26 6410 0
27 -6411 0
-27 6411 0
-76 26 0
-76 -27 0
76 -26 27 0
-77 28 0
-77 76 0
77 -28 -76 0
-78 -29 0
-78 77 0
78 29 -77 0
-79 30 0
-79 78 0
79 -30 -78 0
-80 31 0
-80 79 0
80 -31 -79 0
25 -6409 0
-25 6409 0
24 -6408 0
-24 6408 0
23 -6407 0
-23 6407 0
22 -6406 0
-22 6406 0
20 -6404 0
-20 6404 0
21 -6405 0
-21 6405 0
-81 20 0
-81 -21 0
81 -20 21 0
-82 22 0
-82 81 0
82 -22 -81 0
-83 -23 0
-83 82 0
83 23 -82 0
-84 24 0
-84 83 0
84 -24 -83 0
-85 25 0
-85 84 0
85 -25 -84 0
19 -6403 0
-19 6403 0
18 -6402 0
-18 6402 0
17 -6401 0
-17 6401 0
16 -6400 0
-16 6400 0
14 -6398 0
-14 6398 0
15 -6399 0
-15 6399 0
-86 14 0
-86 -15 0
86 -14 15 0
-87 16 0
-87 86 0
87 -16 -86 0
-88 -17 0
-88 87 0
88 17 -87 0
-89 18 0
-89 88 0
89 -18 -88 0
-90 19 0
-90 89 0
90 -19 -89 0
13 -6397 0
-13 6397 0
12 -6396 0
-12 6396 0
11 -6395 0
-11 6395 0
10 -6394 0
-10 6394 0
8 -6392 0
-8 6392 0
9 -6393 0
-9 6393 0
-91 8 0
-91 -9 0
91 -8 9 0
-92 10 0
-92 91 0
92 -10 -91 0
-93 -11 0
-93 92 0
93 11 -92 0
-94 12 0
-94 93 0
94 -12 -93 0
-95 13 0
-95 94 0
95 -13 -94 0
7 -6391 0
-7 6391 0
6 -6390 0
-6 6390 0
5 -6389 0
-5 6389 0
4 -6388 0
-4 6388 0
2 -6386 0
-2 6386 0
3 -6387 0
-3 6387 0
-96 2 0
-96 -3 0
96 -2 3 0
-97 4 0
-97 96 0
97 -4 -96 0
-98 -5 0
-98 97 0
98 5 -97 0
-99 6 0
-99 98 0
99 -6 -98 0
-100 7 0
-100 99 0
100 -7 -99 0
-101 -95 0
-101 -100 0
101 95 100 0
-102 -90 0
-102 101 0
102 90 -101 0
-103 -85 0
-103 102 0
103 85 -102 0
-104 -80 0
-104 103 0
104 80 -103 0
-105 -75 0
-105 104 0
105 75 -104 0
-106 -70 0
-106 105 0
106 70 -105 0
-107 -65 0
-107 106 0
107 65 -106 0
-108 -60 0
-108 107 0
108 60 -107 0
109 -6440 0
-109 6440 0
-110 108 0
-110 109 0
110 -108 -109 0
-111 -108 0
-111 -109 0
111 108 109 0
-112 -110 0
-112 -111 0
112 110 111 0
166 -6494 0
-166 6494 0
-167 -109 0
-167 166 0
167 109 -166 0
-168 109 0
-168 -166 0
168 -109 166 0
-169 -167 0
-169 -168 0
169 167 168 0
-170 112 0
-170 169 0
170 -112 -169 0
-171 -50 0
-171 -51 0
171 50 51 0
-172 52 0
-172 171 0
172 -52 -171 0
-173 -53 0
-173 172 0
173 53 -172 0
-174 54 0
-174 173 0
174 -54 -173 0
-175 55 0
-175 174 0
175 -55 -174 0
-176 -44 0
-176 -45 0
176 44 45 0
-177 46 0
-177 176 0
177 -46 -176 0
-178 -47 0
-178 177 0
178 47 -177 0
-179 48 0
-179 178 0
179 -48 -178 0
-180 49 0
-180 179 0
180 -49 -179 0
-181 -38 0
-181 -39 0
181 38 39 0
-182 40 0
-182 181 0
182 -40 -181 0
-183 -41 0
-183 182 0
183 41 -182 0
-184 42 0
-184 183 0
184 -42 -183 0
-185 43 0
-185 184 0
185 -43 -184 0
-186 -32 0
-186 -33 0
186 32 33 0
-187 34 0
-187 186 0
187 -34 -186 0
-188 -35 0
-188 187 0
188 35 -187 0
-189 36 0
-189 188 0
189 -36 -188 0
-190 37 0
-190 189 0
190 -37 -189 0
-191 -26 0
-191 -27 0
191 26 27 0
-192 28 0
-192 191 0
192 -28 -191 0
-193 -29 0
-193 192 0
193 29 -192 0
-194 30 0
-194 193 0
194 -30 -193 0
-195 31 0
-195 194 0
195 -31 -194 0
-196 -20 0
-196 -21 0
196 20 21 0
-197 22 0
-197 196 0
197 -22 -196 0
-198 -23 0
-198 197 0
198 23 -197 0
-199 24 0
-199 198 0
199 -24 -198 0
-200 25 0
-200 199 0
200 -25 -199 0
-201 -14 0
-201 -15 0
201 14 15 0
-202 16 0
-202 201 0
202 -16 -201 0
-203 -17 0
-203 202 0
203 17 -202 0
-204 18 0
-204 203 0
204 -18 -203 0
-205 19 0
-205 204 0
205 -19 -204 0
-206 -8 0
-206 -9 0
206 8 9 0
-207 10 0
-207 206 0
207 -10 -206 0
-208 -11 0
-208 207 0
208 11 -207 0
-209 12 0
-209 208 0
209 -12 -208 0
-210 13 0
-210 209 0
210 -13 -209 0
-211 -2 0
-211 -3 0
211 2 3 0
-212 4 0
-212 211 0
212 -4 -211 0
-213 -5 0
-213 212 0
213 5 -212 0
-214 6 0
-214 213 0
214 -6 -213 0
-215 7 0
-215 214 0
215 -7 -214 0
-216 -210 0
-216 -215 0
216 210 215 0
-217 -205 0
-217 216 0
217 205 -216 0
-218 -200 0
-218 217 0
218 200 -217 0
-219 -195 0
-219 218 0
219 195 -218 0
-220 -190 0
-220 219 0
220 190 -219 0
-221 -185 0
-221 220 0
221 185 -220 0
-222 -180 0
-222 221 0
222 180 -221 0
-223 -175 0
-223 222 0
223 175 -222 0
224 -6495 0
-224 6495 0
-225 223 0
-225 224 0
225 -223 -224 0
-226 170 0
-226 -225 0
226 -170 225 0
-227 -223 0
-227 -224 0
227 223 224 0
-228 226 0
-228 -227 0
228 -226 227 0
165 -6493 0
-165 6493 0
-229 165 0
-229 -224 0
229 -165 224 0
-230 -165 0
-230 224 0
230 165 -224 0
-231 -229 0
-231 -230 0
231 229 230 0
-232 228 0
-232 231 0
232 -228 -231 0
-233 50 0
-233 51 0
233 -50 -51 0
-234 -52 0
-234 233 0
234 52 -233 0
-235 -53 0
-235 234 0
235 53 -234 0
-236 54 0
-236 235 0
236 -54 -235 0
-237 55 0
-237 236 0
237 -55 -236 0
-238 44 0
-238 45 0
238 -44 -45 0
-239 -46 0
-239 238 0
239 46 -238 0
-240 -47 0
-240 239 0
240 47 -239 0
-241 48 0
-241 240 0
241 -48 -240 0
-242 49 0
-242 241 0
242 -49 -241 0
-243 38 0
-243 39 0
243 -38 -39 0
-244 -40 0
-244 243 0
244 40 -243 0
-245 -41 0
-245 244 0
245 41 -244 0
-246 42 0
-246 245 0
246 -42 -245 0
-247 43 0
-247 246 0
247 -43 -246 0
-248 32 0
-248 33 0
248 -32 -33 0
-249 -34 0
-249 248 0
249 34 -248 0
-250 -35 0
-250 249 0
250 35 -249 0
-251 36 0
-251 250 0
251 -36 -250 0
-252 37 0
-252 251 0
252 -37 -251 0
-253 26 0
-253 27 0
253 -26 -27 0
-254 -28 0
-254 253 0
254 28 -253 0
-255 -29 0
-255 254 0
255 29 -254 0
-256 30 0
-256 255 0
256 -30 -255 0
-257 31 0
-257 256 0
257 -31 -256 0
-258 20 0
-258 21 0
258 -20 -21 0
-259 -22 0
-259 258 0
259 22 -258 0
-260 -23 0
-260 259 0
260 23 -259 0
-261 24 0
-261 260 0
261 -24 -260 0
-262 25 0
-262 261 0
262 -25 -261 0
-263 14 0
-263 15 0
263 -14 -15 0
-264 -16 0
-264 263 0
264 16 -263 0
-265 -17 0
-265 264 0
265 17 -264 0
-266 18 0
-266 265 0
266 -18 -265 0
-267 19 0
-267 266 0
267 -19 -266 0
-268 8 0
-268 9 0
268 -8 -9 0
-269 -10 0
-269 268 0
269 10 -268 0
-270 -11 0
-270 269 0
270 11 -269 0
-271 12 0
-271 270 0
271 -12 -270 0
-272 13 0
-272 271 0
272 -13 -271 0
-273 2 0
-273 3 0
273 -2 -3 0
-274 -4 0
-274 273 0
274 4 -273 0
-275 -5 0
-275 274 0
275 5 -274 0
-276 6 0
-276 275 0
276 -6 -275 0
-277 7 0
-277 276 0
277 -7 -276 0
-278 -272 0
-278 -277 0
278 272 277 0
-279 -267 0
-279 278 0
279 267 -278 0
-280 -262 0
-280 279 0
280 262 -279 0
-281 -257 0
-281 280 0
281 257 -280 0
-282 -252 0
-282 281 0
282 252 -281 0
-283 -247 0
-283 282 0
283 247 -282 0
-284 -242 0
-284 283 0
284 242 -283 0
-285 -237 0
-285 284 0
285 237 -284 0
286 -6496 0
-286 6496 0
-287 285 0
-287 286 0
287 -285 -286 0
-288 232 0
-288 -287 0
288 -232 287 0
-289 -285 0
-289 -286 0
289 285 286 0
-290 288 0
-290 -289 0
290 -288 289 0
164 -6492 0
-164 6492 0
-291 164 0
-291 -286 0
291 -164 286 0
-292 -164 0
-292 286 0
292 164 -286 0
-293 -291 0
-293 -292 0
293 291 292 0
-294 290 0
-294 293 0
294 -290 -293 0
-295 -50 0
-295 51 0
295 50 -51 0
-296 -52 0
-296 295 0
296 52 -295 0
-297 -53 0
-297 296 0
297 53 -296 0
-298 54 0
-298 297 0
298 -54 -297 0
-299 55 0
-299 298 0
299 -55 -298 0
-300 -44 0
-300 45 0
300 44 -45 0
-301 -46 0
-301 300 0
301 46 -300 0
-302 -47 0
-302 301 0
302 47 -301 0
-303 48 0
-303 302 0
303 -48 -302 0
-304 49 0
-304 303 0
304 -49 -303 0
-305 -38 0
-305 39 0
305 38 -39 0
-306 -40 0
-306 305 0
306 40 -305 0
-307 -41 0
-307 306 0
307 41 -306 0
-308 42 0
-308 307 0
308 -42 -307 0
-309 43 0
-309 308 0
309 -43 -308 0
-310 -32 0
-310 33 0
310 32 -33 0
-311 -34 0
-311 310 0
311 34 -310 0
-312 -35 0
-312 311 0
312 35 -311 0
-313 36 0
-313 312 0
313 -36 -312 0
-314 37 0
-314 313 0
314 -37 -313 0
-315 -26 0
-315 27 0
315 26 -27 0
-316 -28 0
-316 315 0
316 28 -315 0
-317 -29 0
-317 316 0
317 29 -316 0
-318 30 0
-318 317 0
318 -30 -317 0
-319 31 0
-319 318 0
319 -31 -318 0
-320 -20 0
-320 21 0
320 20 -21 0
-321 -22 0
-321 320 0
321 22 -320 0
-322 -23 0
-322 321 0
322 23 -321 0
-323 24 0
-323 322 0
323 -24 -322 0
-324 25 0
-324 323 0
324 -25 -323 0
-325 -14 0
-325 15 0
325 14 -15 0
-326 -16 0
-326 325 0
326 16 -325 0
-327 -17 0
-327 326 0
327 17 -326 0
-328 18 0
-328 327 0
328 -18 -327 0
-329 19 0
-329 328 0
329 -19 -328 0
-330 -8 0
-330 9 0
330 8 -9 0
-331 -10 0
-331 330 0
331 10 -330 0
-332 -11 0
-332 331 0
332 11 -331 0
-333 12 0
-333 332 0
333 -12 -332 0
-334 13 0
-334 333 0
334 -13 -333 0
-335 -2 0
-335 3 0
335 2 -3 0
-336 -4 0
-336 335 0
336 4 -335 0
-337 -5 0
-337 336 0
337 5 -336 0
-338 6 0
-338 337 0
338 -6 -337 0
-339 7 0
-339 338 0
339 -7 -338 0
-340 -334 0
-340 -339 0
340 334 339 0
-341 -329 0
-341 340 0
341 329 -340 0
-342 -324 0
-342 341 0
342 324 -341 0
-343 -319 0
-343 342 0
343 319 -342 0
-344 -314 0
-344 343 0
344 314 -343 0
-345 -309 0
-345 344 0
345 309 -344 0
-346 -304 0
-346 345 0
346 304 -345 0
-347 -299 0
-347 346 0
347 299 -346 0
348 -6497 0
-348 6497 0
-349 347 0
-349 348 0
349 -347 -348 0
-350 294 0
-350 -349 0
350 -294 349 0
-351 -347 0
-351 -348 0
351 347 348 0
-352 350 0
-352 -351 0
352 -350 351 0
163 -6491 0
-163 6491 0
-353 163 0
-353 -348 0
353 -163 348 0
-354 -163 0
-354 348 0
354 163 -348 0
-355 -353 0
-355 -354 0
355 353 354 0
-356 352 0
-356 355 0
356 -352 -355 0
-357 -52 0
-357 56 0
357 52 -56 0
-358 -53 0
-358 357 0
358 53 -357 0
-359 54 0
-359 358 0
359 -54 -358 0
-360 55 0
-360 359 0
360 -55 -359 0
-361 -46 0
-361 61 0
361 46 -61 0
-362 -47 0
-362 361 0
362 47 -361 0
-363 48 0
-363 362 0
363 -48 -362 0
-364 49 0
-364 363 0
364 -49 -363 0
-365 -40 0
-365 66 0
365 40 -66 0
-366 -41 0
-366 365 0
366 41 -365 0
-367 42 0
-367 366 0
367 -42 -366 0
-368 43 0
-368 367 0
368 -43 -367 0
-369 -34 0
-369 71 0
369 34 -71 0
-370 -35 0
-370 369 0
370 35 -369 0
-371 36 0
-371 370 0
371 -36 -370 0
-372 37 0
-372 371 0
372 -37 -371 0
-373 -28 0
-373 76 0
373 28 -76 0
-374 -29 0
-374 373 0
374 29 -373 0
-375 30 0
-375 374 0
375 -30 -374 0
-376 31 0
-376 375 0
376 -31 -375 0
-377 -22 0
-377 81 0
377 22 -81 0
-378 -23 0
-378 377 0
378 23 -377 0
-379 24 0
-379 378 0
379 -24 -378 0
-380 25 0
-380 379 0
380 -25 -379 0
-381 -16 0
-381 86 0
381 16 -86 0
-382 -17 0
-382 381 0
382 17 -381 0
-383 18 0
-383 382 0
383 -18 -382 0
-384 19 0
-384 383 0
384 -19 -383 0
-385 -10 0
-385 91 0
385 10 -91 0
-386 -11 0
-386 385 0
386 11 -385 0
-387 12 0
-387 386 0
387 -12 -386 0
-388 13 0
-388 387 0
388 -13 -387 0
-389 -4 0
-389 96 0
389 4 -96 0
-390 -5 0
-390 389 0
390 5 -389 0
-391 6 0
-391 390 0
391 -6 -390 0
-392 7 0
-392 391 0
392 -7 -391 0
-393 -388 0
-393 -392 0
393 388 392 0
-394 -384 0
-394 393 0
394 384 -393 0
-395 -380 0
-395 394 0
395 380 -394 0
-396 -376 0
-396 395 0
396 376 -395 0
-397 -372 0
-397 396 0
397 372 -396 0
-398 -368 0
-398 397 0
398 368 -397 0
-399 -364 0
-399 398 0
399 364 -398 0
-400 -360 0
-400 399 0
400 360 -399 0
401 -6498 0
-401 6498 0
-402 400 0
-402 401 0
402 -400 -401 0
-403 356 0
-403 -402 0
403 -356 402 0
-404 -400 0
-404 -401 0
404 400 401 0
-405 403 0
-405 -404 0
405 -403 404 0
162 -6490 0
-162 6490 0
-406 162 0
-406 -401 0
406 -162 401 0
-407 -162 0
-407 401 0
407 162 -401 0
-408 -406 0
-408 -407 0
408 406 407 0
-409 405 0
-409 408 0
409 -405 -408 0
-410 -52 0
-410 171 0
410 52 -171 0
-411 -53 0
-411 410 0
411 53 -410 0
-412 54 0
-412 411 0
412 -54 -411 0
-413 55 0
-413 412 0
413 -55 -412 0
-414 -46 0
-414 176 0
414 46 -176 0
-415 -47 0
-415 414 0
415 47 -414 0
-416 48 0
-416 415 0
416 -48 -415 0
-417 49 0
-417 416 0
417 -49 -416 0
-418 -40 0
-418 181 0
418 40 -181 0
-419 -41 0
-419 418 0
419 41 -418 0
-420 42 0
-420 419 0
420 -42 -419 0
-421 43 0
-421 420 0
421 -43 -420 0
-422 -34 0
-422 186 0
422 34 -186 0
-423 -35 0
-423 422 0
423 35 -422 0
-424 36 0
-424 423 0
424 -36 -423 0
-425 37 0
-425 424 0
425 -37 -424 0
-426 -28 0
-426 191 0
426 28 -191 0
-427 -29 0
-427 426 0
427 29 -426 0
-428 30 0
-428 427 0
428 -30 -427 0
-429 31 0
-429 428 0
429 -31 -428 0
-430 -22 0
-430 196 0
430 22 -196 0
-431 -23 0
-431 430 0
431 23 -430 0
-432 24 0
-432 431 0
432 -24 -431 0
-433 25 0
-433 432 0
433 -25 -432 0
-434 -16 0
-434 201 0
434 16 -201 0
-435 -17 0
-435 434 0
435 17 -434 0
-436 18 0
-436 435 0
436 -18 -435 0
-437 19 0
-437 436 0
437 -19 -436 0
-438 -10 0
-438 206 0
438 10 -206 0
-439 -11 0
-439 438 0
439 11 -438 0
-440 12 0
-440 439 0
440 -12 -439 0
-441 13 0
-441 440 0
441 -13 -440 0
-442 -4 0
-442 211 0
442 4 -211 0
-443 -5 0
-443 442 0
443 5 -442 0
-444 6 0
-444 443 0
444 -6 -443 0
-445 7 0
-445 444 0
445 -7 -444 0
-446 -441 0
-446 -445 0
446 441 445 0
-447 -437 0
-447 446 0
447 437 -446 0
-448 -433 0
-448 447 0
448 433 -447 0
-449 -429 0
-449 448 0
449 429 -448 0
-450 -425 0
-450 449 0
450 425 -449 0
-451 -421 0
-451 450 0
451 421 -450 0
-452 -417 0
-452 451 0
452 417 -451 0
-453 -413 0
-453 452 0
453 413 -452 0
454 -6499 0
-454 6499 0
-455 453 0
-455 454 0
455 -453 -454 0
-456 409 0
-456 -455 0
456 -409 455 0
-457 -453 0
-457 -454 0
457 453 454 0
-458 456 0
-458 -457 0
458 -456 457 0
161 -6489 0
-161 6489 0
-459 161 0
-459 -454 0
459 -161 454 0
-460 -161 0
-460 454 0
460 161 -454 0
-461 -459 0
-461 -460 0
461 459 460 0
-462 458 0
-462 461 0
462 -458 -461 0
-463 52 0
-463 233 0
463 -52 -233 0
-464 53 0
-464 463 0
464 -53 -463 0
-465 -54 0
-465 464 0
465 54 -464 0
-466 55 0
-466 465 0
466 -55 -465 0
-467 46 0
-467 238 0
467 -46 -238 0
-468 47 0
-468 467 0
468 -47 -467 0
-469 -48 0
-469 468 0
469 48 -468 0
-470 49 0
-470 469 0
470 -49 -469 0
-471 40 0
-471 243 0
471 -40 -243 0
-472 41 0
-472 471 0
472 -41 -471 0
-473 -42 0
-473 472 0
473 42 -472 0
-474 43 0
-474 473 0
474 -43 -473 0
-475 34 0
-475 248 0
475 -34 -248 0
-476 35 0
-476 475 0
476 -35 -475 0
-477 -36 0
-477 476 0
477 36 -476 0
-478 37 0
-478 477 0
478 -37 -477 0
-479 28 0
-479 253 0
479 -28 -253 0
-480 29 0
-480 479 0
480 -29 -479 0
-481 -30 0
-481 480 0
481 30 -480 0
-482 31 0
-482 481 0
482 -31 -481 0
-483 22 0
-483 258 0
483 -22 -258 0
-484 23 0
-484 483 0
484 -23 -483 0
-485 -24 0
-485 484 0
485 24 -484 0
-486 25 0
-486 485 0
486 -25 -485 0
-487 16 0
-487 263 0
487 -16 -263 0
-488 17 0
-488 487 0
488 -17 -487 0
-489 -18 0
-489 488 0
489 18 -488 0
-490 19 0
-490 489 0
490 -19 -489 0
-491 10 0
-491 268 0
491 -10 -268 0
-492 11 0
-492 491 0
492 -11 -491 0
-493 -12 0
-493 492 0
493 12 -492 0
-494 13 0
-494 493 0
494 -13 -493 0
-495 4 0
-495 273 0
495 -4 -273 0
-496 5 0
-496 495 0
496 -5 -495 0
-497 -6 0
-497 496 0
497 6 -496 0
-498 7 0
-498 497 0
498 -7 -497 0
-499 -494 0
-499 -498 0
499 494 498 0
-500 -490 0
-500 499 0
500 490 -499 0
-501 -486 0
-501 500 0
501 486 -500 0
-502 -482 0
-502 501 0
502 482 -501 0
-503 -478 0
-503 502 0
503 478 -502 0
-504 -474 0
-504 503 0
504 474 -503 0
-505 -470 0
-505 504 0
505 470 -504 0
-506 -466 0
-506 505 0
506 466 -505 0
507 -6500 0
-507 6500 0
-508 506 0
-508 507 0
508 -506 -507 0
-509 462 0
-509 -508 0
509 -462 508 0
-510 -506 0
-510 -507 0
510 506 507 0
-511 509 0
-511 -510 0
511 -509 510 0
160 -6488 0
-160 6488 0
-512 160 0
-512 -507 0
512 -160 507 0
-513 -160 0
-513 507 0
513 160 -507 0
-514 -512 0
-514 -513 0
514 512 513 0
-515 511 0
-515 514 0
515 -511 -514 0
-516 52 0
-516 295 0
516 -52 -295 0
-517 53 0
-517 516 0
517 -53 -516 0
-518 -54 0
-518 517 0
518 54 -517 0
-519 55 0
-519 518 0
519 -55 -518 0
-520 46 0
-520 300 0
520 -46 -300 0
-521 47 0
-521 520 0
521 -47 -520 0
-522 -48 0
-522 521 0
522 48 -521 0
-523 49 0
-523 522 0
523 -49 -522 0
-524 40 0
-524 305 0
524 -40 -305 0
-525 41 0
-525 524 0
525 -41 -524 0
-526 -42 0
-526 525 0
526 42 -525 0
-527 43 0
-527 526 0
527 -43 -526 0
-528 34 0
-528 310 0
528 -34 -310 0
-529 35 0
-529 528 0
529 -35 -528 0
-530 -36 0
-530 529 0
530 36 -529 0
-531 37 0
-531 530 0
531 -37 -530 0
-532 28 0
-532 315 0
532 -28 -315 0
-533 29 0
-533 532 0
533 -29 -532 0
-534 -30 0
-534 533 0
534 30 -533 0
-535 31 0
-535 534 0
535 -31 -534 0
-536 22 0
-536 320 0
536 -22 -320 0
-537 23 0
-537 536 0
537 -23 -536 0
-538 -24 0
-538 537 0
538 24 -537 0
-539 25 0
-539 538 0
539 -25 -538 0
-540 16 0
-540 325 0
540 -16 -325 0
-541 17 0
-541 540 0
541 -17 -540 0
-542 -18 0
-542 541 0
542 18 -541 0
-543 19 0
-543 542 0
543 -19 -542 0
-544 10 0
-544 330 0
544 -10 -330 0
-545 11 0
-545 544 0
545 -11 -544 0
-546 -12 0
-546 545 0
546 12 -545 0
-547 13 0
-547 546 0
547 -13 -546 0
-548 4 0
-548 335 0
548 -4 -335 0
-549 5 0
-549 548 0
549 -5 -548 0
-550 -6 0
-550 549 0
550 6 -549 0
-551 7 0
-551 550 0
551 -7 -550 0
-552 -547 0
-552 -551 0
552 547 551 0
-553 -543 0
-553 552 0
553 543 -552 0
-554 -539 0
-554 553 0
554 539 -553 0
-555 -535 0
-555 554 0
555 535 -554 0
-556 -531 0
-556 555 0
556 531 -555 0
-557 -527 0
-557 556 0
557 527 -556 0
-558 -523 0
-558 557 0
558 523 -557 0
-559 -519 0
-559 558 0
559 519 -558 0
560 -6501 0
-560 6501 0
-561 559 0
-561 560 0
561 -559 -560 0
-562 515 0
-562 -561 0
562 -515 561 0
-563 -559 0
-563 -560 0
563 559 560 0
-564 562 0
-564 -563 0
564 -562 563 0
159 -6487 0
-159 6487 0
-565 159 0
-565 -560 0
565 -159 560 0
-566 -159 0
-566 560 0
566 159 -560 0
-567 -565 0
-567 -566 0
567 565 566 0
-568 564 0
-568 567 0
568 -564 -567 0
-569 53 0
-569 57 0
569 -53 -57 0
-570 -54 0
-570 569 0
570 54 -569 0
-571 55 0
-571 570 0
571 -55 -570 0
-572 47 0
-572 62 0
572 -47 -62 0
-573 -48 0
-573 572 0
573 48 -572 0
-574 49 0
-574 573 0
574 -49 -573 0
-575 41 0
-575 67 0
575 -41 -67 0
-576 -42 0
-576 575 0
576 42 -575 0
-577 43 0
-577 576 0
577 -43 -576 0
-578 35 0
-578 72 0
578 -35 -72 0
-579 -36 0
-579 578 0
579 36 -578 0
-580 37 0
-580 579 0
580 -37 -579 0
-581 29 0
-581 77 0
581 -29 -77 0
-582 -30 0
-582 581 0
582 30 -581 0
-583 31 0
-583 582 0
583 -31 -582 0
-584 23 0
-584 82 0
584 -23 -82 0
-585 -24 0
-585 584 0
585 24 -584 0
-586 25 0
-586 585 0
586 -25 -585 0
-587 17 0
-587 87 0
587 -17 -87 0
-588 -18 0
-588 587 0
588 18 -587 0
-589 19 0
-589 588 0
589 -19 -588 0
-590 11 0
-590 92 0
590 -11 -92 0
-591 -12 0
-591 590 0
591 12 -590 0
-592 13 0
-592 591 0
592 -13 -591 0
-593 5 0
-593 97 0
593 -5 -97 0
-594 -6 0
-594 593 0
594 6 -593 0
-595 7 0
-595 594 0
595 -7 -594 0
-596 -592 0
-596 -595 0
596 592 595 0
-597 -589 0
-597 596 0
597 589 -596 0
-598 -586 0
-598 597 0
598 586 -597 0
-599 -583 0
-599 598 0
599 583 -598 0
-600 -580 0
-600 599 0
600 580 -599 0
-601 -577 0
-601 600 0
601 577 -600 0
-602 -574 0
-602 601 0
602 574 -601 0
-603 -571 0
-603 602 0
603 571 -602 0
604 -6502 0
-604 6502 0
-605 603 0
-605 604 0
605 -603 -604 0
-606 568 0
-606 -605 0
606 -568 605 0
-607 -603 0
-607 -604 0
607 603 604 0
-608 606 0
-608 -607 0
608 -606 607 0
158 -6486 0
-158 6486 0
-609 158 0
-609 -604 0
609 -158 604 0
-610 -158 0
-610 604 0
610 158 -604 0
-611 -609 0
-611 -610 0
611 609 610 0
-612 608 0
-612 611 0
612 -608 -611 0
-613 53 0
-613 172 0
613 -53 -172 0
-614 -54 0
-614 613 0
614 54 -613 0
-615 55 0
-615 614 0
615 -55 -614 0
-616 47 0
-616 177 0
616 -47 -177 0
-617 -48 0
-617 616 0
617 48 -616 0
-618 49 0
-618 617 0
618 -49 -617 0
-619 41 0
-619 182 0
619 -41 -182 0
-620 -42 0
-620 619 0
620 42 -619 0
-621 43 0
-621 620 0
621 -43 -620 0
-622 35 0
-622 187 0
622 -35 -187 0
-623 -36 0
-623 622 0
623 36 -622 0
-624 37 0
-624 623 0
624 -37 -623 0
-625 29 0
-625 192 0
625 -29 -192 0
-626 -30 0
-626 625 0
626 30 -625 0
-627 31 0
-627 626 0
627 -31 -626 0
-628 23 0
-628 197 0
628 -23 -197 0
-629 -24 0
-629 628 0
629 24 -628 0
-630 25 0
-630 629 0
630 -25 -629 0
-631 17 0
-631 202 0
631 -17 -202 0
-632 -18 0
-632 631 0
632 18 -631 0
-633 19 0
-633 632 0
633 -19 -632 0
-634 11 0
-634 207 0
634 -11 -207 0
-635 -12 0
-635 634 0
635 12 -634 0
-636 13 0
-636 635 0
636 -13 -635 0
-637 5 0
-637 212 0
637 -5 -212 0
-638 -6 0
-638 637 0
638 6 -637 0
-639 7 0
-639 638 0
639 -7 -638 0
-640 -636 0
-640 -639 0
640 636 639 0
-641 -633 0
-641 640 0
641 633 -640 0
-642 -630 0
-642 641 0
642 630 -641 0
-643 -627 0
-643 642 0
643 627 -642 0
-644 -624 0
-644 643 0
644 624 -643 0
-645 -621 0
-645 644 0
645 621 -644 0
-646 -618 0
-646 645 0
646 618 -645 0
-647 -615 0
-647 646 0
647 615 -646 0
648 -6503 0
-648 6503 0
-649 647 0
-649 648 0
649 -647 -648 0
-650 612 0
-650 -649 0
650 -612 649 0
-651 -647 0
-651 -648 0
651 647 648 0
-652 650 0
-652 -651 0
652 -650 651 0
157 -6485 0
-157 6485 0
-653 157 0
-653 -648 0
653 -157 648 0
-654 -157 0
-654 648 0
654 157 -648 0
-655 -653 0
-655 -654 0
655 653 654 0
-656 652 0
-656 655 0
656 -652 -655 0
-657 53 0
-657 234 0
657 -53 -234 0
-658 -54 0
-658 657 0
658 54 -657 0
-659 55 0
-659 658 0
659 -55 -658 0
-660 47 0
-660 239 0
660 -47 -239 0
-661 -48 0
-661 660 0
661 48 -660 0
-662 49 0
-662 661 0
662 -49 -661 0
-663 41 0
-663 244 0
663 -41 -244 0
-664 -42 0
-664 663 0
664 42 -663 0
-665 43 0
-665 664 0
665 -43 -664 0
-666 35 0
-666 249 0
666 -35 -249 0
-667 -36 0
-667 666 0
667 36 -666 0
-668 37 0
-668 667 0
668 -37 -667 0
-669 29 0
-669 254 0
669 -29 -254 0
-670 -30 0
-670 669 0
670 30 -669 0
-671 31 0
-671 670 0
671 -31 -670 0
-672 23 0
-672 259 0
672 -23 -259 0
-673 -24 0
-673 672 0
673 24 -672 0
-674 25 0
-674 673 0
674 -25 -673 0
-675 17 0
-675 264 0
675 -17 -264 0
-676 -18 0
-676 675 0
676 18 -675 0
-677 19 0
-677 676 0
677 -19 -676 0
-678 11 0
-678 269 0
678 -11 -269 0
-679 -12 0
-679 678 0
679 12 -678 0
-680 13 0
-680 679 0
680 -13 -679 0
-681 5 0
-681 274 0
681 -5 -274 0
-682 -6 0
-682 681 0
682 6 -681 0
-683 7 0
-683 682 0
683 -7 -682 0
-684 -680 0
-684 -683 0
684 680 683 0
-685 -677 0
-685 684 0
685 677 -684 0
-686 -674 0
-686 685 0
686 674 -685 0
-687 -671 0
-687 686 0
687 671 -686 0
-688 -668 0
-688 687 0
688 668 -687 0
-689 -665 0
-689 688 0
689 665 -688 0
-690 -662 0
-690 689 0
690 662 -689 0
-691 -659 0
-691 690 0
691 659 -690 0
692 -6504 0
-692 6504 0
-693 691 0
-693 692 0
693 -691 -692 0
-694 656 0
-694 -693 0
694 -656 693 0
-695 -691 0
-695 -692 0
695 691 692 0
-696 694 0
-696 -695 0
696 -694 695 0
156 -6484 0
-156 6484 0
-697 156 0
-697 -692 0
697 -156 692 0
-698 -156 0
-698 692 0
698 156 -692 0
-699 -697 0
-699 -698 0
699 697 698 0
-700 696 0
-700 699 0
700 -696 -699 0
-701 53 0
-701 296 0
701 -53 -296 0
-702 -54 0
-702 701 0
702 54 -701 0
-703 55 0
-703 702 0
703 -55 -702 0
-704 47 0
-704 301 0
704 -47 -301 0
-705 -48 0
-705 704 0
705 48 -704 0
-706 49 0
-706 705 0
706 -49 -705 0
-707 41 0
-707 306 0
707 -41 -306 0
-708 -42 0
-708 707 0
708 42 -707 0
-709 43 0
-709 708 0
709 -43 -708 0
-710 35 0
-710 311 0
710 -35 -311 0
-711 -36 0
-711 710 0
711 36 -710 0
-712 37 0
-712 711 0
712 -37 -711 0
-713 29 0
-713 316 0
713 -29 -316 0
-714 -30 0
-714 713 0
714 30 -713 0
-715 31 0
-715 714 0
715 -31 -714 0
-716 23 0
-716 321 0
716 -23 -321 0
-717 -24 0
-717 716 0
717 24 -716 0
-718 25 0
-718 717 0
718 -25 -717 0
-719 17 0
-719 326 0
719 -17 -326 0
-720 -18 0
-720 719 0
720 18 -719 0
-721 19 0
-721 720 0
721 -19 -720 0
-722 11 0
-722 331 0
722 -11 -331 0
-723 -12 0
-723 722 0
723 12 -722 0
-724 13 0
-724 723 0
724 -13 -723 0
-725 5 0
-725 336 0
725 -5 -336 0
-726 -6 0
-726 725 0
726 6 -725 0
-727 7 0
-727 726 0
727 -7 -726 0
-728 -724 0
-728 -727 0
728 724 727 0
-729 -721 0
-729 728 0
729 721 -728 0
-730 -718 0
-730 729 0
730 718 -729 0
-731 -715 0
-731 730 0
731 715 -730 0
-732 -712 0
-732 731 0
732 712 -731 0
-733 -709 0
-733 732 0
733 709 -732 0
-734 -706 0
-734 733 0
734 706 -733 0
-735 -703 0
-735 734 0
735 703 -734 0
736 -6505 0
-736 6505 0
-737 735 0
-737 736 0
737 -735 -736 0
-738 700 0
-738 -737 0
738 -700 737 0
-739 -735 0
-739 -736 0
739 735 736 0
-740 738 0
-740 -739 0
740 -738 739 0
155 -6483 0
-155 6483 0
-741 155 0
-741 -736 0
741 -155 736 0
-742 -155 0
-742 736 0
742 155 -736 0
-743 -741 0
-743 -742 0
743 741 742 0
-744 740 0
-744 743 0
744 -740 -743 0
-745 53 0
-745 357 0
745 -53 -357 0
-746 -54 0
-746 745 0
746 54 -745 0
-747 55 0
-747 746 0
747 -55 -746 0
-748 47 0
-748 361 0
748 -47 -361 0
-749 -48 0
-749 748 0
749 48 -748 0
-750 49 0
-750 749 0
750 -49 -749 0
-751 41 0
-751 365 0
751 -41 -365 0
-752 -42 0
-752 751 0
752 42 -751 0
-753 43 0
-753 752 0
753 -43 -752 0
-754 35 0
-754 369 0
754 -35 -369 0
-755 -36 0
-755 754 0
755 36 -754 0
-756 37 0
-756 755 0
756 -37 -755 0
-757 29 0
-757 373 0
757 -29 -373 0
-758 -30 0
-758 757 0
758 30 -757 0
-759 31 0
-759 758 0
759 -31 -758 0
-760 23 0
-760 377 0
760 -23 -377 0
-761 -24 0
-761 760 0
761 24 -760 0
-762 25 0
-762 761 0
762 -25 -761 0
-763 17 0
-763 381 0
763 -17 -381 0
-764 -18 0
-764 763 0
764 18 -763 0
-765 19 0
-765 764 0
765 -19 -764 0
-766 11 0
-766 385 0
766 -11 -385 0
-767 -12 0
-767 766 0
767 12 -766 0
-768 13 0
-768 767 0
768 -13 -767 0
-769 5 0
-769 389 0
769 -5 -389 0
-770 -6 0
-770 769 0
770 6 -769 0
-771 7 0
-771 770 0
771 -7 -770 0
-772 -768 0
-772 -771 0
772 768 771 0
-773 -765 0
-773 772 0
773 765 -772 0
-774 -762 0
-774 773 0
774 762 -773 0
-775 -759 0
-775 774 0
775 759 -774 0
-776 -756 0
-776 775 0
776 756 -775 0
-777 -753 0
-777 776 0
777 753 -776 0
-778 -750 0
-778 777 0
778 750 -777 0
-779 -747 0
-779 778 0
779 747 -778 0
780 -6506 0
-780 6506 0
-781 779 0
-781 780 0
781 -779 -780 0
-782 744 0
-782 -781 0
782 -744 781 0
-783 -779 0
-783 -780 0
783 779 780 0
-784 782 0
-784 -783 0
784 -782 783 0
154 -6482 0
-154 6482 0
-785 154 0
-785 -780 0
785 -154 780 0
-786 -154 0
-786 780 0
786 154 -780 0
-787 -785 0
-787 -786 0
787 785 786 0
-788 784 0
-788 787 0
788 -784 -787 0
-789 53 0
-789 410 0
789 -53 -410 0
-790 -54 0
-790 789 0
790 54 -789 0
-791 55 0
-791 790 0
791 -55 -790 0
-792 47 0
-792 414 0
792 -47 -414 0
-793 -48 0
-793 792 0
793 48 -792 0
-794 49 0
-794 793 0
794 -49 -793 0
-795 41 0
-795 418 0
795 -41 -418 0
-796 -42 0
-796 795 0
796 42 -795 0
-797 43 0
-797 796 0
797 -43 -796 0
-798 35 0
-798 422 0
798 -35 -422 0
-799 -36 0
-799 798 0
799 36 -798 0
-800 37 0
-800 799 0
800 -37 -799 0
-801 29 0
-801 426 0
801 -29 -426 0
-802 -30 0
-802 801 0
802 30 -801 0
-803 31 0
-803 802 0
803 -31 -802 0
-804 23 0
-804 430 0
804 -23 -430 0
-805 -24 0
-805 804 0
805 24 -804 0
-806 25 0
-806 805 0
806 -25 -805 0
-807 17 0
-807 434 0
807 -17 -434 0
-808 -18 0
-808 807 0
808 18 -807 0
-809 19 0
-809 808 0
809 -19 -808 0
-810 11 0
-810 438 0
810 -11 -438 0
-811 -12 0
-811 810 0
811 12 -810 0
-812 13 0
-812 811 0
812 -13 -811 0
-813 5 0
-813 442 0
813 -5 -442 0
-814 -6 0
-814 813 0
814 6 -813 0
-815 7 0
-815 814 0
815 -7 -814 0
-816 -812 0
-816 -815 0
816 812 815 0
-817 -809 0
-817 816 0
817 809 -816 0
-818 -806 0
-818 817 0
818 806 -817 0
-819 -803 0
-819 818 0
819 803 -818 0
-820 -800 0
-820 819 0
820 800 -819 0
-821 -797 0
-821 820 0
821 797 -820 0
-822 -794 0
-822 821 0
822 794 -821 0
-823 -791 0
-823 822 0
823 791 -822 0
824 -6507 0
-824 6507 0
-825 823 0
-825 824 0
825 -823 -824 0
-826 788 0
-826 -825 0
826 -788 825 0
-827 -823 0
-827 -824 0
827 823 824 0
-828 826 0
-828 -827 0
828 -826 827 0
153 -6481 0
-153 6481 0
-829 153 0
-829 -824 0
829 -153 824 0
-830 -153 0
-830 824 0
830 153 -824 0
-831 -829 0
-831 -830 0
831 829 830 0
-832 828 0
-832 831 0
832 -828 -831 0
-833 -53 0
-833 463 0
833 53 -463 0
-834 -54 0
-834 833 0
834 54 -833 0
-835 55 0
-835 834 0
835 -55 -834 0
-836 -47 0
-836 467 0
836 47 -467 0
-837 -48 0
-837 836 0
837 48 -836 0
-838 49 0
-838 837 0
838 -49 -837 0
-839 -41 0
-839 471 0
839 41 -471 0
-840 -42 0
-840 839 0
840 42 -839 0
-841 43 0
-841 840 0
841 -43 -840 0
-842 -35 0
-842 475 0
842 35 -475 0
-843 -36 0
-843 842 0
843 36 -842 0
-844 37 0
-844 843 0
844 -37 -843 0
-845 -29 0
-845 479 0
845 29 -479 0
-846 -30 0
-846 845 0
846 30 -845 0
-847 31 0
-847 846 0
847 -31 -846 0
-848 -23 0
-848 483 0
848 23 -483 0
-849 -24 0
-849 848 0
849 24 -848 0
-850 25 0
-850 849 0
850 -25 -849 0
-851 -17 0
-851 487 0
851 17 -487 0
-852 -18 0
-852 851 0
852 18 -851 0
-853 19 0
-853 852 0
853 -19 -852 0
-854 -11 0
-854 491 0
854 11 -491 0
-855 -12 0
-855 854 0
855 12 -854 0
-856 13 0
-856 855 0
856 -13 -855 0
-857 -5 0
-857 495 0
857 5 -495 0
-858 -6 0
-858 857 0
858 6 -857 0
-859 7 0
-859 858 0
859 -7 -858 0
-860 -856 0
-860 -859 0
860 856 859 0
-861 -853 0
-861 860 0
861 853 -860 0
-862 -850 0
-862 861 0
862 850 -861 0
-863 -847 0
-863 862 0
863 847 -862 0
-864 -844 0
-864 863 0
864 844 -863 0
-865 -841 0
-865 864 0
865 841 -864 0
-866 -838 0
-866 865 0
866 838 -865 0
-867 -835 0
-867 866 0
867 835 -866 0
868 -6508 0
-868 6508 0
-869 867 0
-869 868 0
869 -867 -868 0
-870 832 0
-870 -869 0
870 -832 869 0
-871 -867 0
-871 -868 0
871 867 868 0
-872 870 0
-872 -871 0
872 -870 871 0
152 -6480 0
-152 6480 0
-873 152 0
-873 -868 0
873 -152 868 0
-874 -152 0
-874 868 0
874 152 -868 0
-875 -873 0
-875 -874 0
875 873 874 0
-876 872 0
-876 875 0
876 -872 -875 0
-877 -53 0
-877 516 0
877 53 -516 0
-878 -54 0
-878 877 0
878 54 -877 0
-879 55 0
-879 878 0
879 -55 -878 0
-880 -47 0
-880 520 0
880 47 -520 0
-881 -48 0
-881 880 0
881 48 -880 0
-882 49 0
-882 881 0
882 -49 -881 0
-883 -41 0
-883 524 0
883 41 -524 0
-884 -42 0
-884 883 0
884 42 -883 0
-885 43 0
-885 884 0
885 -43 -884 0
-886 -35 0
-886 528 0
886 35 -528 0
-887 -36 0
-887 886 0
887 36 -886 0
-888 37 0
-888 887 0
888 -37 -887 0
-889 -29 0
-889 532 0
889 29 -532 0
-890 -30 0
-890 889 0
890 30 -889 0
-891 31 0
-891 890 0
891 -31 -890 0
-892 -23 0
-892 536 0
892 23 -536 0
-893 -24 0
-893 892 0
893 24 -892 0
-894 25 0
-894 893 0
894 -25 -893 0
-895 -17 0
-895 540 0
895 17 -540 0
-896 -18 0
-896 895 0
896 18 -895 0
-897 19 0
-897 896 0
897 -19 -896 0
-898 -11 0
-898 544 0
898 11 -544 0
-899 -12 0
-899 898 0
899 12 -898 0
-900 13 0
-900 899 0
900 -13 -899 0
-901 -5 0
-901 548 0
901 5 -548 0
-902 -6 0
-902 901 0
902 6 -901 0
-903 7 0
-903 902 0
903 -7 -902 0
-904 -900 0
-904 -903 0
904 900 903 0
-905 -897 0
-905 904 0
905 897 -904 0
-906 -894 0
-906 905 0
906 894 -905 0
-907 -891 0
-907 906 0
907 891 -906 0
-908 -888 0
-908 907 0
908 888 -907 0
-909 -885 0
-909 908 0
909 885 -908 0
-910 -882 0
-910 909 0
910 882 -909 0
-911 -879 0
-911 910 0
911 879 -910 0
912 -6509 0
-912 6509 0
-913 911 0
-913 912 0
913 -911 -912 0
-914 876 0
-914 -913 0
914 -876 913 0
-915 -911 0
-915 -912 0
915 911 912 0
-916 914 0
-916 -915 0
916 -914 915 0
151 -6479 0
-151 6479 0
-917 151 0
-917 -912 0
917 -151 912 0
-918 -151 0
-918 912 0
918 151 -912 0
-919 -917 0
-919 -918 0
919 917 918 0
-920 916 0
-920 919 0
920 -916 -919 0
-921 -54 0
-921 58 0
921 54 -58 0
-922 55 0
-922 921 0
922 -55 -921 0
-923 -48 0
-923 63 0
923 48 -63 0
-924 49 0
-924 923 0
924 -49 -923 0
-925 -42 0
-925 68 0
925 42 -68 0
-926 43 0
-926 925 0
926 -43 -925 0
-927 -36 0
-927 73 0
927 36 -73 0
-928 37 0
-928 927 0
928 -37 -927 0
-929 -30 0
-929 78 0
929 30 -78 0
-930 31 0
-930 929 0
930 -31 -929 0
-931 -24 0
-931 83 0
931 24 -83 0
-932 25 0
-932 931 0
932 -25 -931 0
-933 -18 0
-933 88 0
933 18 -88 0
-934 19 0
-934 933 0
934 -19 -933 0
-935 -12 0
-935 93 0
935 12 -93 0
-936 13 0
-936 935 0
936 -13 -935 0
-937 -6 0
-937 98 0
937 6 -98 0
-938 7 0
-938 937 0
938 -7 -937 0
-939 -936 0
-939 -938 0
939 936 938 0
-940 -934 0
-940 939 0
940 934 -939 0
-941 -932 0
-941 940 0
941 932 -940 0
-942 -930 0
-942 941 0
942 930 -941 0
-943 -928 0
-943 942 0
943 928 -942 0
-944 -926 0
-944 943 0
944 926 -943 0
-945 -924 0
-945 944 0
945 924 -944 0
-946 -922 0
-946 945 0
946 922 -945 0
947 -6510 0
-947 6510 0
-948 946 0
-948 947 0
948 -946 -947 0
-949 920 0
-949 -948 0
949 -920 948 0
-950 -946 0
-950 -947 0
950 946 947 0
-951 949 0
-951 -950 0
951 -949 950 0
150 -6478 0
-150 6478 0
-952 150 0
-952 -947 0
952 -150 947 0
-953 -150 0
-953 947 0
953 150 -947 0
-954 -952 0
-954 -953 0
954 952 953 0
-955 951 0
-955 954 0
955 -951 -954 0
-956 -54 0
-956 173 0
956 54 -173 0
-957 55 0
-957 956 0
957 -55 -956 0
-958 -48 0
-958 178 0
958 48 -178 0
-959 49 0
-959 958 0
959 -49 -958 0
-960 -42 0
-960 183 0
960 42 -183 0
-961 43 0
-961 960 0
961 -43 -960 0
-962 -36 0
-962 188 0
962 36 -188 0
-963 37 0
-963 962 0
963 -37 -962 0
-964 -30 0
-964 193 0
964 30 -193 0
-965 31 0
-965 964 0
965 -31 -964 0
-966 -24 0
-966 198 0
966 24 -198 0
-967 25 0
-967 966 0
967 -25 -966 0
-968 -18 0
-968 203 0
968 18 -203 0
-969 19 0
-969 968 0
969 -19 -968 0
-970 -12 0
-970 208 0
970 12 -208 0
-971 13 0
-971 970 0
971 -13 -970 0
-972 -6 0
-972 213 0
972 6 -213 0
-973 7 0
-973 972 0
973 -7 -972 0
-974 -971 0
-974 -973 0
974 971 973 0
-975 -969 0
-975 974 0
975 969 -974 0
-976 -967 0
-976 975 0
976 967 -975 0
-977 -965 0
-977 976 0
977 965 -976 0
-978 -963 0
-978 977 0
978 963 -977 0
-979 -961 0
-979 978 0
979 961 -978 0
-980 -959 0
-980 979 0
980 959 -979 0
-981 -957 0
-981 980 0
981 957 -980 0
982 -6511 0
-982 6511 0
-983 981 0
-983 982 0
983 -981 -982 0
-984 955 0
-984 -983 0
984 -955 983 0
-985 -981 0
-985 -982 0
985 981 982 0
-986 984 0
-986 -985 0
986 -984 985 0
149 -6477 0
-149 6477 0
-987 149 0
-987 -982 0
987 -149 982 0
-988 -149 0
-988 982 0
988 149 -982 0
-989 -987 0
-989 -988 0
989 987 988 0
-990 986 0
-990 989 0
990 -986 -989 0
-991 -54 0
-991 235 0
991 54 -235 0
-992 55 0
-992 991 0
992 -55 -991 0
-993 -48 0
-993 240 0
993 48 -240 0
-994 49 0
-994 993 0
994 -49 -993 0
-995 -42 0
-995 245 0
995 42 -245 0
-996 43 0
-996 995 0
996 -43 -995 0
-997 -36 0
-997 250 0
997 36 -250 0
-998 37 0
-998 997 0
998 -37 -997 0
-999 -30 0
-999 255 0
999 30 -255 0
-1000 31 0
-1000 999 0
1000 -31 -999 0
-1001 -24 0
-1001 260 0
1001 24 -260 0
-1002 25 0
-1002 1001 0
1002 -25 -1001 0
-1003 -18 0
-1003 265 0
1003 18 -265 0
-1004 19 0
-1004 1003 0
1004 -19 -1003 0
-1005 -12 0
-1005 270 0
1005 12 -270 0
-1006 13 0
-1006 1005 0
1006 -13 -1005 0
-1007 -6 0
-1007 275 0
1007 6 -275 0
-1008 7 0
-1008 1007 0
1008 -7 -1007 0
-1009 -1006 0
-1009 -1008 0
1009 1006 1008 0
-1010 -1004 0
-1010 1009 0
1010 1004 -1009 0
-1011 -1002 0
-1011 1010 0
1011 1002 -1010 0
-1012 -1000 0
-1012 1011 0
1012 1000 -1011 0
-1013 -998 0
-1013 1012 0
1013 998 -1012 0
-1014 -996 0
-1014 1013 0
1014 996 -1013 0
-1015 -994 0
-1015 1014 0
1015 994 -1014 0
-1016 -992 0
-1016 1015 0
1016 992 -1015 0
1017 -6512 0
-1017 6512 0
-1018 1016 0
-1018 1017 0
1018 -1016 -1017 0
-1019 990 0
-1019 -1018 0
1019 -990 1018 0
-1020 -1016 0
-1020 -1017 0
1020 1016 1017 0
-1021 1019 0
-1021 -1020 0
1021 -1019 1020 0
148 -6476 0
-148 6476 0
-1022 148 0
-1022 -1017 0
1022 -148 1017 0
-1023 -148 0
-1023 1017 0
1023 148 -1017 0
-1024 -1022 0
-1024 -1023 0
1024 1022 1023 0
-1025 1021 0
-1025 1024 0
1025 -1021 -1024 0
-1026 -54 0
-1026 297 0
1026 54 -297 0
-1027 55 0
-1027 1026 0
1027 -55 -1026 0
-1028 -48 0
-1028 302 0
1028 48 -302 0
-1029 49 0
-1029 1028 0
1029 -49 -1028 0
-1030 -42 0
-1030 307 0
1030 42 -307 0
-1031 43 0
-1031 1030 0
1031 -43 -1030 0
-1032 -36 0
-1032 312 0
1032 36 -312 0
-1033 37 0
-1033 1032 0
1033 -37 -1032 0
-1034 -30 0
-1034 317 0
1034 30 -317 0
-1035 31 0
-1035 1034 0
1035 -31 -1034 0
-1036 -24 0
-1036 322 0
1036 24 -322 0
-1037 25 0
-1037 1036 0
1037 -25 -1036 0
-1038 -18 0
-1038 327 0
1038 18 -327 0
-1039 19 0
-1039 1038 0
1039 -19 -1038 0
-1040 -12 0
-1040 332 0
1040 12 -332 0
-1041 13 0
-1041 1040 0
1041 -13 -1040 0
-1042 -6 0
-1042 337 0
1042 6 -337 0
-1043 7 0
-1043 1042 0
1043 -7 -1042 0
-1044 -1041 0
-1044 -1043 0
1044 1041 1043 0
-1045 -1039 0
-1045 1044 0
1045 1039 -1044 0
-1046 -1037 0
-1046 1045 0
1046 1037 -1045 0
-1047 -1035 0
-1047 1046 0
1047 1035 -1046 0
-1048 -1033 0
-1048 1047 0
1048 1033 -1047 0
-1049 -1031 0
-1049 1048 0
1049 1031 -1048 0
-1050 -1029 0
-1050 1049 0
1050 1029 -1049 0
-1051 -1027 0
-1051 1050 0
1051 1027 -1050 0
1052 -6513 0
-1052 6513 0
-1053 1051 0
-1053 1052 0
1053 -1051 -1052 0
-1054 1025 0
-1054 -1053 0
1054 -1025 1053 0
-1055 -1051 0
-1055 -1052 0
1055 1051 1052 0
-1056 1054 0
-1056 -1055 0
1056 -1054 1055 0
147 -6475 0
-147 6475 0
-1057 147 0
-1057 -1052 0
1057 -147 1052 0
-1058 -147 0
-1058 1052 0
1058 147 -1052 0
-1059 -1057 0
-1059 -1058 0
1059 1057 1058 0
-1060 1056 0
-1060 1059 0
1060 -1056 -1059 0
-1061 -54 0
-1061 358 0
1061 54 -358 0
-1062 55 0
-1062 1061 0
1062 -55 -1061 0
-1063 -48 0
-1063 362 0
1063 48 -362 0
-1064 49 0
-1064 1063 0
1064 -49 -1063 0
-1065 -42 0
-1065 366 0
1065 42 -366 0
-1066 43 0
-1066 1065 0
1066 -43 -1065 0
-1067 -36 0
-1067 370 0
1067 36 -370 0
-1068 37 0
-1068 1067 0
1068 -37 -1067 0
-1069 -30 0
-1069 374 0
1069 30 -374 0
-1070 31 0
-1070 1069 0
1070 -31 -1069 0
-1071 -24 0
-1071 378 0
1071 24 -378 0
-1072 25 0
-1072 1071 0
1072 -25 -1071 0
-1073 -18 0
-1073 382 0
1073 18 -382 0
-1074 19 0
-1074 1073 0
1074 -19 -1073 0
-1075 -12 0
-1075 386 0
1075 12 -386 0
-1076 13 0
-1076 1075 0
1076 -13 -1075 0
-1077 -6 0
-1077 390 0
1077 6 -390 0
-1078 7 0
-1078 1077 0
1078 -7 -1077 0
-1079 -1076 0
-1079 -1078 0
1079 1076 1078 0
-1080 -1074 0
-1080 1079 0
1080 1074 -1079 0
-1081 -1072 0
-1081 1080 0
1081 1072 -1080 0
-1082 -1070 0
-1082 1081 0
1082 1070 -1081 0
-1083 -1068 0
-1083 1082 0
1083 1068 -1082 0
-1084 -1066 0
-1084 1083 0
1084 1066 -1083 0
-1085 -1064 0
-1085 1084 0
1085 1064 -1084 0
-1086 -1062 0
-1086 1085 0
1086 1062 -1085 0
1087 -6514 0
-1087 6514 0
-1088 1086 0
-1088 1087 0
1088 -1086 -1087 0
-1089 1060 0
-1089 -1088 0
1089 -1060 1088 0
-1090 -1086 0
-1090 -1087 0
1090 1086 1087 0
-1091 1089 0
-1091 -1090 0
1091 -1089 1090 0
146 -6474 0
-146 6474 0
-1092 146 0
-1092 -1087 0
1092 -146 1087 0
-1093 -146 0
-1093 1087 0
1093 146 -1087 0
-1094 -1092 0
-1094 -1093 0
1094 1092 1093 0
-1095 1091 0
-1095 1094 0
1095 -1091 -1094 0
-1096 -54 0
-1096 411 0
1096 54 -411 0
-1097 55 0
-1097 1096 0
1097 -55 -1096 0
-1098 -48 0
-1098 415 0
1098 48 -415 0
-1099 49 0
-1099 1098 0
1099 -49 -1098 0
-1100 -42 0
-1100 419 0
1100 42 -419 0
-1101 43 0
-1101 1100 0
1101 -43 -1100 0
-1102 -36 0
-1102 423 0
1102 36 -423 0
-1103 37 0
-1103 1102 0
1103 -37 -1102 0
-1104 -30 0
-1104 427 0
1104 30 -427 0
-1105 31 0
-1105 1104 0
1105 -31 -1104 0
-1106 -24 0
-1106 431 0
1106 24 -431 0
-1107 25 0
-1107 1106 0
1107 -25 -1106 0
-1108 -18 0
-1108 435 0
1108 18 -435 0
-1109 19 0
-1109 1108 0
1109 -19 -1108 0
-1110 -12 0
-1110 439 0
1110 12 -439 0
-1111 13 0
-1111 1110 0
1111 -13 -1110 0
-1112 -6 0
-1112 443 0
1112 6 -443 0
-1113 7 0
-1113 1112 0
1113 -7 -1112 0
-1114 -1111 0
-1114 -1113 0
1114 1111 1113 0
-1115 -1109 0
-1115 1114 0
1115 1109 -1114 0
-1116 -1107 0
-1116 1115 0
1116 1107 -1115 0
-1117 -1105 0
-1117 1116 0
1117 1105 -1116 0
-1118 -1103 0
-1118 1117 0
1118 1103 -1117 0
-1119 -1101 0
-1119 1118 0
1119 1101 -1118 0
-1120 -1099 0
-1120 1119 0
1120 1099 -1119 0
-1121 -1097 0
-1121 1120 0
1121 1097 -1120 0
1122 -6515 0
-1122 6515 0
-1123 1121 0
-1123 1122 0
1123 -1121 -1122 0
-1124 1095 0
-1124 -1123 0
1124 -1095 1123 0
-1125 -1121 0
-1125 -1122 0
1125 1121 1122 0
-1126 1124 0
-1126 -1125 0
1126 -1124 1125 0
145 -6473 0
-145 6473 0
-1127 145 0
-1127 -1122 0
1127 -145 1122 0
-1128 -145 0
-1128 1122 0
1128 145 -1122 0
-1129 -1127 0
-1129 -1128 0
1129 1127 1128 0
-1130 1126 0
-1130 1129 0
1130 -1126 -1129 0
-1131 54 0
-1131 464 0
1131 -54 -464 0
-1132 -55 0
-1132 1131 0
1132 55 -1131 0
-1133 48 0
-1133 468 0
1133 -48 -468 0
-1134 -49 0
-1134 1133 0
1134 49 -1133 0
-1135 42 0
-1135 472 0
1135 -42 -472 0
-1136 -43 0
-1136 1135 0
1136 43 -1135 0
-1137 36 0
-1137 476 0
1137 -36 -476 0
-1138 -37 0
-1138 1137 0
1138 37 -1137 0
-1139 30 0
-1139 480 0
1139 -30 -480 0
-1140 -31 0
-1140 1139 0
1140 31 -1139 0
-1141 24 0
-1141 484 0
1141 -24 -484 0
-1142 -25 0
-1142 1141 0
1142 25 -1141 0
-1143 18 0
-1143 488 0
1143 -18 -488 0
-1144 -19 0
-1144 1143 0
1144 19 -1143 0
-1145 12 0
-1145 492 0
1145 -12 -492 0
-1146 -13 0
-1146 1145 0
1146 13 -1145 0
-1147 6 0
-1147 496 0
1147 -6 -496 0
-1148 -7 0
-1148 1147 0
1148 7 -1147 0
-1149 -1146 0
-1149 -1148 0
1149 1146 1148 0
-1150 -1144 0
-1150 1149 0
1150 1144 -1149 0
-1151 -1142 0
-1151 1150 0
1151 1142 -1150 0
-1152 -1140 0
-1152 1151 0
1152 1140 -1151 0
-1153 -1138 0
-1153 1152 0
1153 1138 -1152 0
-1154 -1136 0
-1154 1153 0
1154 1136 -1153 0
-1155 -1134 0
-1155 1154 0
1155 1134 -1154 0
-1156 -1132 0
-1156 1155 0
1156 1132 -1155 0
1157 -6516 0
-1157 6516 0
-1158 1156 0
-1158 1157 0
1158 -1156 -1157 0
-1159 1130 0
-1159 -1158 0
1159 -1130 1158 0
-1160 -1156 0
-1160 -1157 0
1160 1156 1157 0
-1161 1159 0
-1161 -1160 0
1161 -1159 1160 0
144 -6472 0
-144 6472 0
-1162 144 0
-1162 -1157 0
1162 -144 1157 0
-1163 -144 0
-1163 1157 0
1163 144 -1157 0
-1164 -1162 0
-1164 -1163 0
1164 1162 1163 0
-1165 1161 0
-1165 1164 0
1165 -1161 -1164 0
-1166 54 0
-1166 517 0
1166 -54 -517 0
-1167 -55 0
-1167 1166 0
1167 55 -1166 0
-1168 48 0
-1168 521 0
1168 -48 -521 0
-1169 -49 0
-1169 1168 0
1169 49 -1168 0
-1170 42 0
-1170 525 0
1170 -42 -525 0
-1171 -43 0
-1171 1170 0
1171 43 -1170 0
-1172 36 0
-1172 529 0
1172 -36 -529 0
-1173 -37 0
-1173 1172 0
1173 37 -1172 0
-1174 30 0
-1174 533 0
1174 -30 -533 0
-1175 -31 0
-1175 1174 0
1175 31 -1174 0
-1176 24 0
-1176 537 0
1176 -24 -537 0
-1177 -25 0
-1177 1176 0
1177 25 -1176 0
-1178 18 0
-1178 541 0
1178 -18 -541 0
-1179 -19 0
-1179 1178 0
1179 19 -1178 0
-1180 12 0
-1180 545 0
1180 -12 -545 0
-1181 -13 0
-1181 1180 0
1181 13 -1180 0
-1182 6 0
-1182 549 0
1182 -6 -549 0
-1183 -7 0
-1183 1182 0
1183 7 -1182 0
-1184 -1181 0
-1184 -1183 0
1184 1181 1183 0
-1185 -1179 0
-1185 1184 0
1185 1179 -1184 0
-1186 -1177 0
-1186 1185 0
1186 1177 -1185 0
-1187 -1175 0
-1187 1186 0
1187 1175 -1186 0
-1188 -1173 0
-1188 1187 0
1188 1173 -1187 0
-1189 -1171 0
-1189 1188 0
1189 1171 -1188 0
-1190 -1169 0
-1190 1189 0
1190 1169 -1189 0
-1191 -1167 0
-1191 1190 0
1191 1167 -1190 0
1192 -6517 0
-1192 6517 0
-1193 1191 0
-1193 1192 0
1193 -1191 -1192 0
-1194 1165 0
-1194 -1193 0
1194 -1165 1193 0
-1195 -1191 0
-1195 -1192 0
1195 1191 1192 0
-1196 1194 0
-1196 -1195 0
1196 -1194 1195 0
143 -6471 0
-143 6471 0
-1197 143 0
-1197 -1192 0
1197 -143 1192 0
-1198 -143 0
-1198 1192 0
1198 143 -1192 0
-1199 -1197 0
-1199 -1198 0
1199 1197 1198 0
-1200 1196 0
-1200 1199 0
1200 -1196 -1199 0
-1201 54 0
-1201 569 0
1201 -54 -569 0
-1202 -55 0
-1202 1201 0
1202 55 -1201 0
-1203 48 0
-1203 572 0
1203 -48 -572 0
-1204 -49 0
-1204 1203 0
1204 49 -1203 0
-1205 42 0
-1205 575 0
1205 -42 -575 0
-1206 -43 0
-1206 1205 0
1206 43 -1205 0
-1207 36 0
-1207 578 0
1207 -36 -578 0
-1208 -37 0
-1208 1207 0
1208 37 -1207 0
-1209 30 0
-1209 581 0
1209 -30 -581 0
-1210 -31 0
-1210 1209 0
1210 31 -1209 0
-1211 24 0
-1211 584 0
1211 -24 -584 0
-1212 -25 0
-1212 1211 0
1212 25 -1211 0
-1213 18 0
-1213 587 0
1213 -18 -587 0
-1214 -19 0
-1214 1213 0
1214 19 -1213 0
-1215 12 0
-1215 590 0
1215 -12 -590 0
-1216 -13 0
-1216 1215 0
1216 13 -1215 0
-1217 6 0
-1217 593 0
1217 -6 -593 0
-1218 -7 0
-1218 1217 0
1218 7 -1217 0
-1219 -1216 0
-1219 -1218 0
1219 1216 1218 0
-1220 -1214 0
-1220 1219 0
1220 1214 -1219 0
-1221 -1212 0
-1221 1220 0
1221 1212 -1220 0
-1222 -1210 0
-1222 1221 0
1222 1210 -1221 0
-1223 -1208 0
-1223 1222 0
1223 1208 -1222 0
-1224 -1206 0
-1224 1223 0
1224 1206 -1223 0
-1225 -1204 0
-1225 1224 0
1225 1204 -1224 0
-1226 -1202 0
-1226 1225 0
1226 1202 -1225 0
1227 -6518 0
-1227 6518 0
-1228 1226 0
-1228 1227 0
1228 -1226 -1227 0
-1229 1200 0
-1229 -1228 0
1229 -1200 1228 0
-1230 -1226 0
-1230 -1227 0
1230 1226 1227 0
-1231 1229 0
-1231 -1230 0
1231 -1229 1230 0
142 -6470 0
-142 6470 0
-1232 142 0
-1232 -1227 0
1232 -142 1227 0
-1233 -142 0
-1233 1227 0
1233 142 -1227 0
-1234 -1232 0
-1234 -1233 0
1234 1232 1233 0
-1235 1231 0
-1235 1234 0
1235 -1231 -1234 0
-1236 54 0
-1236 613 0
1236 -54 -613 0
-1237 -55 0
-1237 1236 0
1237 55 -1236 0
-1238 48 0
-1238 616 0
1238 -48 -616 0
-1239 -49 0
-1239 1238 0
1239 49 -1238 0
-1240 42 0
-1240 619 0
1240 -42 -619 0
-1241 -43 0
-1241 1240 0
1241 43 -1240 0
-1242 36 0
-1242 622 0
1242 -36 -622 0
-1243 -37 0
-1243 1242 0
1243 37 -1242 0
-1244 30 0
-1244 625 0
1244 -30 -625 0
-1245 -31 0
-1245 1244 0
1245 31 -1244 0
-1246 24 0
-1246 628 0
1246 -24 -628 0
-1247 -25 0
-1247 1246 0
1247 25 -1246 0
-1248 18 0
-1248 631 0
1248 -18 -631 0
-1249 -19 0
-1249 1248 0
1249 19 -1248 0
-1250 12 0
-1250 634 0
1250 -12 -634 0
-1251 -13 0
-1251 1250 0
1251 13 -1250 0
-1252 6 0
-1252 637 0
1252 -6 -637 0
-1253 -7 0
-1253 1252 0
1253 7 -1252 0
-1254 -1251 0
-1254 -1253 0
1254 1251 1253 0
-1255 -1249 0
-1255 1254 0
1255 1249 -1254 0
-1256 -1247 0
-1256 1255 0
1256 1247 -1255 0
-1257 -1245 0
-1257 1256 0
1257 1245 -1256 0
-1258 -1243 0
-1258 1257 0
1258 1243 -1257 0
-1259 -1241 0
-1259 1258 0
1259 1241 -1258 0
-1260 -1239 0
-1260 1259 0
1260 1239 -1259 0
-1261 -1237 0
-1261 1260 0
1261 1237 -1260 0
1262 -6519 0
-1262 6519 0
-1263 1261 0
-1263 1262 0
1263 -1261 -1262 0
-1264 1235 0
-1264 -1263 0
1264 -1235 1263 0
-1265 -1261 0
-1265 -1262 0
1265 1261 1262 0
-1266 1264 0
-1266 -1265 0
1266 -1264 1265 0
141 -6469 0
-141 6469 0
-1267 141 0
-1267 -1262 0
1267 -141 1262 0
-1268 -141 0
-1268 1262 0
1268 141 -1262 0
-1269 -1267 0
-1269 -1268 0
1269 1267 1268 0
-1270 1266 0
-1270 1269 0
1270 -1266 -1269 0
-1271 54 0
-1271 657 0
1271 -54 -657 0
-1272 -55 0
-1272 1271 0
1272 55 -1271 0
-1273 48 0
-1273 660 0
1273 -48 -660 0
-1274 -49 0
-1274 1273 0
1274 49 -1273 0
-1275 42 0
-1275 663 0
1275 -42 -663 0
-1276 -43 0
-1276 1275 0
1276 43 -1275 0
-1277 36 0
-1277 666 0
1277 -36 -666 0
-1278 -37 0
-1278 1277 0
1278 37 -1277 0
-1279 30 0
-1279 669 0
1279 -30 -669 0
-1280 -31 0
-1280 1279 0
1280 31 -1279 0
-1281 24 0
-1281 672 0
1281 -24 -672 0
-1282 -25 0
-1282 1281 0
1282 25 -1281 0
-1283 18 0
-1283 675 0
1283 -18 -675 0
-1284 -19 0
-1284 1283 0
1284 19 -1283 0
-1285 12 0
-1285 678 0
1285 -12 -678 0
-1286 -13 0
-1286 1285 0
1286 13 -1285 0
-1287 6 0
-1287 681 0
1287 -6 -681 0
-1288 -7 0
-1288 1287 0
1288 7 -1287 0
-1289 -1286 0
-1289 -1288 0
1289 1286 1288 0
-1290 -1284 0
-1290 1289 0
1290 1284 -1289 0
-1291 -1282 0
-1291 1290 0
1291 1282 -1290 0
-1292 -1280 0
-1292 1291 0
1292 1280 -1291 0
-1293 -1278 0
-1293 1292 0
1293 1278 -1292 0
-1294 -1276 0
-1294 1293 0
1294 1276 -1293 0
-1295 -1274 0
-1295 1294 0
1295 1274 -1294 0
-1296 -1272 0
-1296 1295 0
1296 1272 -1295 0
1297 -6520 0
-1297 6520 0
-1298 1296 0
-1298 1297 0
1298 -1296 -1297 0
-1299 1270 0
-1299 -1298 0
1299 -1270 1298 0
-1300 -1296 0
-1300 -1297 0
1300 1296 1297 0
-1301 1299 0
-1301 -1300 0
1301 -1299 1300 0
140 -6468 0
-140 6468 0
-1302 140 0
-1302 -1297 0
1302 -140 1297 0
-1303 -140 0
-1303 1297 0
1303 140 -1297 0
-1304 -1302 0
-1304 -1303 0
1304 1302 1303 0
-1305 1301 0
-1305 1304 0
1305 -1301 -1304 0
-1306 54 0
-1306 701 0
1306 -54 -701 0
-1307 -55 0
-1307 1306 0
1307 55 -1306 0
-1308 48 0
-1308 704 0
1308 -48 -704 0
-1309 -49 0
-1309 1308 0
1309 49 -1308 0
-1310 42 0
-1310 707 0
1310 -42 -707 0
-1311 -43 0
-1311 1310 0
1311 43 -1310 0
-1312 36 0
-1312 710 0
1312 -36 -710 0
-1313 -37 0
-1313 1312 0
1313 37 -1312 0
-1314 30 0
-1314 713 0
1314 -30 -713 0
-1315 -31 0
-1315 1314 0
1315 31 -1314 0
-1316 24 0
-1316 716 0
1316 -24 -716 0
-1317 -25 0
-1317 1316 0
1317 25 -1316 0
-1318 18 0
-1318 719 0
1318 -18 -719 0
-1319 -19 0
-1319 1318 0
1319 19 -1318 0
-1320 12 0
-1320 722 0
1320 -12 -722 0
-1321 -13 0
-1321 1320 0
1321 13 -1320 0
-1322 6 0
-1322 725 0
1322 -6 -725 0
-1323 -7 0
-1323 1322 0
1323 7 -1322 0
-1324 -1321 0
-1324 -1323 0
1324 1321 1323 0
-1325 -1319 0
-1325 1324 0
1325 1319 -1324 0
-1326 -1317 0
-1326 1325 0
1326 1317 -1325 0
-1327 -1315 0
-1327 1326 0
1327 1315 -1326 0
-1328 -1313 0
-1328 1327 0
1328 1313 -1327 0
-1329 -1311 0
-1329 1328 0
1329 1311 -1328 0
-1330 -1309 0
-1330 1329 0
1330 1309 -1329 0
-1331 -1307 0
-1331 1330 0
1331 1307 -1330 0
1332 -6521 0
-1332 6521 0
-1333 1331 0
-1333 1332 0
1333 -1331 -1332 0
-1334 1305 0
-1334 -1333 0
1334 -1305 1333 0
-1335 -1331 0
-1335 -1332 0
1335 1331 1332 0
-1336 1334 0
-1336 -1335 0
1336 -1334 1335 0
139 -6467 0
-139 6467 0
-1337 139 0
-1337 -1332 0
1337 -139 1332 0
-1338 -139 0
-1338 1332 0
1338 139 -1332 0
-1339 -1337 0
-1339 -1338 0
1339 1337 1338 0
-1340 1336 0
-1340 1339 0
1340 -1336 -1339 0
-1341 54 0
-1341 745 0
1341 -54 -745 0
-1342 -55 0
-1342 1341 0
1342 55 -1341 0
-1343 48 0
-1343 748 0
1343 -48 -748 0
-1344 -49 0
-1344 1343 0
1344 49 -1343 0
-1345 42 0
-1345 751 0
1345 -42 -751 0
-1346 -43 0
-1346 1345 0
1346 43 -1345 0
-1347 36 0
-1347 754 0
1347 -36 -754 0
-1348 -37 0
-1348 1347 0
1348 37 -1347 0
-1349 30 0
-1349 757 0
1349 -30 -757 0
-1350 -31 0
-1350 1349 0
1350 31 -1349 0
-1351 24 0
-1351 760 0
1351 -24 -760 0
-1352 -25 0
-1352 1351 0
1352 25 -1351 0
-1353 18 0
-1353 763 0
1353 -18 -763 0
-1354 -19 0
-1354 1353 0
1354 19 -1353 0
-1355 12 0
-1355 766 0
1355 -12 -766 0
-1356 -13 0
-1356 1355 0
1356 13 -1355 0
-1357 6 0
-1357 769 0
1357 -6 -769 0
-1358 -7 0
-1358 1357 0
1358 7 -1357 0
-1359 -1356 0
-1359 -1358 0
1359 1356 1358 0
-1360 -1354 0
-1360 1359 0
1360 1354 -1359 0
-1361 -1352 0
-1361 1360 0
1361 1352 -1360 0
-1362 -1350 0
-1362 1361 0
1362 1350 -1361 0
-1363 -1348 0
-1363 1362 0
1363 1348 -1362 0
-1364 -1346 0
-1364 1363 0
1364 1346 -1363 0
-1365 -1344 0
-1365 1364 0
1365 1344 -1364 0
-1366 -1342 0
-1366 1365 0
1366 1342 -1365 0
1367 -6522 0
-1367 6522 0
-1368 1366 0
-1368 1367 0
1368 -1366 -1367 0
-1369 1340 0
-1369 -1368 0
1369 -1340 1368 0
-1370 -1366 0
-1370 -1367 0
1370 1366 1367 0
-1371 1369 0
-1371 -1370 0
1371 -1369 1370 0
138 -6466 0
-138 6466 0
-1372 138 0
-1372 -1367 0
1372 -138 1367 0
-1373 -138 0
-1373 1367 0
1373 138 -1367 0
-1374 -1372 0
-1374 -1373 0
1374 1372 1373 0
-1375 1371 0
-1375 1374 0
1375 -1371 -1374 0
-1376 54 0
-1376 789 0
1376 -54 -789 0
-1377 -55 0
-1377 1376 0
1377 55 -1376 0
-1378 48 0
-1378 792 0
1378 -48 -792 0
-1379 -49 0
-1379 1378 0
1379 49 -1378 0
-1380 42 0
-1380 795 0
1380 -42 -795 0
-1381 -43 0
-1381 1380 0
1381 43 -1380 0
-1382 36 0
-1382 798 0
1382 -36 -798 0
-1383 -37 0
-1383 1382 0
1383 37 -1382 0
-1384 30 0
-1384 801 0
1384 -30 -801 0
-1385 -31 0
-1385 1384 0
1385 31 -1384 0
-1386 24 0
-1386 804 0
1386 -24 -804 0
-1387 -25 0
-1387 1386 0
1387 25 -1386 0
-1388 18 0
-1388 807 0
1388 -18 -807 0
-1389 -19 0
-1389 1388 0
1389 19 -1388 0
-1390 12 0
-1390 810 0
1390 -12 -810 0
-1391 -13 0
-1391 1390 0
1391 13 -1390 0
-1392 6 0
-1392 813 0
1392 -6 -813 0
-1393 -7 0
-1393 1392 0
1393 7 -1392 0
-1394 -1391 0
-1394 -1393 0
1394 1391 1393 0
-1395 -1389 0
-1395 1394 0
1395 1389 -1394 0
-1396 -1387 0
-1396 1395 0
1396 1387 -1395 0
-1397 -1385 0
-1397 1396 0
1397 1385 -1396 0
-1398 -1383 0
-1398 1397 0
1398 1383 -1397 0
-1399 -1381 0
-1399 1398 0
1399 1381 -1398 0
-1400 -1379 0
-1400 1399 0
1400 1379 -1399 0
-1401 -1377 0
-1401 1400 0
1401 1377 -1400 0
1402 -6523 0
-1402 6523 0
-1403 1401 0
-1403 1402 0
1403 -1401 -1402 0
-1404 1375 0
-1404 -1403 0
1404 -1375 1403 0
-1405 -1401 0
-1405 -1402 0
1405 1401 1402 0
-1406 1404 0
-1406 -1405 0
1406 -1404 1405 0
137 -6465 0
-137 6465 0
-1407 137 0
-1407 -1402 0
1407 -137 1402 0
-1408 -137 0
-1408 1402 0
1408 137 -1402 0
-1409 -1407 0
-1409 -1408 0
1409 1407 1408 0
-1410 1406 0
-1410 1409 0
1410 -1406 -1409 0
-1411 54 0
-1411 833 0
1411 -54 -833 0
-1412 -55 0
-1412 1411 0
1412 55 -1411 0
-1413 48 0
-1413 836 0
1413 -48 -836 0
-1414 -49 0
-1414 1413 0
1414 49 -1413 0
-1415 42 0
-1415 839 0
1415 -42 -839 0
-1416 -43 0
-1416 1415 0
1416 43 -1415 0
-1417 36 0
-1417 842 0
1417 -36 -842 0
-1418 -37 0
-1418 1417 0
1418 37 -1417 0
-1419 30 0
-1419 845 0
1419 -30 -845 0
-1420 -31 0
-1420 1419 0
1420 31 -1419 0
-1421 24 0
-1421 848 0
1421 -24 -848 0
-1422 -25 0
-1422 1421 0
1422 25 -1421 0
-1423 18 0
-1423 851 0
1423 -18 -851 0
-1424 -19 0
-1424 1423 0
1424 19 -1423 0
-1425 12 0
-1425 854 0
1425 -12 -854 0
-1426 -13 0
-1426 1425 0
1426 13 -1425 0
-1427 6 0
-1427 857 0
1427 -6 -857 0
-1428 -7 0
-1428 1427 0
1428 7 -1427 0
-1429 -1426 0
-1429 -1428 0
1429 1426 1428 0
-1430 -1424 0
-1430 1429 0
1430 1424 -1429 0
-1431 -1422 0
-1431 1430 0
1431 1422 -1430 0
-1432 -1420 0
-1432 1431 0
1432 1420 -1431 0
-1433 -1418 0
-1433 1432 0
1433 1418 -1432 0
-1434 -1416 0
-1434 1433 0
1434 1416 -1433 0
-1435 -1414 0
-1435 1434 0
1435 1414 -1434 0
-1436 -1412 0
-1436 1435 0
1436 1412 -1435 0
1437 -6524 0
-1437 6524 0
-1438 1436 0
-1438 1437 0
1438 -1436 -1437 0
-1439 1410 0
-1439 -1438 0
1439 -1410 1438 0
-1440 -1436 0
-1440 -1437 0
1440 1436 1437 0
-1441 1439 0
-1441 -1440 0
1441 -1439 1440 0
136 -6464 0
-136 6464 0
-1442 136 0
-1442 -1437 0
1442 -136 1437 0
-1443 -136 0
-1443 1437 0
1443 136 -1437 0
-1444 -1442 0
-1444 -1443 0
1444 1442 1443 0
-1445 1441 0
-1445 1444 0
1445 -1441 -1444 0
-1446 54 0
-1446 877 0
1446 -54 -877 0
-1447 -55 0
-1447 1446 0
1447 55 -1446 0
-1448 48 0
-1448 880 0
1448 -48 -880 0
-1449 -49 0
-1449 1448 0
1449 49 -1448 0
-1450 42 0
-1450 883 0
1450 -42 -883 0
-1451 -43 0
-1451 1450 0
1451 43 -1450 0
-1452 36 0
-1452 886 0
1452 -36 -886 0
-1453 -37 0
-1453 1452 0
1453 37 -1452 0
-1454 30 0
-1454 889 0
1454 -30 -889 0
-1455 -31 0
-1455 1454 0
1455 31 -1454 0
-1456 24 0
-1456 892 0
1456 -24 -892 0
-1457 -25 0
-1457 1456 0
1457 25 -1456 0
-1458 18 0
-1458 895 0
1458 -18 -895 0
-1459 -19 0
-1459 1458 0
1459 19 -1458 0
-1460 12 0
-1460 898 0
1460 -12 -898 0
-1461 -13 0
-1461 1460 0
1461 13 -1460 0
-1462 6 0
-1462 901 0
1462 -6 -901 0
-1463 -7 0
-1463 1462 0
1463 7 -1462 0
-1464 -1461 0
-1464 -1463 0
1464 1461 1463 0
-1465 -1459 0
-1465 1464 0
1465 1459 -1464 0
-1466 -1457 0
-1466 1465 0
1466 1457 -1465 0
-1467 -1455 0
-1467 1466 0
1467 1455 -1466 0
-1468 -1453 0
-1468 1467 0
1468 1453 -1467 0
-1469 -1451 0
-1469 1468 0
1469 1451 -1468 0
-1470 -1449 0
-1470 1469 0
1470 1449 -1469 0
-1471 -1447 0
-1471 1470 0
1471 1447 -1470 0
1472 -6525 0
-1472 6525 0
-1473 1471 0
-1473 1472 0
1473 -1471 -1472 0
-1474 1445 0
-1474 -1473 0
1474 -1445 1473 0
-1475 -1471 0
-1475 -1472 0
1475 1471 1472 0
-1476 1474 0
-1476 -1475 0
1476 -1474 1475 0
135 -6463 0
-135 6463 0
-1477 135 0
-1477 -1472 0
1477 -135 1472 0
-1478 -135 0
-1478 1472 0
1478 135 -1472 0
-1479 -1477 0
-1479 -1478 0
1479 1477 1478 0
-1480 1476 0
-1480 1479 0
1480 -1476 -1479 0
-1481 -55 0
-1481 59 0
1481 55 -59 0
-1482 -49 0
-1482 64 0
1482 49 -64 0
-1483 -43 0
-1483 69 0
1483 43 -69 0
-1484 -37 0
-1484 74 0
1484 37 -74 0
-1485 -31 0
-1485 79 0
1485 31 -79 0
-1486 -25 0
-1486 84 0
1486 25 -84 0
-1487 -19 0
-1487 89 0
1487 19 -89 0
-1488 -13 0
-1488 94 0
1488 13 -94 0
-1489 -7 0
-1489 99 0
1489 7 -99 0
-1490 -1488 0
-1490 -1489 0
1490 1488 1489 0
-1491 -1487 0
-1491 1490 0
1491 1487 -1490 0
-1492 -1486 0
-1492 1491 0
1492 1486 -1491 0
-1493 -1485 0
-1493 1492 0
1493 1485 -1492 0
-1494 -1484 0
-1494 1493 0
1494 1484 -1493 0
-1495 -1483 0
-1495 1494 0
1495 1483 -1494 0
-1496 -1482 0
-1496 1495 0
1496 1482 -1495 0
-1497 -1481 0
-1497 1496 0
1497 1481 -1496 0
1498 -6526 0
-1498 6526 0
-1499 1497 0
-1499 1498 0
1499 -1497 -1498 0
-1500 1480 0
-1500 -1499 0
1500 -1480 1499 0
-1501 -1497 0
-1501 -1498 0
1501 1497 1498 0
-1502 1500 0
-1502 -1501 0
1502 -1500 1501 0
134 -6462 0
-134 6462 0
-1503 134 0
-1503 -1498 0
1503 -134 1498 0
-1504 -134 0
-1504 1498 0
1504 134 -1498 0
-1505 -1503 0
-1505 -1504 0
1505 1503 1504 0
-1506 1502 0
-1506 1505 0
1506 -1502 -1505 0
-1507 -55 0
-1507 174 0
1507 55 -174 0
-1508 -49 0
-1508 179 0
1508 49 -179 0
-1509 -43 0
-1509 184 0
1509 43 -184 0
-1510 -37 0
-1510 189 0
1510 37 -189 0
-1511 -31 0
-1511 194 0
1511 31 -194 0
-1512 -25 0
-1512 199 0
1512 25 -199 0
-1513 -19 0
-1513 204 0
1513 19 -204 0
-1514 -13 0
-1514 209 0
1514 13 -209 0
-1515 -7 0
-1515 214 0
1515 7 -214 0
-1516 -1514 0
-1516 -1515 0
1516 1514 1515 0
-1517 -1513 0
-1517 1516 0
1517 1513 -1516 0
-1518 -1512 0
-1518 1517 0
1518 1512 -1517 0
-1519 -1511 0
-1519 1518 0
1519 1511 -1518 0
-1520 -1510 0
-1520 1519 0
1520 1510 -1519 0
-1521 -1509 0
-1521 1520 0
1521 1509 -1520 0
-1522 -1508 0
-1522 1521 0
1522 1508 -1521 0
-1523 -1507 0
-1523 1522 0
1523 1507 -1522 0
1524 -6527 0
-1524 6527 0
-1525 1523 0
-1525 1524 0
1525 -1523 -1524 0
-1526 1506 0
-1526 -1525 0
1526 -1506 1525 0
-1527 -1523 0
-1527 -1524 0
1527 1523 1524 0
-1528 1526 0
-1528 -1527 0
1528 -1526 1527 0
133 -6461 0
-133 6461 0
-1529 133 0
-1529 -1524 0
1529 -133 1524 0
-1530 -133 0
-1530 1524 0
1530 133 -1524 0
-1531 -1529 0
-1531 -1530 0
1531 1529 1530 0
-1532 1528 0
-1532 1531 0
1532 -1528 -1531 0
-1533 -55 0
-1533 236 0
1533 55 -236 0
-1534 -49 0
-1534 241 0
1534 49 -241 0
-1535 -43 0
-1535 246 0
1535 43 -246 0
-1536 -37 0
-1536 251 0
1536 37 -251 0
-1537 -31 0
-1537 256 0
1537 31 -256 0
-1538 -25 0
-1538 261 0
1538 25 -261 0
-1539 -19 0
-1539 266 0
1539 19 -266 0
-1540 -13 0
-1540 271 0
1540 13 -271 0
-1541 -7 0
-1541 276 0
1541 7 -276 0
-1542 -1540 0
-1542 -1541 0
1542 1540 1541 0
-1543 -1539 0
-1543 1542 0
1543 1539 -1542 0
-1544 -1538 0
-1544 1543 0
1544 1538 -1543 0
-1545 -1537 0
-1545 1544 0
1545 1537 -1544 0
-1546 -1536 0
-1546 1545 0
1546 1536 -1545 0
-1547 -1535 0
-1547 1546 0
1547 1535 -1546 0
-1548 -1534 0
-1548 1547 0
1548 1534 -1547 0
-1549 -1533 0
-1549 1548 0
1549 1533 -1548 0
1550 -6528 0
-1550 6528 0
-1551 1549 0
-1551 1550 0
1551 -1549 -1550 0
-1552 1532 0
-1552 -1551 0
1552 -1532 1551 0
-1553 -1549 0
-1553 -1550 0
1553 1549 1550 0
-1554 1552 0
-1554 -1553 0
1554 -1552 1553 0
-1555 132 0
-1555 -1550 0
1555 -132 1550 0
-1556 -132 0
-1556 1550 0
1556 132 -1550 0
-1557 -1555 0
-1557 -1556 0
1557 1555 1556 0
-1558 1554 0
-1558 1557 0
1558 -1554 -1557 0
-1559 -55 0
-1559 298 0
1559 55 -298 0
-1560 -49 0
-1560 303 0
1560 49 -303 0
-1561 -43 0
-1561 308 0
1561 43 -308 0
-1562 -37 0
-1562 313 0
1562 37 -313 0
-1563 -31 0
-1563 318 0
1563 31 -318 0
-1564 -25 0
-1564 323 0
1564 25 -323 0
-1565 -19 0
-1565 328 0
1565 19 -328 0
-1566 -13 0
-1566 333 0
1566 13 -333 0
-1567 -7 0
-1567 338 0
1567 7 -338 0
-1568 -1566 0
-1568 -1567 0
1568 1566 1567 0
-1569 -1565 0
-1569 1568 0
1569 1565 -1568 0
-1570 -1564 0
-1570 1569 0
1570 1564 -1569 0
-1571 -1563 0
-1571 1570 0
1571 1563 -1570 0
-1572 -1562 0
-1572 1571 0
1572 1562 -1571 0
-1573 -1561 0
-1573 1572 0
1573 1561 -1572 0
-1574 -1560 0
-1574 1573 0
1574 1560 -1573 0
-1575 -1559 0
-1575 1574 0
1575 1559 -1574 0
1576 -6529 0
-1576 6529 0
-1577 1575 0
-1577 1576 0
1577 -1575 -1576 0
-1578 1558 0
-1578 -1577 0
1578 -1558 1577 0
-1579 -1575 0
-1579 -1576 0
1579 1575 1576 0
-1580 1578 0
-1580 -1579 0
1580 -1578 1579 0
131 -6459 0
-131 6459 0
-1581 131 0
-1581 -1576 0
1581 -131 1576 0
-1582 -131 0
-1582 1576 0
1582 131 -1576 0
-1583 -1581 0
-1583 -1582 0
1583 1581 1582 0
-1584 1580 0
-1584 1583 0
1584 -1580 -1583 0
-1585 -55 0
-1585 359 0
1585 55 -359 0
-1586 -49 0
-1586 363 0
1586 49 -363 0
-1587 -43 0
-1587 367 0
1587 43 -367 0
-1588 -37 0
-1588 371 0
1588 37 -371 0
-1589 -31 0
-1589 375 0
1589 31 -375 0
-1590 -25 0
-1590 379 0
1590 25 -379 0
-1591 -19 0
-1591 383 0
1591 19 -383 0
-1592 -13 0
-1592 387 0
1592 13 -387 0
-1593 -7 0
-1593 391 0
1593 7 -391 0
-1594 -1592 0
-1594 -1593 0
1594 1592 1593 0
-1595 -1591 0
-1595 1594 0
1595 1591 -1594 0
-1596 -1590 0
-1596 1595 0
1596 1590 -1595 0
-1597 -1589 0
-1597 1596 0
1597 1589 -1596 0
-1598 -1588 0
-1598 1597 0
1598 1588 -1597 0
-1599 -1587 0
-1599 1598 0
1599 1587 -1598 0
-1600 -1586 0
-1600 1599 0
1600 1586 -1599 0
-1601 -1585 0
-1601 1600 0
1601 1585 -1600 0
1602 -6530 0
-1602 6530 0
-1603 1601 0
-1603 1602 0
1603 -1601 -1602 0
-1604 1584 0
-1604 -1603 0
1604 -1584 1603 0
-1605 -1601 0
-1605 -1602 0
1605 1601 1602 0
-1606 1604 0
-1606 -1605 0
1606 -1604 1605 0
130 -6458 0
-130 6458 0
-1607 130 0
-1607 -1602 0
1607 -130 1602 0
-1608 -130 0
-1608 1602 0
1608 130 -1602 0
-1609 -1607 0
-1609 -1608 0
1609 1607 1608 0
-1610 1606 0
-1610 1609 0
1610 -1606 -1609 0
-1611 -55 0
-1611 412 0
1611 55 -412 0
-1612 -49 0
-1612 416 0
1612 49 -416 0
-1613 -43 0
-1613 420 0
1613 43 -420 0
-1614 -37 0
-1614 424 0
1614 37 -424 0
-1615 -31 0
-1615 428 0
1615 31 -428 0
-1616 -25 0
-1616 432 0
1616 25 -432 0
-1617 -19 0
-1617 436 0
1617 19 -436 0
-1618 -13 0
-1618 440 0
1618 13 -440 0
-1619 -7 0
-1619 444 0
1619 7 -444 0
-1620 -1618 0
-1620 -1619 0
1620 1618 1619 0
-1621 -1617 0
-1621 1620 0
1621 1617 -1620 0
-1622 -1616 0
-1622 1621 0
1622 1616 -1621 0
-1623 -1615 0
-1623 1622 0
1623 1615 -1622 0
-1624 -1614 0
-1624 1623 0
1624 1614 -1623 0
-1625 -1613 0
-1625 1624 0
1625 1613 -1624 0
-1626 -1612 0
-1626 1625 0
1626 1612 -1625 0
-1627 -1611 0
-1627 1626 0
1627 1611 -1626 0
1628 -6531 0
-1628 6531 0
-1629 1627 0
-1629 1628 0
1629 -1627 -1628 0
-1630 1610 0
-1630 -1629 0
1630 -1610 1629 0
-1631 -1627 0
-1631 -1628 0
1631 1627 1628 0
-1632 1630 0
-1632 -1631 0
1632 -1630 1631 0
129 -6457 0
-129 6457 0
-1633 129 0
-1633 -1628 0
1633 -129 1628 0
-1634 -129 0
-1634 1628 0
1634 129 -1628 0
-1635 -1633 0
-1635 -1634 0
1635 1633 1634 0
-1636 1632 0
-1636 1635 0
1636 -1632 -1635 0
-1637 -55 0
-1637 465 0
1637 55 -465 0
-1638 -49 0
-1638 469 0
1638 49 -469 0
-1639 -43 0
-1639 473 0
1639 43 -473 0
-1640 -37 0
-1640 477 0
1640 37 -477 0
-1641 -31 0
-1641 481 0
1641 31 -481 0
-1642 -25 0
-1642 485 0
1642 25 -485 0
-1643 -19 0
-1643 489 0
1643 19 -489 0
-1644 -13 0
-1644 493 0
1644 13 -493 0
-1645 -7 0
-1645 497 0
1645 7 -497 0
-1646 -1644 0
-1646 -1645 0
1646 1644 1645 0
-1647 -1643 0
-1647 1646 0
1647 1643 -1646 0
-1648 -1642 0
-1648 1647 0
1648 1642 -1647 0
-1649 -1641 0
-1649 1648 0
1649 1641 -1648 0
-1650 -1640 0
-1650 1649 0
1650 1640 -1649 0
-1651 -1639 0
-1651 1650 0
1651 1639 -1650 0
-1652 -1638 0
-1652 1651 0
1652 1638 -1651 0
-1653 -1637 0
-1653 1652 0
1653 1637 -1652 0
1654 -6532 0
-1654 6532 0
-1655 1653 0
-1655 1654 0
1655 -1653 -1654 0
-1656 1636 0
-1656 -1655 0
1656 -1636 1655 0
-1657 -1653 0
-1657 -1654 0
1657 1653 1654 0
-1658 1656 0
-1658 -1657 0
1658 -1656 1657 0
128 -6456 0
-128 6456 0
-1659 128 0
-1659 -1654 0
1659 -128 1654 0
-1660 -128 0
-1660 1654 0
1660 128 -1654 0
-1661 -1659 0
-1661 -1660 0
1661 1659 1660 0
-1662 1658 0
-1662 1661 0
1662 -1658 -1661 0
-1663 -55 0
-1663 518 0
1663 55 -518 0
-1664 -49 0
-1664 522 0
1664 49 -522 0
-1665 -43 0
-1665 526 0
1665 43 -526 0
-1666 -37 0
-1666 530 0
1666 37 -530 0
-1667 -31 0
-1667 534 0
1667 31 -534 0
-1668 -25 0
-1668 538 0
1668 25 -538 0
-1669 -19 0
-1669 542 0
1669 19 -542 0
-1670 -13 0
-1670 546 0
1670 13 -546 0
-1671 -7 0
-1671 550 0
1671 7 -550 0
-1672 -1670 0
-1672 -1671 0
1672 1670 1671 0
-1673 -1669 0
-1673 1672 0
1673 1669 -1672 0
-1674 -1668 0
-1674 1673 0
1674 1668 -1673 0
-1675 -1667 0
-1675 1674 0
1675 1667 -1674 0
-1676 -1666 0
-1676 1675 0
1676 1666 -1675 0
-1677 -1665 0
-1677 1676 0
1677 1665 -1676 0
-1678 -1664 0
-1678 1677 0
1678 1664 -1677 0
-1679 -1663 0
-1679 1678 0
1679 1663 -1678 0
1680 -6533 0
-1680 6533 0
-1681 1679 0
-1681 1680 0
1681 -1679 -1680 0
-1682 1662 0
-1682 -1681 0
1682 -1662 1681 0
-1683 -1679 0
-1683 -1680 0
1683 1679 1680 0
-1684 1682 0
-1684 -1683 0
1684 -1682 1683 0
127 -6455 0
-127 6455 0
-1685 127 0
-1685 -1680 0
1685 -127 1680 0
-1686 -127 0
-1686 1680 0
1686 127 -1680 0
-1687 -1685 0
-1687 -1686 0
1687 1685 1686 0
-1688 1684 0
-1688 1687 0
1688 -1684 -1687 0
-1689 -55 0
-1689 570 0
1689 55 -570 0
-1690 -49 0
-1690 573 0
1690 49 -573 0
-1691 -43 0
-1691 576 0
1691 43 -576 0
-1692 -37 0
-1692 579 0
1692 37 -579 0
-1693 -31 0
-1693 582 0
1693 31 -582 0
-1694 -25 0
-1694 585 0
1694 25 -585 0
-1695 -19 0
-1695 588 0
1695 19 -588 0
-1696 -13 0
-1696 591 0
1696 13 -591 0
-1697 -7 0
-1697 594 0
1697 7 -594 0
-1698 -1696 0
-1698 -1697 0
1698 1696 1697 0
-1699 -1695 0
-1699 1698 0
1699 1695 -1698 0
-1700 -1694 0
-1700 1699 0
1700 1694 -1699 0
-1701 -1693 0
-1701 1700 0
1701 1693 -1700 0
-1702 -1692 0
-1702 1701 0
1702 1692 -1701 0
-1703 -1691 0
-1703 1702 0
1703 1691 -1702 0
-1704 -1690 0
-1704 1703 0
1704 1690 -1703 0
-1705 -1689 0
-1705 1704 0
1705 1689 -1704 0
1706 -6534 0
-1706 6534 0
-1707 1705 0
-1707 1706 0
1707 -1705 -1706 0
-1708 1688 0
-1708 -1707 0
1708 -1688 1707 0
-1709 -1705 0
-1709 -1706 0
1709 1705 1706 0
-1710 1708 0
-1710 -1709 0
1710 -1708 1709 0
126 -6454 0
-126 6454 0
-1711 126 0
-1711 -1706 0
1711 -126 1706 0
-1712 -126 0
-1712 1706 0
1712 126 -1706 0
-1713 -1711 0
-1713 -1712 0
1713 1711 1712 0
-1714 1710 0
-1714 1713 0
1714 -1710 -1713 0
-1715 -55 0
-1715 614 0
1715 55 -614 0
-1716 -49 0
-1716 617 0
1716 49 -617 0
-1717 -43 0
-1717 620 0
1717 43 -620 0
-1718 -37 0
-1718 623 0
1718 37 -623 0
-1719 -31 0
-1719 626 0
1719 31 -626 0
-1720 -25 0
-1720 629 0
1720 25 -629 0
-1721 -19 0
-1721 632 0
1721 19 -632 0
-1722 -13 0
-1722 635 0
1722 13 -635 0
-1723 -7 0
-1723 638 0
1723 7 -638 0
-1724 -1722 0
-1724 -1723 0
1724 1722 1723 0
-1725 -1721 0
-1725 1724 0
1725 1721 -1724 0
-1726 -1720 0
-1726 1725 0
1726 1720 -1725 0
-1727 -1719 0
-1727 1726 0
1727 1719 -1726 0
-1728 -1718 0
-1728 1727 0
1728 1718 -1727 0
-1729 -1717 0
-1729 1728 0
1729 1717 -1728 0
-1730 -1716 0
-1730 1729 0
1730 1716 -1729 0
-1731 -1715 0
-1731 1730 0
1731 1715 -1730 0
1732 -6535 0
-1732 6535 0
-1733 1731 0
-1733 1732 0
1733 -1731 -1732 0
-1734 1714 0
-1734 -1733 0
1734 -1714 1733 0
-1735 -1731 0
-1735 -1732 0
1735 1731 1732 0
-1736 1734 0
-1736 -1735 0
1736 -1734 1735 0
125 -6453 0
-125 6453 0
-1737 125 0
-1737 -1732 0
1737 -125 1732 0
-1738 -125 0
-1738 1732 0
1738 125 -1732 0
-1739 -1737 0
-1739 -1738 0
1739 1737 1738 0
-1740 1736 0
-1740 1739 0
1740 -1736 -1739 0
-1741 -55 0
-1741 658 0
1741 55 -658 0
-1742 -49 0
-1742 661 0
1742 49 -661 0
-1743 -43 0
-1743 664 0
1743 43 -664 0
-1744 -37 0
-1744 667 0
1744 37 -667 0
-1745 -31 0
-1745 670 0
1745 31 -670 0
-1746 -25 0
-1746 673 0
1746 25 -673 0
-1747 -19 0
-1747 676 0
1747 19 -676 0
-1748 -13 0
-1748 679 0
1748 13 -679 0
-1749 -7 0
-1749 682 0
1749 7 -682 0
-1750 -1748 0
-1750 -1749 0
1750 1748 1749 0
-1751 -1747 0
-1751 1750 0
1751 1747 -1750 0
-1752 -1746 0
-1752 1751 0
1752 1746 -1751 0
-1753 -1745 0
-1753 1752 0
1753 1745 -1752 0
-1754 -1744 0
-1754 1753 0
1754 1744 -1753 0
-1755 -1743 0
-1755 1754 0
1755 1743 -1754 0
-1756 -1742 0
-1756 1755 0
1756 1742 -1755 0
-1757 -1741 0
-1757 1756 0
1757 1741 -1756 0
1758 -6536 0
-1758 6536 0
-1759 1757 0
-1759 1758 0
1759 -1757 -1758 0
-1760 1740 0
-1760 -1759 0
1760 -1740 1759 0
-1761 -1757 0
-1761 -1758 0
1761 1757 1758 0
-1762 1760 0
-1762 -1761 0
1762 -1760 1761 0
124 -6452 0
-124 6452 0
-1763 124 0
-1763 -1758 0
1763 -124 1758 0
-1764 -124 0
-1764 1758 0
1764 124 -1758 0
-1765 -1763 0
-1765 -1764 0
1765 1763 1764 0
-1766 1762 0
-1766 1765 0
1766 -1762 -1765 0
-1767 -55 0
-1767 702 0
1767 55 -702 0
-1768 -49 0
-1768 705 0
1768 49 -705 0
-1769 -43 0
-1769 708 0
1769 43 -708 0
-1770 -37 0
-1770 711 0
1770 37 -711 0
-1771 -31 0
-1771 714 0
1771 31 -714 0
-1772 -25 0
-1772 717 0
1772 25 -717 0
-1773 -19 0
-1773 720 0
1773 19 -720 0
-1774 -13 0
-1774 723 0
1774 13 -723 0
-1775 -7 0
-1775 726 0
1775 7 -726 0
-1776 -1774 0
-1776 -1775 0
1776 1774 1775 0
-1777 -1773 0
-1777 1776 0
1777 1773 -1776 0
-1778 -1772 0
-1778 1777 0
1778 1772 -1777 0
-1779 -1771 0
-1779 1778 0
1779 1771 -1778 0
-1780 -1770 0
-1780 1779 0
1780 1770 -1779 0
-1781 -1769 0
-1781 1780 0
1781 1769 -1780 0
-1782 -1768 0
-1782 1781 0
1782 1768 -1781 0
-1783 -1767 0
-1783 1782 0
1783 1767 -1782 0
1784 -6537 0
-1784 6537 0
-1785 1783 0
-1785 1784 0
1785 -1783 -1784 0
-1786 1766 0
-1786 -1785 0
1786 -1766 1785 0
-1787 -1783 0
-1787 -1784 0
1787 1783 1784 0
-1788 1786 0
-1788 -1787 0
1788 -1786 1787 0
123 -6451 0
-123 6451 0
-1789 123 0
-1789 -1784 0
1789 -123 1784 0
-1790 -123 0
-1790 1784 0
1790 123 -1784 0
-1791 -1789 0
-1791 -1790 0
1791 1789 1790 0
-1792 1788 0
-1792 1791 0
1792 -1788 -1791 0
-1793 -55 0
-1793 746 0
1793 55 -746 0
-1794 -49 0
-1794 749 0
1794 49 -749 0
-1795 -43 0
-1795 752 0
1795 43 -752 0
-1796 -37 0
-1796 755 0
1796 37 -755 0
-1797 -31 0
-1797 758 0
1797 31 -758 0
-1798 -25 0
-1798 761 0
1798 25 -761 0
-1799 -19 0
-1799 764 0
1799 19 -764 0
-1800 -13 0
-1800 767 0
1800 13 -767 0
-1801 -7 0
-1801 770 0
1801 7 -770 0
-1802 -1800 0
-1802 -1801 0
1802 1800 1801 0
-1803 -1799 0
-1803 1802 0
1803 1799 -1802 0
-1804 -1798 0
-1804 1803 0
1804 1798 -1803 0
-1805 -1797 0
-1805 1804 0
1805 1797 -1804 0
-1806 -1796 0
-1806 1805 0
1806 1796 -1805 0
-1807 -1795 0
-1807 1806 0
1807 1795 -1806 0
-1808 -1794 0
-1808 1807 0
1808 1794 -1807 0
-1809 -1793 0
-1809 1808 0
1809 1793 -1808 0
1810 -6538 0
-1810 6538 0
-1811 1809 0
-1811 1810 0
1811 -1809 -1810 0
-1812 1792 0
-1812 -1811 0
1812 -1792 1811 0
-1813 -1809 0
-1813 -1810 0
1813 1809 1810 0
-1814 1812 0
-1814 -1813 0
1814 -1812 1813 0
-1815 122 0
-1815 -1810 0
1815 -122 1810 0
-1816 -122 0
-1816 1810 0
1816 122 -1810 0
-1817 -1815 0
-1817 -1816 0
1817 1815 1816 0
-1818 1814 0
-1818 1817 0
1818 -1814 -1817 0
-1819 -55 0
-1819 790 0
1819 55 -790 0
-1820 -49 0
-1820 793 0
1820 49 -793 0
-1821 -43 0
-1821 796 0
1821 43 -796 0
-1822 -37 0
-1822 799 0
1822 37 -799 0
-1823 -31 0
-1823 802 0
1823 31 -802 0
-1824 -25 0
-1824 805 0
1824 25 -805 0
-1825 -19 0
-1825 808 0
1825 19 -808 0
-1826 -13 0
-1826 811 0
1826 13 -811 0
-1827 -7 0
-1827 814 0
1827 7 -814 0
-1828 -1826 0
-1828 -1827 0
1828 1826 1827 0
-1829 -1825 0
-1829 1828 0
1829 1825 -1828 0
-1830 -1824 0
-1830 1829 0
1830 1824 -1829 0
-1831 -1823 0
-1831 1830 0
1831 1823 -1830 0
-1832 -1822 0
-1832 1831 0
1832 1822 -1831 0
-1833 -1821 0
-1833 1832 0
1833 1821 -1832 0
-1834 -1820 0
-1834 1833 0
1834 1820 -1833 0
-1835 -1819 0
-1835 1834 0
1835 1819 -1834 0
1836 -6539 0
-1836 6539 0
-1837 1835 0
-1837 1836 0
1837 -1835 -1836 0
-1838 1818 0
-1838 -1837 0
1838 -1818 1837 0
-1839 -1835 0
-1839 -1836 0
1839 1835 1836 0
-1840 1838 0
-1840 -1839 0
1840 -1838 1839 0
-1841 121 0
-1841 -1836 0
1841 -121 1836 0
-1842 -121 0
-1842 1836 0
1842 121 -1836 0
-1843 -1841 0
-1843 -1842 0
1843 1841 1842 0
-1844 1840 0
-1844 1843 0
1844 -1840 -1843 0
-1845 -55 0
-1845 834 0
1845 55 -834 0
-1846 -49 0
-1846 837 0
1846 49 -837 0
-1847 -43 0
-1847 840 0
1847 43 -840 0
-1848 -37 0
-1848 843 0
1848 37 -843 0
-1849 -31 0
-1849 846 0
1849 31 -846 0
-1850 -25 0
-1850 849 0
1850 25 -849 0
-1851 -19 0
-1851 852 0
1851 19 -852 0
-1852 -13 0
-1852 855 0
1852 13 -855 0
-1853 -7 0
-1853 858 0
1853 7 -858 0
-1854 -1852 0
-1854 -1853 0
1854 1852 1853 0
-1855 -1851 0
-1855 1854 0
1855 1851 -1854 0
-1856 -1850 0
-1856 1855 0
1856 1850 -1855 0
-1857 -1849 0
-1857 1856 0
1857 1849 -1856 0
-1858 -1848 0
-1858 1857 0
1858 1848 -1857 0
-1859 -1847 0
-1859 1858 0
1859 1847 -1858 0
-1860 -1846 0
-1860 1859 0
1860 1846 -1859 0
-1861 -1845 0
-1861 1860 0
1861 1845 -1860 0
1862 -6540 0
-1862 6540 0
-1863 1861 0
-1863 1862 0
1863 -1861 -1862 0
-1864 1844 0
-1864 -1863 0
1864 -1844 1863 0
-1865 -1861 0
-1865 -1862 0
1865 1861 1862 0
-1866 1864 0
-1866 -1865 0
1866 -1864 1865 0
-1867 120 0
-1867 -1862 0
1867 -120 1862 0
-1868 -120 0
-1868 1862 0
1868 120 -1862 0
-1869 -1867 0
-1869 -1868 0
1869 1867 1868 0
-1870 1866 0
-1870 1869 0
1870 -1866 -1869 0
-1871 -55 0
-1871 878 0
1871 55 -878 0
-1872 -49 0
-1872 881 0
1872 49 -881 0
-1873 -43 0
-1873 884 0
1873 43 -884 0
-1874 -37 0
-1874 887 0
1874 37 -887 0
-1875 -31 0
-1875 890 0
1875 31 -890 0
-1876 -25 0
-1876 893 0
1876 25 -893 0
-1877 -19 0
-1877 896 0
1877 19 -896 0
-1878 -13 0
-1878 899 0
1878 13 -899 0
-1879 -7 0
-1879 902 0
1879 7 -902 0
-1880 -1878 0
-1880 -1879 0
1880 1878 1879 0
-1881 -1877 0
-1881 1880 0
1881 1877 -1880 0
-1882 -1876 0
-1882 1881 0
1882 1876 -1881 0
-1883 -1875 0
-1883 1882 0
1883 1875 -1882 0
-1884 -1874 0
-1884 1883 0
1884 1874 -1883 0
-1885 -1873 0
-1885 1884 0
1885 1873 -1884 0
-1886 -1872 0
-1886 1885 0
1886 1872 -1885 0
-1887 -1871 0
-1887 1886 0
1887 1871 -1886 0
1888 -6541 0
-1888 6541 0
-1889 1887 0
-1889 1888 0
1889 -1887 -1888 0
-1890 1870 0
-1890 -1889 0
1890 -1870 1889 0
-1891 -1887 0
-1891 -1888 0
1891 1887 1888 0
-1892 1890 0
-1892 -1891 0
1892 -1890 1891 0
-1893 119 0
-1893 -1888 0
1893 -119 1888 0
-1894 -119 0
-1894 1888 0
1894 119 -1888 0
-1895 -1893 0
-1895 -1894 0
1895 1893 1894 0
-1896 1892 0
-1896 1895 0
1896 -1892 -1895 0
-1897 -55 0
-1897 921 0
1897 55 -921 0
-1898 -49 0
-1898 923 0
1898 49 -923 0
-1899 -43 0
-1899 925 0
1899 43 -925 0
-1900 -37 0
-1900 927 0
1900 37 -927 0
-1901 -31 0
-1901 929 0
1901 31 -929 0
-1902 -25 0
-1902 931 0
1902 25 -931 0
-1903 -19 0
-1903 933 0
1903 19 -933 0
-1904 -13 0
-1904 935 0
1904 13 -935 0
-1905 -7 0
-1905 937 0
1905 7 -937 0
-1906 -1904 0
-1906 -1905 0
1906 1904 1905 0
-1907 -1903 0
-1907 1906 0
1907 1903 -1906 0
-1908 -1902 0
-1908 1907 0
1908 1902 -1907 0
-1909 -1901 0
-1909 1908 0
1909 1901 -1908 0
-1910 -1900 0
-1910 1909 0
1910 1900 -1909 0
-1911 -1899 0
-1911 1910 0
1911 1899 -1910 0
-1912 -1898 0
-1912 1911 0
1912 1898 -1911 0
-1913 -1897 0
-1913 1912 0
1913 1897 -1912 0
1914 -6542 0
-1914 6542 0
-1915 1913 0
-1915 1914 0
1915 -1913 -1914 0
-1916 1896 0
-1916 -1915 0
1916 -1896 1915 0
-1917 -1913 0
-1917 -1914 0
1917 1913 1914 0
-1918 1916 0
-1918 -1917 0
1918 -1916 1917 0
-1919 118 0
-1919 -1914 0
1919 -118 1914 0
-1920 -118 0
-1920 1914 0
1920 118 -1914 0
-1921 -1919 0
-1921 -1920 0
1921 1919 1920 0
-1922 1918 0
-1922 1921 0
1922 -1918 -1921 0
-1923 -55 0
-1923 956 0
1923 55 -956 0
-1924 -49 0
-1924 958 0
1924 49 -958 0
-1925 -43 0
-1925 960 0
1925 43 -960 0
-1926 -37 0
-1926 962 0
1926 37 -962 0
-1927 -31 0
-1927 964 0
1927 31 -964 0
-1928 -25 0
-1928 966 0
1928 25 -966 0
-1929 -19 0
-1929 968 0
1929 19 -968 0
-1930 -13 0
-1930 970 0
1930 13 -970 0
-1931 -7 0
-1931 972 0
1931 7 -972 0
-1932 -1930 0
-1932 -1931 0
1932 1930 1931 0
-1933 -1929 0
-1933 1932 0
1933 1929 -1932 0
-1934 -1928 0
-1934 1933 0
1934 1928 -1933 0
-1935 -1927 0
-1935 1934 0
1935 1927 -1934 0
-1936 -1926 0
-1936 1935 0
1936 1926 -1935 0
-1937 -1925 0
-1937 1936 0
1937 1925 -1936 0
-1938 -1924 0
-1938 1937 0
1938 1924 -1937 0
-1939 -1923 0
-1939 1938 0
1939 1923 -1938 0
1940 -6543 0
-1940 6543 0
-1941 1939 0
-1941 1940 0
1941 -1939 -1940 0
-1942 1922 0
-1942 -1941 0
1942 -1922 1941 0
-1943 -1939 0
-1943 -1940 0
1943 1939 1940 0
-1944 1942 0
-1944 -1943 0
1944 -1942 1943 0
-1945 117 0
-1945 -1940 0
1945 -117 1940 0
-1946 -117 0
-1946 1940 0
1946 117 -1940 0
-1947 -1945 0
-1947 -1946 0
1947 1945 1946 0
-1948 1944 0
-1948 1947 0
1948 -1944 -1947 0
-1949 -55 0
-1949 991 0
1949 55 -991 0
-1950 -49 0
-1950 993 0
1950 49 -993 0
-1951 -43 0
-1951 995 0
1951 43 -995 0
-1952 -37 0
-1952 997 0
1952 37 -997 0
-1953 -31 0
-1953 999 0
1953 31 -999 0
-1954 -25 0
-1954 1001 0
1954 25 -1001 0
-1955 -19 0
-1955 1003 0
1955 19 -1003 0
-1956 -13 0
-1956 1005 0
1956 13 -1005 0
-1957 -7 0
-1957 1007 0
1957 7 -1007 0
-1958 -1956 0
-1958 -1957 0
1958 1956 1957 0
-1959 -1955 0
-1959 1958 0
1959 1955 -1958 0
-1960 -1954 0
-1960 1959 0
1960 1954 -1959 0
-1961 -1953 0
-1961 1960 0
1961 1953 -1960 0
-1962 -1952 0
-1962 1961 0
1962 1952 -1961 0
-1963 -1951 0
-1963 1962 0
1963 1951 -1962 0
-1964 -1950 0
-1964 1963 0
1964 1950 -1963 0
-1965 -1949 0
-1965 1964 0
1965 1949 -1964 0
1966 -6544 0
-1966 6544 0
-1967 1965 0
-1967 1966 0
1967 -1965 -1966 0
-1968 1948 0
-1968 -1967 0
1968 -1948 1967 0
-1969 -1965 0
-1969 -1966 0
1969 1965 1966 0
-1970 1968 0
-1970 -1969 0
1970 -1968 1969 0
-1971 116 0
-1971 -1966 0
1971 -116 1966 0
-1972 -116 0
-1972 1966 0
1972 116 -1966 0
-1973 -1971 0
-1973 -1972 0
1973 1971 1972 0
-1974 1970 0
-1974 1973 0
1974 -1970 -1973 0
-1975 -55 0
-1975 1026 0
1975 55 -1026 0
-1976 -49 0
-1976 1028 0
1976 49 -1028 0
-1977 -43 0
-1977 1030 0
1977 43 -1030 0
-1978 -37 0
-1978 1032 0
1978 37 -1032 0
-1979 -31 0
-1979 1034 0
1979 31 -1034 0
-1980 -25 0
-1980 1036 0
1980 25 -1036 0
-1981 -19 0
-1981 1038 0
1981 19 -1038 0
-1982 -13 0
-1982 1040 0
1982 13 -1040 0
-1983 -7 0
-1983 1042 0
1983 7 -1042 0
-1984 -1982 0
-1984 -1983 0
1984 1982 1983 0
-1985 -1981 0
-1985 1984 0
1985 1981 -1984 0
-1986 -1980 0
-1986 1985 0
1986 1980 -1985 0
-1987 -1979 0
-1987 1986 0
1987 1979 -1986 0
-1988 -1978 0
-1988 1987 0
1988 1978 -1987 0
-1989 -1977 0
-1989 1988 0
1989 1977 -1988 0
-1990 -1976 0
-1990 1989 0
1990 1976 -1989 0
-1991 -1975 0
-1991 1990 0
1991 1975 -1990 0
1992 -6545 0
-1992 6545 0
-1993 1991 0
-1993 1992 0
1993 -1991 -1992 0
-1994 1974 0
-1994 -1993 0
1994 -1974 1993 0
-1995 -1991 0
-1995 -1992 0
1995 1991 1992 0
-1996 1994 0
-1996 -1995 0
1996 -1994 1995 0
-1997 115 0
-1997 -1992 0
1997 -115 1992 0
-1998 -115 0
-1998 1992 0
1998 115 -1992 0
-1999 -1997 0
-1999 -1998 0
1999 1997 1998 0
-2000 1996 0
-2000 1999 0
2000 -1996 -1999 0
-2001 -55 0
-2001 1061 0
2001 55 -1061 0
-2002 -49 0
-2002 1063 0
2002 49 -1063 0
-2003 -43 0
-2003 1065 0
2003 43 -1065 0
-2004 -37 0
-2004 1067 0
2004 37 -1067 0
-2005 -31 0
-2005 1069 0
2005 31 -1069 0
-2006 -25 0
-2006 1071 0
2006 25 -1071 0
-2007 -19 0
-2007 1073 0
2007 19 -1073 0
-2008 -13 0
-2008 1075 0
2008 13 -1075 0
-2009 -7 0
-2009 1077 0
2009 7 -1077 0
-2010 -2008 0
-2010 -2009 0
2010 2008 2009 0
-2011 -2007 0
-2011 2010 0
2011 2007 -2010 0
-2012 -2006 0
-2012 2011 0
2012 2006 -2011 0
-2013 -2005 0
-2013 2012 0
2013 2005 -2012 0
-2014 -2004 0
-2014 2013 0
2014 2004 -2013 0
-2015 -2003 0
-2015 2014 0
2015 2003 -2014 0
-2016 -2002 0
-2016 2015 0
2016 2002 -2015 0
-2017 -2001 0
-2017 2016 0
2017 2001 -2016 0
2018 -6546 0
-2018 6546 0
-2019 2017 0
-2019 2018 0
2019 -2017 -2018 0
-2020 2000 0
-2020 -2019 0
2020 -2000 2019 0
-2021 -2017 0
-2021 -2018 0
2021 2017 2018 0
-2022 2020 0
-2022 -2021 0
2022 -2020 2021 0
-2023 114 0
-2023 -2018 0
2023 -114 2018 0
-2024 -114 0
-2024 2018 0
2024 114 -2018 0
-2025 -2023 0
-2025 -2024 0
2025 2023 2024 0
-2026 2022 0
-2026 2025 0
2026 -2022 -2025 0
-2027 -55 0
-2027 1096 0
2027 55 -1096 0
-2028 -49 0
-2028 1098 0
2028 49 -1098 0
-2029 -43 0
-2029 1100 0
2029 43 -1100 0
-2030 -37 0
-2030 1102 0
2030 37 -1102 0
-2031 -31 0
-2031 1104 0
2031 31 -1104 0
-2032 -25 0
-2032 1106 0
2032 25 -1106 0
-2033 -19 0
-2033 1108 0
2033 19 -1108 0
-2034 -13 0
-2034 1110 0
2034 13 -1110 0
-2035 -7 0
-2035 1112 0
2035 7 -1112 0
-2036 -2034 0
-2036 -2035 0
2036 2034 2035 0
-2037 -2033 0
-2037 2036 0
2037 2033 -2036 0
-2038 -2032 0
-2038 2037 0
2038 2032 -2037 0
-2039 -2031 0
-2039 2038 0
2039 2031 -2038 0
-2040 -2030 0
-2040 2039 0
2040 2030 -2039 0
-2041 -2029 0
-2041 2040 0
2041 2029 -2040 0
-2042 -2028 0
-2042 2041 0
2042 2028 -2041 0
-2043 -2027 0
-2043 2042 0
2043 2027 -2042 0
2044 -6547 0
-2044 6547 0
-2045 2043 0
-2045 2044 0
2045 -2043 -2044 0
-2046 2026 0
-2046 -2045 0
2046 -2026 2045 0
-2047 -2043 0
-2047 -2044 0
2047 2043 2044 0
-2048 2046 0
-2048 -2047 0
2048 -2046 2047 0
-2049 113 0
-2049 -2044 0
2049 -113 2044 0
-2050 -113 0
-2050 2044 0
2050 113 -2044 0
-2051 -2049 0
-2051 -2050 0
2051 2049 2050 0
-2052 2048 0
-2052 2051 0
2052 -2048 -2051 0
2053 -6548 0
-2053 6548 0
-2054 129 0
-2054 -2053 0
2054 -129 2053 0
-2055 2052 0
-2055 -2054 0
2055 -2052 2054 0
-2056 -129 0
-2056 2053 0
2056 129 -2053 0
-2057 2055 0
-2057 -2056 0
2057 -2055 2056 0
-2058 124 0
-2058 -2053 0
2058 -124 2053 0
-2059 -124 0
-2059 2053 0
2059 124 -2053 0
-2060 -2058 0
-2060 -2059 0
2060 2058 2059 0
2061 -6549 0
-2061 6549 0
-2062 2060 0
-2062 2061 0
2062 -2060 -2061 0
-2063 2057 0
-2063 -2062 0
2063 -2057 2062 0
-2064 -2060 0
-2064 -2061 0
2064 2060 2061 0
-2065 2063 0
-2065 -2064 0
2065 -2063 2064 0
-2066 131 0
-2066 -2061 0
2066 -131 2061 0
-2067 -131 0
-2067 2061 0
2067 131 -2061 0
-2068 -2066 0
-2068 -2067 0
2068 2066 2067 0
2069 -6550 0
-2069 6550 0
-2070 2068 0
-2070 2069 0
2070 -2068 -2069 0
-2071 2065 0
-2071 -2070 0
2071 -2065 2070 0
-2072 -2068 0
-2072 -2069 0
2072 2068 2069 0
-2073 2071 0
-2073 -2072 0
2073 -2071 2072 0
-2074 132 0
-2074 -2069 0
2074 -132 2069 0
-2075 -132 0
-2075 2069 0
2075 132 -2069 0
-2076 -2074 0
-2076 -2075 0
2076 2074 2075 0
2077 -6551 0
-2077 6551 0
-2078 2076 0
-2078 2077 0
2078 -2076 -2077 0
-2079 2073 0
-2079 -2078 0
2079 -2073 2078 0
-2080 -2076 0
-2080 -2077 0
2080 2076 2077 0
-2081 2079 0
-2081 -2080 0
2081 -2079 2080 0
-2082 150 0
-2082 -2077 0
2082 -150 2077 0
-2083 -150 0
-2083 2077 0
2083 150 -2077 0
-2084 -2082 0
-2084 -2083 0
2084 2082 2083 0
2085 -6552 0
-2085 6552 0
-2086 2084 0
-2086 2085 0
2086 -2084 -2085 0
-2087 2081 0
-2087 -2086 0
2087 -2081 2086 0
-2088 -2084 0
-2088 -2085 0
2088 2084 2085 0
-2089 2087 0
-2089 -2088 0
2089 -2087 2088 0
-2090 151 0
-2090 -2085 0
2090 -151 2085 0
-2091 -151 0
-2091 2085 0
2091 151 -2085 0
-2092 -2090 0
-2092 -2091 0
2092 2090 2091 0
2093 -6553 0
-2093 6553 0
-2094 2092 0
-2094 2093 0
2094 -2092 -2093 0
-2095 2089 0
-2095 -2094 0
2095 -2089 2094 0
-2096 -2092 0
-2096 -2093 0
2096 2092 2093 0
-2097 2095 0
-2097 -2096 0
2097 -2095 2096 0
-2098 153 0
-2098 -2093 0
2098 -153 2093 0
-2099 -153 0
-2099 2093 0
2099 153 -2093 0
-2100 -2098 0
-2100 -2099 0
2100 2098 2099 0
2101 -6554 0
-2101 6554 0
-2102 2100 0
-2102 2101 0
2102 -2100 -2101 0
-2103 2097 0
-2103 -2102 0
2103 -2097 2102 0
-2104 -2100 0
-2104 -2101 0
2104 2100 2101 0
-2105 2103 0
-2105 -2104 0
2105 -2103 2104 0
-2106 158 0
-2106 -2101 0
2106 -158 2101 0
-2107 -158 0
-2107 2101 0
2107 158 -2101 0
-2108 -2106 0
-2108 -2107 0
2108 2106 2107 0
-2109 2105 0
-2109 2108 0
2109 -2105 -2108 0
2110 -6555 0
-2110 6555 0
-2111 128 0
-2111 -2110 0
2111 -128 2110 0
-2112 2109 0
-2112 -2111 0
2112 -2109 2111 0
-2113 -128 0
-2113 2110 0
2113 128 -2110 0
-2114 2112 0
-2114 -2113 0
2114 -2112 2113 0
-2115 123 0
-2115 -2110 0
2115 -123 2110 0
-2116 -123 0
-2116 2110 0
2116 123 -2110 0
-2117 -2115 0
-2117 -2116 0
2117 2115 2116 0
2118 -6556 0
-2118 6556 0
-2119 2117 0
-2119 2118 0
2119 -2117 -2118 0
-2120 2114 0
-2120 -2119 0
2120 -2114 2119 0
-2121 -2117 0
-2121 -2118 0
2121 2117 2118 0
-2122 2120 0
-2122 -2121 0
2122 -2120 2121 0
-2123 130 0
-2123 -2118 0
2123 -130 2118 0
-2124 -130 0
-2124 2118 0
2124 130 -2118 0
-2125 -2123 0
-2125 -2124 0
2125 2123 2124 0
2126 -6557 0
-2126 6557 0
-2127 2125 0
-2127 2126 0
2127 -2125 -2126 0
-2128 2122 0
-2128 -2127 0
2128 -2122 2127 0
-2129 -2125 0
-2129 -2126 0
2129 2125 2126 0
-2130 2128 0
-2130 -2129 0
2130 -2128 2129 0
-2131 131 0
-2131 -2126 0
2131 -131 2126 0
-2132 -131 0
-2132 2126 0
2132 131 -2126 0
-2133 -2131 0
-2133 -2132 0
2133 2131 2132 0
2134 -6558 0
-2134 6558 0
-2135 2133 0
-2135 2134 0
2135 -2133 -2134 0
-2136 2130 0
-2136 -2135 0
2136 -2130 2135 0
-2137 -2133 0
-2137 -2134 0
2137 2133 2134 0
-2138 2136 0
-2138 -2137 0
2138 -2136 2137 0
-2139 149 0
-2139 -2134 0
2139 -149 2134 0
-2140 -149 0
-2140 2134 0
2140 149 -2134 0
-2141 -2139 0
-2141 -2140 0
2141 2139 2140 0
2142 -6559 0
-2142 6559 0
-2143 2141 0
-2143 2142 0
2143 -2141 -2142 0
-2144 2138 0
-2144 -2143 0
2144 -2138 2143 0
-2145 -2141 0
-2145 -2142 0
2145 2141 2142 0
-2146 2144 0
-2146 -2145 0
2146 -2144 2145 0
-2147 150 0
-2147 -2142 0
2147 -150 2142 0
-2148 -150 0
-2148 2142 0
2148 150 -2142 0
-2149 -2147 0
-2149 -2148 0
2149 2147 2148 0
2150 -6560 0
-2150 6560 0
-2151 2149 0
-2151 2150 0
2151 -2149 -2150 0
-2152 2146 0
-2152 -2151 0
2152 -2146 2151 0
-2153 -2149 0
-2153 -2150 0
2153 2149 2150 0
-2154 2152 0
-2154 -2153 0
2154 -2152 2153 0
-2155 152 0
-2155 -2150 0
2155 -152 2150 0
-2156 -152 0
-2156 2150 0
2156 152 -2150 0
-2157 -2155 0
-2157 -2156 0
2157 2155 2156 0
2158 -6561 0
-2158 6561 0
-2159 2157 0
-2159 2158 0
2159 -2157 -2158 0
-2160 2154 0
-2160 -2159 0
2160 -2154 2159 0
-2161 -2157 0
-2161 -2158 0
2161 2157 2158 0
-2162 2160 0
-2162 -2161 0
2162 -2160 2161 0
-2163 157 0
-2163 -2158 0
2163 -157 2158 0
-2164 -157 0
-2164 2158 0
2164 157 -2158 0
-2165 -2163 0
-2165 -2164 0
2165 2163 2164 0
-2166 2162 0
-2166 2165 0
2166 -2162 -2165 0
2167 -6562 0
-2167 6562 0
-2168 127 0
-2168 -2167 0
2168 -127 2167 0
-2169 2166 0
-2169 -2168 0
2169 -2166 2168 0
-2170 -127 0
-2170 2167 0
2170 127 -2167 0
-2171 2169 0
-2171 -2170 0
2171 -2169 2170 0
-2172 122 0
-2172 -2167 0
2172 -122 2167 0
-2173 -122 0
-2173 2167 0
2173 122 -2167 0
-2174 -2172 0
-2174 -2173 0
2174 2172 2173 0
2175 -6563 0
-2175 6563 0
-2176 2174 0
-2176 2175 0
2176 -2174 -2175 0
-2177 2171 0
-2177 -2176 0
2177 -2171 2176 0
-2178 -2174 0
-2178 -2175 0
2178 2174 2175 0
-2179 2177 0
-2179 -2178 0
2179 -2177 2178 0
-2180 129 0
-2180 -2175 0
2180 -129 2175 0
-2181 -129 0
-2181 2175 0
2181 129 -2175 0
-2182 -2180 0
-2182 -2181 0
2182 2180 2181 0
2183 -6564 0
-2183 6564 0
-2184 2182 0
-2184 2183 0
2184 -2182 -2183 0
-2185 2179 0
-2185 -2184 0
2185 -2179 2184 0
-2186 -2182 0
-2186 -2183 0
2186 2182 2183 0
-2187 2185 0
-2187 -2186 0
2187 -2185 2186 0
-2188 130 0
-2188 -2183 0
2188 -130 2183 0
-2189 -130 0
-2189 2183 0
2189 130 -2183 0
-2190 -2188 0
-2190 -2189 0
2190 2188 2189 0
2191 -6565 0
-2191 6565 0
-2192 2190 0
-2192 2191 0
2192 -2190 -2191 0
-2193 2187 0
-2193 -2192 0
2193 -2187 2192 0
-2194 -2190 0
-2194 -2191 0
2194 2190 2191 0
-2195 2193 0
-2195 -2194 0
2195 -2193 2194 0
-2196 148 0
-2196 -2191 0
2196 -148 2191 0
-2197 -148 0
-2197 2191 0
2197 148 -2191 0
-2198 -2196 0
-2198 -2197 0
2198 2196 2197 0
2199 -6566 0
-2199 6566 0
-2200 2198 0
-2200 2199 0
2200 -2198 -2199 0
-2201 2195 0
-2201 -2200 0
2201 -2195 2200 0
-2202 -2198 0
-2202 -2199 0
2202 2198 2199 0
-2203 2201 0
-2203 -2202 0
2203 -2201 2202 0
-2204 149 0
-2204 -2199 0
2204 -149 2199 0
-2205 -149 0
-2205 2199 0
2205 149 -2199 0
-2206 -2204 0
-2206 -2205 0
2206 2204 2205 0
2207 -6567 0
-2207 6567 0
-2208 2206 0
-2208 2207 0
2208 -2206 -2207 0
-2209 2203 0
-2209 -2208 0
2209 -2203 2208 0
-2210 -2206 0
-2210 -2207 0
2210 2206 2207 0
-2211 2209 0
-2211 -2210 0
2211 -2209 2210 0
-2212 151 0
-2212 -2207 0
2212 -151 2207 0
-2213 -151 0
-2213 2207 0
2213 151 -2207 0
-2214 -2212 0
-2214 -2213 0
2214 2212 2213 0
2215 -6568 0
-2215 6568 0
-2216 2214 0
-2216 2215 0
2216 -2214 -2215 0
-2217 2211 0
-2217 -2216 0
2217 -2211 2216 0
-2218 -2214 0
-2218 -2215 0
2218 2214 2215 0
-2219 2217 0
-2219 -2218 0
2219 -2217 2218 0
-2220 156 0
-2220 -2215 0
2220 -156 2215 0
-2221 -156 0
-2221 2215 0
2221 156 -2215 0
-2222 -2220 0
-2222 -2221 0
2222 2220 2221 0
-2223 2219 0
-2223 2222 0
2223 -2219 -2222 0
2224 -6569 0
-2224 6569 0
-2225 126 0
-2225 -2224 0
2225 -126 2224 0
-2226 2223 0
-2226 -2225 0
2226 -2223 2225 0
-2227 -126 0
-2227 2224 0
2227 126 -2224 0
-2228 2226 0
-2228 -2227 0
2228 -2226 2227 0
-2229 121 0
-2229 -2224 0
2229 -121 2224 0
-2230 -121 0
-2230 2224 0
2230 121 -2224 0
-2231 -2229 0
-2231 -2230 0
2231 2229 2230 0
2232 -6570 0
-2232 6570 0
-2233 2231 0
-2233 2232 0
2233 -2231 -2232 0
-2234 2228 0
-2234 -2233 0
2234 -2228 2233 0
-2235 -2231 0
-2235 -2232 0
2235 2231 2232 0
-2236 2234 0
-2236 -2235 0
2236 -2234 2235 0
-2237 128 0
-2237 -2232 0
2237 -128 2232 0
-2238 -128 0
-2238 2232 0
2238 128 -2232 0
-2239 -2237 0
-2239 -2238 0
2239 2237 2238 0
2240 -6571 0
-2240 6571 0
-2241 2239 0
-2241 2240 0
2241 -2239 -2240 0
-2242 2236 0
-2242 -2241 0
2242 -2236 2241 0
-2243 -2239 0
-2243 -2240 0
2243 2239 2240 0
-2244 2242 0
-2244 -2243 0
2244 -2242 2243 0
-2245 129 0
-2245 -2240 0
2245 -129 2240 0
-2246 -129 0
-2246 2240 0
2246 129 -2240 0
-2247 -2245 0
-2247 -2246 0
2247 2245 2246 0
2248 -6572 0
-2248 6572 0
-2249 2247 0
-2249 2248 0
2249 -2247 -2248 0
-2250 2244 0
-2250 -2249 0
2250 -2244 2249 0
-2251 -2247 0
-2251 -2248 0
2251 2247 2248 0
-2252 2250 0
-2252 -2251 0
2252 -2250 2251 0
-2253 147 0
-2253 -2248 0
2253 -147 2248 0
-2254 -147 0
-2254 2248 0
2254 147 -2248 0
-2255 -2253 0
-2255 -2254 0
2255 2253 2254 0
2256 -6573 0
-2256 6573 0
-2257 2255 0
-2257 2256 0
2257 -2255 -2256 0
-2258 2252 0
-2258 -2257 0
2258 -2252 2257 0
-2259 -2255 0
-2259 -2256 0
2259 2255 2256 0
-2260 2258 0
-2260 -2259 0
2260 -2258 2259 0
-2261 148 0
-2261 -2256 0
2261 -148 2256 0
-2262 -148 0
-2262 2256 0
2262 148 -2256 0
-2263 -2261 0
-2263 -2262 0
2263 2261 2262 0
2264 -6574 0
-2264 6574 0
-2265 2263 0
-2265 2264 0
2265 -2263 -2264 0
-2266 2260 0
-2266 -2265 0
2266 -2260 2265 0
-2267 -2263 0
-2267 -2264 0
2267 2263 2264 0
-2268 2266 0
-2268 -2267 0
2268 -2266 2267 0
-2269 150 0
-2269 -2264 0
2269 -150 2264 0
-2270 -150 0
-2270 2264 0
2270 150 -2264 0
-2271 -2269 0
-2271 -2270 0
2271 2269 2270 0
2272 -6575 0
-2272 6575 0
-2273 2271 0
-2273 2272 0
2273 -2271 -2272 0
-2274 2268 0
-2274 -2273 0
2274 -2268 2273 0
-2275 -2271 0
-2275 -2272 0
2275 2271 2272 0
-2276 2274 0
-2276 -2275 0
2276 -2274 2275 0
-2277 155 0
-2277 -2272 0
2277 -155 2272 0
-2278 -155 0
-2278 2272 0
2278 155 -2272 0
-2279 -2277 0
-2279 -2278 0
2279 2277 2278 0
-2280 2276 0
-2280 2279 0
2280 -2276 -2279 0
2281 -6576 0
-2281 6576 0
-2282 125 0
-2282 -2281 0
2282 -125 2281 0
-2283 2280 0
-2283 -2282 0
2283 -2280 2282 0
-2284 -125 0
-2284 2281 0
2284 125 -2281 0
-2285 2283 0
-2285 -2284 0
2285 -2283 2284 0
-2286 120 0
-2286 -2281 0
2286 -120 2281 0
-2287 -120 0
-2287 2281 0
2287 120 -2281 0
-2288 -2286 0
-2288 -2287 0
2288 2286 2287 0
2289 -6577 0
-2289 6577 0
-2290 2288 0
-2290 2289 0
2290 -2288 -2289 0
-2291 2285 0
-2291 -2290 0
2291 -2285 2290 0
-2292 -2288 0
-2292 -2289 0
2292 2288 2289 0
-2293 2291 0
-2293 -2292 0
2293 -2291 2292 0
-2294 127 0
-2294 -2289 0
2294 -127 2289 0
-2295 -127 0
-2295 2289 0
2295 127 -2289 0
-2296 -2294 0
-2296 -2295 0
2296 2294 2295 0
2297 -6578 0
-2297 6578 0
-2298 2296 0
-2298 2297 0
2298 -2296 -2297 0
-2299 2293 0
-2299 -2298 0
2299 -2293 2298 0
-2300 -2296 0
-2300 -2297 0
2300 2296 2297 0
-2301 2299 0
-2301 -2300 0
2301 -2299 2300 0
-2302 128 0
-2302 -2297 0
2302 -128 2297 0
-2303 -128 0
-2303 2297 0
2303 128 -2297 0
-2304 -2302 0
-2304 -2303 0
2304 2302 2303 0
2305 -6579 0
-2305 6579 0
-2306 2304 0
-2306 2305 0
2306 -2304 -2305 0
-2307 2301 0
-2307 -2306 0
2307 -2301 2306 0
-2308 -2304 0
-2308 -2305 0
2308 2304 2305 0
-2309 2307 0
-2309 -2308 0
2309 -2307 2308 0
-2310 146 0
-2310 -2305 0
2310 -146 2305 0
-2311 -146 0
-2311 2305 0
2311 146 -2305 0
-2312 -2310 0
-2312 -2311 0
2312 2310 2311 0
2313 -6580 0
-2313 6580 0
-2314 2312 0
-2314 2313 0
2314 -2312 -2313 0
-2315 2309 0
-2315 -2314 0
2315 -2309 2314 0
-2316 -2312 0
-2316 -2313 0
2316 2312 2313 0
-2317 2315 0
-2317 -2316 0
2317 -2315 2316 0
-2318 147 0
-2318 -2313 0
2318 -147 2313 0
-2319 -147 0
-2319 2313 0
2319 147 -2313 0
-2320 -2318 0
-2320 -2319 0
2320 2318 2319 0
2321 -6581 0
-2321 6581 0
-2322 2320 0
-2322 2321 0
2322 -2320 -2321 0
-2323 2317 0
-2323 -2322 0
2323 -2317 2322 0
-2324 -2320 0
-2324 -2321 0
2324 2320 2321 0
-2325 2323 0
-2325 -2324 0
2325 -2323 2324 0
-2326 149 0
-2326 -2321 0
2326 -149 2321 0
-2327 -149 0
-2327 2321 0
2327 149 -2321 0
-2328 -2326 0
-2328 -2327 0
2328 2326 2327 0
2329 -6582 0
-2329 6582 0
-2330 2328 0
-2330 2329 0
2330 -2328 -2329 0
-2331 2325 0
-2331 -2330 0
2331 -2325 2330 0
-2332 -2328 0
-2332 -2329 0
2332 2328 2329 0
-2333 2331 0
-2333 -2332 0
2333 -2331 2332 0
-2334 154 0
-2334 -2329 0
2334 -154 2329 0
-2335 -154 0
-2335 2329 0
2335 154 -2329 0
-2336 -2334 0
-2336 -2335 0
2336 2334 2335 0
-2337 2333 0
-2337 2336 0
2337 -2333 -2336 0
2338 -6583 0
-2338 6583 0
-2339 124 0
-2339 -2338 0
2339 -124 2338 0
-2340 2337 0
-2340 -2339 0
2340 -2337 2339 0
-2341 -124 0
-2341 2338 0
2341 124 -2338 0
-2342 2340 0
-2342 -2341 0
2342 -2340 2341 0
-2343 119 0
-2343 -2338 0
2343 -119 2338 0
-2344 -119 0
-2344 2338 0
2344 119 -2338 0
-2345 -2343 0
-2345 -2344 0
2345 2343 2344 0
2346 -6584 0
-2346 6584 0
-2347 2345 0
-2347 2346 0
2347 -2345 -2346 0
-2348 2342 0
-2348 -2347 0
2348 -2342 2347 0
-2349 -2345 0
-2349 -2346 0
2349 2345 2346 0
-2350 2348 0
-2350 -2349 0
2350 -2348 2349 0
-2351 126 0
-2351 -2346 0
2351 -126 2346 0
-2352 -126 0
-2352 2346 0
2352 126 -2346 0
-2353 -2351 0
-2353 -2352 0
2353 2351 2352 0
2354 -6585 0
-2354 6585 0
-2355 2353 0
-2355 2354 0
2355 -2353 -2354 0
-2356 2350 0
-2356 -2355 0
2356 -2350 2355 0
-2357 -2353 0
-2357 -2354 0
2357 2353 2354 0
-2358 2356 0
-2358 -2357 0
2358 -2356 2357 0
-2359 127 0
-2359 -2354 0
2359 -127 2354 0
-2360 -127 0
-2360 2354 0
2360 127 -2354 0
-2361 -2359 0
-2361 -2360 0
2361 2359 2360 0
2362 -6586 0
-2362 6586 0
-2363 2361 0
-2363 2362 0
2363 -2361 -2362 0
-2364 2358 0
-2364 -2363 0
2364 -2358 2363 0
-2365 -2361 0
-2365 -2362 0
2365 2361 2362 0
-2366 2364 0
-2366 -2365 0
2366 -2364 2365 0
-2367 145 0
-2367 -2362 0
2367 -145 2362 0
-2368 -145 0
-2368 2362 0
2368 145 -2362 0
-2369 -2367 0
-2369 -2368 0
2369 2367 2368 0
2370 -6587 0
-2370 6587 0
-2371 2369 0
-2371 2370 0
2371 -2369 -2370 0
-2372 2366 0
-2372 -2371 0
2372 -2366 2371 0
-2373 -2369 0
-2373 -2370 0
2373 2369 2370 0
-2374 2372 0
-2374 -2373 0
2374 -2372 2373 0
-2375 146 0
-2375 -2370 0
2375 -146 2370 0
-2376 -146 0
-2376 2370 0
2376 146 -2370 0
-2377 -2375 0
-2377 -2376 0
2377 2375 2376 0
2378 -6588 0
-2378 6588 0
-2379 2377 0
-2379 2378 0
2379 -2377 -2378 0
-2380 2374 0
-2380 -2379 0
2380 -2374 2379 0
-2381 -2377 0
-2381 -2378 0
2381 2377 2378 0
-2382 2380 0
-2382 -2381 0
2382 -2380 2381 0
-2383 148 0
-2383 -2378 0
2383 -148 2378 0
-2384 -148 0
-2384 2378 0
2384 148 -2378 0
-2385 -2383 0
-2385 -2384 0
2385 2383 2384 0
2386 -6589 0
-2386 6589 0
-2387 2385 0
-2387 2386 0
2387 -2385 -2386 0
-2388 2382 0
-2388 -2387 0
2388 -2382 2387 0
-2389 -2385 0
-2389 -2386 0
2389 2385 2386 0
-2390 2388 0
-2390 -2389 0
2390 -2388 2389 0
-2391 153 0
-2391 -2386 0
2391 -153 2386 0
-2392 -153 0
-2392 2386 0
2392 153 -2386 0
-2393 -2391 0
-2393 -2392 0
2393 2391 2392 0
-2394 2390 0
-2394 2393 0
2394 -2390 -2393 0
2395 -6590 0
-2395 6590 0
-2396 123 0
-2396 -2395 0
2396 -123 2395 0
-2397 2394 0
-2397 -2396 0
2397 -2394 2396 0
-2398 -123 0
-2398 2395 0
2398 123 -2395 0
-2399 2397 0
-2399 -2398 0
2399 -2397 2398 0
-2400 118 0
-2400 -2395 0
2400 -118 2395 0
-2401 -118 0
-2401 2395 0
2401 118 -2395 0
-2402 -2400 0
-2402 -2401 0
2402 2400 2401 0
2403 -6591 0
-2403 6591 0
-2404 2402 0
-2404 2403 0
2404 -2402 -2403 0
-2405 2399 0
-2405 -2404 0
2405 -2399 2404 0
-2406 -2402 0
-2406 -2403 0
2406 2402 2403 0
-2407 2405 0
-2407 -2406 0
2407 -2405 2406 0
-2408 125 0
-2408 -2403 0
2408 -125 2403 0
-2409 -125 0
-2409 2403 0
2409 125 -2403 0
-2410 -2408 0
-2410 -2409 0
2410 2408 2409 0
2411 -6592 0
-2411 6592 0
-2412 2410 0
-2412 2411 0
2412 -2410 -2411 0
-2413 2407 0
-2413 -2412 0
2413 -2407 2412 0
-2414 -2410 0
-2414 -2411 0
2414 2410 2411 0
-2415 2413 0
-2415 -2414 0
2415 -2413 2414 0
-2416 126 0
-2416 -2411 0
2416 -126 2411 0
-2417 -126 0
-2417 2411 0
2417 126 -2411 0
-2418 -2416 0
-2418 -2417 0
2418 2416 2417 0
2419 -6593 0
-2419 6593 0
-2420 2418 0
-2420 2419 0
2420 -2418 -2419 0
-2421 2415 0
-2421 -2420 0
2421 -2415 2420 0
-2422 -2418 0
-2422 -2419 0
2422 2418 2419 0
-2423 2421 0
-2423 -2422 0
2423 -2421 2422 0
-2424 144 0
-2424 -2419 0
2424 -144 2419 0
-2425 -144 0
-2425 2419 0
2425 144 -2419 0
-2426 -2424 0
-2426 -2425 0
2426 2424 2425 0
2427 -6594 0
-2427 6594 0
-2428 2426 0
-2428 2427 0
2428 -2426 -2427 0
-2429 2423 0
-2429 -2428 0
2429 -2423 2428 0
-2430 -2426 0
-2430 -2427 0
2430 2426 2427 0
-2431 2429 0
-2431 -2430 0
2431 -2429 2430 0
-2432 145 0
-2432 -2427 0
2432 -145 2427 0
-2433 -145 0
-2433 2427 0
2433 145 -2427 0
-2434 -2432 0
-2434 -2433 0
2434 2432 2433 0
2435 -6595 0
-2435 6595 0
-2436 2434 0
-2436 2435 0
2436 -2434 -2435 0
-2437 2431 0
-2437 -2436 0
2437 -2431 2436 0
-2438 -2434 0
-2438 -2435 0
2438 2434 2435 0
-2439 2437 0
-2439 -2438 0
2439 -2437 2438 0
-2440 147 0
-2440 -2435 0
2440 -147 2435 0
-2441 -147 0
-2441 2435 0
2441 147 -2435 0
-2442 -2440 0
-2442 -2441 0
2442 2440 2441 0
2443 -6596 0
-2443 6596 0
-2444 2442 0
-2444 2443 0
2444 -2442 -2443 0
-2445 2439 0
-2445 -2444 0
2445 -2439 2444 0
-2446 -2442 0
-2446 -2443 0
2446 2442 2443 0
-2447 2445 0
-2447 -2446 0
2447 -2445 2446 0
-2448 152 0
-2448 -2443 0
2448 -152 2443 0
-2449 -152 0
-2449 2443 0
2449 152 -2443 0
-2450 -2448 0
-2450 -2449 0
2450 2448 2449 0
-2451 2447 0
-2451 2450 0
2451 -2447 -2450 0
-2454 2451 0
-2454 -2453 0
2454 -2451 2453 0
-2456 2454 0
-2456 -2455 0
2456 -2454 2455 0
-2457 117 0
-2457 -2452 0
2457 -117 2452 0
-2458 -117 0
-2458 2452 0
2458 117 -2452 0
-2459 -2457 0
-2459 -2458 0
2459 2457 2458 0
2460 -6598 0
-2460 6598 0
-2461 2459 0
-2461 2460 0
2461 -2459 -2460 0
-2462 2456 0
-2462 -2461 0
2462 -2456 2461 0
-2463 -2459 0
-2463 -2460 0
2463 2459 2460 0
-2464 2462 0
-2464 -2463 0
2464 -2462 2463 0
-2465 124 0
-2465 -2460 0
2465 -124 2460 0
-2466 -124 0
-2466 2460 0
2466 124 -2460 0
-2467 -2465 0
-2467 -2466 0
2467 2465 2466 0
2468 -6599 0
-2468 6599 0
-2469 2467 0
-2469 2468 0
2469 -2467 -2468 0
-2470 2464 0
-2470 -2469 0
2470 -2464 2469 0
-2471 -2467 0
-2471 -2468 0
2471 2467 2468 0
-2472 2470 0
-2472 -2471 0
2472 -2470 2471 0
-2473 125 0
-2473 -2468 0
2473 -125 2468 0
-2474 -125 0
-2474 2468 0
2474 125 -2468 0
-2475 -2473 0
-2475 -2474 0
2475 2473 2474 0
2476 -6600 0
-2476 6600 0
-2477 2475 0
-2477 2476 0
2477 -2475 -2476 0
-2478 2472 0
-2478 -2477 0
2478 -2472 2477 0
-2479 -2475 0
-2479 -2476 0
2479 2475 2476 0
-2480 2478 0
-2480 -2479 0
2480 -2478 2479 0
-2481 143 0
-2481 -2476 0
2481 -143 2476 0
-2482 -143 0
-2482 2476 0
2482 143 -2476 0
-2483 -2481 0
-2483 -2482 0
2483 2481 2482 0
2484 -6601 0
-2484 6601 0
-2485 2483 0
-2485 2484 0
2485 -2483 -2484 0
-2486 2480 0
-2486 -2485 0
2486 -2480 2485 0
-2487 -2483 0
-2487 -2484 0
2487 2483 2484 0
-2488 2486 0
-2488 -2487 0
2488 -2486 2487 0
-2489 144 0
-2489 -2484 0
2489 -144 2484 0
-2490 -144 0
-2490 2484 0
2490 144 -2484 0
-2491 -2489 0
-2491 -2490 0
2491 2489 2490 0
2492 -6602 0
-2492 6602 0
-2493 2491 0
-2493 2492 0
2493 -2491 -2492 0
-2494 2488 0
-2494 -2493 0
2494 -2488 2493 0
-2495 -2491 0
-2495 -2492 0
2495 2491 2492 0
-2496 2494 0
-2496 -2495 0
2496 -2494 2495 0
-2497 146 0
-2497 -2492 0
2497 -146 2492 0
-2498 -146 0
-2498 2492 0
2498 146 -2492 0
-2499 -2497 0
-2499 -2498 0
2499 2497 2498 0
2500 -6603 0
-2500 6603 0
-2501 2499 0
-2501 2500 0
2501 -2499 -2500 0
-2502 2496 0
-2502 -2501 0
2502 -2496 2501 0
-2503 -2499 0
-2503 -2500 0
2503 2499 2500 0
-2504 2502 0
-2504 -2503 0
2504 -2502 2503 0
-2505 151 0
-2505 -2500 0
2505 -151 2500 0
-2506 -151 0
-2506 2500 0
2506 151 -2500 0
-2507 -2505 0
-2507 -2506 0
2507 2505 2506 0
-2508 2504 0
-2508 2507 0
2508 -2504 -2507 0
-2511 2508 0
-2511 -2510 0
2511 -2508 2510 0
-2513 2511 0
-2513 -2512 0
2513 -2511 2512 0
-2514 116 0
-2514 -2509 0
2514 -116 2509 0
-2515 -116 0
-2515 2509 0
2515 116 -2509 0
-2516 -2514 0
-2516 -2515 0
2516 2514 2515 0
2517 -6605 0
-2517 6605 0
-2518 2516 0
-2518 2517 0
2518 -2516 -2517 0
-2519 2513 0
-2519 -2518 0
2519 -2513 2518 0
-2520 -2516 0
-2520 -2517 0
2520 2516 2517 0
-2521 2519 0
-2521 -2520 0
2521 -2519 2520 0
-2522 123 0
-2522 -2517 0
2522 -123 2517 0
-2523 -123 0
-2523 2517 0
2523 123 -2517 0
-2524 -2522 0
-2524 -2523 0
2524 2522 2523 0
2525 -6606 0
-2525 6606 0
-2526 2524 0
-2526 2525 0
2526 -2524 -2525 0
-2527 2521 0
-2527 -2526 0
2527 -2521 2526 0
-2528 -2524 0
-2528 -2525 0
2528 2524 2525 0
-2529 2527 0
-2529 -2528 0
2529 -2527 2528 0
-2530 124 0
-2530 -2525 0
2530 -124 2525 0
-2531 -124 0
-2531 2525 0
2531 124 -2525 0
-2532 -2530 0
-2532 -2531 0
2532 2530 2531 0
2533 -6607 0
-2533 6607 0
-2534 2532 0
-2534 2533 0
2534 -2532 -2533 0
-2535 2529 0
-2535 -2534 0
2535 -2529 2534 0
-2536 -2532 0
-2536 -2533 0
2536 2532 2533 0
-2537 2535 0
-2537 -2536 0
2537 -2535 2536 0
-2538 142 0
-2538 -2533 0
2538 -142 2533 0
-2539 -142 0
-2539 2533 0
2539 142 -2533 0
-2540 -2538 0
-2540 -2539 0
2540 2538 2539 0
2541 -6608 0
-2541 6608 0
-2542 2540 0
-2542 2541 0
2542 -2540 -2541 0
-2543 2537 0
-2543 -2542 0
2543 -2537 2542 0
-2544 -2540 0
-2544 -2541 0
2544 2540 2541 0
-2545 2543 0
-2545 -2544 0
2545 -2543 2544 0
-2546 143 0
-2546 -2541 0
2546 -143 2541 0
-2547 -143 0
-2547 2541 0
2547 143 -2541 0
-2548 -2546 0
-2548 -2547 0
2548 2546 2547 0
2549 -6609 0
-2549 6609 0
-2550 2548 0
-2550 2549 0
2550 -2548 -2549 0
-2551 2545 0
-2551 -2550 0
2551 -2545 2550 0
-2552 -2548 0
-2552 -2549 0
2552 2548 2549 0
-2553 2551 0
-2553 -2552 0
2553 -2551 2552 0
-2554 145 0
-2554 -2549 0
2554 -145 2549 0
-2555 -145 0
-2555 2549 0
2555 145 -2549 0
-2556 -2554 0
-2556 -2555 0
2556 2554 2555 0
2557 -6610 0
-2557 6610 0
-2558 2556 0
-2558 2557 0
2558 -2556 -2557 0
-2559 2553 0
-2559 -2558 0
2559 -2553 2558 0
-2560 -2556 0
-2560 -2557 0
2560 2556 2557 0
-2561 2559 0
-2561 -2560 0
2561 -2559 2560 0
-2562 150 0
-2562 -2557 0
2562 -150 2557 0
-2563 -150 0
-2563 2557 0
2563 150 -2557 0
-2564 -2562 0
-2564 -2563 0
2564 2562 2563 0
-2565 2561 0
-2565 2564 0
2565 -2561 -2564 0
-2568 2565 0
-2568 -2567 0
2568 -2565 2567 0
-2570 2568 0
-2570 -2569 0
2570 -2568 2569 0
-2571 115 0
-2571 -2566 0
2571 -115 2566 0
-2572 -115 0
-2572 2566 0
2572 115 -2566 0
-2573 -2571 0
-2573 -2572 0
2573 2571 2572 0
2574 -6612 0
-2574 6612 0
-2575 2573 0
-2575 2574 0
2575 -2573 -2574 0
-2576 2570 0
-2576 -2575 0
2576 -2570 2575 0
-2577 -2573 0
-2577 -2574 0
2577 2573 2574 0
-2578 2576 0
-2578 -2577 0
2578 -2576 2577 0
-2579 122 0
-2579 -2574 0
2579 -122 2574 0
-2580 -122 0
-2580 2574 0
2580 122 -2574 0
-2581 -2579 0
-2581 -2580 0
2581 2579 2580 0
2582 -6613 0
-2582 6613 0
-2583 2581 0
-2583 2582 0
2583 -2581 -2582 0
-2584 2578 0
-2584 -2583 0
2584 -2578 2583 0
-2585 -2581 0
-2585 -2582 0
2585 2581 2582 0
-2586 2584 0
-2586 -2585 0
2586 -2584 2585 0
-2587 123 0
-2587 -2582 0
2587 -123 2582 0
-2588 -123 0
-2588 2582 0
2588 123 -2582 0
-2589 -2587 0
-2589 -2588 0
2589 2587 2588 0
2590 -6614 0
-2590 6614 0
-2591 2589 0
-2591 2590 0
2591 -2589 -2590 0
-2592 2586 0
-2592 -2591 0
2592 -2586 2591 0
-2593 -2589 0
-2593 -2590 0
2593 2589 2590 0
-2594 2592 0
-2594 -2593 0
2594 -2592 2593 0
-2595 141 0
-2595 -2590 0
2595 -141 2590 0
-2596 -141 0
-2596 2590 0
2596 141 -2590 0
-2597 -2595 0
-2597 -2596 0
2597 2595 2596 0
2598 -6615 0
-2598 6615 0
-2599 2597 0
-2599 2598 0
2599 -2597 -2598 0
-2600 2594 0
-2600 -2599 0
2600 -2594 2599 0
-2601 -2597 0
-2601 -2598 0
2601 2597 2598 0
-2602 2600 0
-2602 -2601 0
2602 -2600 2601 0
-2603 142 0
-2603 -2598 0
2603 -142 2598 0
-2604 -142 0
-2604 2598 0
2604 142 -2598 0
-2605 -2603 0
-2605 -2604 0
2605 2603 2604 0
2606 -6616 0
-2606 6616 0
-2607 2605 0
-2607 2606 0
2607 -2605 -2606 0
-2608 2602 0
-2608 -2607 0
2608 -2602 2607 0
-2609 -2605 0
-2609 -2606 0
2609 2605 2606 0
-2610 2608 0
-2610 -2609 0
2610 -2608 2609 0
-2611 144 0
-2611 -2606 0
2611 -144 2606 0
-2612 -144 0
-2612 2606 0
2612 144 -2606 0
-2613 -2611 0
-2613 -2612 0
2613 2611 2612 0
2614 -6617 0
-2614 6617 0
-2615 2613 0
-2615 2614 0
2615 -2613 -2614 0
-2616 2610 0
-2616 -2615 0
2616 -2610 2615 0
-2617 -2613 0
-2617 -2614 0
2617 2613 2614 0
-2618 2616 0
-2618 -2617 0
2618 -2616 2617 0
-2619 149 0
-2619 -2614 0
2619 -149 2614 0
-2620 -149 0
-2620 2614 0
2620 149 -2614 0
-2621 -2619 0
-2621 -2620 0
2621 2619 2620 0
-2622 2618 0
-2622 2621 0
2622 -2618 -2621 0
-2625 2622 0
-2625 -2624 0
2625 -2622 2624 0
-2627 2625 0
-2627 -2626 0
2627 -2625 2626 0
-2633 2627 0
-2633 -2632 0
2633 -2627 2632 0
-2635 2633 0
-2635 -2634 0
2635 -2633 2634 0
-2636 121 0
-2636 -2631 0
2636 -121 2631 0
-2637 -121 0
-2637 2631 0
2637 121 -2631 0
-2638 -2636 0
-2638 -2637 0
2638 2636 2637 0
2639 -6620 0
-2639 6620 0
-2640 2638 0
-2640 2639 0
2640 -2638 -2639 0
-2641 2635 0
-2641 -2640 0
2641 -2635 2640 0
-2642 -2638 0
-2642 -2639 0
2642 2638 2639 0
-2643 2641 0
-2643 -2642 0
2643 -2641 2642 0
-2644 122 0
-2644 -2639 0
2644 -122 2639 0
-2645 -122 0
-2645 2639 0
2645 122 -2639 0
-2646 -2644 0
-2646 -2645 0
2646 2644 2645 0
2647 -6621 0
-2647 6621 0
-2648 2646 0
-2648 2647 0
2648 -2646 -2647 0
-2649 2643 0
-2649 -2648 0
2649 -2643 2648 0
-2650 -2646 0
-2650 -2647 0
2650 2646 2647 0
-2651 2649 0
-2651 -2650 0
2651 -2649 2650 0
-2652 140 0
-2652 -2647 0
2652 -140 2647 0
-2653 -140 0
-2653 2647 0
2653 140 -2647 0
-2654 -2652 0
-2654 -2653 0
2654 2652 2653 0
2655 -6622 0
-2655 6622 0
-2656 2654 0
-2656 2655 0
2656 -2654 -2655 0
-2657 2651 0
-2657 -2656 0
2657 -2651 2656 0
-2658 -2654 0
-2658 -2655 0
2658 2654 2655 0
-2659 2657 0
-2659 -2658 0
2659 -2657 2658 0
-2660 141 0
-2660 -2655 0
2660 -141 2655 0
-2661 -141 0
-2661 2655 0
2661 141 -2655 0
-2662 -2660 0
-2662 -2661 0
2662 2660 2661 0
2663 -6623 0
-2663 6623 0
-2664 2662 0
-2664 2663 0
2664 -2662 -2663 0
-2665 2659 0
-2665 -2664 0
2665 -2659 2664 0
-2666 -2662 0
-2666 -2663 0
2666 2662 2663 0
-2667 2665 0
-2667 -2666 0
2667 -2665 2666 0
-2668 143 0
-2668 -2663 0
2668 -143 2663 0
-2669 -143 0
-2669 2663 0
2669 143 -2663 0
-2670 -2668 0
-2670 -2669 0
2670 2668 2669 0
2671 -6624 0
-2671 6624 0
-2672 2670 0
-2672 2671 0
2672 -2670 -2671 0
-2673 2667 0
-2673 -2672 0
2673 -2667 2672 0
-2674 -2670 0
-2674 -2671 0
2674 2670 2671 0
-2675 2673 0
-2675 -2674 0
2675 -2673 2674 0
-2676 148 0
-2676 -2671 0
2676 -148 2671 0
-2677 -148 0
-2677 2671 0
2677 148 -2671 0
-2678 -2676 0
-2678 -2677 0
2678 2676 2677 0
-2679 2675 0
-2679 2678 0
2679 -2675 -2678 0
-2682 2679 0
-2682 -2681 0
2682 -2679 2681 0
-2684 2682 0
-2684 -2683 0
2684 -2682 2683 0
-2690 2684 0
-2690 -2689 0
2690 -2684 2689 0
-2692 2690 0
-2692 -2691 0
2692 -2690 2691 0
-2693 120 0
-2693 -2688 0
2693 -120 2688 0
-2694 -120 0
-2694 2688 0
2694 120 -2688 0
-2695 -2693 0
-2695 -2694 0
2695 2693 2694 0
2696 -6627 0
-2696 6627 0
-2697 2695 0
-2697 2696 0
2697 -2695 -2696 0
-2698 2692 0
-2698 -2697 0
2698 -2692 2697 0
-2699 -2695 0
-2699 -2696 0
2699 2695 2696 0
-2700 2698 0
-2700 -2699 0
2700 -2698 2699 0
-2701 121 0
-2701 -2696 0
2701 -121 2696 0
-2702 -121 0
-2702 2696 0
2702 121 -2696 0
-2703 -2701 0
-2703 -2702 0
2703 2701 2702 0
2704 -6628 0
-2704 6628 0
-2705 2703 0
-2705 2704 0
2705 -2703 -2704 0
-2706 2700 0
-2706 -2705 0
2706 -2700 2705 0
-2707 -2703 0
-2707 -2704 0
2707 2703 2704 0
-2708 2706 0
-2708 -2707 0
2708 -2706 2707 0
-2709 140 0
-2709 -2704 0
2709 -140 2704 0
-2710 -140 0
-2710 2704 0
2710 140 -2704 0
-2711 -2709 0
-2711 -2710 0
2711 2709 2710 0
2712 -6629 0
-2712 6629 0
-2713 2711 0
-2713 2712 0
2713 -2711 -2712 0
-2714 2708 0
-2714 -2713 0
2714 -2708 2713 0
-2715 -2711 0
-2715 -2712 0
2715 2711 2712 0
-2716 2714 0
-2716 -2715 0
2716 -2714 2715 0
-2717 142 0
-2717 -2712 0
2717 -142 2712 0
-2718 -142 0
-2718 2712 0
2718 142 -2712 0
-2719 -2717 0
-2719 -2718 0
2719 2717 2718 0
2720 -6630 0
-2720 6630 0
-2721 2719 0
-2721 2720 0
2721 -2719 -2720 0
-2722 2716 0
-2722 -2721 0
2722 -2716 2721 0
-2723 -2719 0
-2723 -2720 0
2723 2719 2720 0
-2724 2722 0
-2724 -2723 0
2724 -2722 2723 0
-2725 147 0
-2725 -2720 0
2725 -147 2720 0
-2726 -147 0
-2726 2720 0
2726 147 -2720 0
-2727 -2725 0
-2727 -2726 0
2727 2725 2726 0
-2728 166 0
-2728 2727 0
2728 -166 -2727 0
-2729 -166 0
-2729 -2727 0
2729 166 2727 0
-2730 -2728 0
-2730 -2729 0
2730 2728 2729 0
-2731 2724 0
-2731 2730 0
2731 -2724 -2730 0
-2732 -2624 0
-2732 2731 0
2732 2624 -2731 0
-2733 -2626 0
-2733 2732 0
2733 2626 -2732 0
-2734 117 0
-2734 -2623 0
2734 -117 2623 0
-2735 -117 0
-2735 2623 0
2735 117 -2623 0
-2736 -2734 0
-2736 -2735 0
2736 2734 2735 0
2737 -6631 0
-2737 6631 0
-2738 2736 0
-2738 2737 0
2738 -2736 -2737 0
-2739 2733 0
-2739 -2738 0
2739 -2733 2738 0
-2740 -2736 0
-2740 -2737 0
2740 2736 2737 0
-2741 2739 0
-2741 -2740 0
2741 -2739 2740 0
-2742 120 0
-2742 -2737 0
2742 -120 2737 0
-2743 -120 0
-2743 2737 0
2743 120 -2737 0
-2744 -2742 0
-2744 -2743 0
2744 2742 2743 0
2745 -6632 0
-2745 6632 0
-2746 2744 0
-2746 2745 0
2746 -2744 -2745 0
-2747 2741 0
-2747 -2746 0
2747 -2741 2746 0
-2748 -2744 0
-2748 -2745 0
2748 2744 2745 0
-2749 2747 0
-2749 -2748 0
2749 -2747 2748 0
-2750 139 0
-2750 -2745 0
2750 -139 2745 0
-2751 -139 0
-2751 2745 0
2751 139 -2745 0
-2752 -2750 0
-2752 -2751 0
2752 2750 2751 0
2753 -6633 0
-2753 6633 0
-2754 2752 0
-2754 2753 0
2754 -2752 -2753 0
-2755 2749 0
-2755 -2754 0
2755 -2749 2754 0
-2756 -2752 0
-2756 -2753 0
2756 2752 2753 0
-2757 2755 0
-2757 -2756 0
2757 -2755 2756 0
-2758 141 0
-2758 -2753 0
2758 -141 2753 0
-2759 -141 0
-2759 2753 0
2759 141 -2753 0
-2760 -2758 0
-2760 -2759 0
2760 2758 2759 0
2761 -6634 0
-2761 6634 0
-2762 2760 0
-2762 2761 0
2762 -2760 -2761 0
-2763 2757 0
-2763 -2762 0
2763 -2757 2762 0
-2764 -2760 0
-2764 -2761 0
2764 2760 2761 0
-2765 2763 0
-2765 -2764 0
2765 -2763 2764 0
-2766 146 0
-2766 -2761 0
2766 -146 2761 0
-2767 -146 0
-2767 2761 0
2767 146 -2761 0
-2768 -2766 0
-2768 -2767 0
2768 2766 2767 0
2769 -6635 0
-2769 6635 0
-2770 2768 0
-2770 2769 0
2770 -2768 -2769 0
-2771 2765 0
-2771 -2770 0
2771 -2765 2770 0
-2772 -2768 0
-2772 -2769 0
2772 2768 2769 0
-2773 2771 0
-2773 -2772 0
2773 -2771 2772 0
-2774 165 0
-2774 -2769 0
2774 -165 2769 0
-2775 -165 0
-2775 2769 0
2775 165 -2769 0
-2776 -2774 0
-2776 -2775 0
2776 2774 2775 0
-2777 166 0
-2777 2776 0
2777 -166 -2776 0
-2778 -166 0
-2778 -2776 0
2778 166 2776 0
-2779 -2777 0
-2779 -2778 0
2779 2777 2778 0
-2780 2773 0
-2780 2779 0
2780 -2773 -2779 0
-2781 -2681 0
-2781 2780 0
2781 2681 -2780 0
-2782 -2683 0
-2782 2781 0
2782 2683 -2781 0
-2788 2782 0
-2788 -2787 0
2788 -2782 2787 0
-2790 2788 0
-2790 -2789 0
2790 -2788 2789 0
-2796 2790 0
-2796 -2795 0
2796 -2790 2795 0
-2798 2796 0
-2798 -2797 0
2798 -2796 2797 0
-2799 138 0
-2799 -2794 0
2799 -138 2794 0
-2800 -138 0
-2800 2794 0
2800 138 -2794 0
-2801 -2799 0
-2801 -2800 0
2801 2799 2800 0
2802 -6638 0
-2802 6638 0
-2803 2801 0
-2803 2802 0
2803 -2801 -2802 0
-2804 2798 0
-2804 -2803 0
2804 -2798 2803 0
-2805 -2801 0
-2805 -2802 0
2805 2801 2802 0
-2806 2804 0
-2806 -2805 0
2806 -2804 2805 0
-2807 140 0
-2807 -2802 0
2807 -140 2802 0
-2808 -140 0
-2808 2802 0
2808 140 -2802 0
-2809 -2807 0
-2809 -2808 0
2809 2807 2808 0
2810 -6639 0
-2810 6639 0
-2811 2809 0
-2811 2810 0
2811 -2809 -2810 0
-2812 2806 0
-2812 -2811 0
2812 -2806 2811 0
-2813 -2809 0
-2813 -2810 0
2813 2809 2810 0
-2814 2812 0
-2814 -2813 0
2814 -2812 2813 0
-2815 145 0
-2815 -2810 0
2815 -145 2810 0
-2816 -145 0
-2816 2810 0
2816 145 -2810 0
-2817 -2815 0
-2817 -2816 0
2817 2815 2816 0
2818 -6640 0
-2818 6640 0
-2819 2817 0
-2819 2818 0
2819 -2817 -2818 0
-2820 2814 0
-2820 -2819 0
2820 -2814 2819 0
-2821 -2817 0
-2821 -2818 0
2821 2817 2818 0
-2822 2820 0
-2822 -2821 0
2822 -2820 2821 0
-2823 164 0
-2823 -2818 0
2823 -164 2818 0
-2824 -164 0
-2824 2818 0
2824 164 -2818 0
-2825 -2823 0
-2825 -2824 0
2825 2823 2824 0
2826 -6641 0
-2826 6641 0
-2827 2825 0
-2827 2826 0
2827 -2825 -2826 0
-2828 2822 0
-2828 -2827 0
2828 -2822 2827 0
-2829 -2825 0
-2829 -2826 0
2829 2825 2826 0
-2830 2828 0
-2830 -2829 0
2830 -2828 2829 0
-2831 165 0
-2831 -2826 0
2831 -165 2826 0
-2832 -165 0
-2832 2826 0
2832 165 -2826 0
-2833 -2831 0
-2833 -2832 0
2833 2831 2832 0
-2834 2830 0
-2834 2833 0
2834 -2830 -2833 0
-2837 2834 0
-2837 -2836 0
2837 -2834 2836 0
-2839 2837 0
-2839 -2838 0
2839 -2837 2838 0
-2845 2839 0
-2845 -2844 0
2845 -2839 2844 0
-2847 2845 0
-2847 -2846 0
2847 -2845 2846 0
-2853 2847 0
-2853 -2852 0
2853 -2847 2852 0
-2855 2853 0
-2855 -2854 0
2855 -2853 2854 0
-2856 137 0
-2856 -2851 0
2856 -137 2851 0
-2857 -137 0
-2857 2851 0
2857 137 -2851 0
-2858 -2856 0
-2858 -2857 0
2858 2856 2857 0
2859 -6645 0
-2859 6645 0
-2860 2858 0
-2860 2859 0
2860 -2858 -2859 0
-2861 2855 0
-2861 -2860 0
2861 -2855 2860 0
-2862 -2858 0
-2862 -2859 0
2862 2858 2859 0
-2863 2861 0
-2863 -2862 0
2863 -2861 2862 0
-2864 144 0
-2864 -2859 0
2864 -144 2859 0
-2865 -144 0
-2865 2859 0
2865 144 -2859 0
-2866 -2864 0
-2866 -2865 0
2866 2864 2865 0
2867 -6646 0
-2867 6646 0
-2868 2866 0
-2868 2867 0
2868 -2866 -2867 0
-2869 2863 0
-2869 -2868 0
2869 -2863 2868 0
-2870 -2866 0
-2870 -2867 0
2870 2866 2867 0
-2871 2869 0
-2871 -2870 0
2871 -2869 2870 0
-2872 163 0
-2872 -2867 0
2872 -163 2867 0
-2873 -163 0
-2873 2867 0
2873 163 -2867 0
-2874 -2872 0
-2874 -2873 0
2874 2872 2873 0
2875 -6647 0
-2875 6647 0
-2876 2874 0
-2876 2875 0
2876 -2874 -2875 0
-2877 2871 0
-2877 -2876 0
2877 -2871 2876 0
-2878 -2874 0
-2878 -2875 0
2878 2874 2875 0
-2879 2877 0
-2879 -2878 0
2879 -2877 2878 0
-2880 164 0
-2880 -2875 0
2880 -164 2875 0
-2881 -164 0
-2881 2875 0
2881 164 -2875 0
-2882 -2880 0
-2882 -2881 0
2882 2880 2881 0
-2883 166 0
-2883 2882 0
2883 -166 -2882 0
-2884 -166 0
-2884 -2882 0
2884 166 2882 0
-2885 -2883 0
-2885 -2884 0
2885 2883 2884 0
-2886 2879 0
-2886 2885 0
2886 -2879 -2885 0
-2889 2886 0
-2889 -2888 0
2889 -2886 2888 0
-2891 2889 0
-2891 -2890 0
2891 -2889 2890 0
-2897 2891 0
-2897 -2896 0
2897 -2891 2896 0
-2899 2897 0
-2899 -2898 0
2899 -2897 2898 0
-2905 2899 0
-2905 -2904 0
2905 -2899 2904 0
-2907 2905 0
-2907 -2906 0
2907 -2905 2906 0
-2908 136 0
-2908 -2903 0
2908 -136 2903 0
-2909 -136 0
-2909 2903 0
2909 136 -2903 0
-2910 -2908 0
-2910 -2909 0
2910 2908 2909 0
2911 -6651 0
-2911 6651 0
-2912 2910 0
-2912 2911 0
2912 -2910 -2911 0
-2913 2907 0
-2913 -2912 0
2913 -2907 2912 0
-2914 -2910 0
-2914 -2911 0
2914 2910 2911 0
-2915 2913 0
-2915 -2914 0
2915 -2913 2914 0
-2916 143 0
-2916 -2911 0
2916 -143 2911 0
-2917 -143 0
-2917 2911 0
2917 143 -2911 0
-2918 -2916 0
-2918 -2917 0
2918 2916 2917 0
2919 -6652 0
-2919 6652 0
-2920 2918 0
-2920 2919 0
2920 -2918 -2919 0
-2921 2915 0
-2921 -2920 0
2921 -2915 2920 0
-2922 -2918 0
-2922 -2919 0
2922 2918 2919 0
-2923 2921 0
-2923 -2922 0
2923 -2921 2922 0
-2924 162 0
-2924 -2919 0
2924 -162 2919 0
-2925 -162 0
-2925 2919 0
2925 162 -2919 0
-2926 -2924 0
-2926 -2925 0
2926 2924 2925 0
2927 -6653 0
-2927 6653 0
-2928 2926 0
-2928 2927 0
2928 -2926 -2927 0
-2929 2923 0
-2929 -2928 0
2929 -2923 2928 0
-2930 -2926 0
-2930 -2927 0
2930 2926 2927 0
-2931 2929 0
-2931 -2930 0
2931 -2929 2930 0
-2932 163 0
-2932 -2927 0
2932 -163 2927 0
-2933 -163 0
-2933 2927 0
2933 163 -2927 0
-2934 -2932 0
-2934 -2933 0
2934 2932 2933 0
2935 -6654 0
-2935 6654 0
-2936 2934 0
-2936 2935 0
2936 -2934 -2935 0
-2937 2931 0
-2937 -2936 0
2937 -2931 2936 0
-2938 -2934 0
-2938 -2935 0
2938 2934 2935 0
-2939 2937 0
-2939 -2938 0
2939 -2937 2938 0
-2940 165 0
-2940 -2935 0
2940 -165 2935 0
-2941 -165 0
-2941 2935 0
2941 165 -2935 0
-2942 -2940 0
-2942 -2941 0
2942 2940 2941 0
-2943 2939 0
-2943 2942 0
2943 -2939 -2942 0
-2946 2943 0
-2946 -2945 0
2946 -2943 2945 0
-2948 2946 0
-2948 -2947 0
2948 -2946 2947 0
-2954 2948 0
-2954 -2953 0
2954 -2948 2953 0
-2956 2954 0
-2956 -2955 0
2956 -2954 2955 0
-2962 2956 0
-2962 -2961 0
2962 -2956 2961 0
-2964 2962 0
-2964 -2963 0
2964 -2962 2963 0
-2965 135 0
-2965 -2960 0
2965 -135 2960 0
-2966 -135 0
-2966 2960 0
2966 135 -2960 0
-2967 -2965 0
-2967 -2966 0
2967 2965 2966 0
2968 -6658 0
-2968 6658 0
-2969 2967 0
-2969 2968 0
2969 -2967 -2968 0
-2970 2964 0
-2970 -2969 0
2970 -2964 2969 0
-2971 -2967 0
-2971 -2968 0
2971 2967 2968 0
-2972 2970 0
-2972 -2971 0
2972 -2970 2971 0
-2973 142 0
-2973 -2968 0
2973 -142 2968 0
-2974 -142 0
-2974 2968 0
2974 142 -2968 0
-2975 -2973 0
-2975 -2974 0
2975 2973 2974 0
2976 -6659 0
-2976 6659 0
-2977 2975 0
-2977 2976 0
2977 -2975 -2976 0
-2978 2972 0
-2978 -2977 0
2978 -2972 2977 0
-2979 -2975 0
-2979 -2976 0
2979 2975 2976 0
-2980 2978 0
-2980 -2979 0
2980 -2978 2979 0
-2981 161 0
-2981 -2976 0
2981 -161 2976 0
-2982 -161 0
-2982 2976 0
2982 161 -2976 0
-2983 -2981 0
-2983 -2982 0
2983 2981 2982 0
2984 -6660 0
-2984 6660 0
-2985 2983 0
-2985 2984 0
2985 -2983 -2984 0
-2986 2980 0
-2986 -2985 0
2986 -2980 2985 0
-2987 -2983 0
-2987 -2984 0
2987 2983 2984 0
-2988 2986 0
-2988 -2987 0
2988 -2986 2987 0
-2989 162 0
-2989 -2984 0
2989 -162 2984 0
-2990 -162 0
-2990 2984 0
2990 162 -2984 0
-2991 -2989 0
-2991 -2990 0
2991 2989 2990 0
2992 -6661 0
-2992 6661 0
-2993 2991 0
-2993 2992 0
2993 -2991 -2992 0
-2994 2988 0
-2994 -2993 0
2994 -2988 2993 0
-2995 -2991 0
-2995 -2992 0
2995 2991 2992 0
-2996 2994 0
-2996 -2995 0
2996 -2994 2995 0
-2997 164 0
-2997 -2992 0
2997 -164 2992 0
-2998 -164 0
-2998 2992 0
2998 164 -2992 0
-2999 -2997 0
-2999 -2998 0
2999 2997 2998 0
-3000 2996 0
-3000 2999 0
3000 -2996 -2999 0
-3001 -2945 0
-3001 3000 0
3001 2945 -3000 0
-3002 -2947 0
-3002 3001 0
3002 2947 -3001 0
-3008 3002 0
-3008 -3007 0
3008 -3002 3007 0
-3010 3008 0
-3010 -3009 0
3010 -3008 3009 0
-3011 134 0
-3011 -3006 0
3011 -134 3006 0
-3012 -134 0
-3012 3006 0
3012 134 -3006 0
-3013 -3011 0
-3013 -3012 0
3013 3011 3012 0
3014 -6663 0
-3014 6663 0
-3015 3013 0
-3015 3014 0
3015 -3013 -3014 0
-3016 3010 0
-3016 -3015 0
3016 -3010 3015 0
-3017 -3013 0
-3017 -3014 0
3017 3013 3014 0
-3018 3016 0
-3018 -3017 0
3018 -3016 3017 0
-3019 139 0
-3019 -3014 0
3019 -139 3014 0
-3020 -139 0
-3020 3014 0
3020 139 -3014 0
-3021 -3019 0
-3021 -3020 0
3021 3019 3020 0
3022 -6664 0
-3022 6664 0
-3023 3021 0
-3023 3022 0
3023 -3021 -3022 0
-3024 3018 0
-3024 -3023 0
3024 -3018 3023 0
-3025 -3021 0
-3025 -3022 0
3025 3021 3022 0
-3026 3024 0
-3026 -3025 0
3026 -3024 3025 0
-3027 141 0
-3027 -3022 0
3027 -141 3022 0
-3028 -141 0
-3028 3022 0
3028 141 -3022 0
-3029 -3027 0
-3029 -3028 0
3029 3027 3028 0
3030 -6665 0
-3030 6665 0
-3031 3029 0
-3031 3030 0
3031 -3029 -3030 0
-3032 3026 0
-3032 -3031 0
3032 -3026 3031 0
-3033 -3029 0
-3033 -3030 0
3033 3029 3030 0
-3034 3032 0
-3034 -3033 0
3034 -3032 3033 0
-3035 160 0
-3035 -3030 0
3035 -160 3030 0
-3036 -160 0
-3036 3030 0
3036 160 -3030 0
-3037 -3035 0
-3037 -3036 0
3037 3035 3036 0
3038 -6666 0
-3038 6666 0
-3039 3037 0
-3039 3038 0
3039 -3037 -3038 0
-3040 3034 0
-3040 -3039 0
3040 -3034 3039 0
-3041 -3037 0
-3041 -3038 0
3041 3037 3038 0
-3042 3040 0
-3042 -3041 0
3042 -3040 3041 0
-3043 161 0
-3043 -3038 0
3043 -161 3038 0
-3044 -161 0
-3044 3038 0
3044 161 -3038 0
-3045 -3043 0
-3045 -3044 0
3045 3043 3044 0
3046 -6667 0
-3046 6667 0
-3047 3045 0
-3047 3046 0
3047 -3045 -3046 0
-3048 3042 0
-3048 -3047 0
3048 -3042 3047 0
-3049 -3045 0
-3049 -3046 0
3049 3045 3046 0
-3050 3048 0
-3050 -3049 0
3050 -3048 3049 0
-3051 163 0
-3051 -3046 0
3051 -163 3046 0
-3052 -163 0
-3052 3046 0
3052 163 -3046 0
-3053 -3051 0
-3053 -3052 0
3053 3051 3052 0
-3054 3050 0
-3054 3053 0
3054 -3050 -3053 0
-3057 3054 0
-3057 -3056 0
3057 -3054 3056 0
-3059 3057 0
-3059 -3058 0
3059 -3057 3058 0
-3065 3059 0
-3065 -3064 0
3065 -3059 3064 0
-3067 3065 0
-3067 -3066 0
3067 -3065 3066 0
-3068 133 0
-3068 -3063 0
3068 -133 3063 0
-3069 -133 0
-3069 3063 0
3069 133 -3063 0
-3070 -3068 0
-3070 -3069 0
3070 3068 3069 0
3071 -6670 0
-3071 6670 0
-3072 3070 0
-3072 3071 0
3072 -3070 -3071 0
-3073 3067 0
-3073 -3072 0
3073 -3067 3072 0
-3074 -3070 0
-3074 -3071 0
3074 3070 3071 0
-3075 3073 0
-3075 -3074 0
3075 -3073 3074 0
-3076 138 0
-3076 -3071 0
3076 -138 3071 0
-3077 -138 0
-3077 3071 0
3077 138 -3071 0
-3078 -3076 0
-3078 -3077 0
3078 3076 3077 0
3079 -6671 0
-3079 6671 0
-3080 3078 0
-3080 3079 0
3080 -3078 -3079 0
-3081 3075 0
-3081 -3080 0
3081 -3075 3080 0
-3082 -3078 0
-3082 -3079 0
3082 3078 3079 0
-3083 3081 0
-3083 -3082 0
3083 -3081 3082 0
-3084 140 0
-3084 -3079 0
3084 -140 3079 0
-3085 -140 0
-3085 3079 0
3085 140 -3079 0
-3086 -3084 0
-3086 -3085 0
3086 3084 3085 0
3087 -6672 0
-3087 6672 0
-3088 3086 0
-3088 3087 0
3088 -3086 -3087 0
-3089 3083 0
-3089 -3088 0
3089 -3083 3088 0
-3090 -3086 0
-3090 -3087 0
3090 3086 3087 0
-3091 3089 0
-3091 -3090 0
3091 -3089 3090 0
-3092 159 0
-3092 -3087 0
3092 -159 3087 0
-3093 -159 0
-3093 3087 0
3093 159 -3087 0
-3094 -3092 0
-3094 -3093 0
3094 3092 3093 0
3095 -6673 0
-3095 6673 0
-3096 3094 0
-3096 3095 0
3096 -3094 -3095 0
-3097 3091 0
-3097 -3096 0
3097 -3091 3096 0
-3098 -3094 0
-3098 -3095 0
3098 3094 3095 0
-3099 3097 0
-3099 -3098 0
3099 -3097 3098 0
-3100 160 0
-3100 -3095 0
3100 -160 3095 0
-3101 -160 0
-3101 3095 0
3101 160 -3095 0
-3102 -3100 0
-3102 -3101 0
3102 3100 3101 0
3103 -6674 0
-3103 6674 0
-3104 3102 0
-3104 3103 0
3104 -3102 -3103 0
-3105 3099 0
-3105 -3104 0
3105 -3099 3104 0
-3106 -3102 0
-3106 -3103 0
3106 3102 3103 0
-3107 3105 0
-3107 -3106 0
3107 -3105 3106 0
-3108 162 0
-3108 -3103 0
3108 -162 3103 0
-3109 -162 0
-3109 3103 0
3109 162 -3103 0
-3110 -3108 0
-3110 -3109 0
3110 3108 3109 0
-3111 3107 0
-3111 3110 0
3111 -3107 -3110 0
-3114 3111 0
-3114 -3113 0
3114 -3111 3113 0
-3116 3114 0
-3116 -3115 0
3116 -3114 3115 0
-3117 113 0
-3117 -3112 0
3117 -113 3112 0
-3118 -113 0
-3118 3112 0
3118 113 -3112 0
-3119 -3117 0
-3119 -3118 0
3119 3117 3118 0
3120 -6676 0
-3120 6676 0
-3121 3119 0
-3121 3120 0
3121 -3119 -3120 0
-3122 3116 0
-3122 -3121 0
3122 -3116 3121 0
-3123 -3119 0
-3123 -3120 0
3123 3119 3120 0
-3124 3122 0
-3124 -3123 0
3124 -3122 3123 0
-3125 137 0
-3125 -3120 0
3125 -137 3120 0
-3126 -137 0
-3126 3120 0
3126 137 -3120 0
-3127 -3125 0
-3127 -3126 0
3127 3125 3126 0
3128 -6677 0
-3128 6677 0
-3129 3127 0
-3129 3128 0
3129 -3127 -3128 0
-3130 3124 0
-3130 -3129 0
3130 -3124 3129 0
-3131 -3127 0
-3131 -3128 0
3131 3127 3128 0
-3132 3130 0
-3132 -3131 0
3132 -3130 3131 0
-3133 139 0
-3133 -3128 0
3133 -139 3128 0
-3134 -139 0
-3134 3128 0
3134 139 -3128 0
-3135 -3133 0
-3135 -3134 0
3135 3133 3134 0
3136 -6678 0
-3136 6678 0
-3137 3135 0
-3137 3136 0
3137 -3135 -3136 0
-3138 3132 0
-3138 -3137 0
3138 -3132 3137 0
-3139 -3135 0
-3139 -3136 0
3139 3135 3136 0
-3140 3138 0
-3140 -3139 0
3140 -3138 3139 0
-3141 158 0
-3141 -3136 0
3141 -158 3136 0
-3142 -158 0
-3142 3136 0
3142 158 -3136 0
-3143 -3141 0
-3143 -3142 0
3143 3141 3142 0
3144 -6679 0
-3144 6679 0
-3145 3143 0
-3145 3144 0
3145 -3143 -3144 0
-3146 3140 0
-3146 -3145 0
3146 -3140 3145 0
-3147 -3143 0
-3147 -3144 0
3147 3143 3144 0
-3148 3146 0
-3148 -3147 0
3148 -3146 3147 0
-3149 159 0
-3149 -3144 0
3149 -159 3144 0
-3150 -159 0
-3150 3144 0
3150 159 -3144 0
-3151 -3149 0
-3151 -3150 0
3151 3149 3150 0
3152 -6680 0
-3152 6680 0
-3153 3151 0
-3153 3152 0
3153 -3151 -3152 0
-3154 3148 0
-3154 -3153 0
3154 -3148 3153 0
-3155 -3151 0
-3155 -3152 0
3155 3151 3152 0
-3156 3154 0
-3156 -3155 0
3156 -3154 3155 0
-3157 161 0
-3157 -3152 0
3157 -161 3152 0
-3158 -161 0
-3158 3152 0
3158 161 -3152 0
-3159 -3157 0
-3159 -3158 0
3159 3157 3158 0
-3160 166 0
-3160 3159 0
3160 -166 -3159 0
-3161 -166 0
-3161 -3159 0
3161 166 3159 0
-3162 -3160 0
-3162 -3161 0
3162 3160 3161 0
-3163 3156 0
-3163 3162 0
3163 -3156 -3162 0
3164 -6681 0
-3164 6681 0
-3165 136 0
-3165 -3164 0
3165 -136 3164 0
-3166 3163 0
-3166 -3165 0
3166 -3163 3165 0
-3167 -136 0
-3167 3164 0
3167 136 -3164 0
-3168 3166 0
-3168 -3167 0
3168 -3166 3167 0
-3169 131 0
-3169 -3164 0
3169 -131 3164 0
-3170 -131 0
-3170 3164 0
3170 131 -3164 0
-3171 -3169 0
-3171 -3170 0
3171 3169 3170 0
3172 -6682 0
-3172 6682 0
-3173 3171 0
-3173 3172 0
3173 -3171 -3172 0
-3174 3168 0
-3174 -3173 0
3174 -3168 3173 0
-3175 -3171 0
-3175 -3172 0
3175 3171 3172 0
-3176 3174 0
-3176 -3175 0
3176 -3174 3175 0
-3177 138 0
-3177 -3172 0
3177 -138 3172 0
-3178 -138 0
-3178 3172 0
3178 138 -3172 0
-3179 -3177 0
-3179 -3178 0
3179 3177 3178 0
3180 -6683 0
-3180 6683 0
-3181 3179 0
-3181 3180 0
3181 -3179 -3180 0
-3182 3176 0
-3182 -3181 0
3182 -3176 3181 0
-3183 -3179 0
-3183 -3180 0
3183 3179 3180 0
-3184 3182 0
-3184 -3183 0
3184 -3182 3183 0
-3185 139 0
-3185 -3180 0
3185 -139 3180 0
-3186 -139 0
-3186 3180 0
3186 139 -3180 0
-3187 -3185 0
-3187 -3186 0
3187 3185 3186 0
3188 -6684 0
-3188 6684 0
-3189 3187 0
-3189 3188 0
3189 -3187 -3188 0
-3190 3184 0
-3190 -3189 0
3190 -3184 3189 0
-3191 -3187 0
-3191 -3188 0
3191 3187 3188 0
-3192 3190 0
-3192 -3191 0
3192 -3190 3191 0
-3193 157 0
-3193 -3188 0
3193 -157 3188 0
-3194 -157 0
-3194 3188 0
3194 157 -3188 0
-3195 -3193 0
-3195 -3194 0
3195 3193 3194 0
3196 -6685 0
-3196 6685 0
-3197 3195 0
-3197 3196 0
3197 -3195 -3196 0
-3198 3192 0
-3198 -3197 0
3198 -3192 3197 0
-3199 -3195 0
-3199 -3196 0
3199 3195 3196 0
-3200 3198 0
-3200 -3199 0
3200 -3198 3199 0
-3201 158 0
-3201 -3196 0
3201 -158 3196 0
-3202 -158 0
-3202 3196 0
3202 158 -3196 0
-3203 -3201 0
-3203 -3202 0
3203 3201 3202 0
3204 -6686 0
-3204 6686 0
-3205 3203 0
-3205 3204 0
3205 -3203 -3204 0
-3206 3200 0
-3206 -3205 0
3206 -3200 3205 0
-3207 -3203 0
-3207 -3204 0
3207 3203 3204 0
-3208 3206 0
-3208 -3207 0
3208 -3206 3207 0
-3209 160 0
-3209 -3204 0
3209 -160 3204 0
-3210 -160 0
-3210 3204 0
3210 160 -3204 0
-3211 -3209 0
-3211 -3210 0
3211 3209 3210 0
3212 -6687 0
-3212 6687 0
-3213 3211 0
-3213 3212 0
3213 -3211 -3212 0
-3214 3208 0
-3214 -3213 0
3214 -3208 3213 0
-3215 -3211 0
-3215 -3212 0
3215 3211 3212 0
-3216 3214 0
-3216 -3215 0
3216 -3214 3215 0
-3217 165 0
-3217 -3212 0
3217 -165 3212 0
-3218 -165 0
-3218 3212 0
3218 165 -3212 0
-3219 -3217 0
-3219 -3218 0
3219 3217 3218 0
-3220 3216 0
-3220 3219 0
3220 -3216 -3219 0
3221 -6688 0
-3221 6688 0
-3222 135 0
-3222 -3221 0
3222 -135 3221 0
-3223 3220 0
-3223 -3222 0
3223 -3220 3222 0
-3224 -135 0
-3224 3221 0
3224 135 -3221 0
-3225 3223 0
-3225 -3224 0
3225 -3223 3224 0
-3226 130 0
-3226 -3221 0
3226 -130 3221 0
-3227 -130 0
-3227 3221 0
3227 130 -3221 0
-3228 -3226 0
-3228 -3227 0
3228 3226 3227 0
3229 -6689 0
-3229 6689 0
-3230 3228 0
-3230 3229 0
3230 -3228 -3229 0
-3231 3225 0
-3231 -3230 0
3231 -3225 3230 0
-3232 -3228 0
-3232 -3229 0
3232 3228 3229 0
-3233 3231 0
-3233 -3232 0
3233 -3231 3232 0
-3234 137 0
-3234 -3229 0
3234 -137 3229 0
-3235 -137 0
-3235 3229 0
3235 137 -3229 0
-3236 -3234 0
-3236 -3235 0
3236 3234 3235 0
3237 -6690 0
-3237 6690 0
-3238 3236 0
-3238 3237 0
3238 -3236 -3237 0
-3239 3233 0
-3239 -3238 0
3239 -3233 3238 0
-3240 -3236 0
-3240 -3237 0
3240 3236 3237 0
-3241 3239 0
-3241 -3240 0
3241 -3239 3240 0
-3242 138 0
-3242 -3237 0
3242 -138 3237 0
-3243 -138 0
-3243 3237 0
3243 138 -3237 0
-3244 -3242 0
-3244 -3243 0
3244 3242 3243 0
3245 -6691 0
-3245 6691 0
-3246 3244 0
-3246 3245 0
3246 -3244 -3245 0
-3247 3241 0
-3247 -3246 0
3247 -3241 3246 0
-3248 -3244 0
-3248 -3245 0
3248 3244 3245 0
-3249 3247 0
-3249 -3248 0
3249 -3247 3248 0
-3250 156 0
-3250 -3245 0
3250 -156 3245 0
-3251 -156 0
-3251 3245 0
3251 156 -3245 0
-3252 -3250 0
-3252 -3251 0
3252 3250 3251 0
3253 -6692 0
-3253 6692 0
-3254 3252 0
-3254 3253 0
3254 -3252 -3253 0
-3255 3249 0
-3255 -3254 0
3255 -3249 3254 0
-3256 -3252 0
-3256 -3253 0
3256 3252 3253 0
-3257 3255 0
-3257 -3256 0
3257 -3255 3256 0
-3258 157 0
-3258 -3253 0
3258 -157 3253 0
-3259 -157 0
-3259 3253 0
3259 157 -3253 0
-3260 -3258 0
-3260 -3259 0
3260 3258 3259 0
3261 -6693 0
-3261 6693 0
-3262 3260 0
-3262 3261 0
3262 -3260 -3261 0
-3263 3257 0
-3263 -3262 0
3263 -3257 3262 0
-3264 -3260 0
-3264 -3261 0
3264 3260 3261 0
-3265 3263 0
-3265 -3264 0
3265 -3263 3264 0
-3266 159 0
-3266 -3261 0
3266 -159 3261 0
-3267 -159 0
-3267 3261 0
3267 159 -3261 0
-3268 -3266 0
-3268 -3267 0
3268 3266 3267 0
3269 -6694 0
-3269 6694 0
-3270 3268 0
-3270 3269 0
3270 -3268 -3269 0
-3271 3265 0
-3271 -3270 0
3271 -3265 3270 0
-3272 -3268 0
-3272 -3269 0
3272 3268 3269 0
-3273 3271 0
-3273 -3272 0
3273 -3271 3272 0
-3274 164 0
-3274 -3269 0
3274 -164 3269 0
-3275 -164 0
-3275 3269 0
3275 164 -3269 0
-3276 -3274 0
-3276 -3275 0
3276 3274 3275 0
-3277 3273 0
-3277 3276 0
3277 -3273 -3276 0
3278 -6695 0
-3278 6695 0
-3279 134 0
-3279 -3278 0
3279 -134 3278 0
-3280 3277 0
-3280 -3279 0
3280 -3277 3279 0
-3281 -134 0
-3281 3278 0
3281 134 -3278 0
-3282 3280 0
-3282 -3281 0
3282 -3280 3281 0
-3283 129 0
-3283 -3278 0
3283 -129 3278 0
-3284 -129 0
-3284 3278 0
3284 129 -3278 0
-3285 -3283 0
-3285 -3284 0
3285 3283 3284 0
3286 -6696 0
-3286 6696 0
-3287 3285 0
-3287 3286 0
3287 -3285 -3286 0
-3288 3282 0
-3288 -3287 0
3288 -3282 3287 0
-3289 -3285 0
-3289 -3286 0
3289 3285 3286 0
-3290 3288 0
-3290 -3289 0
3290 -3288 3289 0
-3291 136 0
-3291 -3286 0
3291 -136 3286 0
-3292 -136 0
-3292 3286 0
3292 136 -3286 0
-3293 -3291 0
-3293 -3292 0
3293 3291 3292 0
3294 -6697 0
-3294 6697 0
-3295 3293 0
-3295 3294 0
3295 -3293 -3294 0
-3296 3290 0
-3296 -3295 0
3296 -3290 3295 0
-3297 -3293 0
-3297 -3294 0
3297 3293 3294 0
-3298 3296 0
-3298 -3297 0
3298 -3296 3297 0
-3299 137 0
-3299 -3294 0
3299 -137 3294 0
-3300 -137 0
-3300 3294 0
3300 137 -3294 0
-3301 -3299 0
-3301 -3300 0
3301 3299 3300 0
3302 -6698 0
-3302 6698 0
-3303 3301 0
-3303 3302 0
3303 -3301 -3302 0
-3304 3298 0
-3304 -3303 0
3304 -3298 3303 0
-3305 -3301 0
-3305 -3302 0
3305 3301 3302 0
-3306 3304 0
-3306 -3305 0
3306 -3304 3305 0
-3307 155 0
-3307 -3302 0
3307 -155 3302 0
-3308 -155 0
-3308 3302 0
3308 155 -3302 0
-3309 -3307 0
-3309 -3308 0
3309 3307 3308 0
3310 -6699 0
-3310 6699 0
-3311 3309 0
-3311 3310 0
3311 -3309 -3310 0
-3312 3306 0
-3312 -3311 0
3312 -3306 3311 0
-3313 -3309 0
-3313 -3310 0
3313 3309 3310 0
-3314 3312 0
-3314 -3313 0
3314 -3312 3313 0
-3315 156 0
-3315 -3310 0
3315 -156 3310 0
-3316 -156 0
-3316 3310 0
3316 156 -3310 0
-3317 -3315 0
-3317 -3316 0
3317 3315 3316 0
3318 -6700 0
-3318 6700 0
-3319 3317 0
-3319 3318 0
3319 -3317 -3318 0
-3320 3314 0
-3320 -3319 0
3320 -3314 3319 0
-3321 -3317 0
-3321 -3318 0
3321 3317 3318 0
-3322 3320 0
-3322 -3321 0
3322 -3320 3321 0
-3323 158 0
-3323 -3318 0
3323 -158 3318 0
-3324 -158 0
-3324 3318 0
3324 158 -3318 0
-3325 -3323 0
-3325 -3324 0
3325 3323 3324 0
3326 -6701 0
-3326 6701 0
-3327 3325 0
-3327 3326 0
3327 -3325 -3326 0
-3328 3322 0
-3328 -3327 0
3328 -3322 3327 0
-3329 -3325 0
-3329 -3326 0
3329 3325 3326 0
-3330 3328 0
-3330 -3329 0
3330 -3328 3329 0
-3331 163 0
-3331 -3326 0
3331 -163 3326 0
-3332 -163 0
-3332 3326 0
3332 163 -3326 0
-3333 -3331 0
-3333 -3332 0
3333 3331 3332 0
-3334 3330 0
-3334 3333 0
3334 -3330 -3333 0
3335 -6702 0
-3335 6702 0
-3336 133 0
-3336 -3335 0
3336 -133 3335 0
-3337 3334 0
-3337 -3336 0
3337 -3334 3336 0
-3338 -133 0
-3338 3335 0
3338 133 -3335 0
-3339 3337 0
-3339 -3338 0
3339 -3337 3338 0
-3340 128 0
-3340 -3335 0
3340 -128 3335 0
-3341 -128 0
-3341 3335 0
3341 128 -3335 0
-3342 -3340 0
-3342 -3341 0
3342 3340 3341 0
3343 -6703 0
-3343 6703 0
-3344 3342 0
-3344 3343 0
3344 -3342 -3343 0
-3345 3339 0
-3345 -3344 0
3345 -3339 3344 0
-3346 -3342 0
-3346 -3343 0
3346 3342 3343 0
-3347 3345 0
-3347 -3346 0
3347 -3345 3346 0
-3348 135 0
-3348 -3343 0
3348 -135 3343 0
-3349 -135 0
-3349 3343 0
3349 135 -3343 0
-3350 -3348 0
-3350 -3349 0
3350 3348 3349 0
3351 -6704 0
-3351 6704 0
-3352 3350 0
-3352 3351 0
3352 -3350 -3351 0
-3353 3347 0
-3353 -3352 0
3353 -3347 3352 0
-3354 -3350 0
-3354 -3351 0
3354 3350 3351 0
-3355 3353 0
-3355 -3354 0
3355 -3353 3354 0
-3356 136 0
-3356 -3351 0
3356 -136 3351 0
-3357 -136 0
-3357 3351 0
3357 136 -3351 0
-3358 -3356 0
-3358 -3357 0
3358 3356 3357 0
3359 -6705 0
-3359 6705 0
-3360 3358 0
-3360 3359 0
3360 -3358 -3359 0
-3361 3355 0
-3361 -3360 0
3361 -3355 3360 0
-3362 -3358 0
-3362 -3359 0
3362 3358 3359 0
-3363 3361 0
-3363 -3362 0
3363 -3361 3362 0
-3364 154 0
-3364 -3359 0
3364 -154 3359 0
-3365 -154 0
-3365 3359 0
3365 154 -3359 0
-3366 -3364 0
-3366 -3365 0
3366 3364 3365 0
3367 -6706 0
-3367 6706 0
-3368 3366 0
-3368 3367 0
3368 -3366 -3367 0
-3369 3363 0
-3369 -3368 0
3369 -3363 3368 0
-3370 -3366 0
-3370 -3367 0
3370 3366 3367 0
-3371 3369 0
-3371 -3370 0
3371 -3369 3370 0
-3372 155 0
-3372 -3367 0
3372 -155 3367 0
-3373 -155 0
-3373 3367 0
3373 155 -3367 0
-3374 -3372 0
-3374 -3373 0
3374 3372 3373 0
3375 -6707 0
-3375 6707 0
-3376 3374 0
-3376 3375 0
3376 -3374 -3375 0
-3377 3371 0
-3377 -3376 0
3377 -3371 3376 0
-3378 -3374 0
-3378 -3375 0
3378 3374 3375 0
-3379 3377 0
-3379 -3378 0
3379 -3377 3378 0
-3380 157 0
-3380 -3375 0
3380 -157 3375 0
-3381 -157 0
-3381 3375 0
3381 157 -3375 0
-3382 -3380 0
-3382 -3381 0
3382 3380 3381 0
3383 -6708 0
-3383 6708 0
-3384 3382 0
-3384 3383 0
3384 -3382 -3383 0
-3385 3379 0
-3385 -3384 0
3385 -3379 3384 0
-3386 -3382 0
-3386 -3383 0
3386 3382 3383 0
-3387 3385 0
-3387 -3386 0
3387 -3385 3386 0
-3388 162 0
-3388 -3383 0
3388 -162 3383 0
-3389 -162 0
-3389 3383 0
3389 162 -3383 0
-3390 -3388 0
-3390 -3389 0
3390 3388 3389 0
-3391 3387 0
-3391 3390 0
3391 -3387 -3390 0
-3392 -3113 0
-3392 3391 0
3392 3113 -3391 0
-3393 -3115 0
-3393 3392 0
3393 3115 -3392 0
-3394 127 0
-3394 -3112 0
3394 -127 3112 0
-3395 -127 0
-3395 3112 0
3395 127 -3112 0
-3396 -3394 0
-3396 -3395 0
3396 3394 3395 0
3397 -6709 0
-3397 6709 0
-3398 3396 0
-3398 3397 0
3398 -3396 -3397 0
-3399 3393 0
-3399 -3398 0
3399 -3393 3398 0
-3400 -3396 0
-3400 -3397 0
3400 3396 3397 0
-3401 3399 0
-3401 -3400 0
3401 -3399 3400 0
-3402 134 0
-3402 -3397 0
3402 -134 3397 0
-3403 -134 0
-3403 3397 0
3403 134 -3397 0
-3404 -3402 0
-3404 -3403 0
3404 3402 3403 0
3405 -6710 0
-3405 6710 0
-3406 3404 0
-3406 3405 0
3406 -3404 -3405 0
-3407 3401 0
-3407 -3406 0
3407 -3401 3406 0
-3408 -3404 0
-3408 -3405 0
3408 3404 3405 0
-3409 3407 0
-3409 -3408 0
3409 -3407 3408 0
-3410 135 0
-3410 -3405 0
3410 -135 3405 0
-3411 -135 0
-3411 3405 0
3411 135 -3405 0
-3412 -3410 0
-3412 -3411 0
3412 3410 3411 0
3413 -6711 0
-3413 6711 0
-3414 3412 0
-3414 3413 0
3414 -3412 -3413 0
-3415 3409 0
-3415 -3414 0
3415 -3409 3414 0
-3416 -3412 0
-3416 -3413 0
3416 3412 3413 0
-3417 3415 0
-3417 -3416 0
3417 -3415 3416 0
-3418 153 0
-3418 -3413 0
3418 -153 3413 0
-3419 -153 0
-3419 3413 0
3419 153 -3413 0
-3420 -3418 0
-3420 -3419 0
3420 3418 3419 0
3421 -6712 0
-3421 6712 0
-3422 3420 0
-3422 3421 0
3422 -3420 -3421 0
-3423 3417 0
-3423 -3422 0
3423 -3417 3422 0
-3424 -3420 0
-3424 -3421 0
3424 3420 3421 0
-3425 3423 0
-3425 -3424 0
3425 -3423 3424 0
-3426 154 0
-3426 -3421 0
3426 -154 3421 0
-3427 -154 0
-3427 3421 0
3427 154 -3421 0
-3428 -3426 0
-3428 -3427 0
3428 3426 3427 0
3429 -6713 0
-3429 6713 0
-3430 3428 0
-3430 3429 0
3430 -3428 -3429 0
-3431 3425 0
-3431 -3430 0
3431 -3425 3430 0
-3432 -3428 0
-3432 -3429 0
3432 3428 3429 0
-3433 3431 0
-3433 -3432 0
3433 -3431 3432 0
-3434 156 0
-3434 -3429 0
3434 -156 3429 0
-3435 -156 0
-3435 3429 0
3435 156 -3429 0
-3436 -3434 0
-3436 -3435 0
3436 3434 3435 0
3437 -6714 0
-3437 6714 0
-3438 3436 0
-3438 3437 0
3438 -3436 -3437 0
-3439 3433 0
-3439 -3438 0
3439 -3433 3438 0
-3440 -3436 0
-3440 -3437 0
3440 3436 3437 0
-3441 3439 0
-3441 -3440 0
3441 -3439 3440 0
-3442 161 0
-3442 -3437 0
3442 -161 3437 0
-3443 -161 0
-3443 3437 0
3443 161 -3437 0
-3444 -3442 0
-3444 -3443 0
3444 3442 3443 0
-3445 3441 0
-3445 3444 0
3445 -3441 -3444 0
3446 -6715 0
-3446 6715 0
-3447 131 0
-3447 -3446 0
3447 -131 3446 0
-3448 3445 0
-3448 -3447 0
3448 -3445 3447 0
-3449 -131 0
-3449 3446 0
3449 131 -3446 0
-3450 3448 0
-3450 -3449 0
3450 -3448 3449 0
-3451 126 0
-3451 -3446 0
3451 -126 3446 0
-3452 -126 0
-3452 3446 0
3452 126 -3446 0
-3453 -3451 0
-3453 -3452 0
3453 3451 3452 0
3454 -6716 0
-3454 6716 0
-3455 3453 0
-3455 3454 0
3455 -3453 -3454 0
-3456 3450 0
-3456 -3455 0
3456 -3450 3455 0
-3457 -3453 0
-3457 -3454 0
3457 3453 3454 0
-3458 3456 0
-3458 -3457 0
3458 -3456 3457 0
-3459 133 0
-3459 -3454 0
3459 -133 3454 0
-3460 -133 0
-3460 3454 0
3460 133 -3454 0
-3461 -3459 0
-3461 -3460 0
3461 3459 3460 0
3462 -6717 0
-3462 6717 0
-3463 3461 0
-3463 3462 0
3463 -3461 -3462 0
-3464 3458 0
-3464 -3463 0
3464 -3458 3463 0
-3465 -3461 0
-3465 -3462 0
3465 3461 3462 0
-3466 3464 0
-3466 -3465 0
3466 -3464 3465 0
-3467 134 0
-3467 -3462 0
3467 -134 3462 0
-3468 -134 0
-3468 3462 0
3468 134 -3462 0
-3469 -3467 0
-3469 -3468 0
3469 3467 3468 0
3470 -6718 0
-3470 6718 0
-3471 3469 0
-3471 3470 0
3471 -3469 -3470 0
-3472 3466 0
-3472 -3471 0
3472 -3466 3471 0
-3473 -3469 0
-3473 -3470 0
3473 3469 3470 0
-3474 3472 0
-3474 -3473 0
3474 -3472 3473 0
-3475 152 0
-3475 -3470 0
3475 -152 3470 0
-3476 -152 0
-3476 3470 0
3476 152 -3470 0
-3477 -3475 0
-3477 -3476 0
3477 3475 3476 0
3478 -6719 0
-3478 6719 0
-3479 3477 0
-3479 3478 0
3479 -3477 -3478 0
-3480 3474 0
-3480 -3479 0
3480 -3474 3479 0
-3481 -3477 0
-3481 -3478 0
3481 3477 3478 0
-3482 3480 0
-3482 -3481 0
3482 -3480 3481 0
-3483 153 0
-3483 -3478 0
3483 -153 3478 0
-3484 -153 0
-3484 3478 0
3484 153 -3478 0
-3485 -3483 0
-3485 -3484 0
3485 3483 3484 0
3486 -6720 0
-3486 6720 0
-3487 3485 0
-3487 3486 0
3487 -3485 -3486 0
-3488 3482 0
-3488 -3487 0
3488 -3482 3487 0
-3489 -3485 0
-3489 -3486 0
3489 3485 3486 0
-3490 3488 0
-3490 -3489 0
3490 -3488 3489 0
-3491 155 0
-3491 -3486 0
3491 -155 3486 0
-3492 -155 0
-3492 3486 0
3492 155 -3486 0
-3493 -3491 0
-3493 -3492 0
3493 3491 3492 0
3494 -6721 0
-3494 6721 0
-3495 3493 0
-3495 3494 0
3495 -3493 -3494 0
-3496 3490 0
-3496 -3495 0
3496 -3490 3495 0
-3497 -3493 0
-3497 -3494 0
3497 3493 3494 0
-3498 3496 0
-3498 -3497 0
3498 -3496 3497 0
-3499 160 0
-3499 -3494 0
3499 -160 3494 0
-3500 -160 0
-3500 3494 0
3500 160 -3494 0
-3501 -3499 0
-3501 -3500 0
3501 3499 3500 0
-3502 3498 0
-3502 3501 0
3502 -3498 -3501 0
3503 -6722 0
-3503 6722 0
-3504 130 0
-3504 -3503 0
3504 -130 3503 0
-3505 3502 0
-3505 -3504 0
3505 -3502 3504 0
-3506 -130 0
-3506 3503 0
3506 130 -3503 0
-3507 3505 0
-3507 -3506 0
3507 -3505 3506 0
-3508 125 0
-3508 -3503 0
3508 -125 3503 0
-3509 -125 0
-3509 3503 0
3509 125 -3503 0
-3510 -3508 0
-3510 -3509 0
3510 3508 3509 0
3511 -6723 0
-3511 6723 0
-3512 3510 0
-3512 3511 0
3512 -3510 -3511 0
-3513 3507 0
-3513 -3512 0
3513 -3507 3512 0
-3514 -3510 0
-3514 -3511 0
3514 3510 3511 0
-3515 3513 0
-3515 -3514 0
3515 -3513 3514 0
-3516 132 0
-3516 -3511 0
3516 -132 3511 0
-3517 -132 0
-3517 3511 0
3517 132 -3511 0
-3518 -3516 0
-3518 -3517 0
3518 3516 3517 0
3519 -6724 0
-3519 6724 0
-3520 3518 0
-3520 3519 0
3520 -3518 -3519 0
-3521 3515 0
-3521 -3520 0
3521 -3515 3520 0
-3522 -3518 0
-3522 -3519 0
3522 3518 3519 0
-3523 3521 0
-3523 -3522 0
3523 -3521 3522 0
-3524 133 0
-3524 -3519 0
3524 -133 3519 0
-3525 -133 0
-3525 3519 0
3525 133 -3519 0
-3526 -3524 0
-3526 -3525 0
3526 3524 3525 0
3527 -6725 0
-3527 6725 0
-3528 3526 0
-3528 3527 0
3528 -3526 -3527 0
-3529 3523 0
-3529 -3528 0
3529 -3523 3528 0
-3530 -3526 0
-3530 -3527 0
3530 3526 3527 0
-3531 3529 0
-3531 -3530 0
3531 -3529 3530 0
-3532 151 0
-3532 -3527 0
3532 -151 3527 0
-3533 -151 0
-3533 3527 0
3533 151 -3527 0
-3534 -3532 0
-3534 -3533 0
3534 3532 3533 0
3535 -6726 0
-3535 6726 0
-3536 3534 0
-3536 3535 0
3536 -3534 -3535 0
-3537 3531 0
-3537 -3536 0
3537 -3531 3536 0
-3538 -3534 0
-3538 -3535 0
3538 3534 3535 0
-3539 3537 0
-3539 -3538 0
3539 -3537 3538 0
-3540 152 0
-3540 -3535 0
3540 -152 3535 0
-3541 -152 0
-3541 3535 0
3541 152 -3535 0
-3542 -3540 0
-3542 -3541 0
3542 3540 3541 0
3543 -6727 0
-3543 6727 0
-3544 3542 0
-3544 3543 0
3544 -3542 -3543 0
-3545 3539 0
-3545 -3544 0
3545 -3539 3544 0
-3546 -3542 0
-3546 -3543 0
3546 3542 3543 0
-3547 3545 0
-3547 -3546 0
3547 -3545 3546 0
-3548 154 0
-3548 -3543 0
3548 -154 3543 0
-3549 -154 0
-3549 3543 0
3549 154 -3543 0
-3550 -3548 0
-3550 -3549 0
3550 3548 3549 0
3551 -6728 0
-3551 6728 0
-3552 3550 0
-3552 3551 0
3552 -3550 -3551 0
-3553 3547 0
-3553 -3552 0
3553 -3547 3552 0
-3554 -3550 0
-3554 -3551 0
3554 3550 3551 0
-3555 3553 0
-3555 -3554 0
3555 -3553 3554 0
-3556 159 0
-3556 -3551 0
3556 -159 3551 0
-3557 -159 0
-3557 3551 0
3557 159 -3551 0
-3558 -3556 0
-3558 -3557 0
3558 3556 3557 0
-3559 3555 0
-3559 3558 0
3559 -3555 -3558 0
-3560 -3056 0
-3560 3559 0
3560 3056 -3559 0
-3561 -3058 0
-3561 3560 0
3561 3058 -3560 0
-3562 -3064 0
-3562 3561 0
3562 3064 -3561 0
-3563 -3066 0
-3563 3562 0
3563 3066 -3562 0
-3564 115 0
-3564 -3063 0
3564 -115 3063 0
-3565 -115 0
-3565 3063 0
3565 115 -3063 0
-3566 -3564 0
-3566 -3565 0
3566 3564 3565 0
3567 -6729 0
-3567 6729 0
-3568 3566 0
-3568 3567 0
3568 -3566 -3567 0
-3569 3563 0
-3569 -3568 0
3569 -3563 3568 0
-3570 -3566 0
-3570 -3567 0
3570 3566 3567 0
-3571 3569 0
-3571 -3570 0
3571 -3569 3570 0
-3572 116 0
-3572 -3567 0
3572 -116 3567 0
-3573 -116 0
-3573 3567 0
3573 116 -3567 0
-3574 -3572 0
-3574 -3573 0
3574 3572 3573 0
3575 -6730 0
-3575 6730 0
-3576 3574 0
-3576 3575 0
3576 -3574 -3575 0
-3577 3571 0
-3577 -3576 0
3577 -3571 3576 0
-3578 -3574 0
-3578 -3575 0
3578 3574 3575 0
-3579 3577 0
-3579 -3578 0
3579 -3577 3578 0
-3580 117 0
-3580 -3575 0
3580 -117 3575 0
-3581 -117 0
-3581 3575 0
3581 117 -3575 0
-3582 -3580 0
-3582 -3581 0
3582 3580 3581 0
3583 -6731 0
-3583 6731 0
-3584 3582 0
-3584 3583 0
3584 -3582 -3583 0
-3585 3579 0
-3585 -3584 0
3585 -3579 3584 0
-3586 -3582 0
-3586 -3583 0
3586 3582 3583 0
-3587 3585 0
-3587 -3586 0
3587 -3585 3586 0
-3588 122 0
-3588 -3583 0
3588 -122 3583 0
-3589 -122 0
-3589 3583 0
3589 122 -3583 0
-3590 -3588 0
-3590 -3589 0
3590 3588 3589 0
3591 -6732 0
-3591 6732 0
-3592 3590 0
-3592 3591 0
3592 -3590 -3591 0
-3593 3587 0
-3593 -3592 0
3593 -3587 3592 0
-3594 -3590 0
-3594 -3591 0
3594 3590 3591 0
-3595 3593 0
-3595 -3594 0
3595 -3593 3594 0
-3596 124 0
-3596 -3591 0
3596 -124 3591 0
-3597 -124 0
-3597 3591 0
3597 124 -3591 0
-3598 -3596 0
-3598 -3597 0
3598 3596 3597 0
3599 -6733 0
-3599 6733 0
-3600 3598 0
-3600 3599 0
3600 -3598 -3599 0
-3601 3595 0
-3601 -3600 0
3601 -3595 3600 0
-3602 -3598 0
-3602 -3599 0
3602 3598 3599 0
-3603 3601 0
-3603 -3602 0
3603 -3601 3602 0
-3604 125 0
-3604 -3599 0
3604 -125 3599 0
-3605 -125 0
-3605 3599 0
3605 125 -3599 0
-3606 -3604 0
-3606 -3605 0
3606 3604 3605 0
3607 -6734 0
-3607 6734 0
-3608 3606 0
-3608 3607 0
3608 -3606 -3607 0
-3609 3603 0
-3609 -3608 0
3609 -3603 3608 0
-3610 -3606 0
-3610 -3607 0
3610 3606 3607 0
-3611 3609 0
-3611 -3610 0
3611 -3609 3610 0
-3612 126 0
-3612 -3607 0
3612 -126 3607 0
-3613 -126 0
-3613 3607 0
3613 126 -3607 0
-3614 -3612 0
-3614 -3613 0
3614 3612 3613 0
3615 -6735 0
-3615 6735 0
-3616 3614 0
-3616 3615 0
3616 -3614 -3615 0
-3617 3611 0
-3617 -3616 0
3617 -3611 3616 0
-3618 -3614 0
-3618 -3615 0
3618 3614 3615 0
-3619 3617 0
-3619 -3618 0
3619 -3617 3618 0
-3620 128 0
-3620 -3615 0
3620 -128 3615 0
-3621 -128 0
-3621 3615 0
3621 128 -3615 0
-3622 -3620 0
-3622 -3621 0
3622 3620 3621 0
3623 -6736 0
-3623 6736 0
-3624 3622 0
-3624 3623 0
3624 -3622 -3623 0
-3625 3619 0
-3625 -3624 0
3625 -3619 3624 0
-3626 -3622 0
-3626 -3623 0
3626 3622 3623 0
-3627 3625 0
-3627 -3626 0
3627 -3625 3626 0
-3628 130 0
-3628 -3623 0
3628 -130 3623 0
-3629 -130 0
-3629 3623 0
3629 130 -3623 0
-3630 -3628 0
-3630 -3629 0
3630 3628 3629 0
3631 -6737 0
-3631 6737 0
-3632 3630 0
-3632 3631 0
3632 -3630 -3631 0
-3633 3627 0
-3633 -3632 0
3633 -3627 3632 0
-3634 -3630 0
-3634 -3631 0
3634 3630 3631 0
-3635 3633 0
-3635 -3634 0
3635 -3633 3634 0
-3636 132 0
-3636 -3631 0
3636 -132 3631 0
-3637 -132 0
-3637 3631 0
3637 132 -3631 0
-3638 -3636 0
-3638 -3637 0
3638 3636 3637 0
3639 -6738 0
-3639 6738 0
-3640 3638 0
-3640 3639 0
3640 -3638 -3639 0
-3641 3635 0
-3641 -3640 0
3641 -3635 3640 0
-3642 -3638 0
-3642 -3639 0
3642 3638 3639 0
-3643 3641 0
-3643 -3642 0
3643 -3641 3642 0
-3644 133 0
-3644 -3639 0
3644 -133 3639 0
-3645 -133 0
-3645 3639 0
3645 133 -3639 0
-3646 -3644 0
-3646 -3645 0
3646 3644 3645 0
3647 -6739 0
-3647 6739 0
-3648 3646 0
-3648 3647 0
3648 -3646 -3647 0
-3649 3643 0
-3649 -3648 0
3649 -3643 3648 0
-3650 -3646 0
-3650 -3647 0
3650 3646 3647 0
-3651 3649 0
-3651 -3650 0
3651 -3649 3650 0
-3652 135 0
-3652 -3647 0
3652 -135 3647 0
-3653 -135 0
-3653 3647 0
3653 135 -3647 0
-3654 -3652 0
-3654 -3653 0
3654 3652 3653 0
3655 -6740 0
-3655 6740 0
-3656 3654 0
-3656 3655 0
3656 -3654 -3655 0
-3657 3651 0
-3657 -3656 0
3657 -3651 3656 0
-3658 -3654 0
-3658 -3655 0
3658 3654 3655 0
-3659 3657 0
-3659 -3658 0
3659 -3657 3658 0
-3660 136 0
-3660 -3655 0
3660 -136 3655 0
-3661 -136 0
-3661 3655 0
3661 136 -3655 0
-3662 -3660 0
-3662 -3661 0
3662 3660 3661 0
3663 -6741 0
-3663 6741 0
-3664 3662 0
-3664 3663 0
3664 -3662 -3663 0
-3665 3659 0
-3665 -3664 0
3665 -3659 3664 0
-3666 -3662 0
-3666 -3663 0
3666 3662 3663 0
-3667 3665 0
-3667 -3666 0
3667 -3665 3666 0
-3668 137 0
-3668 -3663 0
3668 -137 3663 0
-3669 -137 0
-3669 3663 0
3669 137 -3663 0
-3670 -3668 0
-3670 -3669 0
3670 3668 3669 0
3671 -6742 0
-3671 6742 0
-3672 3670 0
-3672 3671 0
3672 -3670 -3671 0
-3673 3667 0
-3673 -3672 0
3673 -3667 3672 0
-3674 -3670 0
-3674 -3671 0
3674 3670 3671 0
-3675 3673 0
-3675 -3674 0
3675 -3673 3674 0
-3676 138 0
-3676 -3671 0
3676 -138 3671 0
-3677 -138 0
-3677 3671 0
3677 138 -3671 0
-3678 -3676 0
-3678 -3677 0
3678 3676 3677 0
3679 -6743 0
-3679 6743 0
-3680 3678 0
-3680 3679 0
3680 -3678 -3679 0
-3681 3675 0
-3681 -3680 0
3681 -3675 3680 0
-3682 -3678 0
-3682 -3679 0
3682 3678 3679 0
-3683 3681 0
-3683 -3682 0
3683 -3681 3682 0
-3684 -2681 0
-3684 3683 0
3684 2681 -3683 0
-3685 -2683 0
-3685 3684 0
3685 2683 -3684 0
-3686 117 0
-3686 -2680 0
3686 -117 2680 0
-3687 -117 0
-3687 2680 0
3687 117 -2680 0
-3688 -3686 0
-3688 -3687 0
3688 3686 3687 0
3689 -6744 0
-3689 6744 0
-3690 3688 0
-3690 3689 0
3690 -3688 -3689 0
-3691 3685 0
-3691 -3690 0
3691 -3685 3690 0
-3692 -3688 0
-3692 -3689 0
3692 3688 3689 0
-3693 3691 0
-3693 -3692 0
3693 -3691 3692 0
-3694 119 0
-3694 -3689 0
3694 -119 3689 0
-3695 -119 0
-3695 3689 0
3695 119 -3689 0
-3696 -3694 0
-3696 -3695 0
3696 3694 3695 0
3697 -6745 0
-3697 6745 0
-3698 3696 0
-3698 3697 0
3698 -3696 -3697 0
-3699 3693 0
-3699 -3698 0
3699 -3693 3698 0
-3700 -3696 0
-3700 -3697 0
3700 3696 3697 0
-3701 3699 0
-3701 -3700 0
3701 -3699 3700 0
-3702 120 0
-3702 -3697 0
3702 -120 3697 0
-3703 -120 0
-3703 3697 0
3703 120 -3697 0
-3704 -3702 0
-3704 -3703 0
3704 3702 3703 0
3705 -6746 0
-3705 6746 0
-3706 3704 0
-3706 3705 0
3706 -3704 -3705 0
-3707 3701 0
-3707 -3706 0
3707 -3701 3706 0
-3708 -3704 0
-3708 -3705 0
3708 3704 3705 0
-3709 3707 0
-3709 -3708 0
3709 -3707 3708 0
-3710 122 0
-3710 -3705 0
3710 -122 3705 0
-3711 -122 0
-3711 3705 0
3711 122 -3705 0
-3712 -3710 0
-3712 -3711 0
3712 3710 3711 0
3713 -6747 0
-3713 6747 0
-3714 3712 0
-3714 3713 0
3714 -3712 -3713 0
-3715 3709 0
-3715 -3714 0
3715 -3709 3714 0
-3716 -3712 0
-3716 -3713 0
3716 3712 3713 0
-3717 3715 0
-3717 -3716 0
3717 -3715 3716 0
-3718 126 0
-3718 -3713 0
3718 -126 3713 0
-3719 -126 0
-3719 3713 0
3719 126 -3713 0
-3720 -3718 0
-3720 -3719 0
3720 3718 3719 0
3721 -6748 0
-3721 6748 0
-3722 3720 0
-3722 3721 0
3722 -3720 -3721 0
-3723 3717 0
-3723 -3722 0
3723 -3717 3722 0
-3724 -3720 0
-3724 -3721 0
3724 3720 3721 0
-3725 3723 0
-3725 -3724 0
3725 -3723 3724 0
-3726 128 0
-3726 -3721 0
3726 -128 3721 0
-3727 -128 0
-3727 3721 0
3727 128 -3721 0
-3728 -3726 0
-3728 -3727 0
3728 3726 3727 0
3729 -6749 0
-3729 6749 0
-3730 3728 0
-3730 3729 0
3730 -3728 -3729 0
-3731 3725 0
-3731 -3730 0
3731 -3725 3730 0
-3732 -3728 0
-3732 -3729 0
3732 3728 3729 0
-3733 3731 0
-3733 -3732 0
3733 -3731 3732 0
-3734 130 0
-3734 -3729 0
3734 -130 3729 0
-3735 -130 0
-3735 3729 0
3735 130 -3729 0
-3736 -3734 0
-3736 -3735 0
3736 3734 3735 0
3737 -6750 0
-3737 6750 0
-3738 3736 0
-3738 3737 0
3738 -3736 -3737 0
-3739 3733 0
-3739 -3738 0
3739 -3733 3738 0
-3740 -3736 0
-3740 -3737 0
3740 3736 3737 0
-3741 3739 0
-3741 -3740 0
3741 -3739 3740 0
-3742 133 0
-3742 -3737 0
3742 -133 3737 0
-3743 -133 0
-3743 3737 0
3743 133 -3737 0
-3744 -3742 0
-3744 -3743 0
3744 3742 3743 0
3745 -6751 0
-3745 6751 0
-3746 3744 0
-3746 3745 0
3746 -3744 -3745 0
-3747 3741 0
-3747 -3746 0
3747 -3741 3746 0
-3748 -3744 0
-3748 -3745 0
3748 3744 3745 0
-3749 3747 0
-3749 -3748 0
3749 -3747 3748 0
-3750 138 0
-3750 -3745 0
3750 -138 3745 0
-3751 -138 0
-3751 3745 0
3751 138 -3745 0
-3752 -3750 0
-3752 -3751 0
3752 3750 3751 0
3753 -6752 0
-3753 6752 0
-3754 3752 0
-3754 3753 0
3754 -3752 -3753 0
-3755 3749 0
-3755 -3754 0
3755 -3749 3754 0
-3756 -3752 0
-3756 -3753 0
3756 3752 3753 0
-3757 3755 0
-3757 -3756 0
3757 -3755 3756 0
-3758 -2836 0
-3758 3757 0
3758 2836 -3757 0
-3759 -2838 0
-3759 3758 0
3759 2838 -3758 0
-3760 116 0
-3760 -2835 0
3760 -116 2835 0
-3761 -116 0
-3761 2835 0
3761 116 -2835 0
-3762 -3760 0
-3762 -3761 0
3762 3760 3761 0
3763 -6753 0
-3763 6753 0
-3764 3762 0
-3764 3763 0
3764 -3762 -3763 0
-3765 3759 0
-3765 -3764 0
3765 -3759 3764 0
-3766 -3762 0
-3766 -3763 0
3766 3762 3763 0
-3767 3765 0
-3767 -3766 0
3767 -3765 3766 0
-3768 118 0
-3768 -3763 0
3768 -118 3763 0
-3769 -118 0
-3769 3763 0
3769 118 -3763 0
-3770 -3768 0
-3770 -3769 0
3770 3768 3769 0
3771 -6754 0
-3771 6754 0
-3772 3770 0
-3772 3771 0
3772 -3770 -3771 0
-3773 3767 0
-3773 -3772 0
3773 -3767 3772 0
-3774 -3770 0
-3774 -3771 0
3774 3770 3771 0
-3775 3773 0
-3775 -3774 0
3775 -3773 3774 0
-3776 119 0
-3776 -3771 0
3776 -119 3771 0
-3777 -119 0
-3777 3771 0
3777 119 -3771 0
-3778 -3776 0
-3778 -3777 0
3778 3776 3777 0
3779 -6755 0
-3779 6755 0
-3780 3778 0
-3780 3779 0
3780 -3778 -3779 0
-3781 3775 0
-3781 -3780 0
3781 -3775 3780 0
-3782 -3778 0
-3782 -3779 0
3782 3778 3779 0
-3783 3781 0
-3783 -3782 0
3783 -3781 3782 0
-3784 121 0
-3784 -3779 0
3784 -121 3779 0
-3785 -121 0
-3785 3779 0
3785 121 -3779 0
-3786 -3784 0
-3786 -3785 0
3786 3784 3785 0
3787 -6756 0
-3787 6756 0
-3788 3786 0
-3788 3787 0
3788 -3786 -3787 0
-3789 3783 0
-3789 -3788 0
3789 -3783 3788 0
-3790 -3786 0
-3790 -3787 0
3790 3786 3787 0
-3791 3789 0
-3791 -3790 0
3791 -3789 3790 0
-3792 125 0
-3792 -3787 0
3792 -125 3787 0
-3793 -125 0
-3793 3787 0
3793 125 -3787 0
-3794 -3792 0
-3794 -3793 0
3794 3792 3793 0
3795 -6757 0
-3795 6757 0
-3796 3794 0
-3796 3795 0
3796 -3794 -3795 0
-3797 3791 0
-3797 -3796 0
3797 -3791 3796 0
-3798 -3794 0
-3798 -3795 0
3798 3794 3795 0
-3799 3797 0
-3799 -3798 0
3799 -3797 3798 0
-3800 127 0
-3800 -3795 0
3800 -127 3795 0
-3801 -127 0
-3801 3795 0
3801 127 -3795 0
-3802 -3800 0
-3802 -3801 0
3802 3800 3801 0
3803 -6758 0
-3803 6758 0
-3804 3802 0
-3804 3803 0
3804 -3802 -3803 0
-3805 3799 0
-3805 -3804 0
3805 -3799 3804 0
-3806 -3802 0
-3806 -3803 0
3806 3802 3803 0
-3807 3805 0
-3807 -3806 0
3807 -3805 3806 0
-3808 129 0
-3808 -3803 0
3808 -129 3803 0
-3809 -129 0
-3809 3803 0
3809 129 -3803 0
-3810 -3808 0
-3810 -3809 0
3810 3808 3809 0
3811 -6759 0
-3811 6759 0
-3812 3810 0
-3812 3811 0
3812 -3810 -3811 0
-3813 3807 0
-3813 -3812 0
3813 -3807 3812 0
-3814 -3810 0
-3814 -3811 0
3814 3810 3811 0
-3815 3813 0
-3815 -3814 0
3815 -3813 3814 0
-3816 132 0
-3816 -3811 0
3816 -132 3811 0
-3817 -132 0
-3817 3811 0
3817 132 -3811 0
-3818 -3816 0
-3818 -3817 0
3818 3816 3817 0
3819 -6760 0
-3819 6760 0
-3820 3818 0
-3820 3819 0
3820 -3818 -3819 0
-3821 3815 0
-3821 -3820 0
3821 -3815 3820 0
-3822 -3818 0
-3822 -3819 0
3822 3818 3819 0
-3823 3821 0
-3823 -3822 0
3823 -3821 3822 0
-3824 137 0
-3824 -3819 0
3824 -137 3819 0
-3825 -137 0
-3825 3819 0
3825 137 -3819 0
-3826 -3824 0
-3826 -3825 0
3826 3824 3825 0
3827 -6761 0
-3827 6761 0
-3828 3826 0
-3828 3827 0
3828 -3826 -3827 0
-3829 3823 0
-3829 -3828 0
3829 -3823 3828 0
-3830 -3826 0
-3830 -3827 0
3830 3826 3827 0
-3831 3829 0
-3831 -3830 0
3831 -3829 3830 0
-3832 -2888 0
-3832 3831 0
3832 2888 -3831 0
-3833 -2890 0
-3833 3832 0
3833 2890 -3832 0
-3834 115 0
-3834 -2887 0
3834 -115 2887 0
-3835 -115 0
-3835 2887 0
3835 115 -2887 0
-3836 -3834 0
-3836 -3835 0
3836 3834 3835 0
3837 -6762 0
-3837 6762 0
-3838 3836 0
-3838 3837 0
3838 -3836 -3837 0
-3839 3833 0
-3839 -3838 0
3839 -3833 3838 0
-3840 -3836 0
-3840 -3837 0
3840 3836 3837 0
-3841 3839 0
-3841 -3840 0
3841 -3839 3840 0
-3842 117 0
-3842 -3837 0
3842 -117 3837 0
-3843 -117 0
-3843 3837 0
3843 117 -3837 0
-3844 -3842 0
-3844 -3843 0
3844 3842 3843 0
3845 -6763 0
-3845 6763 0
-3846 3844 0
-3846 3845 0
3846 -3844 -3845 0
-3847 3841 0
-3847 -3846 0
3847 -3841 3846 0
-3848 -3844 0
-3848 -3845 0
3848 3844 3845 0
-3849 3847 0
-3849 -3848 0
3849 -3847 3848 0
-3850 118 0
-3850 -3845 0
3850 -118 3845 0
-3851 -118 0
-3851 3845 0
3851 118 -3845 0
-3852 -3850 0
-3852 -3851 0
3852 3850 3851 0
3853 -6764 0
-3853 6764 0
-3854 3852 0
-3854 3853 0
3854 -3852 -3853 0
-3855 3849 0
-3855 -3854 0
3855 -3849 3854 0
-3856 -3852 0
-3856 -3853 0
3856 3852 3853 0
-3857 3855 0
-3857 -3856 0
3857 -3855 3856 0
-3858 120 0
-3858 -3853 0
3858 -120 3853 0
-3859 -120 0
-3859 3853 0
3859 120 -3853 0
-3860 -3858 0
-3860 -3859 0
3860 3858 3859 0
3861 -6765 0
-3861 6765 0
-3862 3860 0
-3862 3861 0
3862 -3860 -3861 0
-3863 3857 0
-3863 -3862 0
3863 -3857 3862 0
-3864 -3860 0
-3864 -3861 0
3864 3860 3861 0
-3865 3863 0
-3865 -3864 0
3865 -3863 3864 0
-3866 124 0
-3866 -3861 0
3866 -124 3861 0
-3867 -124 0
-3867 3861 0
3867 124 -3861 0
-3868 -3866 0
-3868 -3867 0
3868 3866 3867 0
3869 -6766 0
-3869 6766 0
-3870 3868 0
-3870 3869 0
3870 -3868 -3869 0
-3871 3865 0
-3871 -3870 0
3871 -3865 3870 0
-3872 -3868 0
-3872 -3869 0
3872 3868 3869 0
-3873 3871 0
-3873 -3872 0
3873 -3871 3872 0
-3874 126 0
-3874 -3869 0
3874 -126 3869 0
-3875 -126 0
-3875 3869 0
3875 126 -3869 0
-3876 -3874 0
-3876 -3875 0
3876 3874 3875 0
3877 -6767 0
-3877 6767 0
-3878 3876 0
-3878 3877 0
3878 -3876 -3877 0
-3879 3873 0
-3879 -3878 0
3879 -3873 3878 0
-3880 -3876 0
-3880 -3877 0
3880 3876 3877 0
-3881 3879 0
-3881 -3880 0
3881 -3879 3880 0
-3882 128 0
-3882 -3877 0
3882 -128 3877 0
-3883 -128 0
-3883 3877 0
3883 128 -3877 0
-3884 -3882 0
-3884 -3883 0
3884 3882 3883 0
3885 -6768 0
-3885 6768 0
-3886 3884 0
-3886 3885 0
3886 -3884 -3885 0
-3887 3881 0
-3887 -3886 0
3887 -3881 3886 0
-3888 -3884 0
-3888 -3885 0
3888 3884 3885 0
-3889 3887 0
-3889 -3888 0
3889 -3887 3888 0
-3890 131 0
-3890 -3885 0
3890 -131 3885 0
-3891 -131 0
-3891 3885 0
3891 131 -3885 0
-3892 -3890 0
-3892 -3891 0
3892 3890 3891 0
3893 -6769 0
-3893 6769 0
-3894 3892 0
-3894 3893 0
3894 -3892 -3893 0
-3895 3889 0
-3895 -3894 0
3895 -3889 3894 0
-3896 -3892 0
-3896 -3893 0
3896 3892 3893 0
-3897 3895 0
-3897 -3896 0
3897 -3895 3896 0
-3898 136 0
-3898 -3893 0
3898 -136 3893 0
-3899 -136 0
-3899 3893 0
3899 136 -3893 0
-3900 -3898 0
-3900 -3899 0
3900 3898 3899 0
3901 -6770 0
-3901 6770 0
-3902 3900 0
-3902 3901 0
3902 -3900 -3901 0
-3903 3897 0
-3903 -3902 0
3903 -3897 3902 0
-3904 -3900 0
-3904 -3901 0
3904 3900 3901 0
-3905 3903 0
-3905 -3904 0
3905 -3903 3904 0
-3906 -2945 0
-3906 3905 0
3906 2945 -3905 0
-3907 -2947 0
-3907 3906 0
3907 2947 -3906 0
-3908 -3007 0
-3908 3907 0
3908 3007 -3907 0
-3909 -3009 0
-3909 3908 0
3909 3009 -3908 0
-3910 116 0
-3910 -3006 0
3910 -116 3006 0
-3911 -116 0
-3911 3006 0
3911 116 -3006 0
-3912 -3910 0
-3912 -3911 0
3912 3910 3911 0
3913 -6771 0
-3913 6771 0
-3914 3912 0
-3914 3913 0
3914 -3912 -3913 0
-3915 3909 0
-3915 -3914 0
3915 -3909 3914 0
-3916 -3912 0
-3916 -3913 0
3916 3912 3913 0
-3917 3915 0
-3917 -3916 0
3917 -3915 3916 0
-3918 117 0
-3918 -3913 0
3918 -117 3913 0
-3919 -117 0
-3919 3913 0
3919 117 -3913 0
-3920 -3918 0
-3920 -3919 0
3920 3918 3919 0
3921 -6772 0
-3921 6772 0
-3922 3920 0
-3922 3921 0
3922 -3920 -3921 0
-3923 3917 0
-3923 -3922 0
3923 -3917 3922 0
-3924 -3920 0
-3924 -3921 0
3924 3920 3921 0
-3925 3923 0
-3925 -3924 0
3925 -3923 3924 0
-3926 119 0
-3926 -3921 0
3926 -119 3921 0
-3927 -119 0
-3927 3921 0
3927 119 -3921 0
-3928 -3926 0
-3928 -3927 0
3928 3926 3927 0
3929 -6773 0
-3929 6773 0
-3930 3928 0
-3930 3929 0
3930 -3928 -3929 0
-3931 3925 0
-3931 -3930 0
3931 -3925 3930 0
-3932 -3928 0
-3932 -3929 0
3932 3928 3929 0
-3933 3931 0
-3933 -3932 0
3933 -3931 3932 0
-3934 123 0
-3934 -3929 0
3934 -123 3929 0
-3935 -123 0
-3935 3929 0
3935 123 -3929 0
-3936 -3934 0
-3936 -3935 0
3936 3934 3935 0
3937 -6774 0
-3937 6774 0
-3938 3936 0
-3938 3937 0
3938 -3936 -3937 0
-3939 3933 0
-3939 -3938 0
3939 -3933 3938 0
-3940 -3936 0
-3940 -3937 0
3940 3936 3937 0
-3941 3939 0
-3941 -3940 0
3941 -3939 3940 0
-3942 125 0
-3942 -3937 0
3942 -125 3937 0
-3943 -125 0
-3943 3937 0
3943 125 -3937 0
-3944 -3942 0
-3944 -3943 0
3944 3942 3943 0
3945 -6775 0
-3945 6775 0
-3946 3944 0
-3946 3945 0
3946 -3944 -3945 0
-3947 3941 0
-3947 -3946 0
3947 -3941 3946 0
-3948 -3944 0
-3948 -3945 0
3948 3944 3945 0
-3949 3947 0
-3949 -3948 0
3949 -3947 3948 0
-3950 127 0
-3950 -3945 0
3950 -127 3945 0
-3951 -127 0
-3951 3945 0
3951 127 -3945 0
-3952 -3950 0
-3952 -3951 0
3952 3950 3951 0
3953 -6776 0
-3953 6776 0
-3954 3952 0
-3954 3953 0
3954 -3952 -3953 0
-3955 3949 0
-3955 -3954 0
3955 -3949 3954 0
-3956 -3952 0
-3956 -3953 0
3956 3952 3953 0
-3957 3955 0
-3957 -3956 0
3957 -3955 3956 0
-3958 130 0
-3958 -3953 0
3958 -130 3953 0
-3959 -130 0
-3959 3953 0
3959 130 -3953 0
-3960 -3958 0
-3960 -3959 0
3960 3958 3959 0
3961 -6777 0
-3961 6777 0
-3962 3960 0
-3962 3961 0
3962 -3960 -3961 0
-3963 3957 0
-3963 -3962 0
3963 -3957 3962 0
-3964 -3960 0
-3964 -3961 0
3964 3960 3961 0
-3965 3963 0
-3965 -3964 0
3965 -3963 3964 0
-3966 135 0
-3966 -3961 0
3966 -135 3961 0
-3967 -135 0
-3967 3961 0
3967 135 -3961 0
-3968 -3966 0
-3968 -3967 0
3968 3966 3967 0
3969 -6778 0
-3969 6778 0
-3970 3968 0
-3970 3969 0
3970 -3968 -3969 0
-3971 3965 0
-3971 -3970 0
3971 -3965 3970 0
-3972 -3968 0
-3972 -3969 0
3972 3968 3969 0
-3973 3971 0
-3973 -3972 0
3973 -3971 3972 0
-3974 118 0
-3974 -3575 0
3974 -118 3575 0
-3975 -118 0
-3975 3575 0
3975 118 -3575 0
-3976 -3974 0
-3976 -3975 0
3976 3974 3975 0
3977 -6779 0
-3977 6779 0
-3978 3976 0
-3978 3977 0
3978 -3976 -3977 0
-3979 3973 0
-3979 -3978 0
3979 -3973 3978 0
-3980 -3976 0
-3980 -3977 0
3980 3976 3977 0
-3981 3979 0
-3981 -3980 0
3981 -3979 3980 0
-3982 122 0
-3982 -3977 0
3982 -122 3977 0
-3983 -122 0
-3983 3977 0
3983 122 -3977 0
-3984 -3982 0
-3984 -3983 0
3984 3982 3983 0
3985 -6780 0
-3985 6780 0
-3986 3984 0
-3986 3985 0
3986 -3984 -3985 0
-3987 3981 0
-3987 -3986 0
3987 -3981 3986 0
-3988 -3984 0
-3988 -3985 0
3988 3984 3985 0
-3989 3987 0
-3989 -3988 0
3989 -3987 3988 0
-3990 124 0
-3990 -3985 0
3990 -124 3985 0
-3991 -124 0
-3991 3985 0
3991 124 -3985 0
-3992 -3990 0
-3992 -3991 0
3992 3990 3991 0
3993 -6781 0
-3993 6781 0
-3994 3992 0
-3994 3993 0
3994 -3992 -3993 0
-3995 3989 0
-3995 -3994 0
3995 -3989 3994 0
-3996 -3992 0
-3996 -3993 0
3996 3992 3993 0
-3997 3995 0
-3997 -3996 0
3997 -3995 3996 0
-3998 126 0
-3998 -3993 0
3998 -126 3993 0
-3999 -126 0
-3999 3993 0
3999 126 -3993 0
-4000 -3998 0
-4000 -3999 0
4000 3998 3999 0
4001 -6782 0
-4001 6782 0
-4002 4000 0
-4002 4001 0
4002 -4000 -4001 0
-4003 3997 0
-4003 -4002 0
4003 -3997 4002 0
-4004 -4000 0
-4004 -4001 0
4004 4000 4001 0
-4005 4003 0
-4005 -4004 0
4005 -4003 4004 0
-4006 129 0
-4006 -4001 0
4006 -129 4001 0
-4007 -129 0
-4007 4001 0
4007 129 -4001 0
-4008 -4006 0
-4008 -4007 0
4008 4006 4007 0
4009 -6783 0
-4009 6783 0
-4010 4008 0
-4010 4009 0
4010 -4008 -4009 0
-4011 4005 0
-4011 -4010 0
4011 -4005 4010 0
-4012 -4008 0
-4012 -4009 0
4012 4008 4009 0
-4013 4011 0
-4013 -4012 0
4013 -4011 4012 0
-4014 134 0
-4014 -4009 0
4014 -134 4009 0
-4015 -134 0
-4015 4009 0
4015 134 -4009 0
-4016 -4014 0
-4016 -4015 0
4016 4014 4015 0
4017 -6784 0
-4017 6784 0
-4018 4016 0
-4018 4017 0
4018 -4016 -4017 0
-4019 4013 0
-4019 -4018 0
4019 -4013 4018 0
-4020 -4016 0
-4020 -4017 0
4020 4016 4017 0
-4021 4019 0
-4021 -4020 0
4021 -4019 4020 0
-4022 -2787 0
-4022 4021 0
4022 2787 -4021 0
-4023 -2789 0
-4023 4022 0
4023 2789 -4022 0
-4024 -2795 0
-4024 4023 0
4024 2795 -4023 0
-4025 -2797 0
-4025 4024 0
4025 2797 -4024 0
-4026 120 0
-4026 -2794 0
4026 -120 2794 0
-4027 -120 0
-4027 2794 0
4027 120 -2794 0
-4028 -4026 0
-4028 -4027 0
4028 4026 4027 0
4029 -6785 0
-4029 6785 0
-4030 4028 0
-4030 4029 0
4030 -4028 -4029 0
-4031 4025 0
-4031 -4030 0
4031 -4025 4030 0
-4032 -4028 0
-4032 -4029 0
4032 4028 4029 0
-4033 4031 0
-4033 -4032 0
4033 -4031 4032 0
-4034 122 0
-4034 -4029 0
4034 -122 4029 0
-4035 -122 0
-4035 4029 0
4035 122 -4029 0
-4036 -4034 0
-4036 -4035 0
4036 4034 4035 0
4037 -6786 0
-4037 6786 0
-4038 4036 0
-4038 4037 0
4038 -4036 -4037 0
-4039 4033 0
-4039 -4038 0
4039 -4033 4038 0
-4040 -4036 0
-4040 -4037 0
4040 4036 4037 0
-4041 4039 0
-4041 -4040 0
4041 -4039 4040 0
-4042 124 0
-4042 -4037 0
4042 -124 4037 0
-4043 -124 0
-4043 4037 0
4043 124 -4037 0
-4044 -4042 0
-4044 -4043 0
4044 4042 4043 0
4045 -6787 0
-4045 6787 0
-4046 4044 0
-4046 4045 0
4046 -4044 -4045 0
-4047 4041 0
-4047 -4046 0
4047 -4041 4046 0
-4048 -4044 0
-4048 -4045 0
4048 4044 4045 0
-4049 4047 0
-4049 -4048 0
4049 -4047 4048 0
-4050 126 0
-4050 -4045 0
4050 -126 4045 0
-4051 -126 0
-4051 4045 0
4051 126 -4045 0
-4052 -4050 0
-4052 -4051 0
4052 4050 4051 0
4053 -6788 0
-4053 6788 0
-4054 4052 0
-4054 4053 0
4054 -4052 -4053 0
-4055 4049 0
-4055 -4054 0
4055 -4049 4054 0
-4056 -4052 0
-4056 -4053 0
4056 4052 4053 0
-4057 4055 0
-4057 -4056 0
4057 -4055 4056 0
-4058 127 0
-4058 -4053 0
4058 -127 4053 0
-4059 -127 0
-4059 4053 0
4059 127 -4053 0
-4060 -4058 0
-4060 -4059 0
4060 4058 4059 0
4061 -6789 0
-4061 6789 0
-4062 4060 0
-4062 4061 0
4062 -4060 -4061 0
-4063 4057 0
-4063 -4062 0
4063 -4057 4062 0
-4064 -4060 0
-4064 -4061 0
4064 4060 4061 0
-4065 4063 0
-4065 -4064 0
4065 -4063 4064 0
-4066 129 0
-4066 -4061 0
4066 -129 4061 0
-4067 -129 0
-4067 4061 0
4067 129 -4061 0
-4068 -4066 0
-4068 -4067 0
4068 4066 4067 0
4069 -6790 0
-4069 6790 0
-4070 4068 0
-4070 4069 0
4070 -4068 -4069 0
-4071 4065 0
-4071 -4070 0
4071 -4065 4070 0
-4072 -4068 0
-4072 -4069 0
4072 4068 4069 0
-4073 4071 0
-4073 -4072 0
4073 -4071 4072 0
-4074 130 0
-4074 -4069 0
4074 -130 4069 0
-4075 -130 0
-4075 4069 0
4075 130 -4069 0
-4076 -4074 0
-4076 -4075 0
4076 4074 4075 0
4077 -6791 0
-4077 6791 0
-4078 4076 0
-4078 4077 0
4078 -4076 -4077 0
-4079 4073 0
-4079 -4078 0
4079 -4073 4078 0
-4080 -4076 0
-4080 -4077 0
4080 4076 4077 0
-4081 4079 0
-4081 -4080 0
4081 -4079 4080 0
-4082 131 0
-4082 -4077 0
4082 -131 4077 0
-4083 -131 0
-4083 4077 0
4083 131 -4077 0
-4084 -4082 0
-4084 -4083 0
4084 4082 4083 0
4085 -6792 0
-4085 6792 0
-4086 4084 0
-4086 4085 0
4086 -4084 -4085 0
-4087 4081 0
-4087 -4086 0
4087 -4081 4086 0
-4088 -4084 0
-4088 -4085 0
4088 4084 4085 0
-4089 4087 0
-4089 -4088 0
4089 -4087 4088 0
-4090 132 0
-4090 -4085 0
4090 -132 4085 0
-4091 -132 0
-4091 4085 0
4091 132 -4085 0
-4092 -4090 0
-4092 -4091 0
4092 4090 4091 0
4093 -6793 0
-4093 6793 0
-4094 4092 0
-4094 4093 0
4094 -4092 -4093 0
-4095 4089 0
-4095 -4094 0
4095 -4089 4094 0
-4096 -4092 0
-4096 -4093 0
4096 4092 4093 0
-4097 4095 0
-4097 -4096 0
4097 -4095 4096 0
-4098 134 0
-4098 -4093 0
4098 -134 4093 0
-4099 -134 0
-4099 4093 0
4099 134 -4093 0
-4100 -4098 0
-4100 -4099 0
4100 4098 4099 0
4101 -6794 0
-4101 6794 0
-4102 4100 0
-4102 4101 0
4102 -4100 -4101 0
-4103 4097 0
-4103 -4102 0
4103 -4097 4102 0
-4104 -4100 0
-4104 -4101 0
4104 4100 4101 0
-4105 4103 0
-4105 -4104 0
4105 -4103 4104 0
-4106 135 0
-4106 -4101 0
4106 -135 4101 0
-4107 -135 0
-4107 4101 0
4107 135 -4101 0
-4108 -4106 0
-4108 -4107 0
4108 4106 4107 0
4109 -6795 0
-4109 6795 0
-4110 4108 0
-4110 4109 0
4110 -4108 -4109 0
-4111 4105 0
-4111 -4110 0
4111 -4105 4110 0
-4112 -4108 0
-4112 -4109 0
4112 4108 4109 0
-4113 4111 0
-4113 -4112 0
4113 -4111 4112 0
-4114 136 0
-4114 -4109 0
4114 -136 4109 0
-4115 -136 0
-4115 4109 0
4115 136 -4109 0
-4116 -4114 0
-4116 -4115 0
4116 4114 4115 0
4117 -6796 0
-4117 6796 0
-4118 4116 0
-4118 4117 0
4118 -4116 -4117 0
-4119 4113 0
-4119 -4118 0
4119 -4113 4118 0
-4120 -4116 0
-4120 -4117 0
4120 4116 4117 0
-4121 4119 0
-4121 -4120 0
4121 -4119 4120 0
-4122 137 0
-4122 -4117 0
4122 -137 4117 0
-4123 -137 0
-4123 4117 0
4123 137 -4117 0
-4124 -4122 0
-4124 -4123 0
4124 4122 4123 0
4125 -6797 0
-4125 6797 0
-4126 4124 0
-4126 4125 0
4126 -4124 -4125 0
-4127 4121 0
-4127 -4126 0
4127 -4121 4126 0
-4128 -4124 0
-4128 -4125 0
4128 4124 4125 0
-4129 4127 0
-4129 -4128 0
4129 -4127 4128 0
-4130 138 0
-4130 -4125 0
4130 -138 4125 0
-4131 -138 0
-4131 4125 0
4131 138 -4125 0
-4132 -4130 0
-4132 -4131 0
4132 4130 4131 0
4133 -6798 0
-4133 6798 0
-4134 4132 0
-4134 4133 0
4134 -4132 -4133 0
-4135 4129 0
-4135 -4134 0
4135 -4129 4134 0
-4136 -4132 0
-4136 -4133 0
4136 4132 4133 0
-4137 4135 0
-4137 -4136 0
4137 -4135 4136 0
-4138 -2844 0
-4138 4137 0
4138 2844 -4137 0
-4139 -2846 0
-4139 4138 0
4139 2846 -4138 0
-4140 -2852 0
-4140 4139 0
4140 2852 -4139 0
-4141 -2854 0
-4141 4140 0
4141 2854 -4140 0
-4142 119 0
-4142 -2851 0
4142 -119 2851 0
-4143 -119 0
-4143 2851 0
4143 119 -2851 0
-4144 -4142 0
-4144 -4143 0
4144 4142 4143 0
4145 -6799 0
-4145 6799 0
-4146 4144 0
-4146 4145 0
4146 -4144 -4145 0
-4147 4141 0
-4147 -4146 0
4147 -4141 4146 0
-4148 -4144 0
-4148 -4145 0
4148 4144 4145 0
-4149 4147 0
-4149 -4148 0
4149 -4147 4148 0
-4150 121 0
-4150 -4145 0
4150 -121 4145 0
-4151 -121 0
-4151 4145 0
4151 121 -4145 0
-4152 -4150 0
-4152 -4151 0
4152 4150 4151 0
4153 -6800 0
-4153 6800 0
-4154 4152 0
-4154 4153 0
4154 -4152 -4153 0
-4155 4149 0
-4155 -4154 0
4155 -4149 4154 0
-4156 -4152 0
-4156 -4153 0
4156 4152 4153 0
-4157 4155 0
-4157 -4156 0
4157 -4155 4156 0
-4158 123 0
-4158 -4153 0
4158 -123 4153 0
-4159 -123 0
-4159 4153 0
4159 123 -4153 0
-4160 -4158 0
-4160 -4159 0
4160 4158 4159 0
4161 -6801 0
-4161 6801 0
-4162 4160 0
-4162 4161 0
4162 -4160 -4161 0
-4163 4157 0
-4163 -4162 0
4163 -4157 4162 0
-4164 -4160 0
-4164 -4161 0
4164 4160 4161 0
-4165 4163 0
-4165 -4164 0
4165 -4163 4164 0
-4166 125 0
-4166 -4161 0
4166 -125 4161 0
-4167 -125 0
-4167 4161 0
4167 125 -4161 0
-4168 -4166 0
-4168 -4167 0
4168 4166 4167 0
4169 -6802 0
-4169 6802 0
-4170 4168 0
-4170 4169 0
4170 -4168 -4169 0
-4171 4165 0
-4171 -4170 0
4171 -4165 4170 0
-4172 -4168 0
-4172 -4169 0
4172 4168 4169 0
-4173 4171 0
-4173 -4172 0
4173 -4171 4172 0
-4174 126 0
-4174 -4169 0
4174 -126 4169 0
-4175 -126 0
-4175 4169 0
4175 126 -4169 0
-4176 -4174 0
-4176 -4175 0
4176 4174 4175 0
4177 -6803 0
-4177 6803 0
-4178 4176 0
-4178 4177 0
4178 -4176 -4177 0
-4179 4173 0
-4179 -4178 0
4179 -4173 4178 0
-4180 -4176 0
-4180 -4177 0
4180 4176 4177 0
-4181 4179 0
-4181 -4180 0
4181 -4179 4180 0
-4182 128 0
-4182 -4177 0
4182 -128 4177 0
-4183 -128 0
-4183 4177 0
4183 128 -4177 0
-4184 -4182 0
-4184 -4183 0
4184 4182 4183 0
4185 -6804 0
-4185 6804 0
-4186 4184 0
-4186 4185 0
4186 -4184 -4185 0
-4187 4181 0
-4187 -4186 0
4187 -4181 4186 0
-4188 -4184 0
-4188 -4185 0
4188 4184 4185 0
-4189 4187 0
-4189 -4188 0
4189 -4187 4188 0
-4190 129 0
-4190 -4185 0
4190 -129 4185 0
-4191 -129 0
-4191 4185 0
4191 129 -4185 0
-4192 -4190 0
-4192 -4191 0
4192 4190 4191 0
4193 -6805 0
-4193 6805 0
-4194 4192 0
-4194 4193 0
4194 -4192 -4193 0
-4195 4189 0
-4195 -4194 0
4195 -4189 4194 0
-4196 -4192 0
-4196 -4193 0
4196 4192 4193 0
-4197 4195 0
-4197 -4196 0
4197 -4195 4196 0
-4198 130 0
-4198 -4193 0
4198 -130 4193 0
-4199 -130 0
-4199 4193 0
4199 130 -4193 0
-4200 -4198 0
-4200 -4199 0
4200 4198 4199 0
4201 -6806 0
-4201 6806 0
-4202 4200 0
-4202 4201 0
4202 -4200 -4201 0
-4203 4197 0
-4203 -4202 0
4203 -4197 4202 0
-4204 -4200 0
-4204 -4201 0
4204 4200 4201 0
-4205 4203 0
-4205 -4204 0
4205 -4203 4204 0
-4206 131 0
-4206 -4201 0
4206 -131 4201 0
-4207 -131 0
-4207 4201 0
4207 131 -4201 0
-4208 -4206 0
-4208 -4207 0
4208 4206 4207 0
4209 -6807 0
-4209 6807 0
-4210 4208 0
-4210 4209 0
4210 -4208 -4209 0
-4211 4205 0
-4211 -4210 0
4211 -4205 4210 0
-4212 -4208 0
-4212 -4209 0
4212 4208 4209 0
-4213 4211 0
-4213 -4212 0
4213 -4211 4212 0
-4214 133 0
-4214 -4209 0
4214 -133 4209 0
-4215 -133 0
-4215 4209 0
4215 133 -4209 0
-4216 -4214 0
-4216 -4215 0
4216 4214 4215 0
4217 -6808 0
-4217 6808 0
-4218 4216 0
-4218 4217 0
4218 -4216 -4217 0
-4219 4213 0
-4219 -4218 0
4219 -4213 4218 0
-4220 -4216 0
-4220 -4217 0
4220 4216 4217 0
-4221 4219 0
-4221 -4220 0
4221 -4219 4220 0
-4222 134 0
-4222 -4217 0
4222 -134 4217 0
-4223 -134 0
-4223 4217 0
4223 134 -4217 0
-4224 -4222 0
-4224 -4223 0
4224 4222 4223 0
4225 -6809 0
-4225 6809 0
-4226 4224 0
-4226 4225 0
4226 -4224 -4225 0
-4227 4221 0
-4227 -4226 0
4227 -4221 4226 0
-4228 -4224 0
-4228 -4225 0
4228 4224 4225 0
-4229 4227 0
-4229 -4228 0
4229 -4227 4228 0
-4230 135 0
-4230 -4225 0
4230 -135 4225 0
-4231 -135 0
-4231 4225 0
4231 135 -4225 0
-4232 -4230 0
-4232 -4231 0
4232 4230 4231 0
4233 -6810 0
-4233 6810 0
-4234 4232 0
-4234 4233 0
4234 -4232 -4233 0
-4235 4229 0
-4235 -4234 0
4235 -4229 4234 0
-4236 -4232 0
-4236 -4233 0
4236 4232 4233 0
-4237 4235 0
-4237 -4236 0
4237 -4235 4236 0
-4238 136 0
-4238 -4233 0
4238 -136 4233 0
-4239 -136 0
-4239 4233 0
4239 136 -4233 0
-4240 -4238 0
-4240 -4239 0
4240 4238 4239 0
4241 -6811 0
-4241 6811 0
-4242 4240 0
-4242 4241 0
4242 -4240 -4241 0
-4243 4237 0
-4243 -4242 0
4243 -4237 4242 0
-4244 -4240 0
-4244 -4241 0
4244 4240 4241 0
-4245 4243 0
-4245 -4244 0
4245 -4243 4244 0
-4246 137 0
-4246 -4241 0
4246 -137 4241 0
-4247 -137 0
-4247 4241 0
4247 137 -4241 0
-4248 -4246 0
-4248 -4247 0
4248 4246 4247 0
4249 -6812 0
-4249 6812 0
-4250 4248 0
-4250 4249 0
4250 -4248 -4249 0
-4251 4245 0
-4251 -4250 0
4251 -4245 4250 0
-4252 -4248 0
-4252 -4249 0
4252 4248 4249 0
-4253 4251 0
-4253 -4252 0
4253 -4251 4252 0
-4254 -2896 0
-4254 4253 0
4254 2896 -4253 0
-4255 -2898 0
-4255 4254 0
4255 2898 -4254 0
-4256 -2904 0
-4256 4255 0
4256 2904 -4255 0
-4257 -2906 0
-4257 4256 0
4257 2906 -4256 0
-4258 118 0
-4258 -2903 0
4258 -118 2903 0
-4259 -118 0
-4259 2903 0
4259 118 -2903 0
-4260 -4258 0
-4260 -4259 0
4260 4258 4259 0
4261 -6813 0
-4261 6813 0
-4262 4260 0
-4262 4261 0
4262 -4260 -4261 0
-4263 4257 0
-4263 -4262 0
4263 -4257 4262 0
-4264 -4260 0
-4264 -4261 0
4264 4260 4261 0
-4265 4263 0
-4265 -4264 0
4265 -4263 4264 0
-4266 120 0
-4266 -4261 0
4266 -120 4261 0
-4267 -120 0
-4267 4261 0
4267 120 -4261 0
-4268 -4266 0
-4268 -4267 0
4268 4266 4267 0
4269 -6814 0
-4269 6814 0
-4270 4268 0
-4270 4269 0
4270 -4268 -4269 0
-4271 4265 0
-4271 -4270 0
4271 -4265 4270 0
-4272 -4268 0
-4272 -4269 0
4272 4268 4269 0
-4273 4271 0
-4273 -4272 0
4273 -4271 4272 0
-4274 122 0
-4274 -4269 0
4274 -122 4269 0
-4275 -122 0
-4275 4269 0
4275 122 -4269 0
-4276 -4274 0
-4276 -4275 0
4276 4274 4275 0
4277 -6815 0
-4277 6815 0
-4278 4276 0
-4278 4277 0
4278 -4276 -4277 0
-4279 4273 0
-4279 -4278 0
4279 -4273 4278 0
-4280 -4276 0
-4280 -4277 0
4280 4276 4277 0
-4281 4279 0
-4281 -4280 0
4281 -4279 4280 0
-4282 124 0
-4282 -4277 0
4282 -124 4277 0
-4283 -124 0
-4283 4277 0
4283 124 -4277 0
-4284 -4282 0
-4284 -4283 0
4284 4282 4283 0
4285 -6816 0
-4285 6816 0
-4286 4284 0
-4286 4285 0
4286 -4284 -4285 0
-4287 4281 0
-4287 -4286 0
4287 -4281 4286 0
-4288 -4284 0
-4288 -4285 0
4288 4284 4285 0
-4289 4287 0
-4289 -4288 0
4289 -4287 4288 0
-4290 125 0
-4290 -4285 0
4290 -125 4285 0
-4291 -125 0
-4291 4285 0
4291 125 -4285 0
-4292 -4290 0
-4292 -4291 0
4292 4290 4291 0
4293 -6817 0
-4293 6817 0
-4294 4292 0
-4294 4293 0
4294 -4292 -4293 0
-4295 4289 0
-4295 -4294 0
4295 -4289 4294 0
-4296 -4292 0
-4296 -4293 0
4296 4292 4293 0
-4297 4295 0
-4297 -4296 0
4297 -4295 4296 0
-4298 127 0
-4298 -4293 0
4298 -127 4293 0
-4299 -127 0
-4299 4293 0
4299 127 -4293 0
-4300 -4298 0
-4300 -4299 0
4300 4298 4299 0
4301 -6818 0
-4301 6818 0
-4302 4300 0
-4302 4301 0
4302 -4300 -4301 0
-4303 4297 0
-4303 -4302 0
4303 -4297 4302 0
-4304 -4300 0
-4304 -4301 0
4304 4300 4301 0
-4305 4303 0
-4305 -4304 0
4305 -4303 4304 0
-4306 128 0
-4306 -4301 0
4306 -128 4301 0
-4307 -128 0
-4307 4301 0
4307 128 -4301 0
-4308 -4306 0
-4308 -4307 0
4308 4306 4307 0
4309 -6819 0
-4309 6819 0
-4310 4308 0
-4310 4309 0
4310 -4308 -4309 0
-4311 4305 0
-4311 -4310 0
4311 -4305 4310 0
-4312 -4308 0
-4312 -4309 0
4312 4308 4309 0
-4313 4311 0
-4313 -4312 0
4313 -4311 4312 0
-4314 129 0
-4314 -4309 0
4314 -129 4309 0
-4315 -129 0
-4315 4309 0
4315 129 -4309 0
-4316 -4314 0
-4316 -4315 0
4316 4314 4315 0
4317 -6820 0
-4317 6820 0
-4318 4316 0
-4318 4317 0
4318 -4316 -4317 0
-4319 4313 0
-4319 -4318 0
4319 -4313 4318 0
-4320 -4316 0
-4320 -4317 0
4320 4316 4317 0
-4321 4319 0
-4321 -4320 0
4321 -4319 4320 0
-4322 130 0
-4322 -4317 0
4322 -130 4317 0
-4323 -130 0
-4323 4317 0
4323 130 -4317 0
-4324 -4322 0
-4324 -4323 0
4324 4322 4323 0
4325 -6821 0
-4325 6821 0
-4326 4324 0
-4326 4325 0
4326 -4324 -4325 0
-4327 4321 0
-4327 -4326 0
4327 -4321 4326 0
-4328 -4324 0
-4328 -4325 0
4328 4324 4325 0
-4329 4327 0
-4329 -4328 0
4329 -4327 4328 0
-4330 132 0
-4330 -4325 0
4330 -132 4325 0
-4331 -132 0
-4331 4325 0
4331 132 -4325 0
-4332 -4330 0
-4332 -4331 0
4332 4330 4331 0
4333 -6822 0
-4333 6822 0
-4334 4332 0
-4334 4333 0
4334 -4332 -4333 0
-4335 4329 0
-4335 -4334 0
4335 -4329 4334 0
-4336 -4332 0
-4336 -4333 0
4336 4332 4333 0
-4337 4335 0
-4337 -4336 0
4337 -4335 4336 0
-4338 133 0
-4338 -4333 0
4338 -133 4333 0
-4339 -133 0
-4339 4333 0
4339 133 -4333 0
-4340 -4338 0
-4340 -4339 0
4340 4338 4339 0
4341 -6823 0
-4341 6823 0
-4342 4340 0
-4342 4341 0
4342 -4340 -4341 0
-4343 4337 0
-4343 -4342 0
4343 -4337 4342 0
-4344 -4340 0
-4344 -4341 0
4344 4340 4341 0
-4345 4343 0
-4345 -4344 0
4345 -4343 4344 0
-4346 134 0
-4346 -4341 0
4346 -134 4341 0
-4347 -134 0
-4347 4341 0
4347 134 -4341 0
-4348 -4346 0
-4348 -4347 0
4348 4346 4347 0
4349 -6824 0
-4349 6824 0
-4350 4348 0
-4350 4349 0
4350 -4348 -4349 0
-4351 4345 0
-4351 -4350 0
4351 -4345 4350 0
-4352 -4348 0
-4352 -4349 0
4352 4348 4349 0
-4353 4351 0
-4353 -4352 0
4353 -4351 4352 0
-4354 135 0
-4354 -4349 0
4354 -135 4349 0
-4355 -135 0
-4355 4349 0
4355 135 -4349 0
-4356 -4354 0
-4356 -4355 0
4356 4354 4355 0
4357 -6825 0
-4357 6825 0
-4358 4356 0
-4358 4357 0
4358 -4356 -4357 0
-4359 4353 0
-4359 -4358 0
4359 -4353 4358 0
-4360 -4356 0
-4360 -4357 0
4360 4356 4357 0
-4361 4359 0
-4361 -4360 0
4361 -4359 4360 0
-4362 136 0
-4362 -4357 0
4362 -136 4357 0
-4363 -136 0
-4363 4357 0
4363 136 -4357 0
-4364 -4362 0
-4364 -4363 0
4364 4362 4363 0
4365 -6826 0
-4365 6826 0
-4366 4364 0
-4366 4365 0
4366 -4364 -4365 0
-4367 4361 0
-4367 -4366 0
4367 -4361 4366 0
-4368 -4364 0
-4368 -4365 0
4368 4364 4365 0
-4369 4367 0
-4369 -4368 0
4369 -4367 4368 0
-4370 -2953 0
-4370 4369 0
4370 2953 -4369 0
-4371 -2955 0
-4371 4370 0
4371 2955 -4370 0
-4372 -2961 0
-4372 4371 0
4372 2961 -4371 0
-4373 -2963 0
-4373 4372 0
4373 2963 -4372 0
-4374 117 0
-4374 -2960 0
4374 -117 2960 0
-4375 -117 0
-4375 2960 0
4375 117 -2960 0
-4376 -4374 0
-4376 -4375 0
4376 4374 4375 0
4377 -6827 0
-4377 6827 0
-4378 4376 0
-4378 4377 0
4378 -4376 -4377 0
-4379 4373 0
-4379 -4378 0
4379 -4373 4378 0
-4380 -4376 0
-4380 -4377 0
4380 4376 4377 0
-4381 4379 0
-4381 -4380 0
4381 -4379 4380 0
-4382 119 0
-4382 -4377 0
4382 -119 4377 0
-4383 -119 0
-4383 4377 0
4383 119 -4377 0
-4384 -4382 0
-4384 -4383 0
4384 4382 4383 0
4385 -6828 0
-4385 6828 0
-4386 4384 0
-4386 4385 0
4386 -4384 -4385 0
-4387 4381 0
-4387 -4386 0
4387 -4381 4386 0
-4388 -4384 0
-4388 -4385 0
4388 4384 4385 0
-4389 4387 0
-4389 -4388 0
4389 -4387 4388 0
-4390 121 0
-4390 -4385 0
4390 -121 4385 0
-4391 -121 0
-4391 4385 0
4391 121 -4385 0
-4392 -4390 0
-4392 -4391 0
4392 4390 4391 0
4393 -6829 0
-4393 6829 0
-4394 4392 0
-4394 4393 0
4394 -4392 -4393 0
-4395 4389 0
-4395 -4394 0
4395 -4389 4394 0
-4396 -4392 0
-4396 -4393 0
4396 4392 4393 0
-4397 4395 0
-4397 -4396 0
4397 -4395 4396 0
-4398 123 0
-4398 -4393 0
4398 -123 4393 0
-4399 -123 0
-4399 4393 0
4399 123 -4393 0
-4400 -4398 0
-4400 -4399 0
4400 4398 4399 0
4401 -6830 0
-4401 6830 0
-4402 4400 0
-4402 4401 0
4402 -4400 -4401 0
-4403 4397 0
-4403 -4402 0
4403 -4397 4402 0
-4404 -4400 0
-4404 -4401 0
4404 4400 4401 0
-4405 4403 0
-4405 -4404 0
4405 -4403 4404 0
-4406 124 0
-4406 -4401 0
4406 -124 4401 0
-4407 -124 0
-4407 4401 0
4407 124 -4401 0
-4408 -4406 0
-4408 -4407 0
4408 4406 4407 0
4409 -6831 0
-4409 6831 0
-4410 4408 0
-4410 4409 0
4410 -4408 -4409 0
-4411 4405 0
-4411 -4410 0
4411 -4405 4410 0
-4412 -4408 0
-4412 -4409 0
4412 4408 4409 0
-4413 4411 0
-4413 -4412 0
4413 -4411 4412 0
-4414 126 0
-4414 -4409 0
4414 -126 4409 0
-4415 -126 0
-4415 4409 0
4415 126 -4409 0
-4416 -4414 0
-4416 -4415 0
4416 4414 4415 0
4417 -6832 0
-4417 6832 0
-4418 4416 0
-4418 4417 0
4418 -4416 -4417 0
-4419 4413 0
-4419 -4418 0
4419 -4413 4418 0
-4420 -4416 0
-4420 -4417 0
4420 4416 4417 0
-4421 4419 0
-4421 -4420 0
4421 -4419 4420 0
-4422 127 0
-4422 -4417 0
4422 -127 4417 0
-4423 -127 0
-4423 4417 0
4423 127 -4417 0
-4424 -4422 0
-4424 -4423 0
4424 4422 4423 0
4425 -6833 0
-4425 6833 0
-4426 4424 0
-4426 4425 0
4426 -4424 -4425 0
-4427 4421 0
-4427 -4426 0
4427 -4421 4426 0
-4428 -4424 0
-4428 -4425 0
4428 4424 4425 0
-4429 4427 0
-4429 -4428 0
4429 -4427 4428 0
-4430 128 0
-4430 -4425 0
4430 -128 4425 0
-4431 -128 0
-4431 4425 0
4431 128 -4425 0
-4432 -4430 0
-4432 -4431 0
4432 4430 4431 0
4433 -6834 0
-4433 6834 0
-4434 4432 0
-4434 4433 0
4434 -4432 -4433 0
-4435 4429 0
-4435 -4434 0
4435 -4429 4434 0
-4436 -4432 0
-4436 -4433 0
4436 4432 4433 0
-4437 4435 0
-4437 -4436 0
4437 -4435 4436 0
-4438 129 0
-4438 -4433 0
4438 -129 4433 0
-4439 -129 0
-4439 4433 0
4439 129 -4433 0
-4440 -4438 0
-4440 -4439 0
4440 4438 4439 0
4441 -6835 0
-4441 6835 0
-4442 4440 0
-4442 4441 0
4442 -4440 -4441 0
-4443 4437 0
-4443 -4442 0
4443 -4437 4442 0
-4444 -4440 0
-4444 -4441 0
4444 4440 4441 0
-4445 4443 0
-4445 -4444 0
4445 -4443 4444 0
-4446 131 0
-4446 -4441 0
4446 -131 4441 0
-4447 -131 0
-4447 4441 0
4447 131 -4441 0
-4448 -4446 0
-4448 -4447 0
4448 4446 4447 0
4449 -6836 0
-4449 6836 0
-4450 4448 0
-4450 4449 0
4450 -4448 -4449 0
-4451 4445 0
-4451 -4450 0
4451 -4445 4450 0
-4452 -4448 0
-4452 -4449 0
4452 4448 4449 0
-4453 4451 0
-4453 -4452 0
4453 -4451 4452 0
-4454 132 0
-4454 -4449 0
4454 -132 4449 0
-4455 -132 0
-4455 4449 0
4455 132 -4449 0
-4456 -4454 0
-4456 -4455 0
4456 4454 4455 0
4457 -6837 0
-4457 6837 0
-4458 4456 0
-4458 4457 0
4458 -4456 -4457 0
-4459 4453 0
-4459 -4458 0
4459 -4453 4458 0
-4460 -4456 0
-4460 -4457 0
4460 4456 4457 0
-4461 4459 0
-4461 -4460 0
4461 -4459 4460 0
-4462 133 0
-4462 -4457 0
4462 -133 4457 0
-4463 -133 0
-4463 4457 0
4463 133 -4457 0
-4464 -4462 0
-4464 -4463 0
4464 4462 4463 0
4465 -6838 0
-4465 6838 0
-4466 4464 0
-4466 4465 0
4466 -4464 -4465 0
-4467 4461 0
-4467 -4466 0
4467 -4461 4466 0
-4468 -4464 0
-4468 -4465 0
4468 4464 4465 0
-4469 4467 0
-4469 -4468 0
4469 -4467 4468 0
-4470 134 0
-4470 -4465 0
4470 -134 4465 0
-4471 -134 0
-4471 4465 0
4471 134 -4465 0
-4472 -4470 0
-4472 -4471 0
4472 4470 4471 0
4473 -6839 0
-4473 6839 0
-4474 4472 0
-4474 4473 0
4474 -4472 -4473 0
-4475 4469 0
-4475 -4474 0
4475 -4469 4474 0
-4476 -4472 0
-4476 -4473 0
4476 4472 4473 0
-4477 4475 0
-4477 -4476 0
4477 -4475 4476 0
-4478 135 0
-4478 -4473 0
4478 -135 4473 0
-4479 -135 0
-4479 4473 0
4479 135 -4473 0
-4480 -4478 0
-4480 -4479 0
4480 4478 4479 0
4481 -6840 0
-4481 6840 0
-4482 4480 0
-4482 4481 0
4482 -4480 -4481 0
-4483 4477 0
-4483 -4482 0
4483 -4477 4482 0
-4484 -4480 0
-4484 -4481 0
4484 4480 4481 0
-4485 4483 0
-4485 -4484 0
4485 -4483 4484 0
-4486 113 0
-4486 -2835 0
4486 -113 2835 0
-4487 -113 0
-4487 2835 0
4487 113 -2835 0
-4488 -4486 0
-4488 -4487 0
4488 4486 4487 0
4489 -6841 0
-4489 6841 0
-4490 4488 0
-4490 4489 0
4490 -4488 -4489 0
-4491 4485 0
-4491 -4490 0
4491 -4485 4490 0
-4492 -4488 0
-4492 -4489 0
4492 4488 4489 0
-4493 4491 0
-4493 -4492 0
4493 -4491 4492 0
-4494 119 0
-4494 -4489 0
4494 -119 4489 0
-4495 -119 0
-4495 4489 0
4495 119 -4489 0
-4496 -4494 0
-4496 -4495 0
4496 4494 4495 0
4497 -6842 0
-4497 6842 0
-4498 4496 0
-4498 4497 0
4498 -4496 -4497 0
-4499 4493 0
-4499 -4498 0
4499 -4493 4498 0
-4500 -4496 0
-4500 -4497 0
4500 4496 4497 0
-4501 4499 0
-4501 -4500 0
4501 -4499 4500 0
-4502 121 0
-4502 -4497 0
4502 -121 4497 0
-4503 -121 0
-4503 4497 0
4503 121 -4497 0
-4504 -4502 0
-4504 -4503 0
4504 4502 4503 0
4505 -6843 0
-4505 6843 0
-4506 4504 0
-4506 4505 0
4506 -4504 -4505 0
-4507 4501 0
-4507 -4506 0
4507 -4501 4506 0
-4508 -4504 0
-4508 -4505 0
4508 4504 4505 0
-4509 4507 0
-4509 -4508 0
4509 -4507 4508 0
-4510 124 0
-4510 -4505 0
4510 -124 4505 0
-4511 -124 0
-4511 4505 0
4511 124 -4505 0
-4512 -4510 0
-4512 -4511 0
4512 4510 4511 0
4513 -6844 0
-4513 6844 0
-4514 4512 0
-4514 4513 0
4514 -4512 -4513 0
-4515 4509 0
-4515 -4514 0
4515 -4509 4514 0
-4516 -4512 0
-4516 -4513 0
4516 4512 4513 0
-4517 4515 0
-4517 -4516 0
4517 -4515 4516 0
-4518 129 0
-4518 -4513 0
4518 -129 4513 0
-4519 -129 0
-4519 4513 0
4519 129 -4513 0
-4520 -4518 0
-4520 -4519 0
4520 4518 4519 0
4521 -6845 0
-4521 6845 0
-4522 4520 0
-4522 4521 0
4522 -4520 -4521 0
-4523 4517 0
-4523 -4522 0
4523 -4517 4522 0
-4524 -4520 0
-4524 -4521 0
4524 4520 4521 0
-4525 4523 0
-4525 -4524 0
4525 -4523 4524 0
-4526 135 0
-4526 -4521 0
4526 -135 4521 0
-4527 -135 0
-4527 4521 0
4527 135 -4521 0
-4528 -4526 0
-4528 -4527 0
4528 4526 4527 0
4529 -6846 0
-4529 6846 0
-4530 4528 0
-4530 4529 0
4530 -4528 -4529 0
-4531 4525 0
-4531 -4530 0
4531 -4525 4530 0
-4532 -4528 0
-4532 -4529 0
4532 4528 4529 0
-4533 4531 0
-4533 -4532 0
4533 -4531 4532 0
-4534 136 0
-4534 -4529 0
4534 -136 4529 0
-4535 -136 0
-4535 4529 0
4535 136 -4529 0
-4536 -4534 0
-4536 -4535 0
4536 4534 4535 0
4537 -6847 0
-4537 6847 0
-4538 4536 0
-4538 4537 0
4538 -4536 -4537 0
-4539 4533 0
-4539 -4538 0
4539 -4533 4538 0
-4540 -4536 0
-4540 -4537 0
4540 4536 4537 0
-4541 4539 0
-4541 -4540 0
4541 -4539 4540 0
-4542 137 0
-4542 -4537 0
4542 -137 4537 0
-4543 -137 0
-4543 4537 0
4543 137 -4537 0
-4544 -4542 0
-4544 -4543 0
4544 4542 4543 0
4545 -6848 0
-4545 6848 0
-4546 4544 0
-4546 4545 0
4546 -4544 -4545 0
-4547 4541 0
-4547 -4546 0
4547 -4541 4546 0
-4548 -4544 0
-4548 -4545 0
4548 4544 4545 0
-4549 4547 0
-4549 -4548 0
4549 -4547 4548 0
-4550 138 0
-4550 -4545 0
4550 -138 4545 0
-4551 -138 0
-4551 4545 0
4551 138 -4545 0
-4552 -4550 0
-4552 -4551 0
4552 4550 4551 0
4553 -6849 0
-4553 6849 0
-4554 4552 0
-4554 4553 0
4554 -4552 -4553 0
-4555 4549 0
-4555 -4554 0
4555 -4549 4554 0
-4556 -4552 0
-4556 -4553 0
4556 4552 4553 0
-4557 4555 0
-4557 -4556 0
4557 -4555 4556 0
-4558 117 0
-4558 -3567 0
4558 -117 3567 0
-4559 -117 0
-4559 3567 0
4559 117 -3567 0
-4560 -4558 0
-4560 -4559 0
4560 4558 4559 0
4561 -6850 0
-4561 6850 0
-4562 4560 0
-4562 4561 0
4562 -4560 -4561 0
-4563 4557 0
-4563 -4562 0
4563 -4557 4562 0
-4564 -4560 0
-4564 -4561 0
4564 4560 4561 0
-4565 4563 0
-4565 -4564 0
4565 -4563 4564 0
-4566 119 0
-4566 -4561 0
4566 -119 4561 0
-4567 -119 0
-4567 4561 0
4567 119 -4561 0
-4568 -4566 0
-4568 -4567 0
4568 4566 4567 0
4569 -6851 0
-4569 6851 0
-4570 4568 0
-4570 4569 0
4570 -4568 -4569 0
-4571 4565 0
-4571 -4570 0
4571 -4565 4570 0
-4572 -4568 0
-4572 -4569 0
4572 4568 4569 0
-4573 4571 0
-4573 -4572 0
4573 -4571 4572 0
-4574 121 0
-4574 -4569 0
4574 -121 4569 0
-4575 -121 0
-4575 4569 0
4575 121 -4569 0
-4576 -4574 0
-4576 -4575 0
4576 4574 4575 0
4577 -6852 0
-4577 6852 0
-4578 4576 0
-4578 4577 0
4578 -4576 -4577 0
-4579 4573 0
-4579 -4578 0
4579 -4573 4578 0
-4580 -4576 0
-4580 -4577 0
4580 4576 4577 0
-4581 4579 0
-4581 -4580 0
4581 -4579 4580 0
-4582 122 0
-4582 -4577 0
4582 -122 4577 0
-4583 -122 0
-4583 4577 0
4583 122 -4577 0
-4584 -4582 0
-4584 -4583 0
4584 4582 4583 0
4585 -6853 0
-4585 6853 0
-4586 4584 0
-4586 4585 0
4586 -4584 -4585 0
-4587 4581 0
-4587 -4586 0
4587 -4581 4586 0
-4588 -4584 0
-4588 -4585 0
4588 4584 4585 0
-4589 4587 0
-4589 -4588 0
4589 -4587 4588 0
-4590 124 0
-4590 -4585 0
4590 -124 4585 0
-4591 -124 0
-4591 4585 0
4591 124 -4585 0
-4592 -4590 0
-4592 -4591 0
4592 4590 4591 0
4593 -6854 0
-4593 6854 0
-4594 4592 0
-4594 4593 0
4594 -4592 -4593 0
-4595 4589 0
-4595 -4594 0
4595 -4589 4594 0
-4596 -4592 0
-4596 -4593 0
4596 4592 4593 0
-4597 4595 0
-4597 -4596 0
4597 -4595 4596 0
-4598 125 0
-4598 -4593 0
4598 -125 4593 0
-4599 -125 0
-4599 4593 0
4599 125 -4593 0
-4600 -4598 0
-4600 -4599 0
4600 4598 4599 0
4601 -6855 0
-4601 6855 0
-4602 4600 0
-4602 4601 0
4602 -4600 -4601 0
-4603 4597 0
-4603 -4602 0
4603 -4597 4602 0
-4604 -4600 0
-4604 -4601 0
4604 4600 4601 0
-4605 4603 0
-4605 -4604 0
4605 -4603 4604 0
-4606 126 0
-4606 -4601 0
4606 -126 4601 0
-4607 -126 0
-4607 4601 0
4607 126 -4601 0
-4608 -4606 0
-4608 -4607 0
4608 4606 4607 0
4609 -6856 0
-4609 6856 0
-4610 4608 0
-4610 4609 0
4610 -4608 -4609 0
-4611 4605 0
-4611 -4610 0
4611 -4605 4610 0
-4612 -4608 0
-4612 -4609 0
4612 4608 4609 0
-4613 4611 0
-4613 -4612 0
4613 -4611 4612 0
-4614 127 0
-4614 -4609 0
4614 -127 4609 0
-4615 -127 0
-4615 4609 0
4615 127 -4609 0
-4616 -4614 0
-4616 -4615 0
4616 4614 4615 0
4617 -6857 0
-4617 6857 0
-4618 4616 0
-4618 4617 0
4618 -4616 -4617 0
-4619 4613 0
-4619 -4618 0
4619 -4613 4618 0
-4620 -4616 0
-4620 -4617 0
4620 4616 4617 0
-4621 4619 0
-4621 -4620 0
4621 -4619 4620 0
-4622 129 0
-4622 -4617 0
4622 -129 4617 0
-4623 -129 0
-4623 4617 0
4623 129 -4617 0
-4624 -4622 0
-4624 -4623 0
4624 4622 4623 0
4625 -6858 0
-4625 6858 0
-4626 4624 0
-4626 4625 0
4626 -4624 -4625 0
-4627 4621 0
-4627 -4626 0
4627 -4621 4626 0
-4628 -4624 0
-4628 -4625 0
4628 4624 4625 0
-4629 4627 0
-4629 -4628 0
4629 -4627 4628 0
-4630 130 0
-4630 -4625 0
4630 -130 4625 0
-4631 -130 0
-4631 4625 0
4631 130 -4625 0
-4632 -4630 0
-4632 -4631 0
4632 4630 4631 0
4633 -6859 0
-4633 6859 0
-4634 4632 0
-4634 4633 0
4634 -4632 -4633 0
-4635 4629 0
-4635 -4634 0
4635 -4629 4634 0
-4636 -4632 0
-4636 -4633 0
4636 4632 4633 0
-4637 4635 0
-4637 -4636 0
4637 -4635 4636 0
-4638 131 0
-4638 -4633 0
4638 -131 4633 0
-4639 -131 0
-4639 4633 0
4639 131 -4633 0
-4640 -4638 0
-4640 -4639 0
4640 4638 4639 0
4641 -6860 0
-4641 6860 0
-4642 4640 0
-4642 4641 0
4642 -4640 -4641 0
-4643 4637 0
-4643 -4642 0
4643 -4637 4642 0
-4644 -4640 0
-4644 -4641 0
4644 4640 4641 0
-4645 4643 0
-4645 -4644 0
4645 -4643 4644 0
-4646 132 0
-4646 -4641 0
4646 -132 4641 0
-4647 -132 0
-4647 4641 0
4647 132 -4641 0
-4648 -4646 0
-4648 -4647 0
4648 4646 4647 0
4649 -6861 0
-4649 6861 0
-4650 4648 0
-4650 4649 0
4650 -4648 -4649 0
-4651 4645 0
-4651 -4650 0
4651 -4645 4650 0
-4652 -4648 0
-4652 -4649 0
4652 4648 4649 0
-4653 4651 0
-4653 -4652 0
4653 -4651 4652 0
-4654 133 0
-4654 -4649 0
4654 -133 4649 0
-4655 -133 0
-4655 4649 0
4655 133 -4649 0
-4656 -4654 0
-4656 -4655 0
4656 4654 4655 0
4657 -6862 0
-4657 6862 0
-4658 4656 0
-4658 4657 0
4658 -4656 -4657 0
-4659 4653 0
-4659 -4658 0
4659 -4653 4658 0
-4660 -4656 0
-4660 -4657 0
4660 4656 4657 0
-4661 4659 0
-4661 -4660 0
4661 -4659 4660 0
-4662 138 0
-4662 -4657 0
4662 -138 4657 0
-4663 -138 0
-4663 4657 0
4663 138 -4657 0
-4664 -4662 0
-4664 -4663 0
4664 4662 4663 0
4665 -6863 0
-4665 6863 0
-4666 4664 0
-4666 4665 0
4666 -4664 -4665 0
-4667 4661 0
-4667 -4666 0
4667 -4661 4666 0
-4668 -4664 0
-4668 -4665 0
4668 4664 4665 0
-4669 4667 0
-4669 -4668 0
4669 -4667 4668 0
-4670 119 0
-4670 -2843 0
4670 -119 2843 0
-4671 -119 0
-4671 2843 0
4671 119 -2843 0
-4672 -4670 0
-4672 -4671 0
4672 4670 4671 0
4673 -6864 0
-4673 6864 0
-4674 4672 0
-4674 4673 0
4674 -4672 -4673 0
-4675 4669 0
-4675 -4674 0
4675 -4669 4674 0
-4676 -4672 0
-4676 -4673 0
4676 4672 4673 0
-4677 4675 0
-4677 -4676 0
4677 -4675 4676 0
-4678 122 0
-4678 -4673 0
4678 -122 4673 0
-4679 -122 0
-4679 4673 0
4679 122 -4673 0
-4680 -4678 0
-4680 -4679 0
4680 4678 4679 0
4681 -6865 0
-4681 6865 0
-4682 4680 0
-4682 4681 0
4682 -4680 -4681 0
-4683 4677 0
-4683 -4682 0
4683 -4677 4682 0
-4684 -4680 0
-4684 -4681 0
4684 4680 4681 0
-4685 4683 0
-4685 -4684 0
4685 -4683 4684 0
-4686 127 0
-4686 -4681 0
4686 -127 4681 0
-4687 -127 0
-4687 4681 0
4687 127 -4681 0
-4688 -4686 0
-4688 -4687 0
4688 4686 4687 0
4689 -6866 0
-4689 6866 0
-4690 4688 0
-4690 4689 0
4690 -4688 -4689 0
-4691 4685 0
-4691 -4690 0
4691 -4685 4690 0
-4692 -4688 0
-4692 -4689 0
4692 4688 4689 0
-4693 4691 0
-4693 -4692 0
4693 -4691 4692 0
-4694 133 0
-4694 -4689 0
4694 -133 4689 0
-4695 -133 0
-4695 4689 0
4695 133 -4689 0
-4696 -4694 0
-4696 -4695 0
4696 4694 4695 0
4697 -6867 0
-4697 6867 0
-4698 4696 0
-4698 4697 0
4698 -4696 -4697 0
-4699 4693 0
-4699 -4698 0
4699 -4693 4698 0
-4700 -4696 0
-4700 -4697 0
4700 4696 4697 0
-4701 4699 0
-4701 -4700 0
4701 -4699 4700 0
-4702 134 0
-4702 -4697 0
4702 -134 4697 0
-4703 -134 0
-4703 4697 0
4703 134 -4697 0
-4704 -4702 0
-4704 -4703 0
4704 4702 4703 0
4705 -6868 0
-4705 6868 0
-4706 4704 0
-4706 4705 0
4706 -4704 -4705 0
-4707 4701 0
-4707 -4706 0
4707 -4701 4706 0
-4708 -4704 0
-4708 -4705 0
4708 4704 4705 0
-4709 4707 0
-4709 -4708 0
4709 -4707 4708 0
-4710 135 0
-4710 -4705 0
4710 -135 4705 0
-4711 -135 0
-4711 4705 0
4711 135 -4705 0
-4712 -4710 0
-4712 -4711 0
4712 4710 4711 0
4713 -6869 0
-4713 6869 0
-4714 4712 0
-4714 4713 0
4714 -4712 -4713 0
-4715 4709 0
-4715 -4714 0
4715 -4709 4714 0
-4716 -4712 0
-4716 -4713 0
4716 4712 4713 0
-4717 4715 0
-4717 -4716 0
4717 -4715 4716 0
-4718 136 0
-4718 -4713 0
4718 -136 4713 0
-4719 -136 0
-4719 4713 0
4719 136 -4713 0
-4720 -4718 0
-4720 -4719 0
4720 4718 4719 0
4721 -6870 0
-4721 6870 0
-4722 4720 0
-4722 4721 0
4722 -4720 -4721 0
-4723 4717 0
-4723 -4722 0
4723 -4717 4722 0
-4724 -4720 0
-4724 -4721 0
4724 4720 4721 0
-4725 4723 0
-4725 -4724 0
4725 -4723 4724 0
-4726 138 0
-4726 -4721 0
4726 -138 4721 0
-4727 -138 0
-4727 4721 0
4727 138 -4721 0
-4728 -4726 0
-4728 -4727 0
4728 4726 4727 0
4729 -6871 0
-4729 6871 0
-4730 4728 0
-4730 4729 0
4730 -4728 -4729 0
-4731 4725 0
-4731 -4730 0
4731 -4725 4730 0
-4732 -4728 0
-4732 -4729 0
4732 4728 4729 0
-4733 4731 0
-4733 -4732 0
4733 -4731 4732 0
-4734 118 0
-4734 -2895 0
4734 -118 2895 0
-4735 -118 0
-4735 2895 0
4735 118 -2895 0
-4736 -4734 0
-4736 -4735 0
4736 4734 4735 0
4737 -6872 0
-4737 6872 0
-4738 4736 0
-4738 4737 0
4738 -4736 -4737 0
-4739 4733 0
-4739 -4738 0
4739 -4733 4738 0
-4740 -4736 0
-4740 -4737 0
4740 4736 4737 0
-4741 4739 0
-4741 -4740 0
4741 -4739 4740 0
-4742 121 0
-4742 -4737 0
4742 -121 4737 0
-4743 -121 0
-4743 4737 0
4743 121 -4737 0
-4744 -4742 0
-4744 -4743 0
4744 4742 4743 0
4745 -6873 0
-4745 6873 0
-4746 4744 0
-4746 4745 0
4746 -4744 -4745 0
-4747 4741 0
-4747 -4746 0
4747 -4741 4746 0
-4748 -4744 0
-4748 -4745 0
4748 4744 4745 0
-4749 4747 0
-4749 -4748 0
4749 -4747 4748 0
-4750 126 0
-4750 -4745 0
4750 -126 4745 0
-4751 -126 0
-4751 4745 0
4751 126 -4745 0
-4752 -4750 0
-4752 -4751 0
4752 4750 4751 0
4753 -6874 0
-4753 6874 0
-4754 4752 0
-4754 4753 0
4754 -4752 -4753 0
-4755 4749 0
-4755 -4754 0
4755 -4749 4754 0
-4756 -4752 0
-4756 -4753 0
4756 4752 4753 0
-4757 4755 0
-4757 -4756 0
4757 -4755 4756 0
-4758 132 0
-4758 -4753 0
4758 -132 4753 0
-4759 -132 0
-4759 4753 0
4759 132 -4753 0
-4760 -4758 0
-4760 -4759 0
4760 4758 4759 0
4761 -6875 0
-4761 6875 0
-4762 4760 0
-4762 4761 0
4762 -4760 -4761 0
-4763 4757 0
-4763 -4762 0
4763 -4757 4762 0
-4764 -4760 0
-4764 -4761 0
4764 4760 4761 0
-4765 4763 0
-4765 -4764 0
4765 -4763 4764 0
-4766 133 0
-4766 -4761 0
4766 -133 4761 0
-4767 -133 0
-4767 4761 0
4767 133 -4761 0
-4768 -4766 0
-4768 -4767 0
4768 4766 4767 0
4769 -6876 0
-4769 6876 0
-4770 4768 0
-4770 4769 0
4770 -4768 -4769 0
-4771 4765 0
-4771 -4770 0
4771 -4765 4770 0
-4772 -4768 0
-4772 -4769 0
4772 4768 4769 0
-4773 4771 0
-4773 -4772 0
4773 -4771 4772 0
-4774 134 0
-4774 -4769 0
4774 -134 4769 0
-4775 -134 0
-4775 4769 0
4775 134 -4769 0
-4776 -4774 0
-4776 -4775 0
4776 4774 4775 0
4777 -6877 0
-4777 6877 0
-4778 4776 0
-4778 4777 0
4778 -4776 -4777 0
-4779 4773 0
-4779 -4778 0
4779 -4773 4778 0
-4780 -4776 0
-4780 -4777 0
4780 4776 4777 0
-4781 4779 0
-4781 -4780 0
4781 -4779 4780 0
-4782 135 0
-4782 -4777 0
4782 -135 4777 0
-4783 -135 0
-4783 4777 0
4783 135 -4777 0
-4784 -4782 0
-4784 -4783 0
4784 4782 4783 0
4785 -6878 0
-4785 6878 0
-4786 4784 0
-4786 4785 0
4786 -4784 -4785 0
-4787 4781 0
-4787 -4786 0
4787 -4781 4786 0
-4788 -4784 0
-4788 -4785 0
4788 4784 4785 0
-4789 4787 0
-4789 -4788 0
4789 -4787 4788 0
-4790 137 0
-4790 -4785 0
4790 -137 4785 0
-4791 -137 0
-4791 4785 0
4791 137 -4785 0
-4792 -4790 0
-4792 -4791 0
4792 4790 4791 0
4793 -6879 0
-4793 6879 0
-4794 4792 0
-4794 4793 0
4794 -4792 -4793 0
-4795 4789 0
-4795 -4794 0
4795 -4789 4794 0
-4796 -4792 0
-4796 -4793 0
4796 4792 4793 0
-4797 4795 0
-4797 -4796 0
4797 -4795 4796 0
-4798 117 0
-4798 -2952 0
4798 -117 2952 0
-4799 -117 0
-4799 2952 0
4799 117 -2952 0
-4800 -4798 0
-4800 -4799 0
4800 4798 4799 0
4801 -6880 0
-4801 6880 0
-4802 4800 0
-4802 4801 0
4802 -4800 -4801 0
-4803 4797 0
-4803 -4802 0
4803 -4797 4802 0
-4804 -4800 0
-4804 -4801 0
4804 4800 4801 0
-4805 4803 0
-4805 -4804 0
4805 -4803 4804 0
-4806 120 0
-4806 -4801 0
4806 -120 4801 0
-4807 -120 0
-4807 4801 0
4807 120 -4801 0
-4808 -4806 0
-4808 -4807 0
4808 4806 4807 0
4809 -6881 0
-4809 6881 0
-4810 4808 0
-4810 4809 0
4810 -4808 -4809 0
-4811 4805 0
-4811 -4810 0
4811 -4805 4810 0
-4812 -4808 0
-4812 -4809 0
4812 4808 4809 0
-4813 4811 0
-4813 -4812 0
4813 -4811 4812 0
-4814 125 0
-4814 -4809 0
4814 -125 4809 0
-4815 -125 0
-4815 4809 0
4815 125 -4809 0
-4816 -4814 0
-4816 -4815 0
4816 4814 4815 0
4817 -6882 0
-4817 6882 0
-4818 4816 0
-4818 4817 0
4818 -4816 -4817 0
-4819 4813 0
-4819 -4818 0
4819 -4813 4818 0
-4820 -4816 0
-4820 -4817 0
4820 4816 4817 0
-4821 4819 0
-4821 -4820 0
4821 -4819 4820 0
-4822 131 0
-4822 -4817 0
4822 -131 4817 0
-4823 -131 0
-4823 4817 0
4823 131 -4817 0
-4824 -4822 0
-4824 -4823 0
4824 4822 4823 0
4825 -6883 0
-4825 6883 0
-4826 4824 0
-4826 4825 0
4826 -4824 -4825 0
-4827 4821 0
-4827 -4826 0
4827 -4821 4826 0
-4828 -4824 0
-4828 -4825 0
4828 4824 4825 0
-4829 4827 0
-4829 -4828 0
4829 -4827 4828 0
-4830 132 0
-4830 -4825 0
4830 -132 4825 0
-4831 -132 0
-4831 4825 0
4831 132 -4825 0
-4832 -4830 0
-4832 -4831 0
4832 4830 4831 0
4833 -6884 0
-4833 6884 0
-4834 4832 0
-4834 4833 0
4834 -4832 -4833 0
-4835 4829 0
-4835 -4834 0
4835 -4829 4834 0
-4836 -4832 0
-4836 -4833 0
4836 4832 4833 0
-4837 4835 0
-4837 -4836 0
4837 -4835 4836 0
-4838 133 0
-4838 -4833 0
4838 -133 4833 0
-4839 -133 0
-4839 4833 0
4839 133 -4833 0
-4840 -4838 0
-4840 -4839 0
4840 4838 4839 0
4841 -6885 0
-4841 6885 0
-4842 4840 0
-4842 4841 0
4842 -4840 -4841 0
-4843 4837 0
-4843 -4842 0
4843 -4837 4842 0
-4844 -4840 0
-4844 -4841 0
4844 4840 4841 0
-4845 4843 0
-4845 -4844 0
4845 -4843 4844 0
-4846 134 0
-4846 -4841 0
4846 -134 4841 0
-4847 -134 0
-4847 4841 0
4847 134 -4841 0
-4848 -4846 0
-4848 -4847 0
4848 4846 4847 0
4849 -6886 0
-4849 6886 0
-4850 4848 0
-4850 4849 0
4850 -4848 -4849 0
-4851 4845 0
-4851 -4850 0
4851 -4845 4850 0
-4852 -4848 0
-4852 -4849 0
4852 4848 4849 0
-4853 4851 0
-4853 -4852 0
4853 -4851 4852 0
-4854 136 0
-4854 -4849 0
4854 -136 4849 0
-4855 -136 0
-4855 4849 0
4855 136 -4849 0
-4856 -4854 0
-4856 -4855 0
4856 4854 4855 0
4857 -6887 0
-4857 6887 0
-4858 4856 0
-4858 4857 0
4858 -4856 -4857 0
-4859 4853 0
-4859 -4858 0
4859 -4853 4858 0
-4860 -4856 0
-4860 -4857 0
4860 4856 4857 0
-4861 4859 0
-4861 -4860 0
4861 -4859 4860 0
-4862 118 0
-4862 -4801 0
4862 -118 4801 0
-4863 -118 0
-4863 4801 0
4863 118 -4801 0
-4864 -4862 0
-4864 -4863 0
4864 4862 4863 0
4865 -6888 0
-4865 6888 0
-4866 4864 0
-4866 4865 0
4866 -4864 -4865 0
-4867 4861 0
-4867 -4866 0
4867 -4861 4866 0
-4868 -4864 0
-4868 -4865 0
4868 4864 4865 0
-4869 4867 0
-4869 -4868 0
4869 -4867 4868 0
-4870 120 0
-4870 -4865 0
4870 -120 4865 0
-4871 -120 0
-4871 4865 0
4871 120 -4865 0
-4872 -4870 0
-4872 -4871 0
4872 4870 4871 0
4873 -6889 0
-4873 6889 0
-4874 4872 0
-4874 4873 0
4874 -4872 -4873 0
-4875 4869 0
-4875 -4874 0
4875 -4869 4874 0
-4876 -4872 0
-4876 -4873 0
4876 4872 4873 0
-4877 4875 0
-4877 -4876 0
4877 -4875 4876 0
-4878 121 0
-4878 -4873 0
4878 -121 4873 0
-4879 -121 0
-4879 4873 0
4879 121 -4873 0
-4880 -4878 0
-4880 -4879 0
4880 4878 4879 0
4881 -6890 0
-4881 6890 0
-4882 4880 0
-4882 4881 0
4882 -4880 -4881 0
-4883 4877 0
-4883 -4882 0
4883 -4877 4882 0
-4884 -4880 0
-4884 -4881 0
4884 4880 4881 0
-4885 4883 0
-4885 -4884 0
4885 -4883 4884 0
-4886 122 0
-4886 -4881 0
4886 -122 4881 0
-4887 -122 0
-4887 4881 0
4887 122 -4881 0
-4888 -4886 0
-4888 -4887 0
4888 4886 4887 0
4889 -6891 0
-4889 6891 0
-4890 4888 0
-4890 4889 0
4890 -4888 -4889 0
-4891 4885 0
-4891 -4890 0
4891 -4885 4890 0
-4892 -4888 0
-4892 -4889 0
4892 4888 4889 0
-4893 4891 0
-4893 -4892 0
4893 -4891 4892 0
-4894 123 0
-4894 -4889 0
4894 -123 4889 0
-4895 -123 0
-4895 4889 0
4895 123 -4889 0
-4896 -4894 0
-4896 -4895 0
4896 4894 4895 0
4897 -6892 0
-4897 6892 0
-4898 4896 0
-4898 4897 0
4898 -4896 -4897 0
-4899 4893 0
-4899 -4898 0
4899 -4893 4898 0
-4900 -4896 0
-4900 -4897 0
4900 4896 4897 0
-4901 4899 0
-4901 -4900 0
4901 -4899 4900 0
-4902 125 0
-4902 -4897 0
4902 -125 4897 0
-4903 -125 0
-4903 4897 0
4903 125 -4897 0
-4904 -4902 0
-4904 -4903 0
4904 4902 4903 0
4905 -6893 0
-4905 6893 0
-4906 4904 0
-4906 4905 0
4906 -4904 -4905 0
-4907 4901 0
-4907 -4906 0
4907 -4901 4906 0
-4908 -4904 0
-4908 -4905 0
4908 4904 4905 0
-4909 4907 0
-4909 -4908 0
4909 -4907 4908 0
-4910 126 0
-4910 -4905 0
4910 -126 4905 0
-4911 -126 0
-4911 4905 0
4911 126 -4905 0
-4912 -4910 0
-4912 -4911 0
4912 4910 4911 0
4913 -6894 0
-4913 6894 0
-4914 4912 0
-4914 4913 0
4914 -4912 -4913 0
-4915 4909 0
-4915 -4914 0
4915 -4909 4914 0
-4916 -4912 0
-4916 -4913 0
4916 4912 4913 0
-4917 4915 0
-4917 -4916 0
4917 -4915 4916 0
-4918 127 0
-4918 -4913 0
4918 -127 4913 0
-4919 -127 0
-4919 4913 0
4919 127 -4913 0
-4920 -4918 0
-4920 -4919 0
4920 4918 4919 0
4921 -6895 0
-4921 6895 0
-4922 4920 0
-4922 4921 0
4922 -4920 -4921 0
-4923 4917 0
-4923 -4922 0
4923 -4917 4922 0
-4924 -4920 0
-4924 -4921 0
4924 4920 4921 0
-4925 4923 0
-4925 -4924 0
4925 -4923 4924 0
-4926 128 0
-4926 -4921 0
4926 -128 4921 0
-4927 -128 0
-4927 4921 0
4927 128 -4921 0
-4928 -4926 0
-4928 -4927 0
4928 4926 4927 0
4929 -6896 0
-4929 6896 0
-4930 4928 0
-4930 4929 0
4930 -4928 -4929 0
-4931 4925 0
-4931 -4930 0
4931 -4925 4930 0
-4932 -4928 0
-4932 -4929 0
4932 4928 4929 0
-4933 4931 0
-4933 -4932 0
4933 -4931 4932 0
-4934 129 0
-4934 -4929 0
4934 -129 4929 0
-4935 -129 0
-4935 4929 0
4935 129 -4929 0
-4936 -4934 0
-4936 -4935 0
4936 4934 4935 0
4937 -6897 0
-4937 6897 0
-4938 4936 0
-4938 4937 0
4938 -4936 -4937 0
-4939 4933 0
-4939 -4938 0
4939 -4933 4938 0
-4940 -4936 0
-4940 -4937 0
4940 4936 4937 0
-4941 4939 0
-4941 -4940 0
4941 -4939 4940 0
-4942 134 0
-4942 -4937 0
4942 -134 4937 0
-4943 -134 0
-4943 4937 0
4943 134 -4937 0
-4944 -4942 0
-4944 -4943 0
4944 4942 4943 0
4945 -6898 0
-4945 6898 0
-4946 4944 0
-4946 4945 0
4946 -4944 -4945 0
-4947 4941 0
-4947 -4946 0
4947 -4941 4946 0
-4948 -4944 0
-4948 -4945 0
4948 4944 4945 0
-4949 4947 0
-4949 -4948 0
4949 -4947 4948 0
-4950 136 0
-4950 -4945 0
4950 -136 4945 0
-4951 -136 0
-4951 4945 0
4951 136 -4945 0
-4952 -4950 0
-4952 -4951 0
4952 4950 4951 0
4953 -6899 0
-4953 6899 0
-4954 4952 0
-4954 4953 0
4954 -4952 -4953 0
-4955 4949 0
-4955 -4954 0
4955 -4949 4954 0
-4956 -4952 0
-4956 -4953 0
4956 4952 4953 0
-4957 4955 0
-4957 -4956 0
4957 -4955 4956 0
-4958 137 0
-4958 -4953 0
4958 -137 4953 0
-4959 -137 0
-4959 4953 0
4959 137 -4953 0
-4960 -4958 0
-4960 -4959 0
4960 4958 4959 0
4961 -6900 0
-4961 6900 0
-4962 4960 0
-4962 4961 0
4962 -4960 -4961 0
-4963 4957 0
-4963 -4962 0
4963 -4957 4962 0
-4964 -4960 0
-4964 -4961 0
4964 4960 4961 0
-4965 4963 0
-4965 -4964 0
4965 -4963 4964 0
-4966 138 0
-4966 -4961 0
4966 -138 4961 0
-4967 -138 0
-4967 4961 0
4967 138 -4961 0
-4968 -4966 0
-4968 -4967 0
4968 4966 4967 0
4969 -6901 0
-4969 6901 0
-4970 4968 0
-4970 4969 0
4970 -4968 -4969 0
-4971 4965 0
-4971 -4970 0
4971 -4965 4970 0
-4972 -4968 0
-4972 -4969 0
4972 4968 4969 0
-4973 4971 0
-4973 -4972 0
4973 -4971 4972 0
-4974 118 0
-4974 -2952 0
4974 -118 2952 0
-4975 -118 0
-4975 2952 0
4975 118 -2952 0
-4976 -4974 0
-4976 -4975 0
4976 4974 4975 0
4977 -6902 0
-4977 6902 0
-4978 4976 0
-4978 4977 0
4978 -4976 -4977 0
-4979 4973 0
-4979 -4978 0
4979 -4973 4978 0
-4980 -4976 0
-4980 -4977 0
4980 4976 4977 0
-4981 4979 0
-4981 -4980 0
4981 -4979 4980 0
-4982 123 0
-4982 -4977 0
4982 -123 4977 0
-4983 -123 0
-4983 4977 0
4983 123 -4977 0
-4984 -4982 0
-4984 -4983 0
4984 4982 4983 0
4985 -6903 0
-4985 6903 0
-4986 4984 0
-4986 4985 0
4986 -4984 -4985 0
-4987 4981 0
-4987 -4986 0
4987 -4981 4986 0
-4988 -4984 0
-4988 -4985 0
4988 4984 4985 0
-4989 4987 0
-4989 -4988 0
4989 -4987 4988 0
-4990 129 0
-4990 -4985 0
4990 -129 4985 0
-4991 -129 0
-4991 4985 0
4991 129 -4985 0
-4992 -4990 0
-4992 -4991 0
4992 4990 4991 0
4993 -6904 0
-4993 6904 0
-4994 4992 0
-4994 4993 0
4994 -4992 -4993 0
-4995 4989 0
-4995 -4994 0
4995 -4989 4994 0
-4996 -4992 0
-4996 -4993 0
4996 4992 4993 0
-4997 4995 0
-4997 -4996 0
4997 -4995 4996 0
-4998 130 0
-4998 -4993 0
4998 -130 4993 0
-4999 -130 0
-4999 4993 0
4999 130 -4993 0
-5000 -4998 0
-5000 -4999 0
5000 4998 4999 0
5001 -6905 0
-5001 6905 0
-5002 5000 0
-5002 5001 0
5002 -5000 -5001 0
-5003 4997 0
-5003 -5002 0
5003 -4997 5002 0
-5004 -5000 0
-5004 -5001 0
5004 5000 5001 0
-5005 5003 0
-5005 -5004 0
5005 -5003 5004 0
-5006 131 0
-5006 -5001 0
5006 -131 5001 0
-5007 -131 0
-5007 5001 0
5007 131 -5001 0
-5008 -5006 0
-5008 -5007 0
5008 5006 5007 0
5009 -6906 0
-5009 6906 0
-5010 5008 0
-5010 5009 0
5010 -5008 -5009 0
-5011 5005 0
-5011 -5010 0
5011 -5005 5010 0
-5012 -5008 0
-5012 -5009 0
5012 5008 5009 0
-5013 5011 0
-5013 -5012 0
5013 -5011 5012 0
-5014 132 0
-5014 -5009 0
5014 -132 5009 0
-5015 -132 0
-5015 5009 0
5015 132 -5009 0
-5016 -5014 0
-5016 -5015 0
5016 5014 5015 0
5017 -6907 0
-5017 6907 0
-5018 5016 0
-5018 5017 0
5018 -5016 -5017 0
-5019 5013 0
-5019 -5018 0
5019 -5013 5018 0
-5020 -5016 0
-5020 -5017 0
5020 5016 5017 0
-5021 5019 0
-5021 -5020 0
5021 -5019 5020 0
-5022 134 0
-5022 -5017 0
5022 -134 5017 0
-5023 -134 0
-5023 5017 0
5023 134 -5017 0
-5024 -5022 0
-5024 -5023 0
5024 5022 5023 0
5025 -6908 0
-5025 6908 0
-5026 5024 0
-5026 5025 0
5026 -5024 -5025 0
-5027 5021 0
-5027 -5026 0
5027 -5021 5026 0
-5028 -5024 0
-5028 -5025 0
5028 5024 5025 0
-5029 5027 0
-5029 -5028 0
5029 -5027 5028 0
-5030 138 0
-5030 -5025 0
5030 -138 5025 0
-5031 -138 0
-5031 5025 0
5031 138 -5025 0
-5032 -5030 0
-5032 -5031 0
5032 5030 5031 0
5033 -6909 0
-5033 6909 0
-5034 5032 0
-5034 5033 0
5034 -5032 -5033 0
-5035 5029 0
-5035 -5034 0
5035 -5029 5034 0
-5036 -5032 0
-5036 -5033 0
5036 5032 5033 0
-5037 5035 0
-5037 -5036 0
5037 -5035 5036 0
-5038 118 0
-5038 -2960 0
5038 -118 2960 0
-5039 -118 0
-5039 2960 0
5039 118 -2960 0
-5040 -5038 0
-5040 -5039 0
5040 5038 5039 0
5041 -6910 0
-5041 6910 0
-5042 5040 0
-5042 5041 0
5042 -5040 -5041 0
-5043 5037 0
-5043 -5042 0
5043 -5037 5042 0
-5044 -5040 0
-5044 -5041 0
5044 5040 5041 0
-5045 5043 0
-5045 -5044 0
5045 -5043 5044 0
-5046 119 0
-5046 -5041 0
5046 -119 5041 0
-5047 -119 0
-5047 5041 0
5047 119 -5041 0
-5048 -5046 0
-5048 -5047 0
5048 5046 5047 0
5049 -6911 0
-5049 6911 0
-5050 5048 0
-5050 5049 0
5050 -5048 -5049 0
-5051 5045 0
-5051 -5050 0
5051 -5045 5050 0
-5052 -5048 0
-5052 -5049 0
5052 5048 5049 0
-5053 5051 0
-5053 -5052 0
5053 -5051 5052 0
-5054 120 0
-5054 -5049 0
5054 -120 5049 0
-5055 -120 0
-5055 5049 0
5055 120 -5049 0
-5056 -5054 0
-5056 -5055 0
5056 5054 5055 0
5057 -6912 0
-5057 6912 0
-5058 5056 0
-5058 5057 0
5058 -5056 -5057 0
-5059 5053 0
-5059 -5058 0
5059 -5053 5058 0
-5060 -5056 0
-5060 -5057 0
5060 5056 5057 0
-5061 5059 0
-5061 -5060 0
5061 -5059 5060 0
-5062 121 0
-5062 -5057 0
5062 -121 5057 0
-5063 -121 0
-5063 5057 0
5063 121 -5057 0
-5064 -5062 0
-5064 -5063 0
5064 5062 5063 0
5065 -6913 0
-5065 6913 0
-5066 5064 0
-5066 5065 0
5066 -5064 -5065 0
-5067 5061 0
-5067 -5066 0
5067 -5061 5066 0
-5068 -5064 0
-5068 -5065 0
5068 5064 5065 0
-5069 5067 0
-5069 -5068 0
5069 -5067 5068 0
-5070 123 0
-5070 -5065 0
5070 -123 5065 0
-5071 -123 0
-5071 5065 0
5071 123 -5065 0
-5072 -5070 0
-5072 -5071 0
5072 5070 5071 0
5073 -6914 0
-5073 6914 0
-5074 5072 0
-5074 5073 0
5074 -5072 -5073 0
-5075 5069 0
-5075 -5074 0
5075 -5069 5074 0
-5076 -5072 0
-5076 -5073 0
5076 5072 5073 0
-5077 5075 0
-5077 -5076 0
5077 -5075 5076 0
-5078 124 0
-5078 -5073 0
5078 -124 5073 0
-5079 -124 0
-5079 5073 0
5079 124 -5073 0
-5080 -5078 0
-5080 -5079 0
5080 5078 5079 0
5081 -6915 0
-5081 6915 0
-5082 5080 0
-5082 5081 0
5082 -5080 -5081 0
-5083 5077 0
-5083 -5082 0
5083 -5077 5082 0
-5084 -5080 0
-5084 -5081 0
5084 5080 5081 0
-5085 5083 0
-5085 -5084 0
5085 -5083 5084 0
-5086 125 0
-5086 -5081 0
5086 -125 5081 0
-5087 -125 0
-5087 5081 0
5087 125 -5081 0
-5088 -5086 0
-5088 -5087 0
5088 5086 5087 0
5089 -6916 0
-5089 6916 0
-5090 5088 0
-5090 5089 0
5090 -5088 -5089 0
-5091 5085 0
-5091 -5090 0
5091 -5085 5090 0
-5092 -5088 0
-5092 -5089 0
5092 5088 5089 0
-5093 5091 0
-5093 -5092 0
5093 -5091 5092 0
-5094 126 0
-5094 -5089 0
5094 -126 5089 0
-5095 -126 0
-5095 5089 0
5095 126 -5089 0
-5096 -5094 0
-5096 -5095 0
5096 5094 5095 0
5097 -6917 0
-5097 6917 0
-5098 5096 0
-5098 5097 0
5098 -5096 -5097 0
-5099 5093 0
-5099 -5098 0
5099 -5093 5098 0
-5100 -5096 0
-5100 -5097 0
5100 5096 5097 0
-5101 5099 0
-5101 -5100 0
5101 -5099 5100 0
-5102 127 0
-5102 -5097 0
5102 -127 5097 0
-5103 -127 0
-5103 5097 0
5103 127 -5097 0
-5104 -5102 0
-5104 -5103 0
5104 5102 5103 0
5105 -6918 0
-5105 6918 0
-5106 5104 0
-5106 5105 0
5106 -5104 -5105 0
-5107 5101 0
-5107 -5106 0
5107 -5101 5106 0
-5108 -5104 0
-5108 -5105 0
5108 5104 5105 0
-5109 5107 0
-5109 -5108 0
5109 -5107 5108 0
-5110 132 0
-5110 -5105 0
5110 -132 5105 0
-5111 -132 0
-5111 5105 0
5111 132 -5105 0
-5112 -5110 0
-5112 -5111 0
5112 5110 5111 0
5113 -6919 0
-5113 6919 0
-5114 5112 0
-5114 5113 0
5114 -5112 -5113 0
-5115 5109 0
-5115 -5114 0
5115 -5109 5114 0
-5116 -5112 0
-5116 -5113 0
5116 5112 5113 0
-5117 5115 0
-5117 -5116 0
5117 -5115 5116 0
-5118 134 0
-5118 -5113 0
5118 -134 5113 0
-5119 -134 0
-5119 5113 0
5119 134 -5113 0
-5120 -5118 0
-5120 -5119 0
5120 5118 5119 0
5121 -6920 0
-5121 6920 0
-5122 5120 0
-5122 5121 0
5122 -5120 -5121 0
-5123 5117 0
-5123 -5122 0
5123 -5117 5122 0
-5124 -5120 0
-5124 -5121 0
5124 5120 5121 0
-5125 5123 0
-5125 -5124 0
5125 -5123 5124 0
-5126 135 0
-5126 -5121 0
5126 -135 5121 0
-5127 -135 0
-5127 5121 0
5127 135 -5121 0
-5128 -5126 0
-5128 -5127 0
5128 5126 5127 0
5129 -6921 0
-5129 6921 0
-5130 5128 0
-5130 5129 0
5130 -5128 -5129 0
-5131 5125 0
-5131 -5130 0
5131 -5125 5130 0
-5132 -5128 0
-5132 -5129 0
5132 5128 5129 0
-5133 5131 0
-5133 -5132 0
5133 -5131 5132 0
-5134 136 0
-5134 -5129 0
5134 -136 5129 0
-5135 -136 0
-5135 5129 0
5135 136 -5129 0
-5136 -5134 0
-5136 -5135 0
5136 5134 5135 0
5137 -6922 0
-5137 6922 0
-5138 5136 0
-5138 5137 0
5138 -5136 -5137 0
-5139 5133 0
-5139 -5138 0
5139 -5133 5138 0
-5140 -5136 0
-5140 -5137 0
5140 5136 5137 0
-5141 5139 0
-5141 -5140 0
5141 -5139 5140 0
-5142 138 0
-5142 -5137 0
5142 -138 5137 0
-5143 -138 0
-5143 5137 0
5143 138 -5137 0
-5144 -5142 0
-5144 -5143 0
5144 5142 5143 0
5145 -6923 0
-5145 6923 0
-5146 5144 0
-5146 5145 0
5146 -5144 -5145 0
-5147 5141 0
-5147 -5146 0
5147 -5141 5146 0
-5148 -5144 0
-5148 -5145 0
5148 5144 5145 0
-5149 5147 0
-5149 -5148 0
5149 -5147 5148 0
-5150 113 0
-5150 -2887 0
5150 -113 2887 0
-5151 -113 0
-5151 2887 0
5151 113 -2887 0
-5152 -5150 0
-5152 -5151 0
5152 5150 5151 0
5153 -6924 0
-5153 6924 0
-5154 5152 0
-5154 5153 0
5154 -5152 -5153 0
-5155 5149 0
-5155 -5154 0
5155 -5149 5154 0
-5156 -5152 0
-5156 -5153 0
5156 5152 5153 0
-5157 5155 0
-5157 -5156 0
5157 -5155 5156 0
-5158 121 0
-5158 -5153 0
5158 -121 5153 0
-5159 -121 0
-5159 5153 0
5159 121 -5153 0
-5160 -5158 0
-5160 -5159 0
5160 5158 5159 0
5161 -6925 0
-5161 6925 0
-5162 5160 0
-5162 5161 0
5162 -5160 -5161 0
-5163 5157 0
-5163 -5162 0
5163 -5157 5162 0
-5164 -5160 0
-5164 -5161 0
5164 5160 5161 0
-5165 5163 0
-5165 -5164 0
5165 -5163 5164 0
-5166 127 0
-5166 -5161 0
5166 -127 5161 0
-5167 -127 0
-5167 5161 0
5167 127 -5161 0
-5168 -5166 0
-5168 -5167 0
5168 5166 5167 0
5169 -6926 0
-5169 6926 0
-5170 5168 0
-5170 5169 0
5170 -5168 -5169 0
-5171 5165 0
-5171 -5170 0
5171 -5165 5170 0
-5172 -5168 0
-5172 -5169 0
5172 5168 5169 0
-5173 5171 0
-5173 -5172 0
5173 -5171 5172 0
-5174 128 0
-5174 -5169 0
5174 -128 5169 0
-5175 -128 0
-5175 5169 0
5175 128 -5169 0
-5176 -5174 0
-5176 -5175 0
5176 5174 5175 0
5177 -6927 0
-5177 6927 0
-5178 5176 0
-5178 5177 0
5178 -5176 -5177 0
-5179 5173 0
-5179 -5178 0
5179 -5173 5178 0
-5180 -5176 0
-5180 -5177 0
5180 5176 5177 0
-5181 5179 0
-5181 -5180 0
5181 -5179 5180 0
-5182 129 0
-5182 -5177 0
5182 -129 5177 0
-5183 -129 0
-5183 5177 0
5183 129 -5177 0
-5184 -5182 0
-5184 -5183 0
5184 5182 5183 0
5185 -6928 0
-5185 6928 0
-5186 5184 0
-5186 5185 0
5186 -5184 -5185 0
-5187 5181 0
-5187 -5186 0
5187 -5181 5186 0
-5188 -5184 0
-5188 -5185 0
5188 5184 5185 0
-5189 5187 0
-5189 -5188 0
5189 -5187 5188 0
-5190 130 0
-5190 -5185 0
5190 -130 5185 0
-5191 -130 0
-5191 5185 0
5191 130 -5185 0
-5192 -5190 0
-5192 -5191 0
5192 5190 5191 0
5193 -6929 0
-5193 6929 0
-5194 5192 0
-5194 5193 0
5194 -5192 -5193 0
-5195 5189 0
-5195 -5194 0
5195 -5189 5194 0
-5196 -5192 0
-5196 -5193 0
5196 5192 5193 0
-5197 5195 0
-5197 -5196 0
5197 -5195 5196 0
-5198 132 0
-5198 -5193 0
5198 -132 5193 0
-5199 -132 0
-5199 5193 0
5199 132 -5193 0
-5200 -5198 0
-5200 -5199 0
5200 5198 5199 0
5201 -6930 0
-5201 6930 0
-5202 5200 0
-5202 5201 0
5202 -5200 -5201 0
-5203 5197 0
-5203 -5202 0
5203 -5197 5202 0
-5204 -5200 0
-5204 -5201 0
5204 5200 5201 0
-5205 5203 0
-5205 -5204 0
5205 -5203 5204 0
-5206 136 0
-5206 -5201 0
5206 -136 5201 0
-5207 -136 0
-5207 5201 0
5207 136 -5201 0
-5208 -5206 0
-5208 -5207 0
5208 5206 5207 0
5209 -6931 0
-5209 6931 0
-5210 5208 0
-5210 5209 0
5210 -5208 -5209 0
-5211 5205 0
-5211 -5210 0
5211 -5205 5210 0
-5212 -5208 0
-5212 -5209 0
5212 5208 5209 0
-5213 5211 0
-5213 -5212 0
5213 -5211 5212 0
-5214 138 0
-5214 -5209 0
5214 -138 5209 0
-5215 -138 0
-5215 5209 0
5215 138 -5209 0
-5216 -5214 0
-5216 -5215 0
5216 5214 5215 0
5217 -6932 0
-5217 6932 0
-5218 5216 0
-5218 5217 0
5218 -5216 -5217 0
-5219 5213 0
-5219 -5218 0
5219 -5213 5218 0
-5220 -5216 0
-5220 -5217 0
5220 5216 5217 0
-5221 5219 0
-5221 -5220 0
5221 -5219 5220 0
-5222 116 0
-5222 -3063 0
5222 -116 3063 0
-5223 -116 0
-5223 3063 0
5223 116 -3063 0
-5224 -5222 0
-5224 -5223 0
5224 5222 5223 0
5225 -6933 0
-5225 6933 0
-5226 5224 0
-5226 5225 0
5226 -5224 -5225 0
-5227 5221 0
-5227 -5226 0
5227 -5221 5226 0
-5228 -5224 0
-5228 -5225 0
5228 5224 5225 0
-5229 5227 0
-5229 -5228 0
5229 -5227 5228 0
-5230 117 0
-5230 -5225 0
5230 -117 5225 0
-5231 -117 0
-5231 5225 0
5231 117 -5225 0
-5232 -5230 0
-5232 -5231 0
5232 5230 5231 0
5233 -6934 0
-5233 6934 0
-5234 5232 0
-5234 5233 0
5234 -5232 -5233 0
-5235 5229 0
-5235 -5234 0
5235 -5229 5234 0
-5236 -5232 0
-5236 -5233 0
5236 5232 5233 0
-5237 5235 0
-5237 -5236 0
5237 -5235 5236 0
-5238 118 0
-5238 -5233 0
5238 -118 5233 0
-5239 -118 0
-5239 5233 0
5239 118 -5233 0
-5240 -5238 0
-5240 -5239 0
5240 5238 5239 0
5241 -6935 0
-5241 6935 0
-5242 5240 0
-5242 5241 0
5242 -5240 -5241 0
-5243 5237 0
-5243 -5242 0
5243 -5237 5242 0
-5244 -5240 0
-5244 -5241 0
5244 5240 5241 0
-5245 5243 0
-5245 -5244 0
5245 -5243 5244 0
-5246 119 0
-5246 -5241 0
5246 -119 5241 0
-5247 -119 0
-5247 5241 0
5247 119 -5241 0
-5248 -5246 0
-5248 -5247 0
5248 5246 5247 0
5249 -6936 0
-5249 6936 0
-5250 5248 0
-5250 5249 0
5250 -5248 -5249 0
-5251 5245 0
-5251 -5250 0
5251 -5245 5250 0
-5252 -5248 0
-5252 -5249 0
5252 5248 5249 0
-5253 5251 0
-5253 -5252 0
5253 -5251 5252 0
-5254 121 0
-5254 -5249 0
5254 -121 5249 0
-5255 -121 0
-5255 5249 0
5255 121 -5249 0
-5256 -5254 0
-5256 -5255 0
5256 5254 5255 0
5257 -6937 0
-5257 6937 0
-5258 5256 0
-5258 5257 0
5258 -5256 -5257 0
-5259 5253 0
-5259 -5258 0
5259 -5253 5258 0
-5260 -5256 0
-5260 -5257 0
5260 5256 5257 0
-5261 5259 0
-5261 -5260 0
5261 -5259 5260 0
-5262 122 0
-5262 -5257 0
5262 -122 5257 0
-5263 -122 0
-5263 5257 0
5263 122 -5257 0
-5264 -5262 0
-5264 -5263 0
5264 5262 5263 0
5265 -6938 0
-5265 6938 0
-5266 5264 0
-5266 5265 0
5266 -5264 -5265 0
-5267 5261 0
-5267 -5266 0
5267 -5261 5266 0
-5268 -5264 0
-5268 -5265 0
5268 5264 5265 0
-5269 5267 0
-5269 -5268 0
5269 -5267 5268 0
-5270 123 0
-5270 -5265 0
5270 -123 5265 0
-5271 -123 0
-5271 5265 0
5271 123 -5265 0
-5272 -5270 0
-5272 -5271 0
5272 5270 5271 0
5273 -6939 0
-5273 6939 0
-5274 5272 0
-5274 5273 0
5274 -5272 -5273 0
-5275 5269 0
-5275 -5274 0
5275 -5269 5274 0
-5276 -5272 0
-5276 -5273 0
5276 5272 5273 0
-5277 5275 0
-5277 -5276 0
5277 -5275 5276 0
-5278 124 0
-5278 -5273 0
5278 -124 5273 0
-5279 -124 0
-5279 5273 0
5279 124 -5273 0
-5280 -5278 0
-5280 -5279 0
5280 5278 5279 0
5281 -6940 0
-5281 6940 0
-5282 5280 0
-5282 5281 0
5282 -5280 -5281 0
-5283 5277 0
-5283 -5282 0
5283 -5277 5282 0
-5284 -5280 0
-5284 -5281 0
5284 5280 5281 0
-5285 5283 0
-5285 -5284 0
5285 -5283 5284 0
-5286 125 0
-5286 -5281 0
5286 -125 5281 0
-5287 -125 0
-5287 5281 0
5287 125 -5281 0
-5288 -5286 0
-5288 -5287 0
5288 5286 5287 0
5289 -6941 0
-5289 6941 0
-5290 5288 0
-5290 5289 0
5290 -5288 -5289 0
-5291 5285 0
-5291 -5290 0
5291 -5285 5290 0
-5292 -5288 0
-5292 -5289 0
5292 5288 5289 0
-5293 5291 0
-5293 -5292 0
5293 -5291 5292 0
-5294 130 0
-5294 -5289 0
5294 -130 5289 0
-5295 -130 0
-5295 5289 0
5295 130 -5289 0
-5296 -5294 0
-5296 -5295 0
5296 5294 5295 0
5297 -6942 0
-5297 6942 0
-5298 5296 0
-5298 5297 0
5298 -5296 -5297 0
-5299 5293 0
-5299 -5298 0
5299 -5293 5298 0
-5300 -5296 0
-5300 -5297 0
5300 5296 5297 0
-5301 5299 0
-5301 -5300 0
5301 -5299 5300 0
-5302 132 0
-5302 -5297 0
5302 -132 5297 0
-5303 -132 0
-5303 5297 0
5303 132 -5297 0
-5304 -5302 0
-5304 -5303 0
5304 5302 5303 0
5305 -6943 0
-5305 6943 0
-5306 5304 0
-5306 5305 0
5306 -5304 -5305 0
-5307 5301 0
-5307 -5306 0
5307 -5301 5306 0
-5308 -5304 0
-5308 -5305 0
5308 5304 5305 0
-5309 5307 0
-5309 -5308 0
5309 -5307 5308 0
-5310 133 0
-5310 -5305 0
5310 -133 5305 0
-5311 -133 0
-5311 5305 0
5311 133 -5305 0
-5312 -5310 0
-5312 -5311 0
5312 5310 5311 0
5313 -6944 0
-5313 6944 0
-5314 5312 0
-5314 5313 0
5314 -5312 -5313 0
-5315 5309 0
-5315 -5314 0
5315 -5309 5314 0
-5316 -5312 0
-5316 -5313 0
5316 5312 5313 0
-5317 5315 0
-5317 -5316 0
5317 -5315 5316 0
-5318 134 0
-5318 -5313 0
5318 -134 5313 0
-5319 -134 0
-5319 5313 0
5319 134 -5313 0
-5320 -5318 0
-5320 -5319 0
5320 5318 5319 0
5321 -6945 0
-5321 6945 0
-5322 5320 0
-5322 5321 0
5322 -5320 -5321 0
-5323 5317 0
-5323 -5322 0
5323 -5317 5322 0
-5324 -5320 0
-5324 -5321 0
5324 5320 5321 0
-5325 5323 0
-5325 -5324 0
5325 -5323 5324 0
-5326 136 0
-5326 -5321 0
5326 -136 5321 0
-5327 -136 0
-5327 5321 0
5327 136 -5321 0
-5328 -5326 0
-5328 -5327 0
5328 5326 5327 0
5329 -6946 0
-5329 6946 0
-5330 5328 0
-5330 5329 0
5330 -5328 -5329 0
-5331 5325 0
-5331 -5330 0
5331 -5325 5330 0
-5332 -5328 0
-5332 -5329 0
5332 5328 5329 0
-5333 5331 0
-5333 -5332 0
5333 -5331 5332 0
-5334 138 0
-5334 -5329 0
5334 -138 5329 0
-5335 -138 0
-5335 5329 0
5335 138 -5329 0
-5336 -5334 0
-5336 -5335 0
5336 5334 5335 0
5337 -6947 0
-5337 6947 0
-5338 5336 0
-5338 5337 0
5338 -5336 -5337 0
-5339 5333 0
-5339 -5338 0
5339 -5333 5338 0
-5340 -5336 0
-5340 -5337 0
5340 5336 5337 0
-5341 5339 0
-5341 -5340 0
5341 -5339 5340 0
-5342 -2624 0
-5342 5341 0
5342 2624 -5341 0
-5343 -2626 0
-5343 5342 0
5343 2626 -5342 0
-5344 -2632 0
-5344 5343 0
5344 2632 -5343 0
-5345 -2634 0
-5345 5344 0
5345 2634 -5344 0
-5346 125 0
-5346 -2631 0
5346 -125 2631 0
-5347 -125 0
-5347 2631 0
5347 125 -2631 0
-5348 -5346 0
-5348 -5347 0
5348 5346 5347 0
5349 -6948 0
-5349 6948 0
-5350 5348 0
-5350 5349 0
5350 -5348 -5349 0
-5351 5345 0
-5351 -5350 0
5351 -5345 5350 0
-5352 -5348 0
-5352 -5349 0
5352 5348 5349 0
-5353 5351 0
-5353 -5352 0
5353 -5351 5352 0
-5354 126 0
-5354 -5349 0
5354 -126 5349 0
-5355 -126 0
-5355 5349 0
5355 126 -5349 0
-5356 -5354 0
-5356 -5355 0
5356 5354 5355 0
5357 -6949 0
-5357 6949 0
-5358 5356 0
-5358 5357 0
5358 -5356 -5357 0
-5359 5353 0
-5359 -5358 0
5359 -5353 5358 0
-5360 -5356 0
-5360 -5357 0
5360 5356 5357 0
-5361 5359 0
-5361 -5360 0
5361 -5359 5360 0
-5362 127 0
-5362 -5357 0
5362 -127 5357 0
-5363 -127 0
-5363 5357 0
5363 127 -5357 0
-5364 -5362 0
-5364 -5363 0
5364 5362 5363 0
5365 -6950 0
-5365 6950 0
-5366 5364 0
-5366 5365 0
5366 -5364 -5365 0
-5367 5361 0
-5367 -5366 0
5367 -5361 5366 0
-5368 -5364 0
-5368 -5365 0
5368 5364 5365 0
-5369 5367 0
-5369 -5368 0
5369 -5367 5368 0
-5370 128 0
-5370 -5365 0
5370 -128 5365 0
-5371 -128 0
-5371 5365 0
5371 128 -5365 0
-5372 -5370 0
-5372 -5371 0
5372 5370 5371 0
5373 -6951 0
-5373 6951 0
-5374 5372 0
-5374 5373 0
5374 -5372 -5373 0
-5375 5369 0
-5375 -5374 0
5375 -5369 5374 0
-5376 -5372 0
-5376 -5373 0
5376 5372 5373 0
-5377 5375 0
-5377 -5376 0
5377 -5375 5376 0
-5378 130 0
-5378 -5373 0
5378 -130 5373 0
-5379 -130 0
-5379 5373 0
5379 130 -5373 0
-5380 -5378 0
-5380 -5379 0
5380 5378 5379 0
5381 -6952 0
-5381 6952 0
-5382 5380 0
-5382 5381 0
5382 -5380 -5381 0
-5383 5377 0
-5383 -5382 0
5383 -5377 5382 0
-5384 -5380 0
-5384 -5381 0
5384 5380 5381 0
-5385 5383 0
-5385 -5384 0
5385 -5383 5384 0
-5386 134 0
-5386 -5381 0
5386 -134 5381 0
-5387 -134 0
-5387 5381 0
5387 134 -5381 0
-5388 -5386 0
-5388 -5387 0
5388 5386 5387 0
5389 -6953 0
-5389 6953 0
-5390 5388 0
-5390 5389 0
5390 -5388 -5389 0
-5391 5385 0
-5391 -5390 0
5391 -5385 5390 0
-5392 -5388 0
-5392 -5389 0
5392 5388 5389 0
-5393 5391 0
-5393 -5392 0
5393 -5391 5392 0
-5394 136 0
-5394 -5389 0
5394 -136 5389 0
-5395 -136 0
-5395 5389 0
5395 136 -5389 0
-5396 -5394 0
-5396 -5395 0
5396 5394 5395 0
5397 -6954 0
-5397 6954 0
-5398 5396 0
-5398 5397 0
5398 -5396 -5397 0
-5399 5393 0
-5399 -5398 0
5399 -5393 5398 0
-5400 -5396 0
-5400 -5397 0
5400 5396 5397 0
-5401 5399 0
-5401 -5400 0
5401 -5399 5400 0
-5402 138 0
-5402 -5397 0
5402 -138 5397 0
-5403 -138 0
-5403 5397 0
5403 138 -5397 0
-5404 -5402 0
-5404 -5403 0
5404 5402 5403 0
5405 -6955 0
-5405 6955 0
-5406 5404 0
-5406 5405 0
5406 -5404 -5405 0
-5407 5401 0
-5407 -5406 0
5407 -5401 5406 0
-5408 -5404 0
-5408 -5405 0
5408 5404 5405 0
-5409 5407 0
-5409 -5408 0
5409 -5407 5408 0
-5410 -2689 0
-5410 5409 0
5410 2689 -5409 0
-5411 -2691 0
-5411 5410 0
5411 2691 -5410 0
-5412 124 0
-5412 -2688 0
5412 -124 2688 0
-5413 -124 0
-5413 2688 0
5413 124 -2688 0
-5414 -5412 0
-5414 -5413 0
5414 5412 5413 0
5415 -6956 0
-5415 6956 0
-5416 5414 0
-5416 5415 0
5416 -5414 -5415 0
-5417 5411 0
-5417 -5416 0
5417 -5411 5416 0
-5418 -5414 0
-5418 -5415 0
5418 5414 5415 0
-5419 5417 0
-5419 -5418 0
5419 -5417 5418 0
-5420 125 0
-5420 -5415 0
5420 -125 5415 0
-5421 -125 0
-5421 5415 0
5421 125 -5415 0
-5422 -5420 0
-5422 -5421 0
5422 5420 5421 0
5423 -6957 0
-5423 6957 0
-5424 5422 0
-5424 5423 0
5424 -5422 -5423 0
-5425 5419 0
-5425 -5424 0
5425 -5419 5424 0
-5426 -5422 0
-5426 -5423 0
5426 5422 5423 0
-5427 5425 0
-5427 -5426 0
5427 -5425 5426 0
-5428 126 0
-5428 -5423 0
5428 -126 5423 0
-5429 -126 0
-5429 5423 0
5429 126 -5423 0
-5430 -5428 0
-5430 -5429 0
5430 5428 5429 0
5431 -6958 0
-5431 6958 0
-5432 5430 0
-5432 5431 0
5432 -5430 -5431 0
-5433 5427 0
-5433 -5432 0
5433 -5427 5432 0
-5434 -5430 0
-5434 -5431 0
5434 5430 5431 0
-5435 5433 0
-5435 -5434 0
5435 -5433 5434 0
-5436 127 0
-5436 -5431 0
5436 -127 5431 0
-5437 -127 0
-5437 5431 0
5437 127 -5431 0
-5438 -5436 0
-5438 -5437 0
5438 5436 5437 0
5439 -6959 0
-5439 6959 0
-5440 5438 0
-5440 5439 0
5440 -5438 -5439 0
-5441 5435 0
-5441 -5440 0
5441 -5435 5440 0
-5442 -5438 0
-5442 -5439 0
5442 5438 5439 0
-5443 5441 0
-5443 -5442 0
5443 -5441 5442 0
-5444 129 0
-5444 -5439 0
5444 -129 5439 0
-5445 -129 0
-5445 5439 0
5445 129 -5439 0
-5446 -5444 0
-5446 -5445 0
5446 5444 5445 0
5447 -6960 0
-5447 6960 0
-5448 5446 0
-5448 5447 0
5448 -5446 -5447 0
-5449 5443 0
-5449 -5448 0
5449 -5443 5448 0
-5450 -5446 0
-5450 -5447 0
5450 5446 5447 0
-5451 5449 0
-5451 -5450 0
5451 -5449 5450 0
-5452 133 0
-5452 -5447 0
5452 -133 5447 0
-5453 -133 0
-5453 5447 0
5453 133 -5447 0
-5454 -5452 0
-5454 -5453 0
5454 5452 5453 0
5455 -6961 0
-5455 6961 0
-5456 5454 0
-5456 5455 0
5456 -5454 -5455 0
-5457 5451 0
-5457 -5456 0
5457 -5451 5456 0
-5458 -5454 0
-5458 -5455 0
5458 5454 5455 0
-5459 5457 0
-5459 -5458 0
5459 -5457 5458 0
-5460 135 0
-5460 -5455 0
5460 -135 5455 0
-5461 -135 0
-5461 5455 0
5461 135 -5455 0
-5462 -5460 0
-5462 -5461 0
5462 5460 5461 0
5463 -6962 0
-5463 6962 0
-5464 5462 0
-5464 5463 0
5464 -5462 -5463 0
-5465 5459 0
-5465 -5464 0
5465 -5459 5464 0
-5466 -5462 0
-5466 -5463 0
5466 5462 5463 0
-5467 5465 0
-5467 -5466 0
5467 -5465 5466 0
-5468 137 0
-5468 -5463 0
5468 -137 5463 0
-5469 -137 0
-5469 5463 0
5469 137 -5463 0
-5470 -5468 0
-5470 -5469 0
5470 5468 5469 0
5471 -6963 0
-5471 6963 0
-5472 5470 0
-5472 5471 0
5472 -5470 -5471 0
-5473 5467 0
-5473 -5472 0
5473 -5467 5472 0
-5474 -5470 0
-5474 -5471 0
5474 5470 5471 0
-5475 5473 0
-5475 -5474 0
5475 -5473 5474 0
-5476 119 0
-5476 -3977 0
5476 -119 3977 0
-5477 -119 0
-5477 3977 0
5477 119 -3977 0
-5478 -5476 0
-5478 -5477 0
5478 5476 5477 0
5479 -6964 0
-5479 6964 0
-5480 5478 0
-5480 5479 0
5480 -5478 -5479 0
-5481 5475 0
-5481 -5480 0
5481 -5475 5480 0
-5482 -5478 0
-5482 -5479 0
5482 5478 5479 0
-5483 5481 0
-5483 -5482 0
5483 -5481 5482 0
-5484 120 0
-5484 -5479 0
5484 -120 5479 0
-5485 -120 0
-5485 5479 0
5485 120 -5479 0
-5486 -5484 0
-5486 -5485 0
5486 5484 5485 0
5487 -6965 0
-5487 6965 0
-5488 5486 0
-5488 5487 0
5488 -5486 -5487 0
-5489 5483 0
-5489 -5488 0
5489 -5483 5488 0
-5490 -5486 0
-5490 -5487 0
5490 5486 5487 0
-5491 5489 0
-5491 -5490 0
5491 -5489 5490 0
-5492 121 0
-5492 -5487 0
5492 -121 5487 0
-5493 -121 0
-5493 5487 0
5493 121 -5487 0
-5494 -5492 0
-5494 -5493 0
5494 5492 5493 0
5495 -6966 0
-5495 6966 0
-5496 5494 0
-5496 5495 0
5496 -5494 -5495 0
-5497 5491 0
-5497 -5496 0
5497 -5491 5496 0
-5498 -5494 0
-5498 -5495 0
5498 5494 5495 0
-5499 5497 0
-5499 -5498 0
5499 -5497 5498 0
-5500 122 0
-5500 -5495 0
5500 -122 5495 0
-5501 -122 0
-5501 5495 0
5501 122 -5495 0
-5502 -5500 0
-5502 -5501 0
5502 5500 5501 0
5503 -6967 0
-5503 6967 0
-5504 5502 0
-5504 5503 0
5504 -5502 -5503 0
-5505 5499 0
-5505 -5504 0
5505 -5499 5504 0
-5506 -5502 0
-5506 -5503 0
5506 5502 5503 0
-5507 5505 0
-5507 -5506 0
5507 -5505 5506 0
-5508 127 0
-5508 -5503 0
5508 -127 5503 0
-5509 -127 0
-5509 5503 0
5509 127 -5503 0
-5510 -5508 0
-5510 -5509 0
5510 5508 5509 0
5511 -6968 0
-5511 6968 0
-5512 5510 0
-5512 5511 0
5512 -5510 -5511 0
-5513 5507 0
-5513 -5512 0
5513 -5507 5512 0
-5514 -5510 0
-5514 -5511 0
5514 5510 5511 0
-5515 5513 0
-5515 -5514 0
5515 -5513 5514 0
-5516 129 0
-5516 -5511 0
5516 -129 5511 0
-5517 -129 0
-5517 5511 0
5517 129 -5511 0
-5518 -5516 0
-5518 -5517 0
5518 5516 5517 0
5519 -6969 0
-5519 6969 0
-5520 5518 0
-5520 5519 0
5520 -5518 -5519 0
-5521 5515 0
-5521 -5520 0
5521 -5515 5520 0
-5522 -5518 0
-5522 -5519 0
5522 5518 5519 0
-5523 5521 0
-5523 -5522 0
5523 -5521 5522 0
-5524 130 0
-5524 -5519 0
5524 -130 5519 0
-5525 -130 0
-5525 5519 0
5525 130 -5519 0
-5526 -5524 0
-5526 -5525 0
5526 5524 5525 0
5527 -6970 0
-5527 6970 0
-5528 5526 0
-5528 5527 0
5528 -5526 -5527 0
-5529 5523 0
-5529 -5528 0
5529 -5523 5528 0
-5530 -5526 0
-5530 -5527 0
5530 5526 5527 0
-5531 5529 0
-5531 -5530 0
5531 -5529 5530 0
-5532 131 0
-5532 -5527 0
5532 -131 5527 0
-5533 -131 0
-5533 5527 0
5533 131 -5527 0
-5534 -5532 0
-5534 -5533 0
5534 5532 5533 0
5535 -6971 0
-5535 6971 0
-5536 5534 0
-5536 5535 0
5536 -5534 -5535 0
-5537 5531 0
-5537 -5536 0
5537 -5531 5536 0
-5538 -5534 0
-5538 -5535 0
5538 5534 5535 0
-5539 5537 0
-5539 -5538 0
5539 -5537 5538 0
-5540 133 0
-5540 -5535 0
5540 -133 5535 0
-5541 -133 0
-5541 5535 0
5541 133 -5535 0
-5542 -5540 0
-5542 -5541 0
5542 5540 5541 0
5543 -6972 0
-5543 6972 0
-5544 5542 0
-5544 5543 0
5544 -5542 -5543 0
-5545 5539 0
-5545 -5544 0
5545 -5539 5544 0
-5546 -5542 0
-5546 -5543 0
5546 5542 5543 0
-5547 5545 0
-5547 -5546 0
5547 -5545 5546 0
-5548 135 0
-5548 -5543 0
5548 -135 5543 0
-5549 -135 0
-5549 5543 0
5549 135 -5543 0
-5550 -5548 0
-5550 -5549 0
5550 5548 5549 0
5551 -6973 0
-5551 6973 0
-5552 5550 0
-5552 5551 0
5552 -5550 -5551 0
-5553 5547 0
-5553 -5552 0
5553 -5547 5552 0
-5554 -5550 0
-5554 -5551 0
5554 5550 5551 0
-5555 5553 0
-5555 -5554 0
5555 -5553 5554 0
-5556 137 0
-5556 -5551 0
5556 -137 5551 0
-5557 -137 0
-5557 5551 0
5557 137 -5551 0
-5558 -5556 0
-5558 -5557 0
5558 5556 5557 0
5559 -6974 0
-5559 6974 0
-5560 5558 0
-5560 5559 0
5560 -5558 -5559 0
-5561 5555 0
-5561 -5560 0
5561 -5555 5560 0
-5562 -5558 0
-5562 -5559 0
5562 5558 5559 0
-5563 5561 0
-5563 -5562 0
5563 -5561 5562 0
-5564 138 0
-5564 -5559 0
5564 -138 5559 0
-5565 -138 0
-5565 5559 0
5565 138 -5559 0
-5566 -5564 0
-5566 -5565 0
5566 5564 5565 0
5567 -6975 0
-5567 6975 0
-5568 5566 0
-5568 5567 0
5568 -5566 -5567 0
-5569 5563 0
-5569 -5568 0
5569 -5563 5568 0
-5570 -5566 0
-5570 -5567 0
5570 5566 5567 0
-5571 5569 0
-5571 -5570 0
5571 -5569 5570 0
-5572 -2453 0
-5572 5571 0
5572 2453 -5571 0
-5573 -2455 0
-5573 5572 0
5573 2455 -5572 0
-5574 116 0
-5574 -2452 0
5574 -116 2452 0
-5575 -116 0
-5575 2452 0
5575 116 -2452 0
-5576 -5574 0
-5576 -5575 0
5576 5574 5575 0
5577 -6976 0
-5577 6976 0
-5578 5576 0
-5578 5577 0
5578 -5576 -5577 0
-5579 5573 0
-5579 -5578 0
5579 -5573 5578 0
-5580 -5576 0
-5580 -5577 0
5580 5576 5577 0
-5581 5579 0
-5581 -5580 0
5581 -5579 5580 0
-5582 123 0
-5582 -5577 0
5582 -123 5577 0
-5583 -123 0
-5583 5577 0
5583 123 -5577 0
-5584 -5582 0
-5584 -5583 0
5584 5582 5583 0
5585 -6977 0
-5585 6977 0
-5586 5584 0
-5586 5585 0
5586 -5584 -5585 0
-5587 5581 0
-5587 -5586 0
5587 -5581 5586 0
-5588 -5584 0
-5588 -5585 0
5588 5584 5585 0
-5589 5587 0
-5589 -5588 0
5589 -5587 5588 0
-5590 124 0
-5590 -5585 0
5590 -124 5585 0
-5591 -124 0
-5591 5585 0
5591 124 -5585 0
-5592 -5590 0
-5592 -5591 0
5592 5590 5591 0
5593 -6978 0
-5593 6978 0
-5594 5592 0
-5594 5593 0
5594 -5592 -5593 0
-5595 5589 0
-5595 -5594 0
5595 -5589 5594 0
-5596 -5592 0
-5596 -5593 0
5596 5592 5593 0
-5597 5595 0
-5597 -5596 0
5597 -5595 5596 0
-5598 125 0
-5598 -5593 0
5598 -125 5593 0
-5599 -125 0
-5599 5593 0
5599 125 -5593 0
-5600 -5598 0
-5600 -5599 0
5600 5598 5599 0
5601 -6979 0
-5601 6979 0
-5602 5600 0
-5602 5601 0
5602 -5600 -5601 0
-5603 5597 0
-5603 -5602 0
5603 -5597 5602 0
-5604 -5600 0
-5604 -5601 0
5604 5600 5601 0
-5605 5603 0
-5605 -5604 0
5605 -5603 5604 0
-5606 127 0
-5606 -5601 0
5606 -127 5601 0
-5607 -127 0
-5607 5601 0
5607 127 -5601 0
-5608 -5606 0
-5608 -5607 0
5608 5606 5607 0
5609 -6980 0
-5609 6980 0
-5610 5608 0
-5610 5609 0
5610 -5608 -5609 0
-5611 5605 0
-5611 -5610 0
5611 -5605 5610 0
-5612 -5608 0
-5612 -5609 0
5612 5608 5609 0
-5613 5611 0
-5613 -5612 0
5613 -5611 5612 0
-5614 131 0
-5614 -5609 0
5614 -131 5609 0
-5615 -131 0
-5615 5609 0
5615 131 -5609 0
-5616 -5614 0
-5616 -5615 0
5616 5614 5615 0
5617 -6981 0
-5617 6981 0
-5618 5616 0
-5618 5617 0
5618 -5616 -5617 0
-5619 5613 0
-5619 -5618 0
5619 -5613 5618 0
-5620 -5616 0
-5620 -5617 0
5620 5616 5617 0
-5621 5619 0
-5621 -5620 0
5621 -5619 5620 0
-5622 133 0
-5622 -5617 0
5622 -133 5617 0
-5623 -133 0
-5623 5617 0
5623 133 -5617 0
-5624 -5622 0
-5624 -5623 0
5624 5622 5623 0
5625 -6982 0
-5625 6982 0
-5626 5624 0
-5626 5625 0
5626 -5624 -5625 0
-5627 5621 0
-5627 -5626 0
5627 -5621 5626 0
-5628 -5624 0
-5628 -5625 0
5628 5624 5625 0
-5629 5627 0
-5629 -5628 0
5629 -5627 5628 0
-5630 135 0
-5630 -5625 0
5630 -135 5625 0
-5631 -135 0
-5631 5625 0
5631 135 -5625 0
-5632 -5630 0
-5632 -5631 0
5632 5630 5631 0
5633 -6983 0
-5633 6983 0
-5634 5632 0
-5634 5633 0
5634 -5632 -5633 0
-5635 5629 0
-5635 -5634 0
5635 -5629 5634 0
-5636 -5632 0
-5636 -5633 0
5636 5632 5633 0
-5637 5635 0
-5637 -5636 0
5637 -5635 5636 0
-5638 138 0
-5638 -5633 0
5638 -138 5633 0
-5639 -138 0
-5639 5633 0
5639 138 -5633 0
-5640 -5638 0
-5640 -5639 0
5640 5638 5639 0
5641 -6984 0
-5641 6984 0
-5642 5640 0
-5642 5641 0
5642 -5640 -5641 0
-5643 5637 0
-5643 -5642 0
5643 -5637 5642 0
-5644 -5640 0
-5644 -5641 0
5644 5640 5641 0
-5645 5643 0
-5645 -5644 0
5645 -5643 5644 0
-5646 -2510 0
-5646 5645 0
5646 2510 -5645 0
-5647 -2512 0
-5647 5646 0
5647 2512 -5646 0
-5648 115 0
-5648 -2509 0
5648 -115 2509 0
-5649 -115 0
-5649 2509 0
5649 115 -2509 0
-5650 -5648 0
-5650 -5649 0
5650 5648 5649 0
5651 -6985 0
-5651 6985 0
-5652 5650 0
-5652 5651 0
5652 -5650 -5651 0
-5653 5647 0
-5653 -5652 0
5653 -5647 5652 0
-5654 -5650 0
-5654 -5651 0
5654 5650 5651 0
-5655 5653 0
-5655 -5654 0
5655 -5653 5654 0
-5656 122 0
-5656 -5651 0
5656 -122 5651 0
-5657 -122 0
-5657 5651 0
5657 122 -5651 0
-5658 -5656 0
-5658 -5657 0
5658 5656 5657 0
5659 -6986 0
-5659 6986 0
-5660 5658 0
-5660 5659 0
5660 -5658 -5659 0
-5661 5655 0
-5661 -5660 0
5661 -5655 5660 0
-5662 -5658 0
-5662 -5659 0
5662 5658 5659 0
-5663 5661 0
-5663 -5662 0
5663 -5661 5662 0
-5664 123 0
-5664 -5659 0
5664 -123 5659 0
-5665 -123 0
-5665 5659 0
5665 123 -5659 0
-5666 -5664 0
-5666 -5665 0
5666 5664 5665 0
5667 -6987 0
-5667 6987 0
-5668 5666 0
-5668 5667 0
5668 -5666 -5667 0
-5669 5663 0
-5669 -5668 0
5669 -5663 5668 0
-5670 -5666 0
-5670 -5667 0
5670 5666 5667 0
-5671 5669 0
-5671 -5670 0
5671 -5669 5670 0
-5672 124 0
-5672 -5667 0
5672 -124 5667 0
-5673 -124 0
-5673 5667 0
5673 124 -5667 0
-5674 -5672 0
-5674 -5673 0
5674 5672 5673 0
5675 -6988 0
-5675 6988 0
-5676 5674 0
-5676 5675 0
5676 -5674 -5675 0
-5677 5671 0
-5677 -5676 0
5677 -5671 5676 0
-5678 -5674 0
-5678 -5675 0
5678 5674 5675 0
-5679 5677 0
-5679 -5678 0
5679 -5677 5678 0
-5680 126 0
-5680 -5675 0
5680 -126 5675 0
-5681 -126 0
-5681 5675 0
5681 126 -5675 0
-5682 -5680 0
-5682 -5681 0
5682 5680 5681 0
5683 -6989 0
-5683 6989 0
-5684 5682 0
-5684 5683 0
5684 -5682 -5683 0
-5685 5679 0
-5685 -5684 0
5685 -5679 5684 0
-5686 -5682 0
-5686 -5683 0
5686 5682 5683 0
-5687 5685 0
-5687 -5686 0
5687 -5685 5686 0
-5688 130 0
-5688 -5683 0
5688 -130 5683 0
-5689 -130 0
-5689 5683 0
5689 130 -5683 0
-5690 -5688 0
-5690 -5689 0
5690 5688 5689 0
5691 -6990 0
-5691 6990 0
-5692 5690 0
-5692 5691 0
5692 -5690 -5691 0
-5693 5687 0
-5693 -5692 0
5693 -5687 5692 0
-5694 -5690 0
-5694 -5691 0
5694 5690 5691 0
-5695 5693 0
-5695 -5694 0
5695 -5693 5694 0
-5696 132 0
-5696 -5691 0
5696 -132 5691 0
-5697 -132 0
-5697 5691 0
5697 132 -5691 0
-5698 -5696 0
-5698 -5697 0
5698 5696 5697 0
5699 -6991 0
-5699 6991 0
-5700 5698 0
-5700 5699 0
5700 -5698 -5699 0
-5701 5695 0
-5701 -5700 0
5701 -5695 5700 0
-5702 -5698 0
-5702 -5699 0
5702 5698 5699 0
-5703 5701 0
-5703 -5702 0
5703 -5701 5702 0
-5704 134 0
-5704 -5699 0
5704 -134 5699 0
-5705 -134 0
-5705 5699 0
5705 134 -5699 0
-5706 -5704 0
-5706 -5705 0
5706 5704 5705 0
5707 -6992 0
-5707 6992 0
-5708 5706 0
-5708 5707 0
5708 -5706 -5707 0
-5709 5703 0
-5709 -5708 0
5709 -5703 5708 0
-5710 -5706 0
-5710 -5707 0
5710 5706 5707 0
-5711 5709 0
-5711 -5710 0
5711 -5709 5710 0
-5712 137 0
-5712 -5707 0
5712 -137 5707 0
-5713 -137 0
-5713 5707 0
5713 137 -5707 0
-5714 -5712 0
-5714 -5713 0
5714 5712 5713 0
5715 -6993 0
-5715 6993 0
-5716 5714 0
-5716 5715 0
5716 -5714 -5715 0
-5717 5711 0
-5717 -5716 0
5717 -5711 5716 0
-5718 -5714 0
-5718 -5715 0
5718 5714 5715 0
-5719 5717 0
-5719 -5718 0
5719 -5717 5718 0
-5720 -2567 0
-5720 5719 0
5720 2567 -5719 0
-5721 -2569 0
-5721 5720 0
5721 2569 -5720 0
-5722 114 0
-5722 -2566 0
5722 -114 2566 0
-5723 -114 0
-5723 2566 0
5723 114 -2566 0
-5724 -5722 0
-5724 -5723 0
5724 5722 5723 0
5725 -6994 0
-5725 6994 0
-5726 5724 0
-5726 5725 0
5726 -5724 -5725 0
-5727 5721 0
-5727 -5726 0
5727 -5721 5726 0
-5728 -5724 0
-5728 -5725 0
5728 5724 5725 0
-5729 5727 0
-5729 -5728 0
5729 -5727 5728 0
-5730 121 0
-5730 -5725 0
5730 -121 5725 0
-5731 -121 0
-5731 5725 0
5731 121 -5725 0
-5732 -5730 0
-5732 -5731 0
5732 5730 5731 0
5733 -6995 0
-5733 6995 0
-5734 5732 0
-5734 5733 0
5734 -5732 -5733 0
-5735 5729 0
-5735 -5734 0
5735 -5729 5734 0
-5736 -5732 0
-5736 -5733 0
5736 5732 5733 0
-5737 5735 0
-5737 -5736 0
5737 -5735 5736 0
-5738 122 0
-5738 -5733 0
5738 -122 5733 0
-5739 -122 0
-5739 5733 0
5739 122 -5733 0
-5740 -5738 0
-5740 -5739 0
5740 5738 5739 0
5741 -6996 0
-5741 6996 0
-5742 5740 0
-5742 5741 0
5742 -5740 -5741 0
-5743 5737 0
-5743 -5742 0
5743 -5737 5742 0
-5744 -5740 0
-5744 -5741 0
5744 5740 5741 0
-5745 5743 0
-5745 -5744 0
5745 -5743 5744 0
-5746 123 0
-5746 -5741 0
5746 -123 5741 0
-5747 -123 0
-5747 5741 0
5747 123 -5741 0
-5748 -5746 0
-5748 -5747 0
5748 5746 5747 0
5749 -6997 0
-5749 6997 0
-5750 5748 0
-5750 5749 0
5750 -5748 -5749 0
-5751 5745 0
-5751 -5750 0
5751 -5745 5750 0
-5752 -5748 0
-5752 -5749 0
5752 5748 5749 0
-5753 5751 0
-5753 -5752 0
5753 -5751 5752 0
-5754 125 0
-5754 -5749 0
5754 -125 5749 0
-5755 -125 0
-5755 5749 0
5755 125 -5749 0
-5756 -5754 0
-5756 -5755 0
5756 5754 5755 0
5757 -6998 0
-5757 6998 0
-5758 5756 0
-5758 5757 0
5758 -5756 -5757 0
-5759 5753 0
-5759 -5758 0
5759 -5753 5758 0
-5760 -5756 0
-5760 -5757 0
5760 5756 5757 0
-5761 5759 0
-5761 -5760 0
5761 -5759 5760 0
-5762 129 0
-5762 -5757 0
5762 -129 5757 0
-5763 -129 0
-5763 5757 0
5763 129 -5757 0
-5764 -5762 0
-5764 -5763 0
5764 5762 5763 0
5765 -6999 0
-5765 6999 0
-5766 5764 0
-5766 5765 0
5766 -5764 -5765 0
-5767 5761 0
-5767 -5766 0
5767 -5761 5766 0
-5768 -5764 0
-5768 -5765 0
5768 5764 5765 0
-5769 5767 0
-5769 -5768 0
5769 -5767 5768 0
-5770 131 0
-5770 -5765 0
5770 -131 5765 0
-5771 -131 0
-5771 5765 0
5771 131 -5765 0
-5772 -5770 0
-5772 -5771 0
5772 5770 5771 0
5773 -7000 0
-5773 7000 0
-5774 5772 0
-5774 5773 0
5774 -5772 -5773 0
-5775 5769 0
-5775 -5774 0
5775 -5769 5774 0
-5776 -5772 0
-5776 -5773 0
5776 5772 5773 0
-5777 5775 0
-5777 -5776 0
5777 -5775 5776 0
-5778 133 0
-5778 -5773 0
5778 -133 5773 0
-5779 -133 0
-5779 5773 0
5779 133 -5773 0
-5780 -5778 0
-5780 -5779 0
5780 5778 5779 0
5781 -7001 0
-5781 7001 0
-5782 5780 0
-5782 5781 0
5782 -5780 -5781 0
-5783 5777 0
-5783 -5782 0
5783 -5777 5782 0
-5784 -5780 0
-5784 -5781 0
5784 5780 5781 0
-5785 5783 0
-5785 -5784 0
5785 -5783 5784 0
-5786 136 0
-5786 -5781 0
5786 -136 5781 0
-5787 -136 0
-5787 5781 0
5787 136 -5781 0
-5788 -5786 0
-5788 -5787 0
5788 5786 5787 0
5789 -7002 0
-5789 7002 0
-5790 5788 0
-5790 5789 0
5790 -5788 -5789 0
-5791 5785 0
-5791 -5790 0
5791 -5785 5790 0
-5792 -5788 0
-5792 -5789 0
5792 5788 5789 0
-5793 5791 0
-5793 -5792 0
5793 -5791 5792 0
-5794 113 0
-5794 -2623 0
5794 -113 2623 0
-5795 -113 0
-5795 2623 0
5795 113 -2623 0
-5796 -5794 0
-5796 -5795 0
5796 5794 5795 0
5797 -7003 0
-5797 7003 0
-5798 5796 0
-5798 5797 0
5798 -5796 -5797 0
-5799 5793 0
-5799 -5798 0
5799 -5793 5798 0
-5800 -5796 0
-5800 -5797 0
5800 5796 5797 0
-5801 5799 0
-5801 -5800 0
5801 -5799 5800 0
-5802 120 0
-5802 -5797 0
5802 -120 5797 0
-5803 -120 0
-5803 5797 0
5803 120 -5797 0
-5804 -5802 0
-5804 -5803 0
5804 5802 5803 0
5805 -7004 0
-5805 7004 0
-5806 5804 0
-5806 5805 0
5806 -5804 -5805 0
-5807 5801 0
-5807 -5806 0
5807 -5801 5806 0
-5808 -5804 0
-5808 -5805 0
5808 5804 5805 0
-5809 5807 0
-5809 -5808 0
5809 -5807 5808 0
-5810 121 0
-5810 -5805 0
5810 -121 5805 0
-5811 -121 0
-5811 5805 0
5811 121 -5805 0
-5812 -5810 0
-5812 -5811 0
5812 5810 5811 0
5813 -7005 0
-5813 7005 0
-5814 5812 0
-5814 5813 0
5814 -5812 -5813 0
-5815 5809 0
-5815 -5814 0
5815 -5809 5814 0
-5816 -5812 0
-5816 -5813 0
5816 5812 5813 0
-5817 5815 0
-5817 -5816 0
5817 -5815 5816 0
-5818 122 0
-5818 -5813 0
5818 -122 5813 0
-5819 -122 0
-5819 5813 0
5819 122 -5813 0
-5820 -5818 0
-5820 -5819 0
5820 5818 5819 0
5821 -7006 0
-5821 7006 0
-5822 5820 0
-5822 5821 0
5822 -5820 -5821 0
-5823 5817 0
-5823 -5822 0
5823 -5817 5822 0
-5824 -5820 0
-5824 -5821 0
5824 5820 5821 0
-5825 5823 0
-5825 -5824 0
5825 -5823 5824 0
-5826 124 0
-5826 -5821 0
5826 -124 5821 0
-5827 -124 0
-5827 5821 0
5827 124 -5821 0
-5828 -5826 0
-5828 -5827 0
5828 5826 5827 0
5829 -7007 0
-5829 7007 0
-5830 5828 0
-5830 5829 0
5830 -5828 -5829 0
-5831 5825 0
-5831 -5830 0
5831 -5825 5830 0
-5832 -5828 0
-5832 -5829 0
5832 5828 5829 0
-5833 5831 0
-5833 -5832 0
5833 -5831 5832 0
-5834 128 0
-5834 -5829 0
5834 -128 5829 0
-5835 -128 0
-5835 5829 0
5835 128 -5829 0
-5836 -5834 0
-5836 -5835 0
5836 5834 5835 0
5837 -7008 0
-5837 7008 0
-5838 5836 0
-5838 5837 0
5838 -5836 -5837 0
-5839 5833 0
-5839 -5838 0
5839 -5833 5838 0
-5840 -5836 0
-5840 -5837 0
5840 5836 5837 0
-5841 5839 0
-5841 -5840 0
5841 -5839 5840 0
-5842 130 0
-5842 -5837 0
5842 -130 5837 0
-5843 -130 0
-5843 5837 0
5843 130 -5837 0
-5844 -5842 0
-5844 -5843 0
5844 5842 5843 0
5845 -7009 0
-5845 7009 0
-5846 5844 0
-5846 5845 0
5846 -5844 -5845 0
-5847 5841 0
-5847 -5846 0
5847 -5841 5846 0
-5848 -5844 0
-5848 -5845 0
5848 5844 5845 0
-5849 5847 0
-5849 -5848 0
5849 -5847 5848 0
-5850 132 0
-5850 -5845 0
5850 -132 5845 0
-5851 -132 0
-5851 5845 0
5851 132 -5845 0
-5852 -5850 0
-5852 -5851 0
5852 5850 5851 0
5853 -7010 0
-5853 7010 0
-5854 5852 0
-5854 5853 0
5854 -5852 -5853 0
-5855 5849 0
-5855 -5854 0
5855 -5849 5854 0
-5856 -5852 0
-5856 -5853 0
5856 5852 5853 0
-5857 5855 0
-5857 -5856 0
5857 -5855 5856 0
-5858 135 0
-5858 -5853 0
5858 -135 5853 0
-5859 -135 0
-5859 5853 0
5859 135 -5853 0
-5860 -5858 0
-5860 -5859 0
5860 5858 5859 0
5861 -7011 0
-5861 7011 0
-5862 5860 0
-5862 5861 0
5862 -5860 -5861 0
-5863 5857 0
-5863 -5862 0
5863 -5857 5862 0
-5864 -5860 0
-5864 -5861 0
5864 5860 5861 0
-5865 5863 0
-5865 -5864 0
5865 -5863 5864 0
-5866 118 0
-5866 -3583 0
5866 -118 3583 0
-5867 -118 0
-5867 3583 0
5867 118 -3583 0
-5868 -5866 0
-5868 -5867 0
5868 5866 5867 0
5869 -7012 0
-5869 7012 0
-5870 5868 0
-5870 5869 0
5870 -5868 -5869 0
-5871 5865 0
-5871 -5870 0
5871 -5865 5870 0
-5872 -5868 0
-5872 -5869 0
5872 5868 5869 0
-5873 5871 0
-5873 -5872 0
5873 -5871 5872 0
-5874 119 0
-5874 -5869 0
5874 -119 5869 0
-5875 -119 0
-5875 5869 0
5875 119 -5869 0
-5876 -5874 0
-5876 -5875 0
5876 5874 5875 0
5877 -7013 0
-5877 7013 0
-5878 5876 0
-5878 5877 0
5878 -5876 -5877 0
-5879 5873 0
-5879 -5878 0
5879 -5873 5878 0
-5880 -5876 0
-5880 -5877 0
5880 5876 5877 0
-5881 5879 0
-5881 -5880 0
5881 -5879 5880 0
-5882 120 0
-5882 -5877 0
5882 -120 5877 0
-5883 -120 0
-5883 5877 0
5883 120 -5877 0
-5884 -5882 0
-5884 -5883 0
5884 5882 5883 0
5885 -7014 0
-5885 7014 0
-5886 5884 0
-5886 5885 0
5886 -5884 -5885 0
-5887 5881 0
-5887 -5886 0
5887 -5881 5886 0
-5888 -5884 0
-5888 -5885 0
5888 5884 5885 0
-5889 5887 0
-5889 -5888 0
5889 -5887 5888 0
-5890 121 0
-5890 -5885 0
5890 -121 5885 0
-5891 -121 0
-5891 5885 0
5891 121 -5885 0
-5892 -5890 0
-5892 -5891 0
5892 5890 5891 0
5893 -7015 0
-5893 7015 0
-5894 5892 0
-5894 5893 0
5894 -5892 -5893 0
-5895 5889 0
-5895 -5894 0
5895 -5889 5894 0
-5896 -5892 0
-5896 -5893 0
5896 5892 5893 0
-5897 5895 0
-5897 -5896 0
5897 -5895 5896 0
-5898 122 0
-5898 -5893 0
5898 -122 5893 0
-5899 -122 0
-5899 5893 0
5899 122 -5893 0
-5900 -5898 0
-5900 -5899 0
5900 5898 5899 0
5901 -7016 0
-5901 7016 0
-5902 5900 0
-5902 5901 0
5902 -5900 -5901 0
-5903 5897 0
-5903 -5902 0
5903 -5897 5902 0
-5904 -5900 0
-5904 -5901 0
5904 5900 5901 0
-5905 5903 0
-5905 -5904 0
5905 -5903 5904 0
-5906 123 0
-5906 -5901 0
5906 -123 5901 0
-5907 -123 0
-5907 5901 0
5907 123 -5901 0
-5908 -5906 0
-5908 -5907 0
5908 5906 5907 0
5909 -7017 0
-5909 7017 0
-5910 5908 0
-5910 5909 0
5910 -5908 -5909 0
-5911 5905 0
-5911 -5910 0
5911 -5905 5910 0
-5912 -5908 0
-5912 -5909 0
5912 5908 5909 0
-5913 5911 0
-5913 -5912 0
5913 -5911 5912 0
-5914 124 0
-5914 -5909 0
5914 -124 5909 0
-5915 -124 0
-5915 5909 0
5915 124 -5909 0
-5916 -5914 0
-5916 -5915 0
5916 5914 5915 0
5917 -7018 0
-5917 7018 0
-5918 5916 0
-5918 5917 0
5918 -5916 -5917 0
-5919 5913 0
-5919 -5918 0
5919 -5913 5918 0
-5920 -5916 0
-5920 -5917 0
5920 5916 5917 0
-5921 5919 0
-5921 -5920 0
5921 -5919 5920 0
-5922 125 0
-5922 -5917 0
5922 -125 5917 0
-5923 -125 0
-5923 5917 0
5923 125 -5917 0
-5924 -5922 0
-5924 -5923 0
5924 5922 5923 0
5925 -7019 0
-5925 7019 0
-5926 5924 0
-5926 5925 0
5926 -5924 -5925 0
-5927 5921 0
-5927 -5926 0
5927 -5921 5926 0
-5928 -5924 0
-5928 -5925 0
5928 5924 5925 0
-5929 5927 0
-5929 -5928 0
5929 -5927 5928 0
-5930 126 0
-5930 -5925 0
5930 -126 5925 0
-5931 -126 0
-5931 5925 0
5931 126 -5925 0
-5932 -5930 0
-5932 -5931 0
5932 5930 5931 0
5933 -7020 0
-5933 7020 0
-5934 5932 0
-5934 5933 0
5934 -5932 -5933 0
-5935 5929 0
-5935 -5934 0
5935 -5929 5934 0
-5936 -5932 0
-5936 -5933 0
5936 5932 5933 0
-5937 5935 0
-5937 -5936 0
5937 -5935 5936 0
-5938 127 0
-5938 -5933 0
5938 -127 5933 0
-5939 -127 0
-5939 5933 0
5939 127 -5933 0
-5940 -5938 0
-5940 -5939 0
5940 5938 5939 0
5941 -7021 0
-5941 7021 0
-5942 5940 0
-5942 5941 0
5942 -5940 -5941 0
-5943 5937 0
-5943 -5942 0
5943 -5937 5942 0
-5944 -5940 0
-5944 -5941 0
5944 5940 5941 0
-5945 5943 0
-5945 -5944 0
5945 -5943 5944 0
-5946 128 0
-5946 -5941 0
5946 -128 5941 0
-5947 -128 0
-5947 5941 0
5947 128 -5941 0
-5948 -5946 0
-5948 -5947 0
5948 5946 5947 0
5949 -7022 0
-5949 7022 0
-5950 5948 0
-5950 5949 0
5950 -5948 -5949 0
-5951 5945 0
-5951 -5950 0
5951 -5945 5950 0
-5952 -5948 0
-5952 -5949 0
5952 5948 5949 0
-5953 5951 0
-5953 -5952 0
5953 -5951 5952 0
-5954 129 0
-5954 -5949 0
5954 -129 5949 0
-5955 -129 0
-5955 5949 0
5955 129 -5949 0
-5956 -5954 0
-5956 -5955 0
5956 5954 5955 0
5957 -7023 0
-5957 7023 0
-5958 5956 0
-5958 5957 0
5958 -5956 -5957 0
-5959 5953 0
-5959 -5958 0
5959 -5953 5958 0
-5960 -5956 0
-5960 -5957 0
5960 5956 5957 0
-5961 5959 0
-5961 -5960 0
5961 -5959 5960 0
-5962 130 0
-5962 -5957 0
5962 -130 5957 0
-5963 -130 0
-5963 5957 0
5963 130 -5957 0
-5964 -5962 0
-5964 -5963 0
5964 5962 5963 0
5965 -7024 0
-5965 7024 0
-5966 5964 0
-5966 5965 0
5966 -5964 -5965 0
-5967 5961 0
-5967 -5966 0
5967 -5961 5966 0
-5968 -5964 0
-5968 -5965 0
5968 5964 5965 0
-5969 5967 0
-5969 -5968 0
5969 -5967 5968 0
-5970 131 0
-5970 -5965 0
5970 -131 5965 0
-5971 -131 0
-5971 5965 0
5971 131 -5965 0
-5972 -5970 0
-5972 -5971 0
5972 5970 5971 0
5973 -7025 0
-5973 7025 0
-5974 5972 0
-5974 5973 0
5974 -5972 -5973 0
-5975 5969 0
-5975 -5974 0
5975 -5969 5974 0
-5976 -5972 0
-5976 -5973 0
5976 5972 5973 0
-5977 5975 0
-5977 -5976 0
5977 -5975 5976 0
-5978 132 0
-5978 -5973 0
5978 -132 5973 0
-5979 -132 0
-5979 5973 0
5979 132 -5973 0
-5980 -5978 0
-5980 -5979 0
5980 5978 5979 0
5981 -7026 0
-5981 7026 0
-5982 5980 0
-5982 5981 0
5982 -5980 -5981 0
-5983 5977 0
-5983 -5982 0
5983 -5977 5982 0
-5984 -5980 0
-5984 -5981 0
5984 5980 5981 0
-5985 5983 0
-5985 -5984 0
5985 -5983 5984 0
-5986 133 0
-5986 -5981 0
5986 -133 5981 0
-5987 -133 0
-5987 5981 0
5987 133 -5981 0
-5988 -5986 0
-5988 -5987 0
5988 5986 5987 0
5989 -7027 0
-5989 7027 0
-5990 5988 0
-5990 5989 0
5990 -5988 -5989 0
-5991 5985 0
-5991 -5990 0
5991 -5985 5990 0
-5992 -5988 0
-5992 -5989 0
5992 5988 5989 0
-5993 5991 0
-5993 -5992 0
5993 -5991 5992 0
-5994 134 0
-5994 -5989 0
5994 -134 5989 0
-5995 -134 0
-5995 5989 0
5995 134 -5989 0
-5996 -5994 0
-5996 -5995 0
5996 5994 5995 0
5997 -7028 0
-5997 7028 0
-5998 5996 0
-5998 5997 0
5998 -5996 -5997 0
-5999 5993 0
-5999 -5998 0
5999 -5993 5998 0
-6000 -5996 0
-6000 -5997 0
6000 5996 5997 0
-6001 5999 0
-6001 -6000 0
6001 -5999 6000 0
-6002 135 0
-6002 -5997 0
6002 -135 5997 0
-6003 -135 0
-6003 5997 0
6003 135 -5997 0
-6004 -6002 0
-6004 -6003 0
6004 6002 6003 0
6005 -7029 0
-6005 7029 0
-6006 6004 0
-6006 6005 0
6006 -6004 -6005 0
-6007 6001 0
-6007 -6006 0
6007 -6001 6006 0
-6008 -6004 0
-6008 -6005 0
6008 6004 6005 0
-6009 6007 0
-6009 -6008 0
6009 -6007 6008 0
-6010 136 0
-6010 -6005 0
6010 -136 6005 0
-6011 -136 0
-6011 6005 0
6011 136 -6005 0
-6012 -6010 0
-6012 -6011 0
6012 6010 6011 0
6013 -7030 0
-6013 7030 0
-6014 6012 0
-6014 6013 0
6014 -6012 -6013 0
-6015 6009 0
-6015 -6014 0
6015 -6009 6014 0
-6016 -6012 0
-6016 -6013 0
6016 6012 6013 0
-6017 6015 0
-6017 -6016 0
6017 -6015 6016 0
-6018 137 0
-6018 -6013 0
6018 -137 6013 0
-6019 -137 0
-6019 6013 0
6019 137 -6013 0
-6020 -6018 0
-6020 -6019 0
6020 6018 6019 0
6021 -7031 0
-6021 7031 0
-6022 6020 0
-6022 6021 0
6022 -6020 -6021 0
-6023 6017 0
-6023 -6022 0
6023 -6017 6022 0
-6024 -6020 0
-6024 -6021 0
6024 6020 6021 0
-6025 6023 0
-6025 -6024 0
6025 -6023 6024 0
-6026 138 0
-6026 -6021 0
6026 -138 6021 0
-6027 -138 0
-6027 6021 0
6027 138 -6021 0
-6028 -6026 0
-6028 -6027 0
6028 6026 6027 0
6029 -7032 0
-6029 7032 0
-6030 6028 0
-6030 6029 0
6030 -6028 -6029 0
-6031 6025 0
-6031 -6030 0
6031 -6025 6030 0
-6032 -6028 0
-6032 -6029 0
6032 6028 6029 0
-6033 6031 0
-6033 -6032 0
6033 -6031 6032 0
-6034 166 0
-6034 -3679 0
6034 -166 3679 0
-6035 -166 0
-6035 3679 0
6035 166 -3679 0
-6036 -6034 0
-6036 -6035 0
6036 6034 6035 0
-6037 165 0
-6037 -3753 0
6037 -165 3753 0
-6038 -165 0
-6038 3753 0
6038 165 -3753 0
-6039 -6037 0
-6039 -6038 0
6039 6037 6038 0
-6040 164 0
-6040 -3827 0
6040 -164 3827 0
-6041 -164 0
-6041 3827 0
6041 164 -3827 0
-6042 -6040 0
-6042 -6041 0
6042 6040 6041 0
-6043 163 0
-6043 -3901 0
6043 -163 3901 0
-6044 -163 0
-6044 3901 0
6044 163 -3901 0
-6045 -6043 0
-6045 -6044 0
6045 6043 6044 0
-6046 162 0
-6046 -3969 0
6046 -162 3969 0
-6047 -162 0
-6047 3969 0
6047 162 -3969 0
-6048 -6046 0
-6048 -6047 0
6048 6046 6047 0
-6049 161 0
-6049 -4017 0
6049 -161 4017 0
-6050 -161 0
-6050 4017 0
6050 161 -4017 0
-6051 -6049 0
-6051 -6050 0
6051 6049 6050 0
-6052 160 0
-6052 -4133 0
6052 -160 4133 0
-6053 -160 0
-6053 4133 0
6053 160 -4133 0
-6054 -6052 0
-6054 -6053 0
6054 6052 6053 0
-6055 159 0
-6055 -4249 0
6055 -159 4249 0
-6056 -159 0
-6056 4249 0
6056 159 -4249 0
-6057 -6055 0
-6057 -6056 0
6057 6055 6056 0
-6058 158 0
-6058 -4365 0
6058 -158 4365 0
-6059 -158 0
-6059 4365 0
6059 158 -4365 0
-6060 -6058 0
-6060 -6059 0
6060 6058 6059 0
-6061 157 0
-6061 -4481 0
6061 -157 4481 0
-6062 -157 0
-6062 4481 0
6062 157 -4481 0
-6063 -6061 0
-6063 -6062 0
6063 6061 6062 0
-6064 156 0
-6064 -4553 0
6064 -156 4553 0
-6065 -156 0
-6065 4553 0
6065 156 -4553 0
-6066 -6064 0
-6066 -6065 0
6066 6064 6065 0
-6067 155 0
-6067 -4665 0
6067 -155 4665 0
-6068 -155 0
-6068 4665 0
6068 155 -4665 0
-6069 -6067 0
-6069 -6068 0
6069 6067 6068 0
-6070 154 0
-6070 -4729 0
6070 -154 4729 0
-6071 -154 0
-6071 4729 0
6071 154 -4729 0
-6072 -6070 0
-6072 -6071 0
6072 6070 6071 0
-6073 153 0
-6073 -4793 0
6073 -153 4793 0
-6074 -153 0
-6074 4793 0
6074 153 -4793 0
-6075 -6073 0
-6075 -6074 0
6075 6073 6074 0
-6076 152 0
-6076 -4857 0
6076 -152 4857 0
-6077 -152 0
-6077 4857 0
6077 152 -4857 0
-6078 -6076 0
-6078 -6077 0
6078 6076 6077 0
-6079 151 0
-6079 -4969 0
6079 -151 4969 0
-6080 -151 0
-6080 4969 0
6080 151 -4969 0
-6081 -6079 0
-6081 -6080 0
6081 6079 6080 0
-6082 150 0
-6082 -5033 0
6082 -150 5033 0
-6083 -150 0
-6083 5033 0
6083 150 -5033 0
-6084 -6082 0
-6084 -6083 0
6084 6082 6083 0
-6085 149 0
-6085 -5145 0
6085 -149 5145 0
-6086 -149 0
-6086 5145 0
6086 149 -5145 0
-6087 -6085 0
-6087 -6086 0
6087 6085 6086 0
-6088 148 0
-6088 -5217 0
6088 -148 5217 0
-6089 -148 0
-6089 5217 0
6089 148 -5217 0
-6090 -6088 0
-6090 -6089 0
6090 6088 6089 0
-6091 147 0
-6091 -5337 0
6091 -147 5337 0
-6092 -147 0
-6092 5337 0
6092 147 -5337 0
-6093 -6091 0
-6093 -6092 0
6093 6091 6092 0
-6094 146 0
-6094 -5405 0
6094 -146 5405 0
-6095 -146 0
-6095 5405 0
6095 146 -5405 0
-6096 -6094 0
-6096 -6095 0
6096 6094 6095 0
-6097 145 0
-6097 -5471 0
6097 -145 5471 0
-6098 -145 0
-6098 5471 0
6098 145 -5471 0
-6099 -6097 0
-6099 -6098 0
6099 6097 6098 0
-6100 144 0
-6100 -5567 0
6100 -144 5567 0
-6101 -144 0
-6101 5567 0
6101 144 -5567 0
-6102 -6100 0
-6102 -6101 0
6102 6100 6101 0
-6103 143 0
-6103 -5641 0
6103 -143 5641 0
-6104 -143 0
-6104 5641 0
6104 143 -5641 0
-6105 -6103 0
-6105 -6104 0
6105 6103 6104 0
-6106 142 0
-6106 -5715 0
6106 -142 5715 0
-6107 -142 0
-6107 5715 0
6107 142 -5715 0
-6108 -6106 0
-6108 -6107 0
6108 6106 6107 0
-6109 141 0
-6109 -5789 0
6109 -141 5789 0
-6110 -141 0
-6110 5789 0
6110 141 -5789 0
-6111 -6109 0
-6111 -6110 0
6111 6109 6110 0
-6112 140 0
-6112 -5861 0
6112 -140 5861 0
-6113 -140 0
-6113 5861 0
6113 140 -5861 0
-6114 -6112 0
-6114 -6113 0
6114 6112 6113 0
-6115 139 0
-6115 -6029 0
6115 -139 6029 0
-6116 -139 0
-6116 6029 0
6116 139 -6029 0
-6117 -6115 0
-6117 -6116 0
6117 6115 6116 0
-6118 6114 0
-6118 6117 0
6118 -6114 -6117 0
-6119 6111 0
-6119 6118 0
6119 -6111 -6118 0
-6120 6108 0
-6120 6119 0
6120 -6108 -6119 0
-6121 6105 0
-6121 6120 0
6121 -6105 -6120 0
-6122 6102 0
-6122 6121 0
6122 -6102 -6121 0
-6123 6099 0
-6123 6122 0
6123 -6099 -6122 0
-6124 6096 0
-6124 6123 0
6124 -6096 -6123 0
-6125 6093 0
-6125 6124 0
6125 -6093 -6124 0
-6126 6090 0
-6126 6125 0
6126 -6090 -6125 0
-6127 6087 0
-6127 6126 0
6127 -6087 -6126 0
-6128 6084 0
-6128 6127 0
6128 -6084 -6127 0
-6129 6081 0
-6129 6128 0
6129 -6081 -6128 0
-6130 6078 0
-6130 6129 0
6130 -6078 -6129 0
-6131 6075 0
-6131 6130 0
6131 -6075 -6130 0
-6132 6072 0
-6132 6131 0
6132 -6072 -6131 0
-6133 6069 0
-6133 6132 0
6133 -6069 -6132 0
-6134 6066 0
-6134 6133 0
6134 -6066 -6133 0
-6135 6063 0
-6135 6134 0
6135 -6063 -6134 0
-6136 6060 0
-6136 6135 0
6136 -6060 -6135 0
-6137 6057 0
-6137 6136 0
6137 -6057 -6136 0
-6138 6054 0
-6138 6137 0
6138 -6054 -6137 0
-6139 6051 0
-6139 6138 0
6139 -6051 -6138 0
-6140 6048 0
-6140 6139 0
6140 -6048 -6139 0
-6141 6045 0
-6141 6140 0
6141 -6045 -6140 0
-6142 6042 0
-6142 6141 0
6142 -6042 -6141 0
-6143 6039 0
-6143 6142 0
6143 -6039 -6142 0
-6144 6036 0
-6144 6143 0
6144 -6036 -6143 0
-6145 6033 0
-6145 -6144 0
6145 -6033 6144 0
-6170 -49 0
-6170 55 0
6170 49 -55 0
-6165 -48 0
-6165 54 0
6165 48 -54 0
-6160 -47 0
-6160 53 0
6160 47 -53 0
-6155 -46 0
-6155 52 0
6155 46 -52 0
-6150 -45 0
-6150 51 0
6150 45 -51 0
-6146 -44 0
-6146 50 0
6146 44 -50 0
-6147 44 0
-6147 -50 0
6147 -44 50 0
-6148 -6146 0
-6148 -6147 0
6148 6146 6147 0
-6149 -6146 0
-6149 -6148 0
6149 6146 6148 0
-6151 45 0
-6151 -51 0
6151 -45 51 0
-6152 -6150 0
-6152 -6151 0
6152 6150 6151 0
-6153 -6149 0
-6153 6152 0
6153 6149 -6152 0
-6154 -6150 0
-6154 -6153 0
6154 6150 6153 0
-6156 46 0
-6156 -52 0
6156 -46 52 0
-6157 -6155 0
-6157 -6156 0
6157 6155 6156 0
-6158 -6154 0
-6158 6157 0
6158 6154 -6157 0
-6159 -6155 0
-6159 -6158 0
6159 6155 6158 0
-6161 47 0
-6161 -53 0
6161 -47 53 0
-6162 -6160 0
-6162 -6161 0
6162 6160 6161 0
-6163 -6159 0
-6163 6162 0
6163 6159 -6162 0
-6164 -6160 0
-6164 -6163 0
6164 6160 6163 0
-6166 48 0
-6166 -54 0
6166 -48 54 0
-6167 -6165 0
-6167 -6166 0
6167 6165 6166 0
-6168 -6164 0
-6168 6167 0
6168 6164 -6167 0
-6169 -6165 0
-6169 -6168 0
6169 6165 6168 0
-6171 49 0
-6171 -55 0
6171 -49 55 0
-6172 -6170 0
-6172 -6171 0
6172 6170 6171 0
-6173 -6169 0
-6173 6172 0
6173 6169 -6172 0
-6174 -6170 0
-6174 -6173 0
6174 6170 6173 0
-6175 6145 0
-6175 -6174 0
6175 -6145 6174 0
-6200 -43 0
-6200 49 0
6200 43 -49 0
-6195 -42 0
-6195 48 0
6195 42 -48 0
-6190 -41 0
-6190 47 0
6190 41 -47 0
-6185 -40 0
-6185 46 0
6185 40 -46 0
-6180 -39 0
-6180 45 0
6180 39 -45 0
-6176 -38 0
-6176 44 0
6176 38 -44 0
-6177 38 0
-6177 -44 0
6177 -38 44 0
-6178 -6176 0
-6178 -6177 0
6178 6176 6177 0
-6179 -6176 0
-6179 -6178 0
6179 6176 6178 0
-6181 39 0
-6181 -45 0
6181 -39 45 0
-6182 -6180 0
-6182 -6181 0
6182 6180 6181 0
-6183 -6179 0
-6183 6182 0
6183 6179 -6182 0
-6184 -6180 0
-6184 -6183 0
6184 6180 6183 0
-6186 40 0
-6186 -46 0
6186 -40 46 0
-6187 -6185 0
-6187 -6186 0
6187 6185 6186 0
-6188 -6184 0
-6188 6187 0
6188 6184 -6187 0
-6189 -6185 0
-6189 -6188 0
6189 6185 6188 0
-6191 41 0
-6191 -47 0
6191 -41 47 0
-6192 -6190 0
-6192 -6191 0
6192 6190 6191 0
-6193 -6189 0
-6193 6192 0
6193 6189 -6192 0
-6194 -6190 0
-6194 -6193 0
6194 6190 6193 0
-6196 42 0
-6196 -48 0
6196 -42 48 0
-6197 -6195 0
-6197 -6196 0
6197 6195 6196 0
-6198 -6194 0
-6198 6197 0
6198 6194 -6197 0
-6199 -6195 0
-6199 -6198 0
6199 6195 6198 0
-6201 43 0
-6201 -49 0
6201 -43 49 0
-6202 -6200 0
-6202 -6201 0
6202 6200 6201 0
-6203 -6199 0
-6203 6202 0
6203 6199 -6202 0
-6204 -6200 0
-6204 -6203 0
6204 6200 6203 0
-6205 6175 0
-6205 -6204 0
6205 -6175 6204 0
-6230 -37 0
-6230 43 0
6230 37 -43 0
-6225 -36 0
-6225 42 0
6225 36 -42 0
-6220 -35 0
-6220 41 0
6220 35 -41 0
-6215 -34 0
-6215 40 0
6215 34 -40 0
-6210 -33 0
-6210 39 0
6210 33 -39 0
-6206 -32 0
-6206 38 0
6206 32 -38 0
-6207 32 0
-6207 -38 0
6207 -32 38 0
-6208 -6206 0
-6208 -6207 0
6208 6206 6207 0
-6209 -6206 0
-6209 -6208 0
6209 6206 6208 0
-6211 33 0
-6211 -39 0
6211 -33 39 0
-6212 -6210 0
-6212 -6211 0
6212 6210 6211 0
-6213 -6209 0
-6213 6212 0
6213 6209 -6212 0
-6214 -6210 0
-6214 -6213 0
6214 6210 6213 0
-6216 34 0
-6216 -40 0
6216 -34 40 0
-6217 -6215 0
-6217 -6216 0
6217 6215 6216 0
-6218 -6214 0
-6218 6217 0
6218 6214 -6217 0
-6219 -6215 0
-6219 -6218 0
6219 6215 6218 0
-6221 35 0
-6221 -41 0
6221 -35 41 0
-6222 -6220 0
-6222 -6221 0
6222 6220 6221 0
-6223 -6219 0
-6223 6222 0
6223 6219 -6222 0
-6224 -6220 0
-6224 -6223 0
6224 6220 6223 0
-6226 36 0
-6226 -42 0
6226 -36 42 0
-6227 -6225 0
-6227 -6226 0
6227 6225 6226 0
-6228 -6224 0
-6228 6227 0
6228 6224 -6227 0
-6229 -6225 0
-6229 -6228 0
6229 6225 6228 0
-6231 37 0
-6231 -43 0
6231 -37 43 0
-6232 -6230 0
-6232 -6231 0
6232 6230 6231 0
-6233 -6229 0
-6233 6232 0
6233 6229 -6232 0
-6234 -6230 0
-6234 -6233 0
6234 6230 6233 0
-6235 6205 0
-6235 -6234 0
6235 -6205 6234 0
-6260 -31 0
-6260 37 0
6260 31 -37 0
-6255 -30 0
-6255 36 0
6255 30 -36 0
-6250 -29 0
-6250 35 0
6250 29 -35 0
-6245 -28 0
-6245 34 0
6245 28 -34 0
-6240 -27 0
-6240 33 0
6240 27 -33 0
-6236 -26 0
-6236 32 0
6236 26 -32 0
-6237 26 0
-6237 -32 0
6237 -26 32 0
-6238 -6236 0
-6238 -6237 0
6238 6236 6237 0
-6239 -6236 0
-6239 -6238 0
6239 6236 6238 0
-6241 27 0
-6241 -33 0
6241 -27 33 0
-6242 -6240 0
-6242 -6241 0
6242 6240 6241 0
-6243 -6239 0
-6243 6242 0
6243 6239 -6242 0
-6244 -6240 0
-6244 -6243 0
6244 6240 6243 0
-6246 28 0
-6246 -34 0
6246 -28 34 0
-6247 -6245 0
-6247 -6246 0
6247 6245 6246 0
-6248 -6244 0
-6248 6247 0
6248 6244 -6247 0
-6249 -6245 0
-6249 -6248 0
6249 6245 6248 0
-6251 29 0
-6251 -35 0
6251 -29 35 0
-6252 -6250 0
-6252 -6251 0
6252 6250 6251 0
-6253 -6249 0
-6253 6252 0
6253 6249 -6252 0
-6254 -6250 0
-6254 -6253 0
6254 6250 6253 0
-6256 30 0
-6256 -36 0
6256 -30 36 0
-6257 -6255 0
-6257 -6256 0
6257 6255 6256 0
-6258 -6254 0
-6258 6257 0
6258 6254 -6257 0
-6259 -6255 0
-6259 -6258 0
6259 6255 6258 0
-6261 31 0
-6261 -37 0
6261 -31 37 0
-6262 -6260 0
-6262 -6261 0
6262 6260 6261 0
-6263 -6259 0
-6263 6262 0
6263 6259 -6262 0
-6264 -6260 0
-6264 -6263 0
6264 6260 6263 0
-6265 6235 0
-6265 -6264 0
6265 -6235 6264 0
-6290 -25 0
-6290 31 0
6290 25 -31 0
-6285 -24 0
-6285 30 0
6285 24 -30 0
-6280 -23 0
-6280 29 0
6280 23 -29 0
-6275 -22 0
-6275 28 0
6275 22 -28 0
-6270 -21 0
-6270 27 0
6270 21 -27 0
-6266 -20 0
-6266 26 0
6266 20 -26 0
-6267 20 0
-6267 -26 0
6267 -20 26 0
-6268 -6266 0
-6268 -6267 0
6268 6266 6267 0
-6269 -6266 0
-6269 -6268 0
6269 6266 6268 0
-6271 21 0
-6271 -27 0
6271 -21 27 0
-6272 -6270 0
-6272 -6271 0
6272 6270 6271 0
-6273 -6269 0
-6273 6272 0
6273 6269 -6272 0
-6274 -6270 0
-6274 -6273 0
6274 6270 6273 0
-6276 22 0
-6276 -28 0
6276 -22 28 0
-6277 -6275 0
-6277 -6276 0
6277 6275 6276 0
-6278 -6274 0
-6278 6277 0
6278 6274 -6277 0
-6279 -6275 0
-6279 -6278 0
6279 6275 6278 0
-6281 23 0
-6281 -29 0
6281 -23 29 0
-6282 -6280 0
-6282 -6281 0
6282 6280 6281 0
-6283 -6279 0
-6283 6282 0
6283 6279 -6282 0
-6284 -6280 0
-6284 -6283 0
6284 6280 6283 0
-6286 24 0
-6286 -30 0
6286 -24 30 0
-6287 -6285 0
-6287 -6286 0
6287 6285 6286 0
-6288 -6284 0
-6288 6287 0
6288 6284 -6287 0
-6289 -6285 0
-6289 -6288 0
6289 6285 6288 0
-6291 25 0
-6291 -31 0
6291 -25 31 0
-6292 -6290 0
-6292 -6291 0
6292 6290 6291 0
-6293 -6289 0
-6293 6292 0
6293 6289 -6292 0
-6294 -6290 0
-6294 -6293 0
6294 6290 6293 0
-6295 6265 0
-6295 -6294 0
6295 -6265 6294 0
-6320 -19 0
-6320 25 0
6320 19 -25 0
-6315 -18 0
-6315 24 0
6315 18 -24 0
-6310 -17 0
-6310 23 0
6310 17 -23 0
-6305 -16 0
-6305 22 0
6305 16 -22 0
-6300 -15 0
-6300 21 0
6300 15 -21 0
-6296 -14 0
-6296 20 0
6296 14 -20 0
-6297 14 0
-6297 -20 0
6297 -14 20 0
-6298 -6296 0
-6298 -6297 0
6298 6296 6297 0
-6299 -6296 0
-6299 -6298 0
6299 6296 6298 0
-6301 15 0
-6301 -21 0
6301 -15 21 0
-6302 -6300 0
-6302 -6301 0
6302 6300 6301 0
-6303 -6299 0
-6303 6302 0
6303 6299 -6302 0
-6304 -6300 0
-6304 -6303 0
6304 6300 6303 0
-6306 16 0
-6306 -22 0
6306 -16 22 0
-6307 -6305 0
-6307 -6306 0
6307 6305 6306 0
-6308 -6304 0
-6308 6307 0
6308 6304 -6307 0
-6309 -6305 0
-6309 -6308 0
6309 6305 6308 0
-6311 17 0
-6311 -23 0
6311 -17 23 0
-6312 -6310 0
-6312 -6311 0
6312 6310 6311 0
-6313 -6309 0
-6313 6312 0
6313 6309 -6312 0
-6314 -6310 0
-6314 -6313 0
6314 6310 6313 0
-6316 18 0
-6316 -24 0
6316 -18 24 0
-6317 -6315 0
-6317 -6316 0
6317 6315 6316 0
-6318 -6314 0
-6318 6317 0
6318 6314 -6317 0
-6319 -6315 0
-6319 -6318 0
6319 6315 6318 0
-6321 19 0
-6321 -25 0
6321 -19 25 0
-6322 -6320 0
-6322 -6321 0
6322 6320 6321 0
-6323 -6319 0
-6323 6322 0
6323 6319 -6322 0
-6324 -6320 0
-6324 -6323 0
6324 6320 6323 0
-6325 6295 0
-6325 -6324 0
6325 -6295 6324 0
-6350 -13 0
-6350 19 0
6350 13 -19 0
-6345 -12 0
-6345 18 0
6345 12 -18 0
-6340 -11 0
-6340 17 0
6340 11 -17 0
-6335 -10 0
-6335 16 0
6335 10 -16 0
-6330 -9 0
-6330 15 0
6330 9 -15 0
-6326 -8 0
-6326 14 0
6326 8 -14 0
-6327 8 0
-6327 -14 0
6327 -8 14 0
-6328 -6326 0
-6328 -6327 0
6328 6326 6327 0
-6329 -6326 0
-6329 -6328 0
6329 6326 6328 0
-6331 9 0
-6331 -15 0
6331 -9 15 0
-6332 -6330 0
-6332 -6331 0
6332 6330 6331 0
-6333 -6329 0
-6333 6332 0
6333 6329 -6332 0
-6334 -6330 0
-6334 -6333 0
6334 6330 6333 0
-6336 10 0
-6336 -16 0
6336 -10 16 0
-6337 -6335 0
-6337 -6336 0
6337 6335 6336 0
-6338 -6334 0
-6338 6337 0
6338 6334 -6337 0
-6339 -6335 0
-6339 -6338 0
6339 6335 6338 0
-6341 11 0
-6341 -17 0
6341 -11 17 0
-6342 -6340 0
-6342 -6341 0
6342 6340 6341 0
-6343 -6339 0
-6343 6342 0
6343 6339 -6342 0
-6344 -6340 0
-6344 -6343 0
6344 6340 6343 0
-6346 12 0
-6346 -18 0
6346 -12 18 0
-6347 -6345 0
-6347 -6346 0
6347 6345 6346 0
-6348 -6344 0
-6348 6347 0
6348 6344 -6347 0
-6349 -6345 0
-6349 -6348 0
6349 6345 6348 0
-6351 13 0
-6351 -19 0
6351 -13 19 0
-6352 -6350 0
-6352 -6351 0
6352 6350 6351 0
-6353 -6349 0
-6353 6352 0
6353 6349 -6352 0
-6354 -6350 0
-6354 -6353 0
6354 6350 6353 0
-6355 6325 0
-6355 -6354 0
6355 -6325 6354 0
-6380 -7 0
-6380 13 0
6380 7 -13 0
-6375 -6 0
-6375 12 0
6375 6 -12 0
-6370 -5 0
-6370 11 0
6370 5 -11 0
-6365 -4 0
-6365 10 0
6365 4 -10 0
-6360 -3 0
-6360 9 0
6360 3 -9 0
-6356 -2 0
-6356 8 0
6356 2 -8 0
-6357 2 0
-6357 -8 0
6357 -2 8 0
-6358 -6356 0
-6358 -6357 0
6358 6356 6357 0
-6359 -6356 0
-6359 -6358 0
6359 6356 6358 0
-6361 3 0
-6361 -9 0
6361 -3 9 0
-6362 -6360 0
-6362 -6361 0
6362 6360 6361 0
-6363 -6359 0
-6363 6362 0
6363 6359 -6362 0
-6364 -6360 0
-6364 -6363 0
6364 6360 6363 0
-6366 4 0
-6366 -10 0
6366 -4 10 0
-6367 -6365 0
-6367 -6366 0
6367 6365 6366 0
-6368 -6364 0
-6368 6367 0
6368 6364 -6367 0
-6369 -6365 0
-6369 -6368 0
6369 6365 6368 0
-6371 5 0
-6371 -11 0
6371 -5 11 0
-6372 -6370 0
-6372 -6371 0
6372 6370 6371 0
-6373 -6369 0
-6373 6372 0
6373 6369 -6372 0
-6374 -6370 0
-6374 -6373 0
6374 6370 6373 0
-6376 6 0
-6376 -12 0
6376 -6 12 0
-6377 -6375 0
-6377 -6376 0
6377 6375 6376 0
-6378 -6374 0
-6378 6377 0
6378 6374 -6377 0
-6379 -6375 0
-6379 -6378 0
6379 6375 6378 0
-6381 7 0
-6381 -13 0
6381 -7 13 0
-6382 -6380 0
-6382 -6381 0
6382 6380 6381 0
-6383 -6379 0
-6383 6382 0
6383 6379 -6382 0
-6384 -6380 0
-6384 -6383 0
6384 6380 6383 0
-6385 6355 0
-6385 -6384 0
6385 -6355 6384 0
6385 0
