p cnf 4990 9667
55 -4936 0
-55 4936 0
109 -4990 0
-109 4990 0
108 -4989 0
-108 4989 0
107 -4988 0
-107 4988 0
106 -4987 0
-106 4987 0
104 -4985 0
-104 4985 0
105 -4986 0
-105 4986 0
-111 104 0
-111 -105 0
111 -104 105 0
-119 106 0
-119 111 0
119 -106 -111 0
-127 -107 0
-127 119 0
127 107 -119 0
-159 108 0
-159 127 0
159 -108 -127 0
-223 109 0
-223 159 0
223 -109 -159 0
103 -4984 0
-103 4984 0
102 -4983 0
-102 4983 0
101 -4982 0
-101 4982 0
100 -4981 0
-100 4981 0
98 -4979 0
-98 4979 0
99 -4980 0
-99 4980 0
-225 98 0
-225 -99 0
225 -98 99 0
-233 100 0
-233 225 0
233 -100 -225 0
-241 -101 0
-241 233 0
241 101 -233 0
-273 102 0
-273 241 0
273 -102 -241 0
-337 103 0
-337 273 0
337 -103 -273 0
97 -4978 0
-97 4978 0
96 -4977 0
-96 4977 0
95 -4976 0
-95 4976 0
94 -4975 0
-94 4975 0
92 -4973 0
-92 4973 0
93 -4974 0
-93 4974 0
-339 92 0
-339 -93 0
339 -92 93 0
-347 94 0
-347 339 0
347 -94 -339 0
-355 -95 0
-355 347 0
355 95 -347 0
-387 96 0
-387 355 0
387 -96 -355 0
-451 97 0
-451 387 0
451 -97 -387 0
91 -4972 0
-91 4972 0
90 -4971 0
-90 4971 0
89 -4970 0
-89 4970 0
88 -4969 0
-88 4969 0
86 -4967 0
-86 4967 0
87 -4968 0
-87 4968 0
-453 86 0
-453 -87 0
453 -86 87 0
-461 88 0
-461 453 0
461 -88 -453 0
-469 -89 0
-469 461 0
469 89 -461 0
-501 90 0
-501 469 0
501 -90 -469 0
-565 91 0
-565 501 0
565 -91 -501 0
85 -4966 0
-85 4966 0
84 -4965 0
-84 4965 0
83 -4964 0
-83 4964 0
82 -4963 0
-82 4963 0
80 -4961 0
-80 4961 0
81 -4962 0
-81 4962 0
-567 80 0
-567 -81 0
567 -80 81 0
-575 82 0
-575 567 0
575 -82 -567 0
-583 -83 0
-583 575 0
583 83 -575 0
-615 84 0
-615 583 0
615 -84 -583 0
-679 85 0
-679 615 0
679 -85 -615 0
79 -4960 0
-79 4960 0
78 -4959 0
-78 4959 0
77 -4958 0
-77 4958 0
76 -4957 0
-76 4957 0
74 -4955 0
-74 4955 0
75 -4956 0
-75 4956 0
-681 74 0
-681 -75 0
681 -74 75 0
-689 76 0
-689 681 0
689 -76 -681 0
-697 -77 0
-697 689 0
697 77 -689 0
-729 78 0
-729 697 0
729 -78 -697 0
-793 79 0
-793 729 0
793 -79 -729 0
73 -4954 0
-73 4954 0
72 -4953 0
-72 4953 0
71 -4952 0
-71 4952 0
70 -4951 0
-70 4951 0
68 -4949 0
-68 4949 0
69 -4950 0
-69 4950 0
-795 68 0
-795 -69 0
795 -68 69 0
-803 70 0
-803 795 0
803 -70 -795 0
-811 -71 0
-811 803 0
811 71 -803 0
-843 72 0
-843 811 0
843 -72 -811 0
-907 73 0
-907 843 0
907 -73 -843 0
67 -4948 0
-67 4948 0
66 -4947 0
-66 4947 0
65 -4946 0
-65 4946 0
64 -4945 0
-64 4945 0
62 -4943 0
-62 4943 0
63 -4944 0
-63 4944 0
-909 62 0
-909 -63 0
909 -62 63 0
-917 64 0
-917 909 0
917 -64 -909 0
-925 -65 0
-925 917 0
925 65 -917 0
-957 66 0
-957 925 0
957 -66 -925 0
-1021 67 0
-1021 957 0
1021 -67 -957 0
61 -4942 0
-61 4942 0
60 -4941 0
-60 4941 0
59 -4940 0
-59 4940 0
58 -4939 0
-58 4939 0
56 -4937 0
-56 4937 0
57 -4938 0
-57 4938 0
-1023 56 0
-1023 -57 0
1023 -56 57 0
-1031 58 0
-1031 1023 0
1031 -58 -1023 0
-1039 -59 0
-1039 1031 0
1039 59 -1031 0
-1071 60 0
-1071 1039 0
1071 -60 -1039 0
-1135 61 0
-1135 1071 0
1135 -61 -1071 0
-1189 -1021 0
-1189 -1135 0
1189 1021 1135 0
-1243 -907 0
-1243 1189 0
1243 907 -1189 0
-1297 -793 0
-1297 1243 0
1297 793 -1243 0
-1351 -679 0
-1351 1297 0
1351 679 -1297 0
-1405 -565 0
-1405 1351 0
1405 565 -1351 0
-1459 -451 0
-1459 1405 0
1459 451 -1405 0
-1513 -337 0
-1513 1459 0
1513 337 -1459 0
-1567 -223 0
-1567 1513 0
1567 223 -1513 0
-1727 55 0
-1727 1567 0
1727 -55 -1567 0
-1728 -55 0
-1728 -1567 0
1728 55 1567 0
-1729 -1727 0
-1729 -1728 0
1729 1727 1728 0
54 -4935 0
-54 4935 0
-110 -104 0
-110 -105 0
110 104 105 0
-118 106 0
-118 110 0
118 -106 -110 0
-126 -107 0
-126 118 0
126 107 -118 0
-158 108 0
-158 126 0
158 -108 -126 0
-222 109 0
-222 158 0
222 -109 -158 0
-224 -98 0
-224 -99 0
224 98 99 0
-232 100 0
-232 224 0
232 -100 -224 0
-240 -101 0
-240 232 0
240 101 -232 0
-272 102 0
-272 240 0
272 -102 -240 0
-336 103 0
-336 272 0
336 -103 -272 0
-338 -92 0
-338 -93 0
338 92 93 0
-346 94 0
-346 338 0
346 -94 -338 0
-354 -95 0
-354 346 0
354 95 -346 0
-386 96 0
-386 354 0
386 -96 -354 0
-450 97 0
-450 386 0
450 -97 -386 0
-452 -86 0
-452 -87 0
452 86 87 0
-460 88 0
-460 452 0
460 -88 -452 0
-468 -89 0
-468 460 0
468 89 -460 0
-500 90 0
-500 468 0
500 -90 -468 0
-564 91 0
-564 500 0
564 -91 -500 0
-566 -80 0
-566 -81 0
566 80 81 0
-574 82 0
-574 566 0
574 -82 -566 0
-582 -83 0
-582 574 0
582 83 -574 0
-614 84 0
-614 582 0
614 -84 -582 0
-678 85 0
-678 614 0
678 -85 -614 0
-680 -74 0
-680 -75 0
680 74 75 0
-688 76 0
-688 680 0
688 -76 -680 0
-696 -77 0
-696 688 0
696 77 -688 0
-728 78 0
-728 696 0
728 -78 -696 0
-792 79 0
-792 728 0
792 -79 -728 0
-794 -68 0
-794 -69 0
794 68 69 0
-802 70 0
-802 794 0
802 -70 -794 0
-810 -71 0
-810 802 0
810 71 -802 0
-842 72 0
-842 810 0
842 -72 -810 0
-906 73 0
-906 842 0
906 -73 -842 0
-908 -62 0
-908 -63 0
908 62 63 0
-916 64 0
-916 908 0
916 -64 -908 0
-924 -65 0
-924 916 0
924 65 -916 0
-956 66 0
-956 924 0
956 -66 -924 0
-1020 67 0
-1020 956 0
1020 -67 -956 0
-1022 -56 0
-1022 -57 0
1022 56 57 0
-1030 58 0
-1030 1022 0
1030 -58 -1022 0
-1038 -59 0
-1038 1030 0
1038 59 -1030 0
-1070 60 0
-1070 1038 0
1070 -60 -1038 0
-1134 61 0
-1134 1070 0
1134 -61 -1070 0
-1188 -1020 0
-1188 -1134 0
1188 1020 1134 0
-1242 -906 0
-1242 1188 0
1242 906 -1188 0
-1296 -792 0
-1296 1242 0
1296 792 -1242 0
-1350 -678 0
-1350 1296 0
1350 678 -1296 0
-1404 -564 0
-1404 1350 0
1404 564 -1350 0
-1458 -450 0
-1458 1404 0
1458 450 -1404 0
-1512 -336 0
-1512 1458 0
1512 336 -1458 0
-1566 -222 0
-1566 1512 0
1566 222 -1512 0
-1724 54 0
-1724 1566 0
1724 -54 -1566 0
-1725 -54 0
-1725 -1566 0
1725 54 1566 0
-1726 -1724 0
-1726 -1725 0
1726 1724 1725 0
53 -4934 0
-53 4934 0
-113 104 0
-113 105 0
113 -104 -105 0
-117 -106 0
-117 113 0
117 106 -113 0
-125 -107 0
-125 117 0
125 107 -117 0
-157 108 0
-157 125 0
157 -108 -125 0
-221 109 0
-221 157 0
221 -109 -157 0
-227 98 0
-227 99 0
227 -98 -99 0
-231 -100 0
-231 227 0
231 100 -227 0
-239 -101 0
-239 231 0
239 101 -231 0
-271 102 0
-271 239 0
271 -102 -239 0
-335 103 0
-335 271 0
335 -103 -271 0
-341 92 0
-341 93 0
341 -92 -93 0
-345 -94 0
-345 341 0
345 94 -341 0
-353 -95 0
-353 345 0
353 95 -345 0
-385 96 0
-385 353 0
385 -96 -353 0
-449 97 0
-449 385 0
449 -97 -385 0
-455 86 0
-455 87 0
455 -86 -87 0
-459 -88 0
-459 455 0
459 88 -455 0
-467 -89 0
-467 459 0
467 89 -459 0
-499 90 0
-499 467 0
499 -90 -467 0
-563 91 0
-563 499 0
563 -91 -499 0
-569 80 0
-569 81 0
569 -80 -81 0
-573 -82 0
-573 569 0
573 82 -569 0
-581 -83 0
-581 573 0
581 83 -573 0
-613 84 0
-613 581 0
613 -84 -581 0
-677 85 0
-677 613 0
677 -85 -613 0
-683 74 0
-683 75 0
683 -74 -75 0
-687 -76 0
-687 683 0
687 76 -683 0
-695 -77 0
-695 687 0
695 77 -687 0
-727 78 0
-727 695 0
727 -78 -695 0
-791 79 0
-791 727 0
791 -79 -727 0
-797 68 0
-797 69 0
797 -68 -69 0
-801 -70 0
-801 797 0
801 70 -797 0
-809 -71 0
-809 801 0
809 71 -801 0
-841 72 0
-841 809 0
841 -72 -809 0
-905 73 0
-905 841 0
905 -73 -841 0
-911 62 0
-911 63 0
911 -62 -63 0
-915 -64 0
-915 911 0
915 64 -911 0
-923 -65 0
-923 915 0
923 65 -915 0
-955 66 0
-955 923 0
955 -66 -923 0
-1019 67 0
-1019 955 0
1019 -67 -955 0
-1025 56 0
-1025 57 0
1025 -56 -57 0
-1029 -58 0
-1029 1025 0
1029 58 -1025 0
-1037 -59 0
-1037 1029 0
1037 59 -1029 0
-1069 60 0
-1069 1037 0
1069 -60 -1037 0
-1133 61 0
-1133 1069 0
1133 -61 -1069 0
-1187 -1019 0
-1187 -1133 0
1187 1019 1133 0
-1241 -905 0
-1241 1187 0
1241 905 -1187 0
-1295 -791 0
-1295 1241 0
1295 791 -1241 0
-1349 -677 0
-1349 1295 0
1349 677 -1295 0
-1403 -563 0
-1403 1349 0
1403 563 -1349 0
-1457 -449 0
-1457 1403 0
1457 449 -1403 0
-1511 -335 0
-1511 1457 0
1511 335 -1457 0
-1565 -221 0
-1565 1511 0
1565 221 -1511 0
-1721 53 0
-1721 1565 0
1721 -53 -1565 0
-1722 -53 0
-1722 -1565 0
1722 53 1565 0
-1723 -1721 0
-1723 -1722 0
1723 1721 1722 0
52 -4933 0
-52 4933 0
-112 -104 0
-112 105 0
112 104 -105 0
-116 -106 0
-116 112 0
116 106 -112 0
-124 -107 0
-124 116 0
124 107 -116 0
-156 108 0
-156 124 0
156 -108 -124 0
-220 109 0
-220 156 0
220 -109 -156 0
-226 -98 0
-226 99 0
226 98 -99 0
-230 -100 0
-230 226 0
230 100 -226 0
-238 -101 0
-238 230 0
238 101 -230 0
-270 102 0
-270 238 0
270 -102 -238 0
-334 103 0
-334 270 0
334 -103 -270 0
-340 -92 0
-340 93 0
340 92 -93 0
-344 -94 0
-344 340 0
344 94 -340 0
-352 -95 0
-352 344 0
352 95 -344 0
-384 96 0
-384 352 0
384 -96 -352 0
-448 97 0
-448 384 0
448 -97 -384 0
-454 -86 0
-454 87 0
454 86 -87 0
-458 -88 0
-458 454 0
458 88 -454 0
-466 -89 0
-466 458 0
466 89 -458 0
-498 90 0
-498 466 0
498 -90 -466 0
-562 91 0
-562 498 0
562 -91 -498 0
-568 -80 0
-568 81 0
568 80 -81 0
-572 -82 0
-572 568 0
572 82 -568 0
-580 -83 0
-580 572 0
580 83 -572 0
-612 84 0
-612 580 0
612 -84 -580 0
-676 85 0
-676 612 0
676 -85 -612 0
-682 -74 0
-682 75 0
682 74 -75 0
-686 -76 0
-686 682 0
686 76 -682 0
-694 -77 0
-694 686 0
694 77 -686 0
-726 78 0
-726 694 0
726 -78 -694 0
-790 79 0
-790 726 0
790 -79 -726 0
-796 -68 0
-796 69 0
796 68 -69 0
-800 -70 0
-800 796 0
800 70 -796 0
-808 -71 0
-808 800 0
808 71 -800 0
-840 72 0
-840 808 0
840 -72 -808 0
-904 73 0
-904 840 0
904 -73 -840 0
-910 -62 0
-910 63 0
910 62 -63 0
-914 -64 0
-914 910 0
914 64 -910 0
-922 -65 0
-922 914 0
922 65 -914 0
-954 66 0
-954 922 0
954 -66 -922 0
-1018 67 0
-1018 954 0
1018 -67 -954 0
-1024 -56 0
-1024 57 0
1024 56 -57 0
-1028 -58 0
-1028 1024 0
1028 58 -1024 0
-1036 -59 0
-1036 1028 0
1036 59 -1028 0
-1068 60 0
-1068 1036 0
1068 -60 -1036 0
-1132 61 0
-1132 1068 0
1132 -61 -1068 0
-1186 -1018 0
-1186 -1132 0
1186 1018 1132 0
-1240 -904 0
-1240 1186 0
1240 904 -1186 0
-1294 -790 0
-1294 1240 0
1294 790 -1240 0
-1348 -676 0
-1348 1294 0
1348 676 -1294 0
-1402 -562 0
-1402 1348 0
1402 562 -1348 0
-1456 -448 0
-1456 1402 0
1456 448 -1402 0
-1510 -334 0
-1510 1456 0
1510 334 -1456 0
-1564 -220 0
-1564 1510 0
1564 220 -1510 0
-1718 52 0
-1718 1564 0
1718 -52 -1564 0
-1719 -52 0
-1719 -1564 0
1719 52 1564 0
-1720 -1718 0
-1720 -1719 0
1720 1718 1719 0
51 -4932 0
-51 4932 0
-115 -106 0
-115 111 0
115 106 -111 0
-123 -107 0
-123 115 0
123 107 -115 0
-155 108 0
-155 123 0
155 -108 -123 0
-219 109 0
-219 155 0
219 -109 -155 0
-229 -100 0
-229 225 0
229 100 -225 0
-237 -101 0
-237 229 0
237 101 -229 0
-269 102 0
-269 237 0
269 -102 -237 0
-333 103 0
-333 269 0
333 -103 -269 0
-343 -94 0
-343 339 0
343 94 -339 0
-351 -95 0
-351 343 0
351 95 -343 0
-383 96 0
-383 351 0
383 -96 -351 0
-447 97 0
-447 383 0
447 -97 -383 0
-457 -88 0
-457 453 0
457 88 -453 0
-465 -89 0
-465 457 0
465 89 -457 0
-497 90 0
-497 465 0
497 -90 -465 0
-561 91 0
-561 497 0
561 -91 -497 0
-571 -82 0
-571 567 0
571 82 -567 0
-579 -83 0
-579 571 0
579 83 -571 0
-611 84 0
-611 579 0
611 -84 -579 0
-675 85 0
-675 611 0
675 -85 -611 0
-685 -76 0
-685 681 0
685 76 -681 0
-693 -77 0
-693 685 0
693 77 -685 0
-725 78 0
-725 693 0
725 -78 -693 0
-789 79 0
-789 725 0
789 -79 -725 0
-799 -70 0
-799 795 0
799 70 -795 0
-807 -71 0
-807 799 0
807 71 -799 0
-839 72 0
-839 807 0
839 -72 -807 0
-903 73 0
-903 839 0
903 -73 -839 0
-913 -64 0
-913 909 0
913 64 -909 0
-921 -65 0
-921 913 0
921 65 -913 0
-953 66 0
-953 921 0
953 -66 -921 0
-1017 67 0
-1017 953 0
1017 -67 -953 0
-1027 -58 0
-1027 1023 0
1027 58 -1023 0
-1035 -59 0
-1035 1027 0
1035 59 -1027 0
-1067 60 0
-1067 1035 0
1067 -60 -1035 0
-1131 61 0
-1131 1067 0
1131 -61 -1067 0
-1185 -1017 0
-1185 -1131 0
1185 1017 1131 0
-1239 -903 0
-1239 1185 0
1239 903 -1185 0
-1293 -789 0
-1293 1239 0
1293 789 -1239 0
-1347 -675 0
-1347 1293 0
1347 675 -1293 0
-1401 -561 0
-1401 1347 0
1401 561 -1347 0
-1455 -447 0
-1455 1401 0
1455 447 -1401 0
-1509 -333 0
-1509 1455 0
1509 333 -1455 0
-1563 -219 0
-1563 1509 0
1563 219 -1509 0
-1715 51 0
-1715 1563 0
1715 -51 -1563 0
-1716 -51 0
-1716 -1563 0
1716 51 1563 0
-1717 -1715 0
-1717 -1716 0
1717 1715 1716 0
50 -4931 0
-50 4931 0
-114 -106 0
-114 110 0
114 106 -110 0
-122 -107 0
-122 114 0
122 107 -114 0
-154 108 0
-154 122 0
154 -108 -122 0
-218 109 0
-218 154 0
218 -109 -154 0
-228 -100 0
-228 224 0
228 100 -224 0
-236 -101 0
-236 228 0
236 101 -228 0
-268 102 0
-268 236 0
268 -102 -236 0
-332 103 0
-332 268 0
332 -103 -268 0
-342 -94 0
-342 338 0
342 94 -338 0
-350 -95 0
-350 342 0
350 95 -342 0
-382 96 0
-382 350 0
382 -96 -350 0
-446 97 0
-446 382 0
446 -97 -382 0
-456 -88 0
-456 452 0
456 88 -452 0
-464 -89 0
-464 456 0
464 89 -456 0
-496 90 0
-496 464 0
496 -90 -464 0
-560 91 0
-560 496 0
560 -91 -496 0
-570 -82 0
-570 566 0
570 82 -566 0
-578 -83 0
-578 570 0
578 83 -570 0
-610 84 0
-610 578 0
610 -84 -578 0
-674 85 0
-674 610 0
674 -85 -610 0
-684 -76 0
-684 680 0
684 76 -680 0
-692 -77 0
-692 684 0
692 77 -684 0
-724 78 0
-724 692 0
724 -78 -692 0
-788 79 0
-788 724 0
788 -79 -724 0
-798 -70 0
-798 794 0
798 70 -794 0
-806 -71 0
-806 798 0
806 71 -798 0
-838 72 0
-838 806 0
838 -72 -806 0
-902 73 0
-902 838 0
902 -73 -838 0
-912 -64 0
-912 908 0
912 64 -908 0
-920 -65 0
-920 912 0
920 65 -912 0
-952 66 0
-952 920 0
952 -66 -920 0
-1016 67 0
-1016 952 0
1016 -67 -952 0
-1026 -58 0
-1026 1022 0
1026 58 -1022 0
-1034 -59 0
-1034 1026 0
1034 59 -1026 0
-1066 60 0
-1066 1034 0
1066 -60 -1034 0
-1130 61 0
-1130 1066 0
1130 -61 -1066 0
-1184 -1016 0
-1184 -1130 0
1184 1016 1130 0
-1238 -902 0
-1238 1184 0
1238 902 -1184 0
-1292 -788 0
-1292 1238 0
1292 788 -1238 0
-1346 -674 0
-1346 1292 0
1346 674 -1292 0
-1400 -560 0
-1400 1346 0
1400 560 -1346 0
-1454 -446 0
-1454 1400 0
1454 446 -1400 0
-1508 -332 0
-1508 1454 0
1508 332 -1454 0
-1562 -218 0
-1562 1508 0
1562 218 -1508 0
-1712 50 0
-1712 1562 0
1712 -50 -1562 0
-1713 -50 0
-1713 -1562 0
1713 50 1562 0
-1714 -1712 0
-1714 -1713 0
1714 1712 1713 0
49 -4930 0
-49 4930 0
-121 106 0
-121 113 0
121 -106 -113 0
-137 107 0
-137 121 0
137 -107 -121 0
-153 -108 0
-153 137 0
153 108 -137 0
-217 109 0
-217 153 0
217 -109 -153 0
-235 100 0
-235 227 0
235 -100 -227 0
-251 101 0
-251 235 0
251 -101 -235 0
-267 -102 0
-267 251 0
267 102 -251 0
-331 103 0
-331 267 0
331 -103 -267 0
-349 94 0
-349 341 0
349 -94 -341 0
-365 95 0
-365 349 0
365 -95 -349 0
-381 -96 0
-381 365 0
381 96 -365 0
-445 97 0
-445 381 0
445 -97 -381 0
-463 88 0
-463 455 0
463 -88 -455 0
-479 89 0
-479 463 0
479 -89 -463 0
-495 -90 0
-495 479 0
495 90 -479 0
-559 91 0
-559 495 0
559 -91 -495 0
-577 82 0
-577 569 0
577 -82 -569 0
-593 83 0
-593 577 0
593 -83 -577 0
-609 -84 0
-609 593 0
609 84 -593 0
-673 85 0
-673 609 0
673 -85 -609 0
-691 76 0
-691 683 0
691 -76 -683 0
-707 77 0
-707 691 0
707 -77 -691 0
-723 -78 0
-723 707 0
723 78 -707 0
-787 79 0
-787 723 0
787 -79 -723 0
-805 70 0
-805 797 0
805 -70 -797 0
-821 71 0
-821 805 0
821 -71 -805 0
-837 -72 0
-837 821 0
837 72 -821 0
-901 73 0
-901 837 0
901 -73 -837 0
-919 64 0
-919 911 0
919 -64 -911 0
-935 65 0
-935 919 0
935 -65 -919 0
-951 -66 0
-951 935 0
951 66 -935 0
-1015 67 0
-1015 951 0
1015 -67 -951 0
-1033 58 0
-1033 1025 0
1033 -58 -1025 0
-1049 59 0
-1049 1033 0
1049 -59 -1033 0
-1065 -60 0
-1065 1049 0
1065 60 -1049 0
-1129 61 0
-1129 1065 0
1129 -61 -1065 0
-1183 -1015 0
-1183 -1129 0
1183 1015 1129 0
-1237 -901 0
-1237 1183 0
1237 901 -1183 0
-1291 -787 0
-1291 1237 0
1291 787 -1237 0
-1345 -673 0
-1345 1291 0
1345 673 -1291 0
-1399 -559 0
-1399 1345 0
1399 559 -1345 0
-1453 -445 0
-1453 1399 0
1453 445 -1399 0
-1507 -331 0
-1507 1453 0
1507 331 -1453 0
-1561 -217 0
-1561 1507 0
1561 217 -1507 0
-1709 49 0
-1709 1561 0
1709 -49 -1561 0
-1710 -49 0
-1710 -1561 0
1710 49 1561 0
-1711 -1709 0
-1711 -1710 0
1711 1709 1710 0
48 -4929 0
-48 4929 0
-120 106 0
-120 112 0
120 -106 -112 0
-136 107 0
-136 120 0
136 -107 -120 0
-152 -108 0
-152 136 0
152 108 -136 0
-216 109 0
-216 152 0
216 -109 -152 0
-234 100 0
-234 226 0
234 -100 -226 0
-250 101 0
-250 234 0
250 -101 -234 0
-266 -102 0
-266 250 0
266 102 -250 0
-330 103 0
-330 266 0
330 -103 -266 0
-348 94 0
-348 340 0
348 -94 -340 0
-364 95 0
-364 348 0
364 -95 -348 0
-380 -96 0
-380 364 0
380 96 -364 0
-444 97 0
-444 380 0
444 -97 -380 0
-462 88 0
-462 454 0
462 -88 -454 0
-478 89 0
-478 462 0
478 -89 -462 0
-494 -90 0
-494 478 0
494 90 -478 0
-558 91 0
-558 494 0
558 -91 -494 0
-576 82 0
-576 568 0
576 -82 -568 0
-592 83 0
-592 576 0
592 -83 -576 0
-608 -84 0
-608 592 0
608 84 -592 0
-672 85 0
-672 608 0
672 -85 -608 0
-690 76 0
-690 682 0
690 -76 -682 0
-706 77 0
-706 690 0
706 -77 -690 0
-722 -78 0
-722 706 0
722 78 -706 0
-786 79 0
-786 722 0
786 -79 -722 0
-804 70 0
-804 796 0
804 -70 -796 0
-820 71 0
-820 804 0
820 -71 -804 0
-836 -72 0
-836 820 0
836 72 -820 0
-900 73 0
-900 836 0
900 -73 -836 0
-918 64 0
-918 910 0
918 -64 -910 0
-934 65 0
-934 918 0
934 -65 -918 0
-950 -66 0
-950 934 0
950 66 -934 0
-1014 67 0
-1014 950 0
1014 -67 -950 0
-1032 58 0
-1032 1024 0
1032 -58 -1024 0
-1048 59 0
-1048 1032 0
1048 -59 -1032 0
-1064 -60 0
-1064 1048 0
1064 60 -1048 0
-1128 61 0
-1128 1064 0
1128 -61 -1064 0
-1182 -1014 0
-1182 -1128 0
1182 1014 1128 0
-1236 -900 0
-1236 1182 0
1236 900 -1182 0
-1290 -786 0
-1290 1236 0
1290 786 -1236 0
-1344 -672 0
-1344 1290 0
1344 672 -1290 0
-1398 -558 0
-1398 1344 0
1398 558 -1344 0
-1452 -444 0
-1452 1398 0
1452 444 -1398 0
-1506 -330 0
-1506 1452 0
1506 330 -1452 0
-1560 -216 0
-1560 1506 0
1560 216 -1506 0
-1706 48 0
-1706 1560 0
1706 -48 -1560 0
-1707 -48 0
-1707 -1560 0
1707 48 1560 0
-1708 -1706 0
-1708 -1707 0
1708 1706 1707 0
47 -4928 0
-47 4928 0
-135 107 0
-135 119 0
135 -107 -119 0
-151 -108 0
-151 135 0
151 108 -135 0
-215 109 0
-215 151 0
215 -109 -151 0
-249 101 0
-249 233 0
249 -101 -233 0
-265 -102 0
-265 249 0
265 102 -249 0
-329 103 0
-329 265 0
329 -103 -265 0
-363 95 0
-363 347 0
363 -95 -347 0
-379 -96 0
-379 363 0
379 96 -363 0
-443 97 0
-443 379 0
443 -97 -379 0
-477 89 0
-477 461 0
477 -89 -461 0
-493 -90 0
-493 477 0
493 90 -477 0
-557 91 0
-557 493 0
557 -91 -493 0
-591 83 0
-591 575 0
591 -83 -575 0
-607 -84 0
-607 591 0
607 84 -591 0
-671 85 0
-671 607 0
671 -85 -607 0
-705 77 0
-705 689 0
705 -77 -689 0
-721 -78 0
-721 705 0
721 78 -705 0
-785 79 0
-785 721 0
785 -79 -721 0
-819 71 0
-819 803 0
819 -71 -803 0
-835 -72 0
-835 819 0
835 72 -819 0
-899 73 0
-899 835 0
899 -73 -835 0
-933 65 0
-933 917 0
933 -65 -917 0
-949 -66 0
-949 933 0
949 66 -933 0
-1013 67 0
-1013 949 0
1013 -67 -949 0
-1047 59 0
-1047 1031 0
1047 -59 -1031 0
-1063 -60 0
-1063 1047 0
1063 60 -1047 0
-1127 61 0
-1127 1063 0
1127 -61 -1063 0
-1181 -1013 0
-1181 -1127 0
1181 1013 1127 0
-1235 -899 0
-1235 1181 0
1235 899 -1181 0
-1289 -785 0
-1289 1235 0
1289 785 -1235 0
-1343 -671 0
-1343 1289 0
1343 671 -1289 0
-1397 -557 0
-1397 1343 0
1397 557 -1343 0
-1451 -443 0
-1451 1397 0
1451 443 -1397 0
-1505 -329 0
-1505 1451 0
1505 329 -1451 0
-1559 -215 0
-1559 1505 0
1559 215 -1505 0
-1703 47 0
-1703 1559 0
1703 -47 -1559 0
-1704 -47 0
-1704 -1559 0
1704 47 1559 0
-1705 -1703 0
-1705 -1704 0
1705 1703 1704 0
46 -4927 0
-46 4927 0
-134 107 0
-134 118 0
134 -107 -118 0
-150 -108 0
-150 134 0
150 108 -134 0
-214 109 0
-214 150 0
214 -109 -150 0
-248 101 0
-248 232 0
248 -101 -232 0
-264 -102 0
-264 248 0
264 102 -248 0
-328 103 0
-328 264 0
328 -103 -264 0
-362 95 0
-362 346 0
362 -95 -346 0
-378 -96 0
-378 362 0
378 96 -362 0
-442 97 0
-442 378 0
442 -97 -378 0
-476 89 0
-476 460 0
476 -89 -460 0
-492 -90 0
-492 476 0
492 90 -476 0
-556 91 0
-556 492 0
556 -91 -492 0
-590 83 0
-590 574 0
590 -83 -574 0
-606 -84 0
-606 590 0
606 84 -590 0
-670 85 0
-670 606 0
670 -85 -606 0
-704 77 0
-704 688 0
704 -77 -688 0
-720 -78 0
-720 704 0
720 78 -704 0
-784 79 0
-784 720 0
784 -79 -720 0
-818 71 0
-818 802 0
818 -71 -802 0
-834 -72 0
-834 818 0
834 72 -818 0
-898 73 0
-898 834 0
898 -73 -834 0
-932 65 0
-932 916 0
932 -65 -916 0
-948 -66 0
-948 932 0
948 66 -932 0
-1012 67 0
-1012 948 0
1012 -67 -948 0
-1046 59 0
-1046 1030 0
1046 -59 -1030 0
-1062 -60 0
-1062 1046 0
1062 60 -1046 0
-1126 61 0
-1126 1062 0
1126 -61 -1062 0
-1180 -1012 0
-1180 -1126 0
1180 1012 1126 0
-1234 -898 0
-1234 1180 0
1234 898 -1180 0
-1288 -784 0
-1288 1234 0
1288 784 -1234 0
-1342 -670 0
-1342 1288 0
1342 670 -1288 0
-1396 -556 0
-1396 1342 0
1396 556 -1342 0
-1450 -442 0
-1450 1396 0
1450 442 -1396 0
-1504 -328 0
-1504 1450 0
1504 328 -1450 0
-1558 -214 0
-1558 1504 0
1558 214 -1504 0
-1700 46 0
-1700 1558 0
1700 -46 -1558 0
-1701 -46 0
-1701 -1558 0
1701 46 1558 0
-1702 -1700 0
-1702 -1701 0
1702 1700 1701 0
45 -4926 0
-45 4926 0
-133 107 0
-133 117 0
133 -107 -117 0
-149 -108 0
-149 133 0
149 108 -133 0
-213 109 0
-213 149 0
213 -109 -149 0
-247 101 0
-247 231 0
247 -101 -231 0
-263 -102 0
-263 247 0
263 102 -247 0
-327 103 0
-327 263 0
327 -103 -263 0
-361 95 0
-361 345 0
361 -95 -345 0
-377 -96 0
-377 361 0
377 96 -361 0
-441 97 0
-441 377 0
441 -97 -377 0
-475 89 0
-475 459 0
475 -89 -459 0
-491 -90 0
-491 475 0
491 90 -475 0
-555 91 0
-555 491 0
555 -91 -491 0
-589 83 0
-589 573 0
589 -83 -573 0
-605 -84 0
-605 589 0
605 84 -589 0
-669 85 0
-669 605 0
669 -85 -605 0
-703 77 0
-703 687 0
703 -77 -687 0
-719 -78 0
-719 703 0
719 78 -703 0
-783 79 0
-783 719 0
783 -79 -719 0
-817 71 0
-817 801 0
817 -71 -801 0
-833 -72 0
-833 817 0
833 72 -817 0
-897 73 0
-897 833 0
897 -73 -833 0
-931 65 0
-931 915 0
931 -65 -915 0
-947 -66 0
-947 931 0
947 66 -931 0
-1011 67 0
-1011 947 0
1011 -67 -947 0
-1045 59 0
-1045 1029 0
1045 -59 -1029 0
-1061 -60 0
-1061 1045 0
1061 60 -1045 0
-1125 61 0
-1125 1061 0
1125 -61 -1061 0
-1179 -1011 0
-1179 -1125 0
1179 1011 1125 0
-1233 -897 0
-1233 1179 0
1233 897 -1179 0
-1287 -783 0
-1287 1233 0
1287 783 -1233 0
-1341 -669 0
-1341 1287 0
1341 669 -1287 0
-1395 -555 0
-1395 1341 0
1395 555 -1341 0
-1449 -441 0
-1449 1395 0
1449 441 -1395 0
-1503 -327 0
-1503 1449 0
1503 327 -1449 0
-1557 -213 0
-1557 1503 0
1557 213 -1503 0
-1697 45 0
-1697 1557 0
1697 -45 -1557 0
-1698 -45 0
-1698 -1557 0
1698 45 1557 0
-1699 -1697 0
-1699 -1698 0
1699 1697 1698 0
44 -4925 0
-44 4925 0
-132 107 0
-132 116 0
132 -107 -116 0
-148 -108 0
-148 132 0
148 108 -132 0
-212 109 0
-212 148 0
212 -109 -148 0
-246 101 0
-246 230 0
246 -101 -230 0
-262 -102 0
-262 246 0
262 102 -246 0
-326 103 0
-326 262 0
326 -103 -262 0
-360 95 0
-360 344 0
360 -95 -344 0
-376 -96 0
-376 360 0
376 96 -360 0
-440 97 0
-440 376 0
440 -97 -376 0
-474 89 0
-474 458 0
474 -89 -458 0
-490 -90 0
-490 474 0
490 90 -474 0
-554 91 0
-554 490 0
554 -91 -490 0
-588 83 0
-588 572 0
588 -83 -572 0
-604 -84 0
-604 588 0
604 84 -588 0
-668 85 0
-668 604 0
668 -85 -604 0
-702 77 0
-702 686 0
702 -77 -686 0
-718 -78 0
-718 702 0
718 78 -702 0
-782 79 0
-782 718 0
782 -79 -718 0
-816 71 0
-816 800 0
816 -71 -800 0
-832 -72 0
-832 816 0
832 72 -816 0
-896 73 0
-896 832 0
896 -73 -832 0
-930 65 0
-930 914 0
930 -65 -914 0
-946 -66 0
-946 930 0
946 66 -930 0
-1010 67 0
-1010 946 0
1010 -67 -946 0
-1044 59 0
-1044 1028 0
1044 -59 -1028 0
-1060 -60 0
-1060 1044 0
1060 60 -1044 0
-1124 61 0
-1124 1060 0
1124 -61 -1060 0
-1178 -1010 0
-1178 -1124 0
1178 1010 1124 0
-1232 -896 0
-1232 1178 0
1232 896 -1178 0
-1286 -782 0
-1286 1232 0
1286 782 -1232 0
-1340 -668 0
-1340 1286 0
1340 668 -1286 0
-1394 -554 0
-1394 1340 0
1394 554 -1340 0
-1448 -440 0
-1448 1394 0
1448 440 -1394 0
-1502 -326 0
-1502 1448 0
1502 326 -1448 0
-1556 -212 0
-1556 1502 0
1556 212 -1502 0
-1694 44 0
-1694 1556 0
1694 -44 -1556 0
-1695 -44 0
-1695 -1556 0
1695 44 1556 0
-1696 -1694 0
-1696 -1695 0
1696 1694 1695 0
43 -4924 0
-43 4924 0
-131 107 0
-131 115 0
131 -107 -115 0
-147 -108 0
-147 131 0
147 108 -131 0
-211 109 0
-211 147 0
211 -109 -147 0
-245 101 0
-245 229 0
245 -101 -229 0
-261 -102 0
-261 245 0
261 102 -245 0
-325 103 0
-325 261 0
325 -103 -261 0
-359 95 0
-359 343 0
359 -95 -343 0
-375 -96 0
-375 359 0
375 96 -359 0
-439 97 0
-439 375 0
439 -97 -375 0
-473 89 0
-473 457 0
473 -89 -457 0
-489 -90 0
-489 473 0
489 90 -473 0
-553 91 0
-553 489 0
553 -91 -489 0
-587 83 0
-587 571 0
587 -83 -571 0
-603 -84 0
-603 587 0
603 84 -587 0
-667 85 0
-667 603 0
667 -85 -603 0
-701 77 0
-701 685 0
701 -77 -685 0
-717 -78 0
-717 701 0
717 78 -701 0
-781 79 0
-781 717 0
781 -79 -717 0
-815 71 0
-815 799 0
815 -71 -799 0
-831 -72 0
-831 815 0
831 72 -815 0
-895 73 0
-895 831 0
895 -73 -831 0
-929 65 0
-929 913 0
929 -65 -913 0
-945 -66 0
-945 929 0
945 66 -929 0
-1009 67 0
-1009 945 0
1009 -67 -945 0
-1043 59 0
-1043 1027 0
1043 -59 -1027 0
-1059 -60 0
-1059 1043 0
1059 60 -1043 0
-1123 61 0
-1123 1059 0
1123 -61 -1059 0
-1177 -1009 0
-1177 -1123 0
1177 1009 1123 0
-1231 -895 0
-1231 1177 0
1231 895 -1177 0
-1285 -781 0
-1285 1231 0
1285 781 -1231 0
-1339 -667 0
-1339 1285 0
1339 667 -1285 0
-1393 -553 0
-1393 1339 0
1393 553 -1339 0
-1447 -439 0
-1447 1393 0
1447 439 -1393 0
-1501 -325 0
-1501 1447 0
1501 325 -1447 0
-1555 -211 0
-1555 1501 0
1555 211 -1501 0
-1691 43 0
-1691 1555 0
1691 -43 -1555 0
-1692 -43 0
-1692 -1555 0
1692 43 1555 0
-1693 -1691 0
-1693 -1692 0
1693 1691 1692 0
42 -4923 0
-42 4923 0
-130 107 0
-130 114 0
130 -107 -114 0
-146 -108 0
-146 130 0
146 108 -130 0
-210 109 0
-210 146 0
210 -109 -146 0
-244 101 0
-244 228 0
244 -101 -228 0
-260 -102 0
-260 244 0
260 102 -244 0
-324 103 0
-324 260 0
324 -103 -260 0
-358 95 0
-358 342 0
358 -95 -342 0
-374 -96 0
-374 358 0
374 96 -358 0
-438 97 0
-438 374 0
438 -97 -374 0
-472 89 0
-472 456 0
472 -89 -456 0
-488 -90 0
-488 472 0
488 90 -472 0
-552 91 0
-552 488 0
552 -91 -488 0
-586 83 0
-586 570 0
586 -83 -570 0
-602 -84 0
-602 586 0
602 84 -586 0
-666 85 0
-666 602 0
666 -85 -602 0
-700 77 0
-700 684 0
700 -77 -684 0
-716 -78 0
-716 700 0
716 78 -700 0
-780 79 0
-780 716 0
780 -79 -716 0
-814 71 0
-814 798 0
814 -71 -798 0
-830 -72 0
-830 814 0
830 72 -814 0
-894 73 0
-894 830 0
894 -73 -830 0
-928 65 0
-928 912 0
928 -65 -912 0
-944 -66 0
-944 928 0
944 66 -928 0
-1008 67 0
-1008 944 0
1008 -67 -944 0
-1042 59 0
-1042 1026 0
1042 -59 -1026 0
-1058 -60 0
-1058 1042 0
1058 60 -1042 0
-1122 61 0
-1122 1058 0
1122 -61 -1058 0
-1176 -1008 0
-1176 -1122 0
1176 1008 1122 0
-1230 -894 0
-1230 1176 0
1230 894 -1176 0
-1284 -780 0
-1284 1230 0
1284 780 -1230 0
-1338 -666 0
-1338 1284 0
1338 666 -1284 0
-1392 -552 0
-1392 1338 0
1392 552 -1338 0
-1446 -438 0
-1446 1392 0
1446 438 -1392 0
-1500 -324 0
-1500 1446 0
1500 324 -1446 0
-1554 -210 0
-1554 1500 0
1554 210 -1500 0
-1688 42 0
-1688 1554 0
1688 -42 -1554 0
-1689 -42 0
-1689 -1554 0
1689 42 1554 0
-1690 -1688 0
-1690 -1689 0
1690 1688 1689 0
41 -4922 0
-41 4922 0
-129 -107 0
-129 121 0
129 107 -121 0
-145 -108 0
-145 129 0
145 108 -129 0
-209 109 0
-209 145 0
209 -109 -145 0
-243 -101 0
-243 235 0
243 101 -235 0
-259 -102 0
-259 243 0
259 102 -243 0
-323 103 0
-323 259 0
323 -103 -259 0
-357 -95 0
-357 349 0
357 95 -349 0
-373 -96 0
-373 357 0
373 96 -357 0
-437 97 0
-437 373 0
437 -97 -373 0
-471 -89 0
-471 463 0
471 89 -463 0
-487 -90 0
-487 471 0
487 90 -471 0
-551 91 0
-551 487 0
551 -91 -487 0
-585 -83 0
-585 577 0
585 83 -577 0
-601 -84 0
-601 585 0
601 84 -585 0
-665 85 0
-665 601 0
665 -85 -601 0
-699 -77 0
-699 691 0
699 77 -691 0
-715 -78 0
-715 699 0
715 78 -699 0
-779 79 0
-779 715 0
779 -79 -715 0
-813 -71 0
-813 805 0
813 71 -805 0
-829 -72 0
-829 813 0
829 72 -813 0
-893 73 0
-893 829 0
893 -73 -829 0
-927 -65 0
-927 919 0
927 65 -919 0
-943 -66 0
-943 927 0
943 66 -927 0
-1007 67 0
-1007 943 0
1007 -67 -943 0
-1041 -59 0
-1041 1033 0
1041 59 -1033 0
-1057 -60 0
-1057 1041 0
1057 60 -1041 0
-1121 61 0
-1121 1057 0
1121 -61 -1057 0
-1175 -1007 0
-1175 -1121 0
1175 1007 1121 0
-1229 -893 0
-1229 1175 0
1229 893 -1175 0
-1283 -779 0
-1283 1229 0
1283 779 -1229 0
-1337 -665 0
-1337 1283 0
1337 665 -1283 0
-1391 -551 0
-1391 1337 0
1391 551 -1337 0
-1445 -437 0
-1445 1391 0
1445 437 -1391 0
-1499 -323 0
-1499 1445 0
1499 323 -1445 0
-1553 -209 0
-1553 1499 0
1553 209 -1499 0
-1685 41 0
-1685 1553 0
1685 -41 -1553 0
-1686 -41 0
-1686 -1553 0
1686 41 1553 0
-1687 -1685 0
-1687 -1686 0
1687 1685 1686 0
40 -4921 0
-40 4921 0
-128 -107 0
-128 120 0
128 107 -120 0
-144 -108 0
-144 128 0
144 108 -128 0
-208 109 0
-208 144 0
208 -109 -144 0
-242 -101 0
-242 234 0
242 101 -234 0
-258 -102 0
-258 242 0
258 102 -242 0
-322 103 0
-322 258 0
322 -103 -258 0
-356 -95 0
-356 348 0
356 95 -348 0
-372 -96 0
-372 356 0
372 96 -356 0
-436 97 0
-436 372 0
436 -97 -372 0
-470 -89 0
-470 462 0
470 89 -462 0
-486 -90 0
-486 470 0
486 90 -470 0
-550 91 0
-550 486 0
550 -91 -486 0
-584 -83 0
-584 576 0
584 83 -576 0
-600 -84 0
-600 584 0
600 84 -584 0
-664 85 0
-664 600 0
664 -85 -600 0
-698 -77 0
-698 690 0
698 77 -690 0
-714 -78 0
-714 698 0
714 78 -698 0
-778 79 0
-778 714 0
778 -79 -714 0
-812 -71 0
-812 804 0
812 71 -804 0
-828 -72 0
-828 812 0
828 72 -812 0
-892 73 0
-892 828 0
892 -73 -828 0
-926 -65 0
-926 918 0
926 65 -918 0
-942 -66 0
-942 926 0
942 66 -926 0
-1006 67 0
-1006 942 0
1006 -67 -942 0
-1040 -59 0
-1040 1032 0
1040 59 -1032 0
-1056 -60 0
-1056 1040 0
1056 60 -1040 0
-1120 61 0
-1120 1056 0
1120 -61 -1056 0
-1174 -1006 0
-1174 -1120 0
1174 1006 1120 0
-1228 -892 0
-1228 1174 0
1228 892 -1174 0
-1282 -778 0
-1282 1228 0
1282 778 -1228 0
-1336 -664 0
-1336 1282 0
1336 664 -1282 0
-1390 -550 0
-1390 1336 0
1390 550 -1336 0
-1444 -436 0
-1444 1390 0
1444 436 -1390 0
-1498 -322 0
-1498 1444 0
1498 322 -1444 0
-1552 -208 0
-1552 1498 0
1552 208 -1498 0
-1682 40 0
-1682 1552 0
1682 -40 -1552 0
-1683 -40 0
-1683 -1552 0
1683 40 1552 0
-1684 -1682 0
-1684 -1683 0
1684 1682 1683 0
39 -4920 0
-39 4920 0
-143 -108 0
-143 127 0
143 108 -127 0
-207 109 0
-207 143 0
207 -109 -143 0
-257 -102 0
-257 241 0
257 102 -241 0
-321 103 0
-321 257 0
321 -103 -257 0
-371 -96 0
-371 355 0
371 96 -355 0
-435 97 0
-435 371 0
435 -97 -371 0
-485 -90 0
-485 469 0
485 90 -469 0
-549 91 0
-549 485 0
549 -91 -485 0
-599 -84 0
-599 583 0
599 84 -583 0
-663 85 0
-663 599 0
663 -85 -599 0
-713 -78 0
-713 697 0
713 78 -697 0
-777 79 0
-777 713 0
777 -79 -713 0
-827 -72 0
-827 811 0
827 72 -811 0
-891 73 0
-891 827 0
891 -73 -827 0
-941 -66 0
-941 925 0
941 66 -925 0
-1005 67 0
-1005 941 0
1005 -67 -941 0
-1055 -60 0
-1055 1039 0
1055 60 -1039 0
-1119 61 0
-1119 1055 0
1119 -61 -1055 0
-1173 -1005 0
-1173 -1119 0
1173 1005 1119 0
-1227 -891 0
-1227 1173 0
1227 891 -1173 0
-1281 -777 0
-1281 1227 0
1281 777 -1227 0
-1335 -663 0
-1335 1281 0
1335 663 -1281 0
-1389 -549 0
-1389 1335 0
1389 549 -1335 0
-1443 -435 0
-1443 1389 0
1443 435 -1389 0
-1497 -321 0
-1497 1443 0
1497 321 -1443 0
-1551 -207 0
-1551 1497 0
1551 207 -1497 0
-1679 39 0
-1679 1551 0
1679 -39 -1551 0
-1680 -39 0
-1680 -1551 0
1680 39 1551 0
-1681 -1679 0
-1681 -1680 0
1681 1679 1680 0
38 -4919 0
-38 4919 0
-142 -108 0
-142 126 0
142 108 -126 0
-206 109 0
-206 142 0
206 -109 -142 0
-256 -102 0
-256 240 0
256 102 -240 0
-320 103 0
-320 256 0
320 -103 -256 0
-370 -96 0
-370 354 0
370 96 -354 0
-434 97 0
-434 370 0
434 -97 -370 0
-484 -90 0
-484 468 0
484 90 -468 0
-548 91 0
-548 484 0
548 -91 -484 0
-598 -84 0
-598 582 0
598 84 -582 0
-662 85 0
-662 598 0
662 -85 -598 0
-712 -78 0
-712 696 0
712 78 -696 0
-776 79 0
-776 712 0
776 -79 -712 0
-826 -72 0
-826 810 0
826 72 -810 0
-890 73 0
-890 826 0
890 -73 -826 0
-940 -66 0
-940 924 0
940 66 -924 0
-1004 67 0
-1004 940 0
1004 -67 -940 0
-1054 -60 0
-1054 1038 0
1054 60 -1038 0
-1118 61 0
-1118 1054 0
1118 -61 -1054 0
-1172 -1004 0
-1172 -1118 0
1172 1004 1118 0
-1226 -890 0
-1226 1172 0
1226 890 -1172 0
-1280 -776 0
-1280 1226 0
1280 776 -1226 0
-1334 -662 0
-1334 1280 0
1334 662 -1280 0
-1388 -548 0
-1388 1334 0
1388 548 -1334 0
-1442 -434 0
-1442 1388 0
1442 434 -1388 0
-1496 -320 0
-1496 1442 0
1496 320 -1442 0
-1550 -206 0
-1550 1496 0
1550 206 -1496 0
-1676 38 0
-1676 1550 0
1676 -38 -1550 0
-1677 -38 0
-1677 -1550 0
1677 38 1550 0
-1678 -1676 0
-1678 -1677 0
1678 1676 1677 0
37 -4918 0
-37 4918 0
-141 -108 0
-141 125 0
141 108 -125 0
-205 109 0
-205 141 0
205 -109 -141 0
-255 -102 0
-255 239 0
255 102 -239 0
-319 103 0
-319 255 0
319 -103 -255 0
-369 -96 0
-369 353 0
369 96 -353 0
-433 97 0
-433 369 0
433 -97 -369 0
-483 -90 0
-483 467 0
483 90 -467 0
-547 91 0
-547 483 0
547 -91 -483 0
-597 -84 0
-597 581 0
597 84 -581 0
-661 85 0
-661 597 0
661 -85 -597 0
-711 -78 0
-711 695 0
711 78 -695 0
-775 79 0
-775 711 0
775 -79 -711 0
-825 -72 0
-825 809 0
825 72 -809 0
-889 73 0
-889 825 0
889 -73 -825 0
-939 -66 0
-939 923 0
939 66 -923 0
-1003 67 0
-1003 939 0
1003 -67 -939 0
-1053 -60 0
-1053 1037 0
1053 60 -1037 0
-1117 61 0
-1117 1053 0
1117 -61 -1053 0
-1171 -1003 0
-1171 -1117 0
1171 1003 1117 0
-1225 -889 0
-1225 1171 0
1225 889 -1171 0
-1279 -775 0
-1279 1225 0
1279 775 -1225 0
-1333 -661 0
-1333 1279 0
1333 661 -1279 0
-1387 -547 0
-1387 1333 0
1387 547 -1333 0
-1441 -433 0
-1441 1387 0
1441 433 -1387 0
-1495 -319 0
-1495 1441 0
1495 319 -1441 0
-1549 -205 0
-1549 1495 0
1549 205 -1495 0
-1673 37 0
-1673 1549 0
1673 -37 -1549 0
-1674 -37 0
-1674 -1549 0
1674 37 1549 0
-1675 -1673 0
-1675 -1674 0
1675 1673 1674 0
36 -4917 0
-36 4917 0
-140 -108 0
-140 124 0
140 108 -124 0
-204 109 0
-204 140 0
204 -109 -140 0
-254 -102 0
-254 238 0
254 102 -238 0
-318 103 0
-318 254 0
318 -103 -254 0
-368 -96 0
-368 352 0
368 96 -352 0
-432 97 0
-432 368 0
432 -97 -368 0
-482 -90 0
-482 466 0
482 90 -466 0
-546 91 0
-546 482 0
546 -91 -482 0
-596 -84 0
-596 580 0
596 84 -580 0
-660 85 0
-660 596 0
660 -85 -596 0
-710 -78 0
-710 694 0
710 78 -694 0
-774 79 0
-774 710 0
774 -79 -710 0
-824 -72 0
-824 808 0
824 72 -808 0
-888 73 0
-888 824 0
888 -73 -824 0
-938 -66 0
-938 922 0
938 66 -922 0
-1002 67 0
-1002 938 0
1002 -67 -938 0
-1052 -60 0
-1052 1036 0
1052 60 -1036 0
-1116 61 0
-1116 1052 0
1116 -61 -1052 0
-1170 -1002 0
-1170 -1116 0
1170 1002 1116 0
-1224 -888 0
-1224 1170 0
1224 888 -1170 0
-1278 -774 0
-1278 1224 0
1278 774 -1224 0
-1332 -660 0
-1332 1278 0
1332 660 -1278 0
-1386 -546 0
-1386 1332 0
1386 546 -1332 0
-1440 -432 0
-1440 1386 0
1440 432 -1386 0
-1494 -318 0
-1494 1440 0
1494 318 -1440 0
-1548 -204 0
-1548 1494 0
1548 204 -1494 0
-1670 36 0
-1670 1548 0
1670 -36 -1548 0
-1671 -36 0
-1671 -1548 0
1671 36 1548 0
-1672 -1670 0
-1672 -1671 0
1672 1670 1671 0
35 -4916 0
-35 4916 0
-139 -108 0
-139 123 0
139 108 -123 0
-203 109 0
-203 139 0
203 -109 -139 0
-253 -102 0
-253 237 0
253 102 -237 0
-317 103 0
-317 253 0
317 -103 -253 0
-367 -96 0
-367 351 0
367 96 -351 0
-431 97 0
-431 367 0
431 -97 -367 0
-481 -90 0
-481 465 0
481 90 -465 0
-545 91 0
-545 481 0
545 -91 -481 0
-595 -84 0
-595 579 0
595 84 -579 0
-659 85 0
-659 595 0
659 -85 -595 0
-709 -78 0
-709 693 0
709 78 -693 0
-773 79 0
-773 709 0
773 -79 -709 0
-823 -72 0
-823 807 0
823 72 -807 0
-887 73 0
-887 823 0
887 -73 -823 0
-937 -66 0
-937 921 0
937 66 -921 0
-1001 67 0
-1001 937 0
1001 -67 -937 0
-1051 -60 0
-1051 1035 0
1051 60 -1035 0
-1115 61 0
-1115 1051 0
1115 -61 -1051 0
-1169 -1001 0
-1169 -1115 0
1169 1001 1115 0
-1223 -887 0
-1223 1169 0
1223 887 -1169 0
-1277 -773 0
-1277 1223 0
1277 773 -1223 0
-1331 -659 0
-1331 1277 0
1331 659 -1277 0
-1385 -545 0
-1385 1331 0
1385 545 -1331 0
-1439 -431 0
-1439 1385 0
1439 431 -1385 0
-1493 -317 0
-1493 1439 0
1493 317 -1439 0
-1547 -203 0
-1547 1493 0
1547 203 -1493 0
-1667 35 0
-1667 1547 0
1667 -35 -1547 0
-1668 -35 0
-1668 -1547 0
1668 35 1547 0
-1669 -1667 0
-1669 -1668 0
1669 1667 1668 0
34 -4915 0
-34 4915 0
-138 -108 0
-138 122 0
138 108 -122 0
-202 109 0
-202 138 0
202 -109 -138 0
-252 -102 0
-252 236 0
252 102 -236 0
-316 103 0
-316 252 0
316 -103 -252 0
-366 -96 0
-366 350 0
366 96 -350 0
-430 97 0
-430 366 0
430 -97 -366 0
-480 -90 0
-480 464 0
480 90 -464 0
-544 91 0
-544 480 0
544 -91 -480 0
-594 -84 0
-594 578 0
594 84 -578 0
-658 85 0
-658 594 0
658 -85 -594 0
-708 -78 0
-708 692 0
708 78 -692 0
-772 79 0
-772 708 0
772 -79 -708 0
-822 -72 0
-822 806 0
822 72 -806 0
-886 73 0
-886 822 0
886 -73 -822 0
-936 -66 0
-936 920 0
936 66 -920 0
-1000 67 0
-1000 936 0
1000 -67 -936 0
-1050 -60 0
-1050 1034 0
1050 60 -1034 0
-1114 61 0
-1114 1050 0
1114 -61 -1050 0
-1168 -1000 0
-1168 -1114 0
1168 1000 1114 0
-1222 -886 0
-1222 1168 0
1222 886 -1168 0
-1276 -772 0
-1276 1222 0
1276 772 -1222 0
-1330 -658 0
-1330 1276 0
1330 658 -1276 0
-1384 -544 0
-1384 1330 0
1384 544 -1330 0
-1438 -430 0
-1438 1384 0
1438 430 -1384 0
-1492 -316 0
-1492 1438 0
1492 316 -1438 0
-1546 -202 0
-1546 1492 0
1546 202 -1492 0
-1664 34 0
-1664 1546 0
1664 -34 -1546 0
-1665 -34 0
-1665 -1546 0
1665 34 1546 0
-1666 -1664 0
-1666 -1665 0
1666 1664 1665 0
33 -4914 0
-33 4914 0
-169 108 0
-169 137 0
169 -108 -137 0
-201 -109 0
-201 169 0
201 109 -169 0
-283 102 0
-283 251 0
283 -102 -251 0
-315 -103 0
-315 283 0
315 103 -283 0
-397 96 0
-397 365 0
397 -96 -365 0
-429 -97 0
-429 397 0
429 97 -397 0
-511 90 0
-511 479 0
511 -90 -479 0
-543 -91 0
-543 511 0
543 91 -511 0
-625 84 0
-625 593 0
625 -84 -593 0
-657 -85 0
-657 625 0
657 85 -625 0
-739 78 0
-739 707 0
739 -78 -707 0
-771 -79 0
-771 739 0
771 79 -739 0
-853 72 0
-853 821 0
853 -72 -821 0
-885 -73 0
-885 853 0
885 73 -853 0
-967 66 0
-967 935 0
967 -66 -935 0
-999 -67 0
-999 967 0
999 67 -967 0
-1081 60 0
-1081 1049 0
1081 -60 -1049 0
-1113 -61 0
-1113 1081 0
1113 61 -1081 0
-1167 -999 0
-1167 -1113 0
1167 999 1113 0
-1221 -885 0
-1221 1167 0
1221 885 -1167 0
-1275 -771 0
-1275 1221 0
1275 771 -1221 0
-1329 -657 0
-1329 1275 0
1329 657 -1275 0
-1383 -543 0
-1383 1329 0
1383 543 -1329 0
-1437 -429 0
-1437 1383 0
1437 429 -1383 0
-1491 -315 0
-1491 1437 0
1491 315 -1437 0
-1545 -201 0
-1545 1491 0
1545 201 -1491 0
-1661 33 0
-1661 1545 0
1661 -33 -1545 0
-1662 -33 0
-1662 -1545 0
1662 33 1545 0
-1663 -1661 0
-1663 -1662 0
1663 1661 1662 0
32 -4913 0
-32 4913 0
-168 108 0
-168 136 0
168 -108 -136 0
-200 -109 0
-200 168 0
200 109 -168 0
-282 102 0
-282 250 0
282 -102 -250 0
-314 -103 0
-314 282 0
314 103 -282 0
-396 96 0
-396 364 0
396 -96 -364 0
-428 -97 0
-428 396 0
428 97 -396 0
-510 90 0
-510 478 0
510 -90 -478 0
-542 -91 0
-542 510 0
542 91 -510 0
-624 84 0
-624 592 0
624 -84 -592 0
-656 -85 0
-656 624 0
656 85 -624 0
-738 78 0
-738 706 0
738 -78 -706 0
-770 -79 0
-770 738 0
770 79 -738 0
-852 72 0
-852 820 0
852 -72 -820 0
-884 -73 0
-884 852 0
884 73 -852 0
-966 66 0
-966 934 0
966 -66 -934 0
-998 -67 0
-998 966 0
998 67 -966 0
-1080 60 0
-1080 1048 0
1080 -60 -1048 0
-1112 -61 0
-1112 1080 0
1112 61 -1080 0
-1166 -998 0
-1166 -1112 0
1166 998 1112 0
-1220 -884 0
-1220 1166 0
1220 884 -1166 0
-1274 -770 0
-1274 1220 0
1274 770 -1220 0
-1328 -656 0
-1328 1274 0
1328 656 -1274 0
-1382 -542 0
-1382 1328 0
1382 542 -1328 0
-1436 -428 0
-1436 1382 0
1436 428 -1382 0
-1490 -314 0
-1490 1436 0
1490 314 -1436 0
-1544 -200 0
-1544 1490 0
1544 200 -1490 0
-1658 32 0
-1658 1544 0
1658 -32 -1544 0
-1659 -32 0
-1659 -1544 0
1659 32 1544 0
-1660 -1658 0
-1660 -1659 0
1660 1658 1659 0
31 -4912 0
-31 4912 0
-167 108 0
-167 135 0
167 -108 -135 0
-199 -109 0
-199 167 0
199 109 -167 0
-281 102 0
-281 249 0
281 -102 -249 0
-313 -103 0
-313 281 0
313 103 -281 0
-395 96 0
-395 363 0
395 -96 -363 0
-427 -97 0
-427 395 0
427 97 -395 0
-509 90 0
-509 477 0
509 -90 -477 0
-541 -91 0
-541 509 0
541 91 -509 0
-623 84 0
-623 591 0
623 -84 -591 0
-655 -85 0
-655 623 0
655 85 -623 0
-737 78 0
-737 705 0
737 -78 -705 0
-769 -79 0
-769 737 0
769 79 -737 0
-851 72 0
-851 819 0
851 -72 -819 0
-883 -73 0
-883 851 0
883 73 -851 0
-965 66 0
-965 933 0
965 -66 -933 0
-997 -67 0
-997 965 0
997 67 -965 0
-1079 60 0
-1079 1047 0
1079 -60 -1047 0
-1111 -61 0
-1111 1079 0
1111 61 -1079 0
-1165 -997 0
-1165 -1111 0
1165 997 1111 0
-1219 -883 0
-1219 1165 0
1219 883 -1165 0
-1273 -769 0
-1273 1219 0
1273 769 -1219 0
-1327 -655 0
-1327 1273 0
1327 655 -1273 0
-1381 -541 0
-1381 1327 0
1381 541 -1327 0
-1435 -427 0
-1435 1381 0
1435 427 -1381 0
-1489 -313 0
-1489 1435 0
1489 313 -1435 0
-1543 -199 0
-1543 1489 0
1543 199 -1489 0
-1655 31 0
-1655 1543 0
1655 -31 -1543 0
-1656 -31 0
-1656 -1543 0
1656 31 1543 0
-1657 -1655 0
-1657 -1656 0
1657 1655 1656 0
30 -4911 0
-30 4911 0
-166 108 0
-166 134 0
166 -108 -134 0
-198 -109 0
-198 166 0
198 109 -166 0
-280 102 0
-280 248 0
280 -102 -248 0
-312 -103 0
-312 280 0
312 103 -280 0
-394 96 0
-394 362 0
394 -96 -362 0
-426 -97 0
-426 394 0
426 97 -394 0
-508 90 0
-508 476 0
508 -90 -476 0
-540 -91 0
-540 508 0
540 91 -508 0
-622 84 0
-622 590 0
622 -84 -590 0
-654 -85 0
-654 622 0
654 85 -622 0
-736 78 0
-736 704 0
736 -78 -704 0
-768 -79 0
-768 736 0
768 79 -736 0
-850 72 0
-850 818 0
850 -72 -818 0
-882 -73 0
-882 850 0
882 73 -850 0
-964 66 0
-964 932 0
964 -66 -932 0
-996 -67 0
-996 964 0
996 67 -964 0
-1078 60 0
-1078 1046 0
1078 -60 -1046 0
-1110 -61 0
-1110 1078 0
1110 61 -1078 0
-1164 -996 0
-1164 -1110 0
1164 996 1110 0
-1218 -882 0
-1218 1164 0
1218 882 -1164 0
-1272 -768 0
-1272 1218 0
1272 768 -1218 0
-1326 -654 0
-1326 1272 0
1326 654 -1272 0
-1380 -540 0
-1380 1326 0
1380 540 -1326 0
-1434 -426 0
-1434 1380 0
1434 426 -1380 0
-1488 -312 0
-1488 1434 0
1488 312 -1434 0
-1542 -198 0
-1542 1488 0
1542 198 -1488 0
-1652 30 0
-1652 1542 0
1652 -30 -1542 0
-1653 -30 0
-1653 -1542 0
1653 30 1542 0
-1654 -1652 0
-1654 -1653 0
1654 1652 1653 0
29 -4910 0
-29 4910 0
-165 108 0
-165 133 0
165 -108 -133 0
-197 -109 0
-197 165 0
197 109 -165 0
-279 102 0
-279 247 0
279 -102 -247 0
-311 -103 0
-311 279 0
311 103 -279 0
-393 96 0
-393 361 0
393 -96 -361 0
-425 -97 0
-425 393 0
425 97 -393 0
-507 90 0
-507 475 0
507 -90 -475 0
-539 -91 0
-539 507 0
539 91 -507 0
-621 84 0
-621 589 0
621 -84 -589 0
-653 -85 0
-653 621 0
653 85 -621 0
-735 78 0
-735 703 0
735 -78 -703 0
-767 -79 0
-767 735 0
767 79 -735 0
-849 72 0
-849 817 0
849 -72 -817 0
-881 -73 0
-881 849 0
881 73 -849 0
-963 66 0
-963 931 0
963 -66 -931 0
-995 -67 0
-995 963 0
995 67 -963 0
-1077 60 0
-1077 1045 0
1077 -60 -1045 0
-1109 -61 0
-1109 1077 0
1109 61 -1077 0
-1163 -995 0
-1163 -1109 0
1163 995 1109 0
-1217 -881 0
-1217 1163 0
1217 881 -1163 0
-1271 -767 0
-1271 1217 0
1271 767 -1217 0
-1325 -653 0
-1325 1271 0
1325 653 -1271 0
-1379 -539 0
-1379 1325 0
1379 539 -1325 0
-1433 -425 0
-1433 1379 0
1433 425 -1379 0
-1487 -311 0
-1487 1433 0
1487 311 -1433 0
-1541 -197 0
-1541 1487 0
1541 197 -1487 0
-1649 29 0
-1649 1541 0
1649 -29 -1541 0
-1650 -29 0
-1650 -1541 0
1650 29 1541 0
-1651 -1649 0
-1651 -1650 0
1651 1649 1650 0
28 -4909 0
-28 4909 0
-164 108 0
-164 132 0
164 -108 -132 0
-196 -109 0
-196 164 0
196 109 -164 0
-278 102 0
-278 246 0
278 -102 -246 0
-310 -103 0
-310 278 0
310 103 -278 0
-392 96 0
-392 360 0
392 -96 -360 0
-424 -97 0
-424 392 0
424 97 -392 0
-506 90 0
-506 474 0
506 -90 -474 0
-538 -91 0
-538 506 0
538 91 -506 0
-620 84 0
-620 588 0
620 -84 -588 0
-652 -85 0
-652 620 0
652 85 -620 0
-734 78 0
-734 702 0
734 -78 -702 0
-766 -79 0
-766 734 0
766 79 -734 0
-848 72 0
-848 816 0
848 -72 -816 0
-880 -73 0
-880 848 0
880 73 -848 0
-962 66 0
-962 930 0
962 -66 -930 0
-994 -67 0
-994 962 0
994 67 -962 0
-1076 60 0
-1076 1044 0
1076 -60 -1044 0
-1108 -61 0
-1108 1076 0
1108 61 -1076 0
-1162 -994 0
-1162 -1108 0
1162 994 1108 0
-1216 -880 0
-1216 1162 0
1216 880 -1162 0
-1270 -766 0
-1270 1216 0
1270 766 -1216 0
-1324 -652 0
-1324 1270 0
1324 652 -1270 0
-1378 -538 0
-1378 1324 0
1378 538 -1324 0
-1432 -424 0
-1432 1378 0
1432 424 -1378 0
-1486 -310 0
-1486 1432 0
1486 310 -1432 0
-1540 -196 0
-1540 1486 0
1540 196 -1486 0
-1646 28 0
-1646 1540 0
1646 -28 -1540 0
-1647 -28 0
-1647 -1540 0
1647 28 1540 0
-1648 -1646 0
-1648 -1647 0
1648 1646 1647 0
27 -4908 0
-27 4908 0
-163 108 0
-163 131 0
163 -108 -131 0
-195 -109 0
-195 163 0
195 109 -163 0
-277 102 0
-277 245 0
277 -102 -245 0
-309 -103 0
-309 277 0
309 103 -277 0
-391 96 0
-391 359 0
391 -96 -359 0
-423 -97 0
-423 391 0
423 97 -391 0
-505 90 0
-505 473 0
505 -90 -473 0
-537 -91 0
-537 505 0
537 91 -505 0
-619 84 0
-619 587 0
619 -84 -587 0
-651 -85 0
-651 619 0
651 85 -619 0
-733 78 0
-733 701 0
733 -78 -701 0
-765 -79 0
-765 733 0
765 79 -733 0
-847 72 0
-847 815 0
847 -72 -815 0
-879 -73 0
-879 847 0
879 73 -847 0
-961 66 0
-961 929 0
961 -66 -929 0
-993 -67 0
-993 961 0
993 67 -961 0
-1075 60 0
-1075 1043 0
1075 -60 -1043 0
-1107 -61 0
-1107 1075 0
1107 61 -1075 0
-1161 -993 0
-1161 -1107 0
1161 993 1107 0
-1215 -879 0
-1215 1161 0
1215 879 -1161 0
-1269 -765 0
-1269 1215 0
1269 765 -1215 0
-1323 -651 0
-1323 1269 0
1323 651 -1269 0
-1377 -537 0
-1377 1323 0
1377 537 -1323 0
-1431 -423 0
-1431 1377 0
1431 423 -1377 0
-1485 -309 0
-1485 1431 0
1485 309 -1431 0
-1539 -195 0
-1539 1485 0
1539 195 -1485 0
-1643 27 0
-1643 1539 0
1643 -27 -1539 0
-1644 -27 0
-1644 -1539 0
1644 27 1539 0
-1645 -1643 0
-1645 -1644 0
1645 1643 1644 0
26 -4907 0
-26 4907 0
-162 108 0
-162 130 0
162 -108 -130 0
-194 -109 0
-194 162 0
194 109 -162 0
-276 102 0
-276 244 0
276 -102 -244 0
-308 -103 0
-308 276 0
308 103 -276 0
-390 96 0
-390 358 0
390 -96 -358 0
-422 -97 0
-422 390 0
422 97 -390 0
-504 90 0
-504 472 0
504 -90 -472 0
-536 -91 0
-536 504 0
536 91 -504 0
-618 84 0
-618 586 0
618 -84 -586 0
-650 -85 0
-650 618 0
650 85 -618 0
-732 78 0
-732 700 0
732 -78 -700 0
-764 -79 0
-764 732 0
764 79 -732 0
-846 72 0
-846 814 0
846 -72 -814 0
-878 -73 0
-878 846 0
878 73 -846 0
-960 66 0
-960 928 0
960 -66 -928 0
-992 -67 0
-992 960 0
992 67 -960 0
-1074 60 0
-1074 1042 0
1074 -60 -1042 0
-1106 -61 0
-1106 1074 0
1106 61 -1074 0
-1160 -992 0
-1160 -1106 0
1160 992 1106 0
-1214 -878 0
-1214 1160 0
1214 878 -1160 0
-1268 -764 0
-1268 1214 0
1268 764 -1214 0
-1322 -650 0
-1322 1268 0
1322 650 -1268 0
-1376 -536 0
-1376 1322 0
1376 536 -1322 0
-1430 -422 0
-1430 1376 0
1430 422 -1376 0
-1484 -308 0
-1484 1430 0
1484 308 -1430 0
-1538 -194 0
-1538 1484 0
1538 194 -1484 0
-1640 26 0
-1640 1538 0
1640 -26 -1538 0
-1641 -26 0
-1641 -1538 0
1641 26 1538 0
-1642 -1640 0
-1642 -1641 0
1642 1640 1641 0
25 -4906 0
-25 4906 0
-161 108 0
-161 129 0
161 -108 -129 0
-193 -109 0
-193 161 0
193 109 -161 0
-275 102 0
-275 243 0
275 -102 -243 0
-307 -103 0
-307 275 0
307 103 -275 0
-389 96 0
-389 357 0
389 -96 -357 0
-421 -97 0
-421 389 0
421 97 -389 0
-503 90 0
-503 471 0
503 -90 -471 0
-535 -91 0
-535 503 0
535 91 -503 0
-617 84 0
-617 585 0
617 -84 -585 0
-649 -85 0
-649 617 0
649 85 -617 0
-731 78 0
-731 699 0
731 -78 -699 0
-763 -79 0
-763 731 0
763 79 -731 0
-845 72 0
-845 813 0
845 -72 -813 0
-877 -73 0
-877 845 0
877 73 -845 0
-959 66 0
-959 927 0
959 -66 -927 0
-991 -67 0
-991 959 0
991 67 -959 0
-1073 60 0
-1073 1041 0
1073 -60 -1041 0
-1105 -61 0
-1105 1073 0
1105 61 -1073 0
-1159 -991 0
-1159 -1105 0
1159 991 1105 0
-1213 -877 0
-1213 1159 0
1213 877 -1159 0
-1267 -763 0
-1267 1213 0
1267 763 -1213 0
-1321 -649 0
-1321 1267 0
1321 649 -1267 0
-1375 -535 0
-1375 1321 0
1375 535 -1321 0
-1429 -421 0
-1429 1375 0
1429 421 -1375 0
-1483 -307 0
-1483 1429 0
1483 307 -1429 0
-1537 -193 0
-1537 1483 0
1537 193 -1483 0
-1637 25 0
-1637 1537 0
1637 -25 -1537 0
-1638 -25 0
-1638 -1537 0
1638 25 1537 0
-1639 -1637 0
-1639 -1638 0
1639 1637 1638 0
24 -4905 0
-24 4905 0
-160 108 0
-160 128 0
160 -108 -128 0
-192 -109 0
-192 160 0
192 109 -160 0
-274 102 0
-274 242 0
274 -102 -242 0
-306 -103 0
-306 274 0
306 103 -274 0
-388 96 0
-388 356 0
388 -96 -356 0
-420 -97 0
-420 388 0
420 97 -388 0
-502 90 0
-502 470 0
502 -90 -470 0
-534 -91 0
-534 502 0
534 91 -502 0
-616 84 0
-616 584 0
616 -84 -584 0
-648 -85 0
-648 616 0
648 85 -616 0
-730 78 0
-730 698 0
730 -78 -698 0
-762 -79 0
-762 730 0
762 79 -730 0
-844 72 0
-844 812 0
844 -72 -812 0
-876 -73 0
-876 844 0
876 73 -844 0
-958 66 0
-958 926 0
958 -66 -926 0
-990 -67 0
-990 958 0
990 67 -958 0
-1072 60 0
-1072 1040 0
1072 -60 -1040 0
-1104 -61 0
-1104 1072 0
1104 61 -1072 0
-1158 -990 0
-1158 -1104 0
1158 990 1104 0
-1212 -876 0
-1212 1158 0
1212 876 -1158 0
-1266 -762 0
-1266 1212 0
1266 762 -1212 0
-1320 -648 0
-1320 1266 0
1320 648 -1266 0
-1374 -534 0
-1374 1320 0
1374 534 -1320 0
-1428 -420 0
-1428 1374 0
1428 420 -1374 0
-1482 -306 0
-1482 1428 0
1482 306 -1428 0
-1536 -192 0
-1536 1482 0
1536 192 -1482 0
-1634 24 0
-1634 1536 0
1634 -24 -1536 0
-1635 -24 0
-1635 -1536 0
1635 24 1536 0
-1636 -1634 0
-1636 -1635 0
1636 1634 1635 0
23 -4904 0
-23 4904 0
-191 -109 0
-191 159 0
191 109 -159 0
-305 -103 0
-305 273 0
305 103 -273 0
-419 -97 0
-419 387 0
419 97 -387 0
-533 -91 0
-533 501 0
533 91 -501 0
-647 -85 0
-647 615 0
647 85 -615 0
-761 -79 0
-761 729 0
761 79 -729 0
-875 -73 0
-875 843 0
875 73 -843 0
-989 -67 0
-989 957 0
989 67 -957 0
-1103 -61 0
-1103 1071 0
1103 61 -1071 0
-1157 -989 0
-1157 -1103 0
1157 989 1103 0
-1211 -875 0
-1211 1157 0
1211 875 -1157 0
-1265 -761 0
-1265 1211 0
1265 761 -1211 0
-1319 -647 0
-1319 1265 0
1319 647 -1265 0
-1373 -533 0
-1373 1319 0
1373 533 -1319 0
-1427 -419 0
-1427 1373 0
1427 419 -1373 0
-1481 -305 0
-1481 1427 0
1481 305 -1427 0
-1535 -191 0
-1535 1481 0
1535 191 -1481 0
-1631 23 0
-1631 1535 0
1631 -23 -1535 0
-1632 -23 0
-1632 -1535 0
1632 23 1535 0
-1633 -1631 0
-1633 -1632 0
1633 1631 1632 0
22 -4903 0
-22 4903 0
-190 -109 0
-190 158 0
190 109 -158 0
-304 -103 0
-304 272 0
304 103 -272 0
-418 -97 0
-418 386 0
418 97 -386 0
-532 -91 0
-532 500 0
532 91 -500 0
-646 -85 0
-646 614 0
646 85 -614 0
-760 -79 0
-760 728 0
760 79 -728 0
-874 -73 0
-874 842 0
874 73 -842 0
-988 -67 0
-988 956 0
988 67 -956 0
-1102 -61 0
-1102 1070 0
1102 61 -1070 0
-1156 -988 0
-1156 -1102 0
1156 988 1102 0
-1210 -874 0
-1210 1156 0
1210 874 -1156 0
-1264 -760 0
-1264 1210 0
1264 760 -1210 0
-1318 -646 0
-1318 1264 0
1318 646 -1264 0
-1372 -532 0
-1372 1318 0
1372 532 -1318 0
-1426 -418 0
-1426 1372 0
1426 418 -1372 0
-1480 -304 0
-1480 1426 0
1480 304 -1426 0
-1534 -190 0
-1534 1480 0
1534 190 -1480 0
-1628 22 0
-1628 1534 0
1628 -22 -1534 0
-1629 -22 0
-1629 -1534 0
1629 22 1534 0
-1630 -1628 0
-1630 -1629 0
1630 1628 1629 0
21 -4902 0
-21 4902 0
-189 -109 0
-189 157 0
189 109 -157 0
-303 -103 0
-303 271 0
303 103 -271 0
-417 -97 0
-417 385 0
417 97 -385 0
-531 -91 0
-531 499 0
531 91 -499 0
-645 -85 0
-645 613 0
645 85 -613 0
-759 -79 0
-759 727 0
759 79 -727 0
-873 -73 0
-873 841 0
873 73 -841 0
-987 -67 0
-987 955 0
987 67 -955 0
-1101 -61 0
-1101 1069 0
1101 61 -1069 0
-1155 -987 0
-1155 -1101 0
1155 987 1101 0
-1209 -873 0
-1209 1155 0
1209 873 -1155 0
-1263 -759 0
-1263 1209 0
1263 759 -1209 0
-1317 -645 0
-1317 1263 0
1317 645 -1263 0
-1371 -531 0
-1371 1317 0
1371 531 -1317 0
-1425 -417 0
-1425 1371 0
1425 417 -1371 0
-1479 -303 0
-1479 1425 0
1479 303 -1425 0
-1533 -189 0
-1533 1479 0
1533 189 -1479 0
-1625 21 0
-1625 1533 0
1625 -21 -1533 0
-1626 -21 0
-1626 -1533 0
1626 21 1533 0
-1627 -1625 0
-1627 -1626 0
1627 1625 1626 0
20 -4901 0
-20 4901 0
-188 -109 0
-188 156 0
188 109 -156 0
-302 -103 0
-302 270 0
302 103 -270 0
-416 -97 0
-416 384 0
416 97 -384 0
-530 -91 0
-530 498 0
530 91 -498 0
-644 -85 0
-644 612 0
644 85 -612 0
-758 -79 0
-758 726 0
758 79 -726 0
-872 -73 0
-872 840 0
872 73 -840 0
-986 -67 0
-986 954 0
986 67 -954 0
-1100 -61 0
-1100 1068 0
1100 61 -1068 0
-1154 -986 0
-1154 -1100 0
1154 986 1100 0
-1208 -872 0
-1208 1154 0
1208 872 -1154 0
-1262 -758 0
-1262 1208 0
1262 758 -1208 0
-1316 -644 0
-1316 1262 0
1316 644 -1262 0
-1370 -530 0
-1370 1316 0
1370 530 -1316 0
-1424 -416 0
-1424 1370 0
1424 416 -1370 0
-1478 -302 0
-1478 1424 0
1478 302 -1424 0
-1532 -188 0
-1532 1478 0
1532 188 -1478 0
-1622 20 0
-1622 1532 0
1622 -20 -1532 0
-1623 -20 0
-1623 -1532 0
1623 20 1532 0
-1624 -1622 0
-1624 -1623 0
1624 1622 1623 0
19 -4900 0
-19 4900 0
-187 -109 0
-187 155 0
187 109 -155 0
-301 -103 0
-301 269 0
301 103 -269 0
-415 -97 0
-415 383 0
415 97 -383 0
-529 -91 0
-529 497 0
529 91 -497 0
-643 -85 0
-643 611 0
643 85 -611 0
-757 -79 0
-757 725 0
757 79 -725 0
-871 -73 0
-871 839 0
871 73 -839 0
-985 -67 0
-985 953 0
985 67 -953 0
-1099 -61 0
-1099 1067 0
1099 61 -1067 0
-1153 -985 0
-1153 -1099 0
1153 985 1099 0
-1207 -871 0
-1207 1153 0
1207 871 -1153 0
-1261 -757 0
-1261 1207 0
1261 757 -1207 0
-1315 -643 0
-1315 1261 0
1315 643 -1261 0
-1369 -529 0
-1369 1315 0
1369 529 -1315 0
-1423 -415 0
-1423 1369 0
1423 415 -1369 0
-1477 -301 0
-1477 1423 0
1477 301 -1423 0
-1531 -187 0
-1531 1477 0
1531 187 -1477 0
-1619 19 0
-1619 1531 0
1619 -19 -1531 0
-1620 -19 0
-1620 -1531 0
1620 19 1531 0
-1621 -1619 0
-1621 -1620 0
1621 1619 1620 0
18 -4899 0
-18 4899 0
-186 -109 0
-186 154 0
186 109 -154 0
-300 -103 0
-300 268 0
300 103 -268 0
-414 -97 0
-414 382 0
414 97 -382 0
-528 -91 0
-528 496 0
528 91 -496 0
-642 -85 0
-642 610 0
642 85 -610 0
-756 -79 0
-756 724 0
756 79 -724 0
-870 -73 0
-870 838 0
870 73 -838 0
-984 -67 0
-984 952 0
984 67 -952 0
-1098 -61 0
-1098 1066 0
1098 61 -1066 0
-1152 -984 0
-1152 -1098 0
1152 984 1098 0
-1206 -870 0
-1206 1152 0
1206 870 -1152 0
-1260 -756 0
-1260 1206 0
1260 756 -1206 0
-1314 -642 0
-1314 1260 0
1314 642 -1260 0
-1368 -528 0
-1368 1314 0
1368 528 -1314 0
-1422 -414 0
-1422 1368 0
1422 414 -1368 0
-1476 -300 0
-1476 1422 0
1476 300 -1422 0
-1530 -186 0
-1530 1476 0
1530 186 -1476 0
-1616 18 0
-1616 1530 0
1616 -18 -1530 0
-1617 -18 0
-1617 -1530 0
1617 18 1530 0
-1618 -1616 0
-1618 -1617 0
1618 1616 1617 0
17 -4898 0
-17 4898 0
-185 -109 0
-185 153 0
185 109 -153 0
-299 -103 0
-299 267 0
299 103 -267 0
-413 -97 0
-413 381 0
413 97 -381 0
-527 -91 0
-527 495 0
527 91 -495 0
-641 -85 0
-641 609 0
641 85 -609 0
-755 -79 0
-755 723 0
755 79 -723 0
-869 -73 0
-869 837 0
869 73 -837 0
-983 -67 0
-983 951 0
983 67 -951 0
-1097 -61 0
-1097 1065 0
1097 61 -1065 0
-1151 -983 0
-1151 -1097 0
1151 983 1097 0
-1205 -869 0
-1205 1151 0
1205 869 -1151 0
-1259 -755 0
-1259 1205 0
1259 755 -1205 0
-1313 -641 0
-1313 1259 0
1313 641 -1259 0
-1367 -527 0
-1367 1313 0
1367 527 -1313 0
-1421 -413 0
-1421 1367 0
1421 413 -1367 0
-1475 -299 0
-1475 1421 0
1475 299 -1421 0
-1529 -185 0
-1529 1475 0
1529 185 -1475 0
-1613 17 0
-1613 1529 0
1613 -17 -1529 0
-1614 -17 0
-1614 -1529 0
1614 17 1529 0
-1615 -1613 0
-1615 -1614 0
1615 1613 1614 0
16 -4897 0
-16 4897 0
-184 -109 0
-184 152 0
184 109 -152 0
-298 -103 0
-298 266 0
298 103 -266 0
-412 -97 0
-412 380 0
412 97 -380 0
-526 -91 0
-526 494 0
526 91 -494 0
-640 -85 0
-640 608 0
640 85 -608 0
-754 -79 0
-754 722 0
754 79 -722 0
-868 -73 0
-868 836 0
868 73 -836 0
-982 -67 0
-982 950 0
982 67 -950 0
-1096 -61 0
-1096 1064 0
1096 61 -1064 0
-1150 -982 0
-1150 -1096 0
1150 982 1096 0
-1204 -868 0
-1204 1150 0
1204 868 -1150 0
-1258 -754 0
-1258 1204 0
1258 754 -1204 0
-1312 -640 0
-1312 1258 0
1312 640 -1258 0
-1366 -526 0
-1366 1312 0
1366 526 -1312 0
-1420 -412 0
-1420 1366 0
1420 412 -1366 0
-1474 -298 0
-1474 1420 0
1474 298 -1420 0
-1528 -184 0
-1528 1474 0
1528 184 -1474 0
-1610 16 0
-1610 1528 0
1610 -16 -1528 0
-1611 -16 0
-1611 -1528 0
1611 16 1528 0
-1612 -1610 0
-1612 -1611 0
1612 1610 1611 0
15 -4896 0
-15 4896 0
-183 -109 0
-183 151 0
183 109 -151 0
-297 -103 0
-297 265 0
297 103 -265 0
-411 -97 0
-411 379 0
411 97 -379 0
-525 -91 0
-525 493 0
525 91 -493 0
-639 -85 0
-639 607 0
639 85 -607 0
-753 -79 0
-753 721 0
753 79 -721 0
-867 -73 0
-867 835 0
867 73 -835 0
-981 -67 0
-981 949 0
981 67 -949 0
-1095 -61 0
-1095 1063 0
1095 61 -1063 0
-1149 -981 0
-1149 -1095 0
1149 981 1095 0
-1203 -867 0
-1203 1149 0
1203 867 -1149 0
-1257 -753 0
-1257 1203 0
1257 753 -1203 0
-1311 -639 0
-1311 1257 0
1311 639 -1257 0
-1365 -525 0
-1365 1311 0
1365 525 -1311 0
-1419 -411 0
-1419 1365 0
1419 411 -1365 0
-1473 -297 0
-1473 1419 0
1473 297 -1419 0
-1527 -183 0
-1527 1473 0
1527 183 -1473 0
-1607 15 0
-1607 1527 0
1607 -15 -1527 0
-1608 -15 0
-1608 -1527 0
1608 15 1527 0
-1609 -1607 0
-1609 -1608 0
1609 1607 1608 0
14 -4895 0
-14 4895 0
-182 -109 0
-182 150 0
182 109 -150 0
-296 -103 0
-296 264 0
296 103 -264 0
-410 -97 0
-410 378 0
410 97 -378 0
-524 -91 0
-524 492 0
524 91 -492 0
-638 -85 0
-638 606 0
638 85 -606 0
-752 -79 0
-752 720 0
752 79 -720 0
-866 -73 0
-866 834 0
866 73 -834 0
-980 -67 0
-980 948 0
980 67 -948 0
-1094 -61 0
-1094 1062 0
1094 61 -1062 0
-1148 -980 0
-1148 -1094 0
1148 980 1094 0
-1202 -866 0
-1202 1148 0
1202 866 -1148 0
-1256 -752 0
-1256 1202 0
1256 752 -1202 0
-1310 -638 0
-1310 1256 0
1310 638 -1256 0
-1364 -524 0
-1364 1310 0
1364 524 -1310 0
-1418 -410 0
-1418 1364 0
1418 410 -1364 0
-1472 -296 0
-1472 1418 0
1472 296 -1418 0
-1526 -182 0
-1526 1472 0
1526 182 -1472 0
-1604 14 0
-1604 1526 0
1604 -14 -1526 0
-1605 -14 0
-1605 -1526 0
1605 14 1526 0
-1606 -1604 0
-1606 -1605 0
1606 1604 1605 0
13 -4894 0
-13 4894 0
-181 -109 0
-181 149 0
181 109 -149 0
-295 -103 0
-295 263 0
295 103 -263 0
-409 -97 0
-409 377 0
409 97 -377 0
-523 -91 0
-523 491 0
523 91 -491 0
-637 -85 0
-637 605 0
637 85 -605 0
-751 -79 0
-751 719 0
751 79 -719 0
-865 -73 0
-865 833 0
865 73 -833 0
-979 -67 0
-979 947 0
979 67 -947 0
-1093 -61 0
-1093 1061 0
1093 61 -1061 0
-1147 -979 0
-1147 -1093 0
1147 979 1093 0
-1201 -865 0
-1201 1147 0
1201 865 -1147 0
-1255 -751 0
-1255 1201 0
1255 751 -1201 0
-1309 -637 0
-1309 1255 0
1309 637 -1255 0
-1363 -523 0
-1363 1309 0
1363 523 -1309 0
-1417 -409 0
-1417 1363 0
1417 409 -1363 0
-1471 -295 0
-1471 1417 0
1471 295 -1417 0
-1525 -181 0
-1525 1471 0
1525 181 -1471 0
-1601 13 0
-1601 1525 0
1601 -13 -1525 0
-1602 -13 0
-1602 -1525 0
1602 13 1525 0
-1603 -1601 0
-1603 -1602 0
1603 1601 1602 0
12 -4893 0
-12 4893 0
-180 -109 0
-180 148 0
180 109 -148 0
-294 -103 0
-294 262 0
294 103 -262 0
-408 -97 0
-408 376 0
408 97 -376 0
-522 -91 0
-522 490 0
522 91 -490 0
-636 -85 0
-636 604 0
636 85 -604 0
-750 -79 0
-750 718 0
750 79 -718 0
-864 -73 0
-864 832 0
864 73 -832 0
-978 -67 0
-978 946 0
978 67 -946 0
-1092 -61 0
-1092 1060 0
1092 61 -1060 0
-1146 -978 0
-1146 -1092 0
1146 978 1092 0
-1200 -864 0
-1200 1146 0
1200 864 -1146 0
-1254 -750 0
-1254 1200 0
1254 750 -1200 0
-1308 -636 0
-1308 1254 0
1308 636 -1254 0
-1362 -522 0
-1362 1308 0
1362 522 -1308 0
-1416 -408 0
-1416 1362 0
1416 408 -1362 0
-1470 -294 0
-1470 1416 0
1470 294 -1416 0
-1524 -180 0
-1524 1470 0
1524 180 -1470 0
-1598 12 0
-1598 1524 0
1598 -12 -1524 0
-1599 -12 0
-1599 -1524 0
1599 12 1524 0
-1600 -1598 0
-1600 -1599 0
1600 1598 1599 0
11 -4892 0
-11 4892 0
-179 -109 0
-179 147 0
179 109 -147 0
-293 -103 0
-293 261 0
293 103 -261 0
-407 -97 0
-407 375 0
407 97 -375 0
-521 -91 0
-521 489 0
521 91 -489 0
-635 -85 0
-635 603 0
635 85 -603 0
-749 -79 0
-749 717 0
749 79 -717 0
-863 -73 0
-863 831 0
863 73 -831 0
-977 -67 0
-977 945 0
977 67 -945 0
-1091 -61 0
-1091 1059 0
1091 61 -1059 0
-1145 -977 0
-1145 -1091 0
1145 977 1091 0
-1199 -863 0
-1199 1145 0
1199 863 -1145 0
-1253 -749 0
-1253 1199 0
1253 749 -1199 0
-1307 -635 0
-1307 1253 0
1307 635 -1253 0
-1361 -521 0
-1361 1307 0
1361 521 -1307 0
-1415 -407 0
-1415 1361 0
1415 407 -1361 0
-1469 -293 0
-1469 1415 0
1469 293 -1415 0
-1523 -179 0
-1523 1469 0
1523 179 -1469 0
-1595 11 0
-1595 1523 0
1595 -11 -1523 0
-1596 -11 0
-1596 -1523 0
1596 11 1523 0
-1597 -1595 0
-1597 -1596 0
1597 1595 1596 0
10 -4891 0
-10 4891 0
-178 -109 0
-178 146 0
178 109 -146 0
-292 -103 0
-292 260 0
292 103 -260 0
-406 -97 0
-406 374 0
406 97 -374 0
-520 -91 0
-520 488 0
520 91 -488 0
-634 -85 0
-634 602 0
634 85 -602 0
-748 -79 0
-748 716 0
748 79 -716 0
-862 -73 0
-862 830 0
862 73 -830 0
-976 -67 0
-976 944 0
976 67 -944 0
-1090 -61 0
-1090 1058 0
1090 61 -1058 0
-1144 -976 0
-1144 -1090 0
1144 976 1090 0
-1198 -862 0
-1198 1144 0
1198 862 -1144 0
-1252 -748 0
-1252 1198 0
1252 748 -1198 0
-1306 -634 0
-1306 1252 0
1306 634 -1252 0
-1360 -520 0
-1360 1306 0
1360 520 -1306 0
-1414 -406 0
-1414 1360 0
1414 406 -1360 0
-1468 -292 0
-1468 1414 0
1468 292 -1414 0
-1522 -178 0
-1522 1468 0
1522 178 -1468 0
-1592 10 0
-1592 1522 0
1592 -10 -1522 0
-1593 -10 0
-1593 -1522 0
1593 10 1522 0
-1594 -1592 0
-1594 -1593 0
1594 1592 1593 0
9 -4890 0
-9 4890 0
-177 -109 0
-177 145 0
177 109 -145 0
-291 -103 0
-291 259 0
291 103 -259 0
-405 -97 0
-405 373 0
405 97 -373 0
-519 -91 0
-519 487 0
519 91 -487 0
-633 -85 0
-633 601 0
633 85 -601 0
-747 -79 0
-747 715 0
747 79 -715 0
-861 -73 0
-861 829 0
861 73 -829 0
-975 -67 0
-975 943 0
975 67 -943 0
-1089 -61 0
-1089 1057 0
1089 61 -1057 0
-1143 -975 0
-1143 -1089 0
1143 975 1089 0
-1197 -861 0
-1197 1143 0
1197 861 -1143 0
-1251 -747 0
-1251 1197 0
1251 747 -1197 0
-1305 -633 0
-1305 1251 0
1305 633 -1251 0
-1359 -519 0
-1359 1305 0
1359 519 -1305 0
-1413 -405 0
-1413 1359 0
1413 405 -1359 0
-1467 -291 0
-1467 1413 0
1467 291 -1413 0
-1521 -177 0
-1521 1467 0
1521 177 -1467 0
-1589 9 0
-1589 1521 0
1589 -9 -1521 0
-1590 -9 0
-1590 -1521 0
1590 9 1521 0
-1591 -1589 0
-1591 -1590 0
1591 1589 1590 0
8 -4889 0
-8 4889 0
-176 -109 0
-176 144 0
176 109 -144 0
-290 -103 0
-290 258 0
290 103 -258 0
-404 -97 0
-404 372 0
404 97 -372 0
-518 -91 0
-518 486 0
518 91 -486 0
-632 -85 0
-632 600 0
632 85 -600 0
-746 -79 0
-746 714 0
746 79 -714 0
-860 -73 0
-860 828 0
860 73 -828 0
-974 -67 0
-974 942 0
974 67 -942 0
-1088 -61 0
-1088 1056 0
1088 61 -1056 0
-1142 -974 0
-1142 -1088 0
1142 974 1088 0
-1196 -860 0
-1196 1142 0
1196 860 -1142 0
-1250 -746 0
-1250 1196 0
1250 746 -1196 0
-1304 -632 0
-1304 1250 0
1304 632 -1250 0
-1358 -518 0
-1358 1304 0
1358 518 -1304 0
-1412 -404 0
-1412 1358 0
1412 404 -1358 0
-1466 -290 0
-1466 1412 0
1466 290 -1412 0
-1520 -176 0
-1520 1466 0
1520 176 -1466 0
-1586 8 0
-1586 1520 0
1586 -8 -1520 0
-1587 -8 0
-1587 -1520 0
1587 8 1520 0
-1588 -1586 0
-1588 -1587 0
1588 1586 1587 0
7 -4888 0
-7 4888 0
-175 -109 0
-175 143 0
175 109 -143 0
-289 -103 0
-289 257 0
289 103 -257 0
-403 -97 0
-403 371 0
403 97 -371 0
-517 -91 0
-517 485 0
517 91 -485 0
-631 -85 0
-631 599 0
631 85 -599 0
-745 -79 0
-745 713 0
745 79 -713 0
-859 -73 0
-859 827 0
859 73 -827 0
-973 -67 0
-973 941 0
973 67 -941 0
-1087 -61 0
-1087 1055 0
1087 61 -1055 0
-1141 -973 0
-1141 -1087 0
1141 973 1087 0
-1195 -859 0
-1195 1141 0
1195 859 -1141 0
-1249 -745 0
-1249 1195 0
1249 745 -1195 0
-1303 -631 0
-1303 1249 0
1303 631 -1249 0
-1357 -517 0
-1357 1303 0
1357 517 -1303 0
-1411 -403 0
-1411 1357 0
1411 403 -1357 0
-1465 -289 0
-1465 1411 0
1465 289 -1411 0
-1519 -175 0
-1519 1465 0
1519 175 -1465 0
-1583 7 0
-1583 1519 0
1583 -7 -1519 0
-1584 -7 0
-1584 -1519 0
1584 7 1519 0
-1585 -1583 0
-1585 -1584 0
1585 1583 1584 0
6 -4887 0
-6 4887 0
-174 -109 0
-174 142 0
174 109 -142 0
-288 -103 0
-288 256 0
288 103 -256 0
-402 -97 0
-402 370 0
402 97 -370 0
-516 -91 0
-516 484 0
516 91 -484 0
-630 -85 0
-630 598 0
630 85 -598 0
-744 -79 0
-744 712 0
744 79 -712 0
-858 -73 0
-858 826 0
858 73 -826 0
-972 -67 0
-972 940 0
972 67 -940 0
-1086 -61 0
-1086 1054 0
1086 61 -1054 0
-1140 -972 0
-1140 -1086 0
1140 972 1086 0
-1194 -858 0
-1194 1140 0
1194 858 -1140 0
-1248 -744 0
-1248 1194 0
1248 744 -1194 0
-1302 -630 0
-1302 1248 0
1302 630 -1248 0
-1356 -516 0
-1356 1302 0
1356 516 -1302 0
-1410 -402 0
-1410 1356 0
1410 402 -1356 0
-1464 -288 0
-1464 1410 0
1464 288 -1410 0
-1518 -174 0
-1518 1464 0
1518 174 -1464 0
-1580 6 0
-1580 1518 0
1580 -6 -1518 0
-1581 -6 0
-1581 -1518 0
1581 6 1518 0
-1582 -1580 0
-1582 -1581 0
1582 1580 1581 0
5 -4886 0
-5 4886 0
-173 -109 0
-173 141 0
173 109 -141 0
-287 -103 0
-287 255 0
287 103 -255 0
-401 -97 0
-401 369 0
401 97 -369 0
-515 -91 0
-515 483 0
515 91 -483 0
-629 -85 0
-629 597 0
629 85 -597 0
-743 -79 0
-743 711 0
743 79 -711 0
-857 -73 0
-857 825 0
857 73 -825 0
-971 -67 0
-971 939 0
971 67 -939 0
-1085 -61 0
-1085 1053 0
1085 61 -1053 0
-1139 -971 0
-1139 -1085 0
1139 971 1085 0
-1193 -857 0
-1193 1139 0
1193 857 -1139 0
-1247 -743 0
-1247 1193 0
1247 743 -1193 0
-1301 -629 0
-1301 1247 0
1301 629 -1247 0
-1355 -515 0
-1355 1301 0
1355 515 -1301 0
-1409 -401 0
-1409 1355 0
1409 401 -1355 0
-1463 -287 0
-1463 1409 0
1463 287 -1409 0
-1517 -173 0
-1517 1463 0
1517 173 -1463 0
-1577 5 0
-1577 1517 0
1577 -5 -1517 0
-1578 -5 0
-1578 -1517 0
1578 5 1517 0
-1579 -1577 0
-1579 -1578 0
1579 1577 1578 0
4 -4885 0
-4 4885 0
-172 -109 0
-172 140 0
172 109 -140 0
-286 -103 0
-286 254 0
286 103 -254 0
-400 -97 0
-400 368 0
400 97 -368 0
-514 -91 0
-514 482 0
514 91 -482 0
-628 -85 0
-628 596 0
628 85 -596 0
-742 -79 0
-742 710 0
742 79 -710 0
-856 -73 0
-856 824 0
856 73 -824 0
-970 -67 0
-970 938 0
970 67 -938 0
-1084 -61 0
-1084 1052 0
1084 61 -1052 0
-1138 -970 0
-1138 -1084 0
1138 970 1084 0
-1192 -856 0
-1192 1138 0
1192 856 -1138 0
-1246 -742 0
-1246 1192 0
1246 742 -1192 0
-1300 -628 0
-1300 1246 0
1300 628 -1246 0
-1354 -514 0
-1354 1300 0
1354 514 -1300 0
-1408 -400 0
-1408 1354 0
1408 400 -1354 0
-1462 -286 0
-1462 1408 0
1462 286 -1408 0
-1516 -172 0
-1516 1462 0
1516 172 -1462 0
-1574 4 0
-1574 1516 0
1574 -4 -1516 0
-1575 -4 0
-1575 -1516 0
1575 4 1516 0
-1576 -1574 0
-1576 -1575 0
1576 1574 1575 0
2 -4883 0
-2 4883 0
-170 -109 0
-170 138 0
170 109 -138 0
-284 -103 0
-284 252 0
284 103 -252 0
-398 -97 0
-398 366 0
398 97 -366 0
-512 -91 0
-512 480 0
512 91 -480 0
-626 -85 0
-626 594 0
626 85 -594 0
-740 -79 0
-740 708 0
740 79 -708 0
-854 -73 0
-854 822 0
854 73 -822 0
-968 -67 0
-968 936 0
968 67 -936 0
-1082 -61 0
-1082 1050 0
1082 61 -1050 0
-1136 -968 0
-1136 -1082 0
1136 968 1082 0
-1190 -854 0
-1190 1136 0
1190 854 -1136 0
-1244 -740 0
-1244 1190 0
1244 740 -1190 0
-1298 -626 0
-1298 1244 0
1298 626 -1244 0
-1352 -512 0
-1352 1298 0
1352 512 -1298 0
-1406 -398 0
-1406 1352 0
1406 398 -1352 0
-1460 -284 0
-1460 1406 0
1460 284 -1406 0
-1514 -170 0
-1514 1460 0
1514 170 -1460 0
-1568 2 0
-1568 1514 0
1568 -2 -1514 0
-1569 -2 0
-1569 -1514 0
1569 2 1514 0
-1570 -1568 0
-1570 -1569 0
1570 1568 1569 0
3 -4884 0
-3 4884 0
-171 -109 0
-171 139 0
171 109 -139 0
-285 -103 0
-285 253 0
285 103 -253 0
-399 -97 0
-399 367 0
399 97 -367 0
-513 -91 0
-513 481 0
513 91 -481 0
-627 -85 0
-627 595 0
627 85 -595 0
-741 -79 0
-741 709 0
741 79 -709 0
-855 -73 0
-855 823 0
855 73 -823 0
-969 -67 0
-969 937 0
969 67 -937 0
-1083 -61 0
-1083 1051 0
1083 61 -1051 0
-1137 -969 0
-1137 -1083 0
1137 969 1083 0
-1191 -855 0
-1191 1137 0
1191 855 -1137 0
-1245 -741 0
-1245 1191 0
1245 741 -1191 0
-1299 -627 0
-1299 1245 0
1299 627 -1245 0
-1353 -513 0
-1353 1299 0
1353 513 -1299 0
-1407 -399 0
-1407 1353 0
1407 399 -1353 0
-1461 -285 0
-1461 1407 0
1461 285 -1407 0
-1515 -171 0
-1515 1461 0
1515 171 -1461 0
-1571 3 0
-1571 1515 0
1571 -3 -1515 0
-1572 -3 0
-1572 -1515 0
1572 3 1515 0
-1573 -1571 0
-1573 -1572 0
1573 1571 1572 0
-1730 1570 0
-1730 1573 0
1730 -1570 -1573 0
-1731 1576 0
-1731 1730 0
1731 -1576 -1730 0
-1732 1579 0
-1732 1731 0
1732 -1579 -1731 0
-1733 1582 0
-1733 1732 0
1733 -1582 -1732 0
-1734 1585 0
-1734 1733 0
1734 -1585 -1733 0
-1735 1588 0
-1735 1734 0
1735 -1588 -1734 0
-1736 1591 0
-1736 1735 0
1736 -1591 -1735 0
-1737 1594 0
-1737 1736 0
1737 -1594 -1736 0
-1738 1597 0
-1738 1737 0
1738 -1597 -1737 0
-1739 1600 0
-1739 1738 0
1739 -1600 -1738 0
-1740 1603 0
-1740 1739 0
1740 -1603 -1739 0
-1741 1606 0
-1741 1740 0
1741 -1606 -1740 0
-1742 1609 0
-1742 1741 0
1742 -1609 -1741 0
-1743 1612 0
-1743 1742 0
1743 -1612 -1742 0
-1744 1615 0
-1744 1743 0
1744 -1615 -1743 0
-1745 1618 0
-1745 1744 0
1745 -1618 -1744 0
-1746 1621 0
-1746 1745 0
1746 -1621 -1745 0
-1747 1624 0
-1747 1746 0
1747 -1624 -1746 0
-1748 1627 0
-1748 1747 0
1748 -1627 -1747 0
-1749 1630 0
-1749 1748 0
1749 -1630 -1748 0
-1750 1633 0
-1750 1749 0
1750 -1633 -1749 0
-1751 1636 0
-1751 1750 0
1751 -1636 -1750 0
-1752 1639 0
-1752 1751 0
1752 -1639 -1751 0
-1753 1642 0
-1753 1752 0
1753 -1642 -1752 0
-1754 1645 0
-1754 1753 0
1754 -1645 -1753 0
-1755 1648 0
-1755 1754 0
1755 -1648 -1754 0
-1756 1651 0
-1756 1755 0
1756 -1651 -1755 0
-1757 1654 0
-1757 1756 0
1757 -1654 -1756 0
-1758 1657 0
-1758 1757 0
1758 -1657 -1757 0
-1759 1660 0
-1759 1758 0
1759 -1660 -1758 0
-1760 1663 0
-1760 1759 0
1760 -1663 -1759 0
-1761 1666 0
-1761 1760 0
1761 -1666 -1760 0
-1762 1669 0
-1762 1761 0
1762 -1669 -1761 0
-1763 1672 0
-1763 1762 0
1763 -1672 -1762 0
-1764 1675 0
-1764 1763 0
1764 -1675 -1763 0
-1765 1678 0
-1765 1764 0
1765 -1678 -1764 0
-1766 1681 0
-1766 1765 0
1766 -1681 -1765 0
-1767 1684 0
-1767 1766 0
1767 -1684 -1766 0
-1768 1687 0
-1768 1767 0
1768 -1687 -1767 0
-1769 1690 0
-1769 1768 0
1769 -1690 -1768 0
-1770 1693 0
-1770 1769 0
1770 -1693 -1769 0
-1771 1696 0
-1771 1770 0
1771 -1696 -1770 0
-1772 1699 0
-1772 1771 0
1772 -1699 -1771 0
-1773 1702 0
-1773 1772 0
1773 -1702 -1772 0
-1774 1705 0
-1774 1773 0
1774 -1705 -1773 0
-1775 1708 0
-1775 1774 0
1775 -1708 -1774 0
-1776 1711 0
-1776 1775 0
1776 -1711 -1775 0
-1777 1714 0
-1777 1776 0
1777 -1714 -1776 0
-1778 1717 0
-1778 1777 0
1778 -1717 -1777 0
-1779 1720 0
-1779 1778 0
1779 -1720 -1778 0
-1780 1723 0
-1780 1779 0
1780 -1723 -1779 0
-1781 1726 0
-1781 1780 0
1781 -1726 -1780 0
-1782 1729 0
-1782 1781 0
1782 -1729 -1781 0
-1783 16 0
-1783 17 0
1783 -16 -17 0
-1784 -16 0
-1784 -17 0
1784 16 17 0
-1785 -1783 0
-1785 -1784 0
1785 1783 1784 0
-1792 14 0
-1792 1785 0
1792 -14 -1785 0
-1793 -14 0
-1793 -1785 0
1793 14 1785 0
-1794 -1792 0
-1794 -1793 0
1794 1792 1793 0
-1801 9 0
-1801 1794 0
1801 -9 -1794 0
-1802 -9 0
-1802 -1794 0
1802 9 1794 0
-1803 -1801 0
-1803 -1802 0
1803 1801 1802 0
-1786 35 0
-1786 36 0
1786 -35 -36 0
-1787 -35 0
-1787 -36 0
1787 35 36 0
-1788 -1786 0
-1788 -1787 0
1788 1786 1787 0
-1795 38 0
-1795 1788 0
1795 -38 -1788 0
-1796 -38 0
-1796 -1788 0
1796 38 1788 0
-1797 -1795 0
-1797 -1796 0
1797 1795 1796 0
-1816 43 0
-1816 1797 0
1816 -43 -1797 0
-1817 -43 0
-1817 -1797 0
1817 43 1797 0
-1818 -1816 0
-1818 -1817 0
1818 1816 1817 0
-1828 1803 0
-1828 1818 0
1828 -1803 -1818 0
-1829 -1803 0
-1829 -1818 0
1829 1803 1818 0
-1830 -1828 0
-1830 -1829 0
1830 1828 1829 0
-1831 1782 0
-1831 -1830 0
1831 -1782 1830 0
-1832 15 0
-1832 16 0
1832 -15 -16 0
-1833 -15 0
-1833 -16 0
1833 15 16 0
-1834 -1832 0
-1834 -1833 0
1834 1832 1833 0
-1841 13 0
-1841 1834 0
1841 -13 -1834 0
-1842 -13 0
-1842 -1834 0
1842 13 1834 0
-1843 -1841 0
-1843 -1842 0
1843 1841 1842 0
-1850 8 0
-1850 1843 0
1850 -8 -1843 0
-1851 -8 0
-1851 -1843 0
1851 8 1843 0
-1852 -1850 0
-1852 -1851 0
1852 1850 1851 0
-1835 34 0
-1835 35 0
1835 -34 -35 0
-1836 -34 0
-1836 -35 0
1836 34 35 0
-1837 -1835 0
-1837 -1836 0
1837 1835 1836 0
-1844 37 0
-1844 1837 0
1844 -37 -1837 0
-1845 -37 0
-1845 -1837 0
1845 37 1837 0
-1846 -1844 0
-1846 -1845 0
1846 1844 1845 0
-1865 42 0
-1865 1846 0
1865 -42 -1846 0
-1866 -42 0
-1866 -1846 0
1866 42 1846 0
-1867 -1865 0
-1867 -1866 0
1867 1865 1866 0
-1877 1852 0
-1877 1867 0
1877 -1852 -1867 0
-1878 -1852 0
-1878 -1867 0
1878 1852 1867 0
-1879 -1877 0
-1879 -1878 0
1879 1877 1878 0
-1880 1831 0
-1880 -1879 0
1880 -1831 1879 0
-1896 34 0
-1896 36 0
1896 -34 -36 0
-1897 -34 0
-1897 -36 0
1897 34 36 0
-1898 -1896 0
-1898 -1897 0
1898 1896 1897 0
-1908 41 0
-1908 1898 0
1908 -41 -1898 0
-1909 -41 0
-1909 -1898 0
1909 41 1898 0
-1910 -1908 0
-1910 -1909 0
1910 1908 1909 0
-1881 14 0
-1881 15 0
1881 -14 -15 0
-1882 -14 0
-1882 -15 0
1882 14 15 0
-1883 -1881 0
-1883 -1882 0
1883 1881 1882 0
-1890 12 0
-1890 1883 0
1890 -12 -1883 0
-1891 -12 0
-1891 -1883 0
1891 12 1883 0
-1892 -1890 0
-1892 -1891 0
1892 1890 1891 0
-1899 7 0
-1899 1892 0
1899 -7 -1892 0
-1900 -7 0
-1900 -1892 0
1900 7 1892 0
-1901 -1899 0
-1901 -1900 0
1901 1899 1900 0
-1914 33 0
-1914 1901 0
1914 -33 -1901 0
-1915 -33 0
-1915 -1901 0
1915 33 1901 0
-1916 -1914 0
-1916 -1915 0
1916 1914 1915 0
-1929 1910 0
-1929 1916 0
1929 -1910 -1916 0
-1930 -1910 0
-1930 -1916 0
1930 1910 1916 0
-1931 -1929 0
-1931 -1930 0
1931 1929 1930 0
-1932 1880 0
-1932 -1931 0
1932 -1880 1931 0
-1963 35 0
-1963 40 0
1963 -35 -40 0
-1964 -35 0
-1964 -40 0
1964 35 40 0
-1965 -1963 0
-1965 -1964 0
1965 1963 1964 0
-1936 32 0
-1936 33 0
1936 -32 -33 0
-1937 -32 0
-1937 -33 0
1937 32 33 0
-1938 -1936 0
-1938 -1937 0
1938 1936 1937 0
-1939 11 0
-1939 13 0
1939 -11 -13 0
-1940 -11 0
-1940 -13 0
1940 11 13 0
-1941 -1939 0
-1941 -1940 0
1941 1939 1940 0
-1951 14 0
-1951 1941 0
1951 -14 -1941 0
-1952 -14 0
-1952 -1941 0
1952 14 1941 0
-1953 -1951 0
-1953 -1952 0
1953 1951 1952 0
-1954 6 0
-1954 1953 0
1954 -6 -1953 0
-1955 -6 0
-1955 -1953 0
1955 6 1953 0
-1956 -1954 0
-1956 -1955 0
1956 1954 1955 0
-1966 1938 0
-1966 1956 0
1966 -1938 -1956 0
-1967 -1938 0
-1967 -1956 0
1967 1938 1956 0
-1968 -1966 0
-1968 -1967 0
1968 1966 1967 0
-1981 1965 0
-1981 1968 0
1981 -1965 -1968 0
-1982 -1965 0
-1982 -1968 0
1982 1965 1968 0
-1983 -1981 0
-1983 -1982 0
1983 1981 1982 0
-1984 1932 0
-1984 -1983 0
1984 -1932 1983 0
-2012 34 0
-2012 39 0
2012 -34 -39 0
-2013 -34 0
-2013 -39 0
2013 34 39 0
-2014 -2012 0
-2014 -2013 0
2014 2012 2013 0
-1988 31 0
-1988 32 0
1988 -31 -32 0
-1989 -31 0
-1989 -32 0
1989 31 32 0
-1990 -1988 0
-1990 -1989 0
1990 1988 1989 0
-1985 12 0
-1985 13 0
1985 -12 -13 0
-1986 -12 0
-1986 -13 0
1986 12 13 0
-1987 -1985 0
-1987 -1986 0
1987 1985 1986 0
-1991 10 0
-1991 1987 0
1991 -10 -1987 0
-1992 -10 0
-1992 -1987 0
1992 10 1987 0
-1993 -1991 0
-1993 -1992 0
1993 1991 1992 0
-2003 5 0
-2003 1993 0
2003 -5 -1993 0
-2004 -5 0
-2004 -1993 0
2004 5 1993 0
-2005 -2003 0
-2005 -2004 0
2005 2003 2004 0
-2015 1990 0
-2015 2005 0
2015 -1990 -2005 0
-2016 -1990 0
-2016 -2005 0
2016 1990 2005 0
-2017 -2015 0
-2017 -2016 0
2017 2015 2016 0
-2030 2014 0
-2030 2017 0
2030 -2014 -2017 0
-2031 -2014 0
-2031 -2017 0
2031 2014 2017 0
-2032 -2030 0
-2032 -2031 0
2032 2030 2031 0
-2033 1984 0
-2033 -2032 0
2033 -1984 2032 0
-2037 30 0
-2037 31 0
2037 -30 -31 0
-2038 -30 0
-2038 -31 0
2038 30 31 0
-2039 -2037 0
-2039 -2038 0
2039 2037 2038 0
-2049 33 0
-2049 2039 0
2049 -33 -2039 0
-2050 -33 0
-2050 -2039 0
2050 33 2039 0
-2051 -2049 0
-2051 -2050 0
2051 2049 2050 0
-2034 11 0
-2034 12 0
2034 -11 -12 0
-2035 -11 0
-2035 -12 0
2035 11 12 0
-2036 -2034 0
-2036 -2035 0
2036 2034 2035 0
-2040 4 0
-2040 9 0
2040 -4 -9 0
-2041 -4 0
-2041 -9 0
2041 4 9 0
-2042 -2040 0
-2042 -2041 0
2042 2040 2041 0
-2055 2036 0
-2055 2042 0
2055 -2036 -2042 0
-2056 -2036 0
-2056 -2042 0
2056 2036 2042 0
-2057 -2055 0
-2057 -2056 0
2057 2055 2056 0
-2067 2051 0
-2067 2057 0
2067 -2051 -2057 0
-2068 -2051 0
-2068 -2057 0
2068 2051 2057 0
-2069 -2067 0
-2069 -2068 0
2069 2067 2068 0
-2082 38 0
-2082 2069 0
2082 -38 -2069 0
-2083 -38 0
-2083 -2069 0
2083 38 2069 0
-2084 -2082 0
-2084 -2083 0
2084 2082 2083 0
-2085 2033 0
-2085 -2084 0
2085 -2033 2084 0
-2086 10 0
-2086 11 0
2086 -10 -11 0
-2087 -10 0
-2087 -11 0
2087 10 11 0
-2088 -2086 0
-2088 -2087 0
2088 2086 2087 0
-2092 3 0
-2092 8 0
2092 -3 -8 0
-2093 -3 0
-2093 -8 0
2093 3 8 0
-2094 -2092 0
-2094 -2093 0
2094 2092 2093 0
-2107 2088 0
-2107 2094 0
2107 -2088 -2094 0
-2108 -2088 0
-2108 -2094 0
2108 2088 2094 0
-2109 -2107 0
-2109 -2108 0
2109 2107 2108 0
-2104 30 0
-2104 32 0
2104 -30 -32 0
-2105 -30 0
-2105 -32 0
2105 30 32 0
-2106 -2104 0
-2106 -2105 0
2106 2104 2105 0
-2110 29 0
-2110 2106 0
2110 -29 -2106 0
-2111 -29 0
-2111 -2106 0
2111 29 2106 0
-2112 -2110 0
-2112 -2111 0
2112 2110 2111 0
-2119 2109 0
-2119 2112 0
2119 -2109 -2112 0
-2120 -2109 0
-2120 -2112 0
2120 2109 2112 0
-2121 -2119 0
-2121 -2120 0
2121 2119 2120 0
-2134 37 0
-2134 2121 0
2134 -37 -2121 0
-2135 -37 0
-2135 -2121 0
2135 37 2121 0
-2136 -2134 0
-2136 -2135 0
2136 2134 2135 0
-2137 2085 0
-2137 -2136 0
2137 -2085 2136 0
-2150 29 0
-2150 31 0
2150 -29 -31 0
-2151 -29 0
-2151 -31 0
2151 29 31 0
-2152 -2150 0
-2152 -2151 0
2152 2150 2151 0
-2141 7 0
-2141 9 0
2141 -7 -9 0
-2142 -7 0
-2142 -9 0
2142 7 9 0
-2143 -2141 0
-2143 -2142 0
2143 2141 2142 0
-2144 2 0
-2144 2143 0
2144 -2 -2143 0
-2145 -2 0
-2145 -2143 0
2145 2 2143 0
-2146 -2144 0
-2146 -2145 0
2146 2144 2145 0
-2153 10 0
-2153 2146 0
2153 -10 -2146 0
-2154 -10 0
-2154 -2146 0
2154 10 2146 0
-2155 -2153 0
-2155 -2154 0
2155 2153 2154 0
-2162 2152 0
-2162 2155 0
2162 -2152 -2155 0
-2163 -2152 0
-2163 -2155 0
2163 2152 2155 0
-2164 -2162 0
-2164 -2163 0
2164 2162 2163 0
-2168 36 0
-2168 55 0
2168 -36 -55 0
-2169 -36 0
-2169 -55 0
2169 36 55 0
-2170 -2168 0
-2170 -2169 0
2170 2168 2169 0
-2171 2164 0
-2171 2170 0
2171 -2164 -2170 0
-2172 -2164 0
-2172 -2170 0
2172 2164 2170 0
-2173 -2171 0
-2173 -2172 0
2173 2171 2172 0
-2174 2137 0
-2174 -2173 0
2174 -2137 2173 0
-2175 8 0
-2175 9 0
2175 -8 -9 0
-2176 -8 0
-2176 -9 0
2176 8 9 0
-2177 -2175 0
-2177 -2176 0
2177 2175 2176 0
-2181 6 0
-2181 2177 0
2181 -6 -2177 0
-2182 -6 0
-2182 -2177 0
2182 6 2177 0
-2183 -2181 0
-2183 -2182 0
2183 2181 2182 0
-2184 28 0
-2184 30 0
2184 -28 -30 0
-2185 -28 0
-2185 -30 0
2185 28 30 0
-2186 -2184 0
-2186 -2185 0
2186 2184 2185 0
-2193 2183 0
-2193 2186 0
2193 -2183 -2186 0
-2194 -2183 0
-2194 -2186 0
2194 2183 2186 0
-2195 -2193 0
-2195 -2194 0
2195 2193 2194 0
-2178 54 0
-2178 55 0
2178 -54 -55 0
-2179 -54 0
-2179 -55 0
2179 54 55 0
-2180 -2178 0
-2180 -2179 0
2180 2178 2179 0
-2199 35 0
-2199 2180 0
2199 -35 -2180 0
-2200 -35 0
-2200 -2180 0
2200 35 2180 0
-2201 -2199 0
-2201 -2200 0
2201 2199 2200 0
-2202 2195 0
-2202 2201 0
2202 -2195 -2201 0
-2203 -2195 0
-2203 -2201 0
2203 2195 2201 0
-2204 -2202 0
-2204 -2203 0
2204 2202 2203 0
-2205 2174 0
-2205 -2204 0
2205 -2174 2204 0
-2206 7 0
-2206 8 0
2206 -7 -8 0
-2207 -7 0
-2207 -8 0
2207 7 8 0
-2208 -2206 0
-2208 -2207 0
2208 2206 2207 0
-2212 5 0
-2212 2208 0
2212 -5 -2208 0
-2213 -5 0
-2213 -2208 0
2213 5 2208 0
-2214 -2212 0
-2214 -2213 0
2214 2212 2213 0
-2215 27 0
-2215 29 0
2215 -27 -29 0
-2216 -27 0
-2216 -29 0
2216 27 29 0
-2217 -2215 0
-2217 -2216 0
2217 2215 2216 0
-2224 2214 0
-2224 2217 0
2224 -2214 -2217 0
-2225 -2214 0
-2225 -2217 0
2225 2214 2217 0
-2226 -2224 0
-2226 -2225 0
2226 2224 2225 0
-2209 53 0
-2209 54 0
2209 -53 -54 0
-2210 -53 0
-2210 -54 0
2210 53 54 0
-2211 -2209 0
-2211 -2210 0
2211 2209 2210 0
-2230 34 0
-2230 2211 0
2230 -34 -2211 0
-2231 -34 0
-2231 -2211 0
2231 34 2211 0
-2232 -2230 0
-2232 -2231 0
2232 2230 2231 0
-2233 2226 0
-2233 2232 0
2233 -2226 -2232 0
-2234 -2226 0
-2234 -2232 0
2234 2226 2232 0
-2235 -2233 0
-2235 -2234 0
2235 2233 2234 0
-2236 2205 0
-2236 -2235 0
2236 -2205 2235 0
-2240 52 0
-2240 53 0
2240 -52 -53 0
-2241 -52 0
-2241 -53 0
2241 52 53 0
-2242 -2240 0
-2242 -2241 0
2242 2240 2241 0
-2246 55 0
-2246 2242 0
2246 -55 -2242 0
-2247 -55 0
-2247 -2242 0
2247 55 2242 0
-2248 -2246 0
-2248 -2247 0
2248 2246 2247 0
-2237 6 0
-2237 7 0
2237 -6 -7 0
-2238 -6 0
-2238 -7 0
2238 6 7 0
-2239 -2237 0
-2239 -2238 0
2239 2237 2238 0
-2243 4 0
-2243 2239 0
2243 -4 -2239 0
-2244 -4 0
-2244 -2239 0
2244 4 2239 0
-2245 -2243 0
-2245 -2244 0
2245 2243 2244 0
-2252 26 0
-2252 33 0
2252 -26 -33 0
-2253 -26 0
-2253 -33 0
2253 26 33 0
-2254 -2252 0
-2254 -2253 0
2254 2252 2253 0
-2258 2245 0
-2258 2254 0
2258 -2245 -2254 0
-2259 -2245 0
-2259 -2254 0
2259 2245 2254 0
-2260 -2258 0
-2260 -2259 0
2260 2258 2259 0
-2261 2248 0
-2261 2260 0
2261 -2248 -2260 0
-2262 -2248 0
-2262 -2260 0
2262 2248 2260 0
-2263 -2261 0
-2263 -2262 0
2263 2261 2262 0
-2264 2236 0
-2264 -2263 0
2264 -2236 2263 0
-2271 51 0
-2271 52 0
2271 -51 -52 0
-2272 -51 0
-2272 -52 0
2272 51 52 0
-2273 -2271 0
-2273 -2272 0
2273 2271 2272 0
-2277 54 0
-2277 2273 0
2277 -54 -2273 0
-2278 -54 0
-2278 -2273 0
2278 54 2273 0
-2279 -2277 0
-2279 -2278 0
2279 2277 2278 0
-2265 3 0
-2265 5 0
2265 -3 -5 0
-2266 -3 0
-2266 -5 0
2266 3 5 0
-2267 -2265 0
-2267 -2266 0
2267 2265 2266 0
-2274 6 0
-2274 2267 0
2274 -6 -2267 0
-2275 -6 0
-2275 -2267 0
2275 6 2267 0
-2276 -2274 0
-2276 -2275 0
2276 2274 2275 0
-2283 25 0
-2283 32 0
2283 -25 -32 0
-2284 -25 0
-2284 -32 0
2284 25 32 0
-2285 -2283 0
-2285 -2284 0
2285 2283 2284 0
-2289 2276 0
-2289 2285 0
2289 -2276 -2285 0
-2290 -2276 0
-2290 -2285 0
2290 2276 2285 0
-2291 -2289 0
-2291 -2290 0
2291 2289 2290 0
-2292 2279 0
-2292 2291 0
2292 -2279 -2291 0
-2293 -2279 0
-2293 -2291 0
2293 2279 2291 0
-2294 -2292 0
-2294 -2293 0
2294 2292 2293 0
-2295 2264 0
-2295 -2294 0
2295 -2264 2294 0
-2302 50 0
-2302 51 0
2302 -50 -51 0
-2303 -50 0
-2303 -51 0
2303 50 51 0
-2304 -2302 0
-2304 -2303 0
2304 2302 2303 0
-2305 53 0
-2305 2304 0
2305 -53 -2304 0
-2306 -53 0
-2306 -2304 0
2306 53 2304 0
-2307 -2305 0
-2307 -2306 0
2307 2305 2306 0
-2296 4 0
-2296 5 0
2296 -4 -5 0
-2297 -4 0
-2297 -5 0
2297 4 5 0
-2298 -2296 0
-2298 -2297 0
2298 2296 2297 0
-2299 2 0
-2299 2298 0
2299 -2 -2298 0
-2300 -2 0
-2300 -2298 0
2300 2 2298 0
-2301 -2299 0
-2301 -2300 0
2301 2299 2300 0
-2311 24 0
-2311 31 0
2311 -24 -31 0
-2312 -24 0
-2312 -31 0
2312 24 31 0
-2313 -2311 0
-2313 -2312 0
2313 2311 2312 0
-2317 2301 0
-2317 2313 0
2317 -2301 -2313 0
-2318 -2301 0
-2318 -2313 0
2318 2301 2313 0
-2319 -2317 0
-2319 -2318 0
2319 2317 2318 0
-2320 2307 0
-2320 2319 0
2320 -2307 -2319 0
-2321 -2307 0
-2321 -2319 0
2321 2307 2319 0
-2322 -2320 0
-2322 -2321 0
2322 2320 2321 0
-2323 2295 0
-2323 -2322 0
2323 -2295 2322 0
-2333 50 0
-2333 52 0
2333 -50 -52 0
-2334 -50 0
-2334 -52 0
2334 50 52 0
-2335 -2333 0
-2335 -2334 0
2335 2333 2334 0
-2342 49 0
-2342 2335 0
2342 -49 -2335 0
-2343 -49 0
-2343 -2335 0
2343 49 2335 0
-2344 -2342 0
-2344 -2343 0
2344 2342 2343 0
-2324 3 0
-2324 4 0
2324 -3 -4 0
-2325 -3 0
-2325 -4 0
2325 3 4 0
-2326 -2324 0
-2326 -2325 0
2326 2324 2325 0
-2339 23 0
-2339 2186 0
2339 -23 -2186 0
-2340 -23 0
-2340 -2186 0
2340 23 2186 0
-2341 -2339 0
-2341 -2340 0
2341 2339 2340 0
-2345 2326 0
-2345 2341 0
2345 -2326 -2341 0
-2346 -2326 0
-2346 -2341 0
2346 2326 2341 0
-2347 -2345 0
-2347 -2346 0
2347 2345 2346 0
-2351 2344 0
-2351 2347 0
2351 -2344 -2347 0
-2352 -2344 0
-2352 -2347 0
2352 2344 2347 0
-2353 -2351 0
-2353 -2352 0
2353 2351 2352 0
-2354 2323 0
-2354 -2353 0
2354 -2323 2353 0
-2358 48 0
-2358 49 0
2358 -48 -49 0
-2359 -48 0
-2359 -49 0
2359 48 49 0
-2360 -2358 0
-2360 -2359 0
2360 2358 2359 0
-2361 51 0
-2361 2360 0
2361 -51 -2360 0
-2362 -51 0
-2362 -2360 0
2362 51 2360 0
-2363 -2361 0
-2363 -2362 0
2363 2361 2362 0
-2355 2 0
-2355 3 0
2355 -2 -3 0
-2356 -2 0
-2356 -3 0
2356 2 3 0
-2357 -2355 0
-2357 -2356 0
2357 2355 2356 0
-2370 22 0
-2370 2217 0
2370 -22 -2217 0
-2371 -22 0
-2371 -2217 0
2371 22 2217 0
-2372 -2370 0
-2372 -2371 0
2372 2370 2371 0
-2376 2357 0
-2376 2372 0
2376 -2357 -2372 0
-2377 -2357 0
-2377 -2372 0
2377 2357 2372 0
-2378 -2376 0
-2378 -2377 0
2378 2376 2377 0
-2382 2363 0
-2382 2378 0
2382 -2363 -2378 0
-2383 -2363 0
-2383 -2378 0
2383 2363 2378 0
-2384 -2382 0
-2384 -2383 0
2384 2382 2383 0
-2385 2354 0
-2385 -2384 0
2385 -2354 2384 0
-2389 26 0
-2389 28 0
2389 -26 -28 0
-2390 -26 0
-2390 -28 0
2390 26 28 0
-2391 -2389 0
-2391 -2390 0
2391 2389 2390 0
-2401 21 0
-2401 2391 0
2401 -21 -2391 0
-2402 -21 0
-2402 -2391 0
2402 21 2391 0
-2403 -2401 0
-2403 -2402 0
2403 2401 2402 0
-2413 2 0
-2413 2403 0
2413 -2 -2403 0
-2414 -2 0
-2414 -2403 0
2414 2 2403 0
-2415 -2413 0
-2415 -2414 0
2415 2413 2414 0
-2386 47 0
-2386 48 0
2386 -47 -48 0
-2387 -47 0
-2387 -48 0
2387 47 48 0
-2388 -2386 0
-2388 -2387 0
2388 2386 2387 0
-2410 50 0
-2410 55 0
2410 -50 -55 0
-2411 -50 0
-2411 -55 0
2411 50 55 0
-2412 -2410 0
-2412 -2411 0
2412 2410 2411 0
-2422 2388 0
-2422 2412 0
2422 -2388 -2412 0
-2423 -2388 0
-2423 -2412 0
2423 2388 2412 0
-2424 -2422 0
-2424 -2423 0
2424 2422 2423 0
-2431 2415 0
-2431 2424 0
2431 -2415 -2424 0
-2432 -2415 0
-2432 -2424 0
2432 2415 2424 0
-2433 -2431 0
-2433 -2432 0
2433 2431 2432 0
-2434 2385 0
-2434 -2433 0
2434 -2385 2433 0
-2435 27 0
-2435 28 0
2435 -27 -28 0
-2436 -27 0
-2436 -28 0
2436 27 28 0
-2437 -2435 0
-2437 -2436 0
2437 2435 2436 0
-2453 20 0
-2453 25 0
2453 -20 -25 0
-2454 -20 0
-2454 -25 0
2454 20 25 0
-2455 -2453 0
-2455 -2454 0
2455 2453 2454 0
-2471 2437 0
-2471 2455 0
2471 -2437 -2455 0
-2472 -2437 0
-2472 -2455 0
2472 2437 2455 0
-2473 -2471 0
-2473 -2472 0
2473 2471 2472 0
-2438 46 0
-2438 47 0
2438 -46 -47 0
-2439 -46 0
-2439 -47 0
2439 46 47 0
-2440 -2438 0
-2440 -2439 0
2440 2438 2439 0
-2447 49 0
-2447 2440 0
2447 -49 -2440 0
-2448 -49 0
-2448 -2440 0
2448 49 2440 0
-2449 -2447 0
-2449 -2448 0
2449 2447 2448 0
-2483 54 0
-2483 2449 0
2483 -54 -2449 0
-2484 -54 0
-2484 -2449 0
2484 54 2449 0
-2485 -2483 0
-2485 -2484 0
2485 2483 2484 0
-2489 2473 0
-2489 2485 0
2489 -2473 -2485 0
-2490 -2473 0
-2490 -2485 0
2490 2473 2485 0
-2491 -2489 0
-2491 -2490 0
2491 2489 2490 0
-2492 2434 0
-2492 -2491 0
2492 -2434 2491 0
-2493 26 0
-2493 27 0
2493 -26 -27 0
-2494 -26 0
-2494 -27 0
2494 26 27 0
-2495 -2493 0
-2495 -2494 0
2495 2493 2494 0
-2511 19 0
-2511 24 0
2511 -19 -24 0
-2512 -19 0
-2512 -24 0
2512 19 24 0
-2513 -2511 0
-2513 -2512 0
2513 2511 2512 0
-2529 2495 0
-2529 2513 0
2529 -2495 -2513 0
-2530 -2495 0
-2530 -2513 0
2530 2495 2513 0
-2531 -2529 0
-2531 -2530 0
2531 2529 2530 0
-2508 46 0
-2508 48 0
2508 -46 -48 0
-2509 -46 0
-2509 -48 0
2509 46 48 0
-2510 -2508 0
-2510 -2509 0
2510 2508 2509 0
-2520 45 0
-2520 2510 0
2520 -45 -2510 0
-2521 -45 0
-2521 -2510 0
2521 45 2510 0
-2522 -2520 0
-2522 -2521 0
2522 2520 2521 0
-2544 53 0
-2544 2522 0
2544 -53 -2522 0
-2545 -53 0
-2545 -2522 0
2545 53 2522 0
-2546 -2544 0
-2546 -2545 0
2546 2544 2545 0
-2547 2531 0
-2547 2546 0
2547 -2531 -2546 0
-2548 -2531 0
-2548 -2546 0
2548 2531 2546 0
-2549 -2547 0
-2549 -2548 0
2549 2547 2548 0
-2550 2492 0
-2550 -2549 0
2550 -2492 2549 0
-2557 23 0
-2557 25 0
2557 -23 -25 0
-2558 -23 0
-2558 -25 0
2558 23 25 0
-2559 -2557 0
-2559 -2558 0
2559 2557 2558 0
-2569 18 0
-2569 2559 0
2569 -18 -2559 0
-2570 -18 0
-2570 -2559 0
2570 18 2559 0
-2571 -2569 0
-2571 -2570 0
2571 2569 2570 0
-2587 26 0
-2587 2571 0
2587 -26 -2571 0
-2588 -26 0
-2588 -2571 0
2588 26 2571 0
-2589 -2587 0
-2589 -2588 0
2589 2587 2588 0
-2554 44 0
-2554 45 0
2554 -44 -45 0
-2555 -44 0
-2555 -45 0
2555 44 45 0
-2556 -2554 0
-2556 -2555 0
2556 2554 2555 0
-2563 47 0
-2563 2556 0
2563 -47 -2556 0
-2564 -47 0
-2564 -2556 0
2564 47 2556 0
-2565 -2563 0
-2565 -2564 0
2565 2563 2564 0
-2596 52 0
-2596 2565 0
2596 -52 -2565 0
-2597 -52 0
-2597 -2565 0
2597 52 2565 0
-2598 -2596 0
-2598 -2597 0
2598 2596 2597 0
-2602 2589 0
-2602 2598 0
2602 -2589 -2598 0
-2603 -2589 0
-2603 -2598 0
2603 2589 2598 0
-2604 -2602 0
-2604 -2603 0
2604 2602 2603 0
-2605 2550 0
-2605 -2604 0
2605 -2550 2604 0
-2606 24 0
-2606 25 0
2606 -24 -25 0
-2607 -24 0
-2607 -25 0
2607 24 25 0
-2608 -2606 0
-2608 -2607 0
2608 2606 2607 0
-2615 22 0
-2615 2608 0
2615 -22 -2608 0
-2616 -22 0
-2616 -2608 0
2616 22 2608 0
-2617 -2615 0
-2617 -2616 0
2617 2615 2616 0
-2642 17 0
-2642 2617 0
2642 -17 -2617 0
-2643 -17 0
-2643 -2617 0
2643 17 2617 0
-2644 -2642 0
-2644 -2643 0
2644 2642 2643 0
-2609 43 0
-2609 44 0
2609 -43 -44 0
-2610 -43 0
-2610 -44 0
2610 43 44 0
-2611 -2609 0
-2611 -2610 0
2611 2609 2610 0
-2618 46 0
-2618 2611 0
2618 -46 -2611 0
-2619 -46 0
-2619 -2611 0
2619 46 2611 0
-2620 -2618 0
-2620 -2619 0
2620 2618 2619 0
-2651 51 0
-2651 2620 0
2651 -51 -2620 0
-2652 -51 0
-2652 -2620 0
2652 51 2620 0
-2653 -2651 0
-2653 -2652 0
2653 2651 2652 0
-2657 2644 0
-2657 2653 0
2657 -2644 -2653 0
-2658 -2644 0
-2658 -2653 0
2658 2644 2653 0
-2659 -2657 0
-2659 -2658 0
2659 2657 2658 0
-2660 2605 0
-2660 -2659 0
2660 -2605 2659 0
-2661 23 0
-2661 24 0
2661 -23 -24 0
-2662 -23 0
-2662 -24 0
2662 23 24 0
-2663 -2661 0
-2663 -2662 0
2663 2661 2662 0
-2670 21 0
-2670 2663 0
2670 -21 -2663 0
-2671 -21 0
-2671 -2663 0
2671 21 2663 0
-2672 -2670 0
-2672 -2671 0
2672 2670 2671 0
-2697 16 0
-2697 2672 0
2697 -16 -2672 0
-2698 -16 0
-2698 -2672 0
2698 16 2672 0
-2699 -2697 0
-2699 -2698 0
2699 2697 2698 0
-2664 42 0
-2664 43 0
2664 -42 -43 0
-2665 -42 0
-2665 -43 0
2665 42 43 0
-2666 -2664 0
-2666 -2665 0
2666 2664 2665 0
-2673 45 0
-2673 2666 0
2673 -45 -2666 0
-2674 -45 0
-2674 -2666 0
2674 45 2666 0
-2675 -2673 0
-2675 -2674 0
2675 2673 2674 0
-2706 50 0
-2706 2675 0
2706 -50 -2675 0
-2707 -50 0
-2707 -2675 0
2707 50 2675 0
-2708 -2706 0
-2708 -2707 0
2708 2706 2707 0
-2712 2699 0
-2712 2708 0
2712 -2699 -2708 0
-2713 -2699 0
-2713 -2708 0
2713 2699 2708 0
-2714 -2712 0
-2714 -2713 0
2714 2712 2713 0
-2715 2660 0
-2715 -2714 0
2715 -2660 2714 0
-2716 22 0
-2716 23 0
2716 -22 -23 0
-2717 -22 0
-2717 -23 0
2717 22 23 0
-2718 -2716 0
-2718 -2717 0
2718 2716 2717 0
-2725 20 0
-2725 2718 0
2725 -20 -2718 0
-2726 -20 0
-2726 -2718 0
2726 20 2718 0
-2727 -2725 0
-2727 -2726 0
2727 2725 2726 0
-2752 15 0
-2752 2727 0
2752 -15 -2727 0
-2753 -15 0
-2753 -2727 0
2753 15 2727 0
-2754 -2752 0
-2754 -2753 0
2754 2752 2753 0
-2731 42 0
-2731 44 0
2731 -42 -44 0
-2732 -42 0
-2732 -44 0
2732 42 44 0
-2733 -2731 0
-2733 -2732 0
2733 2731 2732 0
-2746 49 0
-2746 2733 0
2746 -49 -2733 0
-2747 -49 0
-2747 -2733 0
2747 49 2733 0
-2748 -2746 0
-2748 -2747 0
2748 2746 2747 0
-2755 41 0
-2755 2748 0
2755 -41 -2748 0
-2756 -41 0
-2756 -2748 0
2756 41 2748 0
-2757 -2755 0
-2757 -2756 0
2757 2755 2756 0
-2767 2754 0
-2767 2757 0
2767 -2754 -2757 0
-2768 -2754 0
-2768 -2757 0
2768 2754 2757 0
-2769 -2767 0
-2769 -2768 0
2769 2767 2768 0
-2770 2715 0
-2770 -2769 0
2770 -2715 2769 0
-2777 19 0
-2777 21 0
2777 -19 -21 0
-2778 -19 0
-2778 -21 0
2778 19 21 0
-2779 -2777 0
-2779 -2778 0
2779 2777 2778 0
-2789 22 0
-2789 2779 0
2789 -22 -2779 0
-2790 -22 0
-2790 -2779 0
2790 22 2779 0
-2791 -2789 0
-2791 -2790 0
2791 2789 2790 0
-2807 14 0
-2807 2791 0
2807 -14 -2791 0
-2808 -14 0
-2808 -2791 0
2808 14 2791 0
-2809 -2807 0
-2809 -2808 0
2809 2807 2808 0
-2774 40 0
-2774 41 0
2774 -40 -41 0
-2775 -40 0
-2775 -41 0
2775 40 41 0
-2776 -2774 0
-2776 -2775 0
2776 2774 2775 0
-2804 43 0
-2804 48 0
2804 -43 -48 0
-2805 -43 0
-2805 -48 0
2805 43 48 0
-2806 -2804 0
-2806 -2805 0
2806 2804 2805 0
-2810 2776 0
-2810 2806 0
2810 -2776 -2806 0
-2811 -2776 0
-2811 -2806 0
2811 2776 2806 0
-2812 -2810 0
-2812 -2811 0
2812 2810 2811 0
-2822 2809 0
-2822 2812 0
2822 -2809 -2812 0
-2823 -2809 0
-2823 -2812 0
2823 2809 2812 0
-2824 -2822 0
-2824 -2823 0
2824 2822 2823 0
-2825 2770 0
-2825 -2824 0
2825 -2770 2824 0
-2826 20 0
-2826 21 0
2826 -20 -21 0
-2827 -20 0
-2827 -21 0
2827 20 21 0
-2828 -2826 0
-2828 -2827 0
2828 2826 2827 0
-2835 18 0
-2835 2828 0
2835 -18 -2828 0
-2836 -18 0
-2836 -2828 0
2836 18 2828 0
-2837 -2835 0
-2837 -2836 0
2837 2835 2836 0
-2862 13 0
-2862 2837 0
2862 -13 -2837 0
-2863 -13 0
-2863 -2837 0
2863 13 2837 0
-2864 -2862 0
-2864 -2863 0
2864 2862 2863 0
-2829 39 0
-2829 40 0
2829 -39 -40 0
-2830 -39 0
-2830 -40 0
2830 39 40 0
-2831 -2829 0
-2831 -2830 0
2831 2829 2830 0
-2859 42 0
-2859 47 0
2859 -42 -47 0
-2860 -42 0
-2860 -47 0
2860 42 47 0
-2861 -2859 0
-2861 -2860 0
2861 2859 2860 0
-2865 2831 0
-2865 2861 0
2865 -2831 -2861 0
-2866 -2831 0
-2866 -2861 0
2866 2831 2861 0
-2867 -2865 0
-2867 -2866 0
2867 2865 2866 0
-2877 2864 0
-2877 2867 0
2877 -2864 -2867 0
-2878 -2864 0
-2878 -2867 0
2878 2864 2867 0
-2879 -2877 0
-2879 -2878 0
2879 2877 2878 0
-2880 2825 0
-2880 -2879 0
2880 -2825 2879 0
-2881 19 0
-2881 20 0
2881 -19 -20 0
-2882 -19 0
-2882 -20 0
2882 19 20 0
-2883 -2881 0
-2883 -2882 0
2883 2881 2882 0
-2899 12 0
-2899 17 0
2899 -12 -17 0
-2900 -12 0
-2900 -17 0
2900 12 17 0
-2901 -2899 0
-2901 -2900 0
2901 2899 2900 0
-2917 2883 0
-2917 2901 0
2917 -2883 -2901 0
-2918 -2883 0
-2918 -2901 0
2918 2883 2901 0
-2919 -2917 0
-2919 -2918 0
2919 2917 2918 0
-2884 38 0
-2884 39 0
2884 -38 -39 0
-2885 -38 0
-2885 -39 0
2885 38 39 0
-2886 -2884 0
-2886 -2885 0
2886 2884 2885 0
-2893 41 0
-2893 2886 0
2893 -41 -2886 0
-2894 -41 0
-2894 -2886 0
2894 41 2886 0
-2895 -2893 0
-2895 -2894 0
2895 2893 2894 0
-2920 46 0
-2920 2895 0
2920 -46 -2895 0
-2921 -46 0
-2921 -2895 0
2921 46 2895 0
-2922 -2920 0
-2922 -2921 0
2922 2920 2921 0
-2932 2919 0
-2932 2922 0
2932 -2919 -2922 0
-2933 -2919 0
-2933 -2922 0
2933 2919 2922 0
-2934 -2932 0
-2934 -2933 0
2934 2932 2933 0
-2935 2880 0
-2935 -2934 0
2935 -2880 2934 0
-2936 18 0
-2936 19 0
2936 -18 -19 0
-2937 -18 0
-2937 -19 0
2937 18 19 0
-2938 -2936 0
-2938 -2937 0
2938 2936 2937 0
-2954 11 0
-2954 16 0
2954 -11 -16 0
-2955 -11 0
-2955 -16 0
2955 11 16 0
-2956 -2954 0
-2956 -2955 0
2956 2954 2955 0
-2972 2938 0
-2972 2956 0
2972 -2938 -2956 0
-2973 -2938 0
-2973 -2956 0
2973 2938 2956 0
-2974 -2972 0
-2974 -2973 0
2974 2972 2973 0
-2951 38 0
-2951 40 0
2951 -38 -40 0
-2952 -38 0
-2952 -40 0
2952 38 40 0
-2953 -2951 0
-2953 -2952 0
2953 2951 2952 0
-2963 37 0
-2963 2953 0
2963 -37 -2953 0
-2964 -37 0
-2964 -2953 0
2964 37 2953 0
-2965 -2963 0
-2965 -2964 0
2965 2963 2964 0
-2975 45 0
-2975 2965 0
2975 -45 -2965 0
-2976 -45 0
-2976 -2965 0
2976 45 2965 0
-2977 -2975 0
-2977 -2976 0
2977 2975 2976 0
-2987 2974 0
-2987 2977 0
2987 -2974 -2977 0
-2988 -2974 0
-2988 -2977 0
2988 2974 2977 0
-2989 -2987 0
-2989 -2988 0
2989 2987 2988 0
-2990 2935 0
-2990 -2989 0
2990 -2935 2989 0
-2997 15 0
-2997 17 0
2997 -15 -17 0
-2998 -15 0
-2998 -17 0
2998 15 17 0
-2999 -2997 0
-2999 -2998 0
2999 2997 2998 0
-3009 10 0
-3009 2999 0
3009 -10 -2999 0
-3010 -10 0
-3010 -2999 0
3010 10 2999 0
-3011 -3009 0
-3011 -3010 0
3011 3009 3010 0
-3024 18 0
-3024 3011 0
3024 -18 -3011 0
-3025 -18 0
-3025 -3011 0
3025 18 3011 0
-3026 -3024 0
-3026 -3025 0
3026 3024 3025 0
-2994 36 0
-2994 37 0
2994 -36 -37 0
-2995 -36 0
-2995 -37 0
2995 36 37 0
-2996 -2994 0
-2996 -2995 0
2996 2994 2995 0
-3003 39 0
-3003 2996 0
3003 -39 -2996 0
-3004 -39 0
-3004 -2996 0
3004 39 2996 0
-3005 -3003 0
-3005 -3004 0
3005 3003 3004 0
-3027 44 0
-3027 3005 0
3027 -44 -3005 0
-3028 -44 0
-3028 -3005 0
3028 44 3005 0
-3029 -3027 0
-3029 -3028 0
3029 3027 3028 0
-3039 3026 0
-3039 3029 0
3039 -3026 -3029 0
-3040 -3026 0
-3040 -3029 0
3040 3026 3029 0
-3041 -3039 0
-3041 -3040 0
3041 3039 3040 0
-3042 2990 0
-3042 -3041 0
3042 -2990 3041 0
-3043 2298 0
-3043 2357 0
3043 -2298 -2357 0
-3044 -2298 0
-3044 -2357 0
3044 2298 2357 0
-3045 -3043 0
-3045 -3044 0
3045 3043 3044 0
-3046 6 0
-3046 3045 0
3046 -6 -3045 0
-3047 -6 0
-3047 -3045 0
3047 6 3045 0
-3048 -3046 0
-3048 -3047 0
3048 3046 3047 0
-3055 17 0
-3055 1883 0
3055 -17 -1883 0
-3056 -17 0
-3056 -1883 0
3056 17 1883 0
-3057 -3055 0
-3057 -3056 0
3057 3055 3056 0
-3070 1941 0
-3070 3057 0
3070 -1941 -3057 0
-3071 -1941 0
-3071 -3057 0
3071 1941 3057 0
-3072 -3070 0
-3072 -3071 0
3072 3070 3071 0
-3073 3048 0
-3073 3072 0
3073 -3048 -3072 0
-3074 -3048 0
-3074 -3072 0
3074 3048 3072 0
-3075 -3073 0
-3075 -3074 0
3075 3073 3074 0
-3076 2617 0
-3076 2779 0
3076 -2617 -2779 0
-3077 -2617 0
-3077 -2779 0
3077 2617 2779 0
-3078 -3076 0
-3078 -3077 0
3078 3076 3077 0
-3115 2495 0
-3115 3078 0
3115 -2495 -3078 0
-3116 -2495 0
-3116 -3078 0
3116 2495 3078 0
-3117 -3115 0
-3117 -3116 0
3117 3115 3116 0
-3118 3075 0
-3118 3117 0
3118 -3075 -3117 0
-3119 -3075 0
-3119 -3117 0
3119 3075 3117 0
-3120 -3118 0
-3120 -3119 0
3120 3118 3119 0
-3124 -55 0
-3124 3120 0
3124 55 -3120 0
-3125 55 0
-3125 -3120 0
3125 -55 3120 0
-3126 -3124 0
-3126 -3125 0
3126 3124 3125 0
-3127 2177 0
-3127 2239 0
3127 -2177 -2239 0
-3128 -2177 0
-3128 -2239 0
3128 2177 2239 0
-3129 -3127 0
-3129 -3128 0
3129 3127 3128 0
-3139 11 0
-3139 2999 0
3139 -11 -2999 0
-3140 -11 0
-3140 -2999 0
3140 11 2999 0
-3141 -3139 0
-3141 -3140 0
3141 3139 3140 0
-3142 3129 0
-3142 3141 0
3142 -3129 -3141 0
-3143 -3129 0
-3143 -3141 0
3143 3129 3141 0
-3144 -3142 0
-3144 -3143 0
3144 3142 3143 0
-3136 19 0
-3136 22 0
3136 -19 -22 0
-3137 -19 0
-3137 -22 0
3137 19 22 0
-3138 -3136 0
-3138 -3137 0
3138 3136 3137 0
-3157 27 0
-3157 3138 0
3157 -27 -3138 0
-3158 -27 0
-3158 -3138 0
3158 27 3138 0
-3159 -3157 0
-3159 -3158 0
3159 3157 3158 0
-3160 3144 0
-3160 3159 0
3160 -3144 -3159 0
-3161 -3144 0
-3161 -3159 0
3161 3144 3159 0
-3162 -3160 0
-3162 -3161 0
3162 3160 3161 0
-3163 -54 0
-3163 3162 0
3163 54 -3162 0
-3164 54 0
-3164 -3162 0
3164 -54 3162 0
-3165 -3163 0
-3165 -3164 0
3165 3163 3164 0
-3166 8 0
-3166 2239 0
3166 -8 -2239 0
-3167 -8 0
-3167 -2239 0
3167 8 2239 0
-3168 -3166 0
-3168 -3167 0
3168 3166 3167 0
-3169 5 0
-3169 3168 0
3169 -5 -3168 0
-3170 -5 0
-3170 -3168 0
3170 5 3168 0
-3171 -3169 0
-3171 -3170 0
3171 3169 3170 0
-1789 14 0
-1789 16 0
1789 -14 -16 0
-1790 -14 0
-1790 -16 0
1790 14 16 0
-1791 -1789 0
-1791 -1790 0
1791 1789 1790 0
-3178 10 0
-3178 1791 0
3178 -10 -1791 0
-3179 -10 0
-3179 -1791 0
3179 10 1791 0
-3180 -3178 0
-3180 -3179 0
3180 3178 3179 0
-3181 3171 0
-3181 3180 0
3181 -3171 -3180 0
-3182 -3171 0
-3182 -3180 0
3182 3171 3180 0
-3183 -3181 0
-3183 -3182 0
3183 3181 3182 0
-3175 18 0
-3175 21 0
3175 -18 -21 0
-3176 -18 0
-3176 -21 0
3176 18 21 0
-3177 -3175 0
-3177 -3176 0
3177 3175 3176 0
-3196 26 0
-3196 3177 0
3196 -26 -3177 0
-3197 -26 0
-3197 -3177 0
3197 26 3177 0
-3198 -3196 0
-3198 -3197 0
3198 3196 3197 0
-3199 3183 0
-3199 3198 0
3199 -3183 -3198 0
-3200 -3183 0
-3200 -3198 0
3200 3183 3198 0
-3201 -3199 0
-3201 -3200 0
3201 3199 3200 0
-3202 -53 0
-3202 3201 0
3202 53 -3201 0
-3203 53 0
-3203 -3201 0
3203 -53 3201 0
-3204 -3202 0
-3204 -3203 0
3204 3202 3203 0
-3205 9 0
-3205 2239 0
3205 -9 -2239 0
-3206 -9 0
-3206 -2239 0
3206 9 2239 0
-3207 -3205 0
-3207 -3206 0
3207 3205 3206 0
-3208 2298 0
-3208 3207 0
3208 -2298 -3207 0
-3209 -2298 0
-3209 -3207 0
3209 2298 3207 0
-3210 -3208 0
-3210 -3209 0
3210 3208 3209 0
-3214 13 0
-3214 2999 0
3214 -13 -2999 0
-3215 -13 0
-3215 -2999 0
3215 13 2999 0
-3216 -3214 0
-3216 -3215 0
3216 3214 3215 0
-3217 3210 0
-3217 3216 0
3217 -3210 -3216 0
-3218 -3210 0
-3218 -3216 0
3218 3210 3216 0
-3219 -3217 0
-3219 -3218 0
3219 3217 3218 0
-3229 2455 0
-3229 3219 0
3229 -2455 -3219 0
-3230 -2455 0
-3230 -3219 0
3230 2455 3219 0
-3231 -3229 0
-3231 -3230 0
3231 3229 3230 0
-3232 -52 0
-3232 3231 0
3232 52 -3231 0
-3233 52 0
-3233 -3231 0
3233 -52 3231 0
-3234 -3232 0
-3234 -3233 0
3234 3232 3233 0
-3235 3 0
-3235 2298 0
3235 -3 -2298 0
-3236 -3 0
-3236 -2298 0
3236 3 2298 0
-3237 -3235 0
-3237 -3236 0
3237 3235 3236 0
-3238 6 0
-3238 8 0
3238 -6 -8 0
-3239 -6 0
-3239 -8 0
3239 6 8 0
-3240 -3238 0
-3240 -3239 0
3240 3238 3239 0
-3241 3237 0
-3241 3240 0
3241 -3237 -3240 0
-3242 -3237 0
-3242 -3240 0
3242 3237 3240 0
-3243 -3241 0
-3243 -3242 0
3243 3241 3242 0
-3247 12 0
-3247 1791 0
3247 -12 -1791 0
-3248 -12 0
-3248 -1791 0
3248 12 1791 0
-3249 -3247 0
-3249 -3248 0
3249 3247 3248 0
-3250 3243 0
-3250 3249 0
3250 -3243 -3249 0
-3251 -3243 0
-3251 -3249 0
3251 3243 3249 0
-3252 -3250 0
-3252 -3251 0
3252 3250 3251 0
-3262 2513 0
-3262 3252 0
3262 -2513 -3252 0
-3263 -2513 0
-3263 -3252 0
3263 2513 3252 0
-3264 -3262 0
-3264 -3263 0
3264 3262 3263 0
-3265 -51 0
-3265 3264 0
3265 51 -3264 0
-3266 51 0
-3266 -3264 0
3266 -51 3264 0
-3267 -3265 0
-3267 -3266 0
3267 3265 3266 0
-2572 18 0
-2572 23 0
2572 -18 -23 0
-2573 -18 0
-2573 -23 0
2573 18 23 0
-2574 -2572 0
-2574 -2573 0
2574 2572 2573 0
-3268 7 0
-3268 3045 0
3268 -7 -3045 0
-3269 -7 0
-3269 -3045 0
3269 7 3045 0
-3270 -3268 0
-3270 -3269 0
3270 3268 3269 0
-3274 15 0
-3274 1941 0
3274 -15 -1941 0
-3275 -15 0
-3275 -1941 0
3275 15 1941 0
-3276 -3274 0
-3276 -3275 0
3276 3274 3275 0
-3277 3270 0
-3277 3276 0
3277 -3270 -3276 0
-3278 -3270 0
-3278 -3276 0
3278 3270 3276 0
-3279 -3277 0
-3279 -3278 0
3279 3277 3278 0
-3286 2574 0
-3286 3279 0
3286 -2574 -3279 0
-3287 -2574 0
-3287 -3279 0
3287 2574 3279 0
-3288 -3286 0
-3288 -3287 0
3288 3286 3287 0
-3289 -50 0
-3289 3288 0
3289 50 -3288 0
-3290 50 0
-3290 -3288 0
3290 -50 3288 0
-3291 -3289 0
-3291 -3290 0
3291 3289 3290 0
-3292 7 0
-3292 2177 0
3292 -7 -2177 0
-3293 -7 0
-3293 -2177 0
3293 7 2177 0
-3294 -3292 0
-3294 -3293 0
3294 3292 3293 0
-3295 5 0
-3295 3294 0
3295 -5 -3294 0
-3296 -5 0
-3296 -3294 0
3296 5 3294 0
-3297 -3295 0
-3297 -3296 0
3297 3295 3296 0
-3319 1834 0
-3319 1941 0
3319 -1834 -1941 0
-3320 -1834 0
-3320 -1941 0
3320 1834 1941 0
-3321 -3319 0
-3321 -3320 0
3321 3319 3320 0
-3322 3297 0
-3322 3321 0
3322 -3297 -3321 0
-3323 -3297 0
-3323 -3321 0
3323 3297 3321 0
-3324 -3322 0
-3324 -3323 0
3324 3322 3323 0
-3304 2828 0
-3304 2938 0
3304 -2828 -2938 0
-3305 -2828 0
-3305 -2938 0
3305 2828 2938 0
-3306 -3304 0
-3306 -3305 0
3306 3304 3305 0
-3313 23 0
-3313 2608 0
3313 -23 -2608 0
-3314 -23 0
-3314 -2608 0
3314 23 2608 0
-3315 -3313 0
-3315 -3314 0
3315 3313 3314 0
-3325 3306 0
-3325 3315 0
3325 -3306 -3315 0
-3326 -3306 0
-3326 -3315 0
3326 3306 3315 0
-3327 -3325 0
-3327 -3326 0
3327 3325 3326 0
-3364 2495 0
-3364 3327 0
3364 -2495 -3327 0
-3365 -2495 0
-3365 -3327 0
3365 2495 3327 0
-3366 -3364 0
-3366 -3365 0
3366 3364 3365 0
-3367 3324 0
-3367 3366 0
3367 -3324 -3366 0
-3368 -3324 0
-3368 -3366 0
3368 3324 3366 0
-3369 -3367 0
-3369 -3368 0
3369 3367 3368 0
-3373 -49 0
-3373 3369 0
3373 49 -3369 0
-3374 49 0
-3374 -3369 0
3374 -49 3369 0
-3375 -3373 0
-3375 -3374 0
3375 3373 3374 0
-3376 4 0
-3376 3168 0
3376 -4 -3168 0
-3377 -4 0
-3377 -3168 0
3377 4 3168 0
-3378 -3376 0
-3378 -3377 0
3378 3376 3377 0
-1994 10 0
-1994 12 0
1994 -10 -12 0
-1995 -10 0
-1995 -12 0
1995 10 12 0
-1996 -1994 0
-1996 -1995 0
1996 1994 1995 0
-3400 1996 0
-3400 3057 0
3400 -1996 -3057 0
-3401 -1996 0
-3401 -3057 0
3401 1996 3057 0
-3402 -3400 0
-3402 -3401 0
3402 3400 3401 0
-3403 3378 0
-3403 3402 0
3403 -3378 -3402 0
-3404 -3378 0
-3404 -3402 0
3404 3378 3402 0
-3405 -3403 0
-3405 -3404 0
3405 3403 3404 0
-3385 20 0
-3385 2938 0
3385 -20 -2938 0
-3386 -20 0
-3386 -2938 0
3386 20 2938 0
-3387 -3385 0
-3387 -3386 0
3387 3385 3386 0
-3394 2608 0
-3394 2718 0
3394 -2608 -2718 0
-3395 -2608 0
-3395 -2718 0
3395 2608 2718 0
-3396 -3394 0
-3396 -3395 0
3396 3394 3395 0
-3406 3387 0
-3406 3396 0
3406 -3387 -3396 0
-3407 -3387 0
-3407 -3396 0
3407 3387 3396 0
-3408 -3406 0
-3408 -3407 0
3408 3406 3407 0
-3442 26 0
-3442 3408 0
3442 -26 -3408 0
-3443 -26 0
-3443 -3408 0
3443 26 3408 0
-3444 -3442 0
-3444 -3443 0
3444 3442 3443 0
-3445 3405 0
-3445 3444 0
3445 -3405 -3444 0
-3446 -3405 0
-3446 -3444 0
3446 3405 3444 0
-3447 -3445 0
-3447 -3446 0
3447 3445 3446 0
-3448 -48 0
-3448 3447 0
3448 48 -3447 0
-3449 48 0
-3449 -3447 0
3449 -48 3447 0
-3450 -3448 0
-3450 -3449 0
3450 3448 3449 0
-3451 2267 0
-3451 3207 0
3451 -2267 -3207 0
-3452 -2267 0
-3452 -3207 0
3452 2267 3207 0
-3453 -3451 0
-3453 -3452 0
3453 3451 3452 0
-3478 1794 0
-3478 1941 0
3478 -1794 -1941 0
-3479 -1794 0
-3479 -1941 0
3479 1794 1941 0
-3480 -3478 0
-3480 -3479 0
3480 3478 3479 0
-3481 3453 0
-3481 3480 0
3481 -3453 -3480 0
-3482 -3453 0
-3482 -3480 0
3482 3453 3480 0
-3483 -3481 0
-3483 -3482 0
3483 3481 3482 0
-3466 21 0
-3466 2938 0
3466 -21 -2938 0
-3467 -21 0
-3467 -2938 0
3467 21 2938 0
-3468 -3466 0
-3468 -3467 0
3468 3466 3467 0
-3484 3396 0
-3484 3468 0
3484 -3396 -3468 0
-3485 -3396 0
-3485 -3468 0
3485 3396 3468 0
-3486 -3484 0
-3486 -3485 0
3486 3484 3485 0
-3517 3483 0
-3517 3486 0
3517 -3483 -3486 0
-3518 -3483 0
-3518 -3486 0
3518 3483 3486 0
-3519 -3517 0
-3519 -3518 0
3519 3517 3518 0
-3520 -47 0
-3520 3519 0
3520 47 -3519 0
-3521 47 0
-3521 -3519 0
3521 -47 3519 0
-3522 -3520 0
-3522 -3521 0
3522 3520 3521 0
-3523 2301 0
-3523 3240 0
3523 -2301 -3240 0
-3524 -2301 0
-3524 -3240 0
3524 2301 3240 0
-3525 -3523 0
-3525 -3524 0
3525 3523 3524 0
-3529 15 0
-3529 1785 0
3529 -15 -1785 0
-3530 -15 0
-3530 -1785 0
3530 15 1785 0
-3531 -3529 0
-3531 -3530 0
3531 3529 3530 0
-3550 1993 0
-3550 3531 0
3550 -1993 -3531 0
-3551 -1993 0
-3551 -3531 0
3551 1993 3531 0
-3552 -3550 0
-3552 -3551 0
3552 3550 3551 0
-3553 3525 0
-3553 3552 0
3553 -3525 -3552 0
-3554 -3525 0
-3554 -3552 0
3554 3525 3552 0
-3555 -3553 0
-3555 -3554 0
3555 3553 3554 0
-3547 24 0
-3547 2718 0
3547 -24 -2718 0
-3548 -24 0
-3548 -2718 0
3548 24 2718 0
-3549 -3547 0
-3549 -3548 0
3549 3547 3548 0
-3556 2837 0
-3556 3549 0
3556 -2837 -3549 0
-3557 -2837 0
-3557 -3549 0
3557 2837 3549 0
-3558 -3556 0
-3558 -3557 0
3558 3556 3557 0
-3586 3555 0
-3586 3558 0
3586 -3555 -3558 0
-3587 -3555 0
-3587 -3558 0
3587 3555 3558 0
-3588 -3586 0
-3588 -3587 0
3588 3586 3587 0
-3589 -46 0
-3589 3588 0
3589 46 -3588 0
-3590 46 0
-3590 -3588 0
3590 -46 3588 0
-3591 -3589 0
-3591 -3590 0
3591 3589 3590 0
-3592 2 0
-3592 3240 0
3592 -2 -3240 0
-3593 -2 0
-3593 -3240 0
3593 2 3240 0
-3594 -3592 0
-3594 -3593 0
3594 3592 3593 0
-3595 10 0
-3595 13 0
3595 -10 -13 0
-3596 -10 0
-3596 -13 0
3596 10 13 0
-3597 -3595 0
-3597 -3596 0
3597 3595 3596 0
-3598 3594 0
-3598 3597 0
3598 -3594 -3597 0
-3599 -3594 0
-3599 -3597 0
3599 3594 3597 0
-3600 -3598 0
-3600 -3599 0
3600 3598 3599 0
-3601 18 0
-3601 2608 0
3601 -18 -2608 0
-3602 -18 0
-3602 -2608 0
3602 18 2608 0
-3603 -3601 0
-3603 -3602 0
3603 3601 3602 0
-3610 2495 0
-3610 3603 0
3610 -2495 -3603 0
-3611 -2495 0
-3611 -3603 0
3611 2495 3603 0
-3612 -3610 0
-3612 -3611 0
3612 3610 3611 0
-3613 3600 0
-3613 3612 0
3613 -3600 -3612 0
-3614 -3600 0
-3614 -3612 0
3614 3600 3612 0
-3615 -3613 0
-3615 -3614 0
3615 3613 3614 0
-3616 -45 0
-3616 3615 0
3616 45 -3615 0
-3617 45 0
-3617 -3615 0
3617 -45 3615 0
-3618 -3616 0
-3618 -3617 0
3618 3616 3617 0
-3619 4 0
-3619 2357 0
3619 -4 -2357 0
-3620 -4 0
-3620 -2357 0
3620 4 2357 0
-3621 -3619 0
-3621 -3620 0
3621 3619 3620 0
-3622 3240 0
-3622 3621 0
3622 -3240 -3621 0
-3623 -3240 0
-3623 -3621 0
3623 3240 3621 0
-3624 -3622 0
-3624 -3623 0
3624 3622 3623 0
-3625 13 0
-3625 2088 0
3625 -13 -2088 0
-3626 -13 0
-3626 -2088 0
3626 13 2088 0
-3627 -3625 0
-3627 -3626 0
3627 3625 3626 0
-3631 16 0
-3631 1883 0
3631 -16 -1883 0
-3632 -16 0
-3632 -1883 0
3632 16 1883 0
-3633 -3631 0
-3633 -3632 0
3633 3631 3632 0
-3640 3627 0
-3640 3633 0
3640 -3627 -3633 0
-3641 -3627 0
-3641 -3633 0
3641 3627 3633 0
-3642 -3640 0
-3642 -3641 0
3642 3640 3641 0
-3643 3624 0
-3643 3642 0
3643 -3624 -3642 0
-3644 -3624 0
-3644 -3642 0
3644 3624 3642 0
-3645 -3643 0
-3645 -3644 0
3645 3643 3644 0
-3646 22 0
-3646 3306 0
3646 -22 -3306 0
-3647 -22 0
-3647 -3306 0
3647 22 3306 0
-3648 -3646 0
-3648 -3647 0
3648 3646 3647 0
-3676 27 0
-3676 3648 0
3676 -27 -3648 0
-3677 -27 0
-3677 -3648 0
3677 27 3648 0
-3678 -3676 0
-3678 -3677 0
3678 3676 3677 0
-3679 3645 0
-3679 3678 0
3679 -3645 -3678 0
-3680 -3645 0
-3680 -3678 0
3680 3645 3678 0
-3681 -3679 0
-3681 -3680 0
3681 3679 3680 0
-3685 -44 0
-3685 3681 0
3685 44 -3681 0
-3686 44 0
-3686 -3681 0
3686 -44 3681 0
-3687 -3685 0
-3687 -3686 0
3687 3685 3686 0
-3688 4 0
-3688 3240 0
3688 -4 -3240 0
-3689 -4 0
-3689 -3240 0
3689 4 3240 0
-3690 -3688 0
-3690 -3689 0
3690 3688 3689 0
-3697 2956 0
-3697 3690 0
3697 -2956 -3690 0
-3698 -2956 0
-3698 -3690 0
3698 2956 3690 0
-3699 -3697 0
-3699 -3698 0
3699 3697 3698 0
-3715 27 0
-3715 3396 0
3715 -27 -3396 0
-3716 -27 0
-3716 -3396 0
3716 27 3396 0
-3717 -3715 0
-3717 -3716 0
3717 3715 3716 0
-3721 3699 0
-3721 3717 0
3721 -3699 -3717 0
-3722 -3699 0
-3722 -3717 0
3722 3699 3717 0
-3723 -3721 0
-3723 -3722 0
3723 3721 3722 0
-3727 -43 0
-3727 3723 0
3727 43 -3723 0
-3728 43 0
-3728 -3723 0
3728 -43 3723 0
-3729 -3727 0
-3729 -3728 0
3729 3727 3728 0
-3730 7 0
-3730 2267 0
3730 -7 -2267 0
-3731 -7 0
-3731 -2267 0
3731 7 2267 0
-3732 -3730 0
-3732 -3731 0
3732 3730 3731 0
-3739 10 0
-3739 15 0
3739 -10 -15 0
-3740 -10 0
-3740 -15 0
3740 10 15 0
-3741 -3739 0
-3741 -3740 0
3741 3739 3740 0
-3742 3732 0
-3742 3741 0
3742 -3732 -3741 0
-3743 -3732 0
-3743 -3741 0
3743 3732 3741 0
-3744 -3742 0
-3744 -3743 0
3744 3742 3743 0
-3745 21 0
-3745 3549 0
3745 -21 -3549 0
-3746 -21 0
-3746 -3549 0
3746 21 3549 0
-3747 -3745 0
-3747 -3746 0
3747 3745 3746 0
-3766 26 0
-3766 3747 0
3766 -26 -3747 0
-3767 -26 0
-3767 -3747 0
3767 26 3747 0
-3768 -3766 0
-3768 -3767 0
3768 3766 3767 0
-3769 3744 0
-3769 3768 0
3769 -3744 -3768 0
-3770 -3744 0
-3770 -3768 0
3770 3744 3768 0
-3771 -3769 0
-3771 -3770 0
3771 3769 3770 0
-3772 -42 0
-3772 3771 0
3772 42 -3771 0
-3773 42 0
-3773 -3771 0
3773 -42 3771 0
-3774 -3772 0
-3774 -3773 0
3774 3772 3773 0
-3775 2 0
-3775 4 0
3775 -2 -4 0
-3776 -2 0
-3776 -4 0
3776 2 4 0
-3777 -3775 0
-3777 -3776 0
3777 3775 3776 0
-3778 6 0
-3778 9 0
3778 -6 -9 0
-3779 -6 0
-3779 -9 0
3779 6 9 0
-3780 -3778 0
-3780 -3779 0
3780 3778 3779 0
-3781 3777 0
-3781 3780 0
3781 -3777 -3780 0
-3782 -3777 0
-3782 -3780 0
3782 3777 3780 0
-3783 -3781 0
-3783 -3782 0
3783 3781 3782 0
-3790 14 0
-3790 3783 0
3790 -14 -3783 0
-3791 -14 0
-3791 -3783 0
3791 14 3783 0
-3792 -3790 0
-3792 -3791 0
3792 3790 3791 0
-3787 25 0
-3787 2718 0
3787 -25 -2718 0
-3788 -25 0
-3788 -2718 0
3788 25 2718 0
-3789 -3787 0
-3789 -3788 0
3789 3787 3788 0
-3793 2828 0
-3793 3789 0
3793 -2828 -3789 0
-3794 -2828 0
-3794 -3789 0
3794 2828 3789 0
-3795 -3793 0
-3795 -3794 0
3795 3793 3794 0
-3814 3792 0
-3814 3795 0
3814 -3792 -3795 0
-3815 -3792 0
-3815 -3795 0
3815 3792 3795 0
-3816 -3814 0
-3816 -3815 0
3816 3814 3815 0
-3817 -41 0
-3817 3816 0
3817 41 -3816 0
-3818 41 0
-3818 -3816 0
3818 -41 3816 0
-3819 -3817 0
-3819 -3818 0
3819 3817 3818 0
-3820 3207 0
-3820 3777 0
3820 -3207 -3777 0
-3821 -3207 0
-3821 -3777 0
3821 3207 3777 0
-3822 -3820 0
-3822 -3821 0
3822 3820 3821 0
-3823 12 0
-3823 2088 0
3823 -12 -2088 0
-3824 -12 0
-3824 -2088 0
3824 12 2088 0
-3825 -3823 0
-3825 -3824 0
3825 3823 3824 0
-3838 1785 0
-3838 1883 0
3838 -1785 -1883 0
-3839 -1785 0
-3839 -1883 0
3839 1785 1883 0
-3840 -3838 0
-3840 -3839 0
3840 3838 3839 0
-3844 3825 0
-3844 3840 0
3844 -3825 -3840 0
-3845 -3825 0
-3845 -3840 0
3845 3825 3840 0
-3846 -3844 0
-3846 -3845 0
3846 3844 3845 0
-3847 3822 0
-3847 3846 0
3847 -3822 -3846 0
-3848 -3822 0
-3848 -3846 0
3848 3822 3846 0
-3849 -3847 0
-3849 -3848 0
3849 3847 3848 0
-3880 2495 0
-3880 2571 0
3880 -2495 -2571 0
-3881 -2495 0
-3881 -2571 0
3881 2495 2571 0
-3882 -3880 0
-3882 -3881 0
3882 3880 3881 0
-3883 3849 0
-3883 3882 0
3883 -3849 -3882 0
-3884 -3849 0
-3884 -3882 0
3884 3849 3882 0
-3885 -3883 0
-3885 -3884 0
3885 3883 3884 0
-3895 -40 0
-3895 3885 0
3895 40 -3885 0
-3896 40 0
-3896 -3885 0
3896 -40 3885 0
-3897 -3895 0
-3897 -3896 0
3897 3895 3896 0
-3898 7 0
-3898 3777 0
3898 -7 -3777 0
-3899 -7 0
-3899 -3777 0
3899 7 3777 0
-3900 -3898 0
-3900 -3899 0
3900 3898 3899 0
-3901 12 0
-3901 3900 0
3901 -12 -3900 0
-3902 -12 0
-3902 -3900 0
3902 12 3900 0
-3903 -3901 0
-3903 -3902 0
3903 3901 3902 0
-3904 23 0
-3904 3306 0
3904 -23 -3306 0
-3905 -23 0
-3905 -3306 0
3905 23 3306 0
-3906 -3904 0
-3906 -3905 0
3906 3904 3905 0
-3934 27 0
-3934 3906 0
3934 -27 -3906 0
-3935 -27 0
-3935 -3906 0
3935 27 3906 0
-3936 -3934 0
-3936 -3935 0
3936 3934 3935 0
-3937 3903 0
-3937 3936 0
3937 -3903 -3936 0
-3938 -3903 0
-3938 -3936 0
3938 3903 3936 0
-3939 -3937 0
-3939 -3938 0
3939 3937 3938 0
-3946 -39 0
-3946 3939 0
3946 39 -3939 0
-3947 39 0
-3947 -3939 0
3947 -39 3939 0
-3948 -3946 0
-3948 -3947 0
3948 3946 3947 0
-3949 2301 0
-3949 3294 0
3949 -2301 -3294 0
-3950 -2301 0
-3950 -3294 0
3950 2301 3294 0
-3951 -3949 0
-3951 -3950 0
3951 3949 3950 0
-3967 1993 0
-3967 3633 0
3967 -1993 -3633 0
-3968 -1993 0
-3968 -3633 0
3968 1993 3633 0
-3969 -3967 0
-3969 -3968 0
3969 3967 3968 0
-3970 3951 0
-3970 3969 0
3970 -3951 -3969 0
-3971 -3951 0
-3971 -3969 0
3971 3951 3969 0
-3972 -3970 0
-3972 -3971 0
3972 3970 3971 0
-3973 21 0
-3973 3315 0
3973 -21 -3315 0
-3974 -21 0
-3974 -3315 0
3974 21 3315 0
-3975 -3973 0
-3975 -3974 0
3975 3973 3974 0
-4000 27 0
-4000 3975 0
4000 -27 -3975 0
-4001 -27 0
-4001 -3975 0
4001 27 3975 0
-4002 -4000 0
-4002 -4001 0
4002 4000 4001 0
-4003 3972 0
-4003 4002 0
4003 -3972 -4002 0
-4004 -3972 0
-4004 -4002 0
4004 3972 4002 0
-4005 -4003 0
-4005 -4004 0
4005 4003 4004 0
-4021 -38 0
-4021 4005 0
4021 38 -4005 0
-4022 38 0
-4022 -4005 0
4022 -38 4005 0
-4023 -4021 0
-4023 -4022 0
4023 4021 4022 0
-4024 2 0
-4024 5 0
4024 -2 -5 0
-4025 -2 0
-4025 -5 0
4025 2 5 0
-4026 -4024 0
-4026 -4025 0
4026 4024 4025 0
-4027 10 0
-4027 1785 0
4027 -10 -1785 0
-4028 -10 0
-4028 -1785 0
4028 10 1785 0
-4029 -4027 0
-4029 -4028 0
4029 4027 4028 0
-4030 4026 0
-4030 4029 0
4030 -4026 -4029 0
-4031 -4026 0
-4031 -4029 0
4031 4026 4029 0
-4032 -4030 0
-4032 -4031 0
4032 4030 4031 0
-4033 25 0
-4033 3468 0
4033 -25 -3468 0
-4034 -25 0
-4034 -3468 0
4034 25 3468 0
-4035 -4033 0
-4035 -4034 0
4035 4033 4034 0
-4057 27 0
-4057 4035 0
4057 -27 -4035 0
-4058 -27 0
-4058 -4035 0
4058 27 4035 0
-4059 -4057 0
-4059 -4058 0
4059 4057 4058 0
-4060 4032 0
-4060 4059 0
4060 -4032 -4059 0
-4061 -4032 0
-4061 -4059 0
4061 4032 4059 0
-4062 -4060 0
-4062 -4061 0
4062 4060 4061 0
-4072 -37 0
-4072 4062 0
4072 37 -4062 0
-4073 37 0
-4073 -4062 0
4073 -37 4062 0
-4074 -4072 0
-4074 -4073 0
4074 4072 4073 0
-4075 5 0
-4075 2357 0
4075 -5 -2357 0
-4076 -5 0
-4076 -2357 0
4076 5 2357 0
-4077 -4075 0
-4077 -4076 0
4077 4075 4076 0
-4078 3168 0
-4078 4077 0
4078 -3168 -4077 0
-4079 -3168 0
-4079 -4077 0
4079 3168 4077 0
-4080 -4078 0
-4080 -4079 0
4080 4078 4079 0
-4081 1987 0
-4081 2088 0
4081 -1987 -2088 0
-4082 -1987 0
-4082 -2088 0
4082 1987 2088 0
-4083 -4081 0
-4083 -4082 0
4083 4081 4082 0
-4093 14 0
-4093 4083 0
4093 -14 -4083 0
-4094 -14 0
-4094 -4083 0
4094 14 4083 0
-4095 -4093 0
-4095 -4094 0
4095 4093 4094 0
-4096 4080 0
-4096 4095 0
4096 -4080 -4095 0
-4097 -4080 0
-4097 -4095 0
4097 4080 4095 0
-4098 -4096 0
-4098 -4097 0
4098 4096 4097 0
-4099 2779 0
-4099 3789 0
4099 -2779 -3789 0
-4100 -2779 0
-4100 -3789 0
4100 2779 3789 0
-4101 -4099 0
-4101 -4100 0
4101 4099 4100 0
-4129 27 0
-4129 4101 0
4129 -27 -4101 0
-4130 -27 0
-4130 -4101 0
4130 27 4101 0
-4131 -4129 0
-4131 -4130 0
4131 4129 4130 0
-4132 4098 0
-4132 4131 0
4132 -4098 -4131 0
-4133 -4098 0
-4133 -4131 0
4133 4098 4131 0
-4134 -4132 0
-4134 -4133 0
4134 4132 4133 0
-4153 -36 0
-4153 4134 0
4153 36 -4134 0
-4154 36 0
-4154 -4134 0
4154 -36 4134 0
-4155 -4153 0
-4155 -4154 0
4155 4153 4154 0
-4162 2094 0
-4162 3840 0
4162 -2094 -3840 0
-4163 -2094 0
-4163 -3840 0
4163 2094 3840 0
-4164 -4162 0
-4164 -4163 0
4164 4162 4163 0
-4165 19 0
-4165 2559 0
4165 -19 -2559 0
-4166 -19 0
-4166 -2559 0
4166 19 2559 0
-4167 -4165 0
-4167 -4166 0
4167 4165 4166 0
-4192 27 0
-4192 4167 0
4192 -27 -4167 0
-4193 -27 0
-4193 -4167 0
4193 27 4167 0
-4194 -4192 0
-4194 -4193 0
4194 4192 4193 0
-4195 4164 0
-4195 4194 0
4195 -4164 -4194 0
-4196 -4164 0
-4196 -4194 0
4196 4164 4194 0
-4197 -4195 0
-4197 -4196 0
4197 4195 4196 0
-4210 -35 0
-4210 4197 0
4210 35 -4197 0
-4211 35 0
-4211 -4197 0
4211 -35 4197 0
-4212 -4210 0
-4212 -4211 0
4212 4210 4211 0
-4213 2 0
-4213 7 0
4213 -2 -7 0
-4214 -2 0
-4214 -7 0
4214 2 7 0
-4215 -4213 0
-4215 -4214 0
4215 4213 4214 0
-4216 13 0
-4216 3633 0
4216 -13 -3633 0
-4217 -13 0
-4217 -3633 0
4217 13 3633 0
-4218 -4216 0
-4218 -4217 0
4218 4216 4217 0
-4219 4215 0
-4219 4218 0
4219 -4215 -4218 0
-4220 -4215 0
-4220 -4218 0
4220 4215 4218 0
-4221 -4219 0
-4221 -4220 0
4221 4219 4220 0
-2612 22 0
-2612 24 0
2612 -22 -24 0
-2613 -22 0
-2613 -24 0
2613 22 24 0
-2614 -2612 0
-2614 -2613 0
2614 2612 2613 0
-4222 18 0
-4222 2614 0
4222 -18 -2614 0
-4223 -18 0
-4223 -2614 0
4223 18 2614 0
-4224 -4222 0
-4224 -4223 0
4224 4222 4223 0
-4249 26 0
-4249 4224 0
4249 -26 -4224 0
-4250 -26 0
-4250 -4224 0
4250 26 4224 0
-4251 -4249 0
-4251 -4250 0
4251 4249 4250 0
-4252 4221 0
-4252 4251 0
4252 -4221 -4251 0
-4253 -4221 0
-4253 -4251 0
4253 4221 4251 0
-4254 -4252 0
-4254 -4253 0
4254 4252 4253 0
-4267 -34 0
-4267 4254 0
4267 34 -4254 0
-4268 34 0
-4268 -4254 0
4268 -34 4254 0
-4269 -4267 0
-4269 -4268 0
4269 4267 4268 0
-4270 3045 0
-4270 3294 0
4270 -3045 -3294 0
-4271 -3045 0
-4271 -3294 0
4271 3045 3294 0
-4272 -4270 0
-4272 -4271 0
4272 4270 4271 0
-4279 16 0
-4279 2088 0
4279 -16 -2088 0
-4280 -16 0
-4280 -2088 0
4280 16 2088 0
-4281 -4279 0
-4281 -4280 0
4281 4279 4280 0
-4282 4272 0
-4282 4281 0
4282 -4272 -4281 0
-4283 -4272 0
-4283 -4281 0
4283 4272 4281 0
-4284 -4282 0
-4284 -4283 0
4284 4282 4283 0
-4285 2614 0
-4285 3387 0
4285 -2614 -3387 0
-4286 -2614 0
-4286 -3387 0
4286 2614 3387 0
-4287 -4285 0
-4287 -4286 0
4287 4285 4286 0
-4312 33 0
-4312 2495 0
4312 -33 -2495 0
-4313 -33 0
-4313 -2495 0
4313 33 2495 0
-4314 -4312 0
-4314 -4313 0
4314 4312 4313 0
-4318 4287 0
-4318 4314 0
4318 -4287 -4314 0
-4319 -4287 0
-4319 -4314 0
4319 4287 4314 0
-4320 -4318 0
-4320 -4319 0
4320 4318 4319 0
-4321 4284 0
-4321 4320 0
4321 -4284 -4320 0
-4322 -4284 0
-4322 -4320 0
4322 4284 4320 0
-4323 -4321 0
-4323 -4322 0
4323 4321 4322 0
-4339 11 0
-4339 1987 0
4339 -11 -1987 0
-4340 -11 0
-4340 -1987 0
4340 11 1987 0
-4341 -4339 0
-4341 -4340 0
4341 4339 4340 0
-4345 1791 0
-4345 4341 0
4345 -1791 -4341 0
-4346 -1791 0
-4346 -4341 0
4346 1791 4341 0
-4347 -4345 0
-4347 -4346 0
4347 4345 4346 0
-4348 5 0
-4348 4347 0
4348 -5 -4347 0
-4349 -5 0
-4349 -4347 0
4349 5 4347 0
-4350 -4348 0
-4350 -4349 0
4350 4348 4349 0
-4351 20 0
-4351 2614 0
4351 -20 -2614 0
-4352 -20 0
-4352 -2614 0
4352 20 2614 0
-4353 -4351 0
-4353 -4352 0
4353 4351 4352 0
-4378 27 0
-4378 32 0
4378 -27 -32 0
-4379 -27 0
-4379 -32 0
4379 27 32 0
-4380 -4378 0
-4380 -4379 0
4380 4378 4379 0
-4381 4353 0
-4381 4380 0
4381 -4353 -4380 0
-4382 -4353 0
-4382 -4380 0
4382 4353 4380 0
-4383 -4381 0
-4383 -4382 0
4383 4381 4382 0
-4384 4350 0
-4384 4383 0
4384 -4350 -4383 0
-4385 -4350 0
-4385 -4383 0
4385 4350 4383 0
-4386 -4384 0
-4386 -4385 0
4386 4384 4385 0
-4405 15 0
-4405 4083 0
4405 -15 -4083 0
-4406 -15 0
-4406 -4083 0
4406 15 4083 0
-4407 -4405 0
-4407 -4406 0
4407 4405 4406 0
-4408 4 0
-4408 4407 0
4408 -4 -4407 0
-4409 -4 0
-4409 -4407 0
4409 4 4407 0
-4410 -4408 0
-4410 -4409 0
4410 4408 4409 0
-4411 23 0
-4411 2779 0
4411 -23 -2779 0
-4412 -23 0
-4412 -2779 0
4412 23 2779 0
-4413 -4411 0
-4413 -4412 0
4413 4411 4412 0
-4435 26 0
-4435 31 0
4435 -26 -31 0
-4436 -26 0
-4436 -31 0
4436 26 31 0
-4437 -4435 0
-4437 -4436 0
4437 4435 4436 0
-4438 4413 0
-4438 4437 0
4438 -4413 -4437 0
-4439 -4413 0
-4439 -4437 0
4439 4413 4437 0
-4440 -4438 0
-4440 -4439 0
4440 4438 4439 0
-4441 4410 0
-4441 4440 0
4441 -4410 -4440 0
-4442 -4410 0
-4442 -4440 0
4442 4410 4440 0
-4443 -4441 0
-4443 -4442 0
4443 4441 4442 0
-4453 3 0
-4453 9 0
4453 -3 -9 0
-4454 -3 0
-4454 -9 0
4454 3 9 0
-4455 -4453 0
-4455 -4454 0
4455 4453 4454 0
-4459 14 0
-4459 3825 0
4459 -14 -3825 0
-4460 -14 0
-4460 -3825 0
4460 14 3825 0
-4461 -4459 0
-4461 -4460 0
4461 4459 4460 0
-4462 4455 0
-4462 4461 0
4462 -4455 -4461 0
-4463 -4455 0
-4463 -4461 0
4463 4455 4461 0
-4464 -4462 0
-4464 -4463 0
4464 4462 4463 0
-2832 18 0
-2832 20 0
2832 -18 -20 0
-2833 -18 0
-2833 -20 0
2833 18 20 0
-2834 -2832 0
-2834 -2833 0
2834 2832 2833 0
-4456 22 0
-4456 25 0
4456 -22 -25 0
-4457 -22 0
-4457 -25 0
4457 22 25 0
-4458 -4456 0
-4458 -4457 0
4458 4456 4457 0
-4465 2834 0
-4465 4458 0
4465 -2834 -4458 0
-4466 -2834 0
-4466 -4458 0
4466 2834 4458 0
-4467 -4465 0
-4467 -4466 0
4467 4465 4466 0
-4489 30 0
-4489 4467 0
4489 -30 -4467 0
-4490 -30 0
-4490 -4467 0
4490 30 4467 0
-4491 -4489 0
-4491 -4490 0
4491 4489 4490 0
-4492 4464 0
-4492 4491 0
4492 -4464 -4491 0
-4493 -4464 0
-4493 -4491 0
4493 4464 4491 0
-4494 -4492 0
-4494 -4493 0
4494 4492 4493 0
-4501 2 0
-4501 2177 0
4501 -2 -2177 0
-4502 -2 0
-4502 -2177 0
4502 2 2177 0
-4503 -4501 0
-4503 -4502 0
4503 4501 4502 0
-4510 17 0
-4510 3627 0
4510 -17 -3627 0
-4511 -17 0
-4511 -3627 0
4511 17 3627 0
-4512 -4510 0
-4512 -4511 0
4512 4510 4511 0
-4513 4503 0
-4513 4512 0
4513 -4503 -4512 0
-4514 -4503 0
-4514 -4512 0
4514 4503 4512 0
-4515 -4513 0
-4515 -4514 0
4515 4513 4514 0
-4516 24 0
-4516 2779 0
4516 -24 -2779 0
-4517 -24 0
-4517 -2779 0
4517 24 2779 0
-4518 -4516 0
-4518 -4517 0
4518 4516 4517 0
-4537 29 0
-4537 4518 0
4537 -29 -4518 0
-4538 -29 0
-4538 -4518 0
4538 29 4518 0
-4539 -4537 0
-4539 -4538 0
4539 4537 4538 0
-4540 4515 0
-4540 4539 0
4540 -4515 -4539 0
-4541 -4515 0
-4541 -4539 0
4541 4515 4539 0
-4542 -4540 0
-4542 -4541 0
4542 4540 4541 0
-4546 3045 0
-4546 3129 0
4546 -3045 -3129 0
-4547 -3045 0
-4547 -3129 0
4547 3045 3129 0
-4548 -4546 0
-4548 -4547 0
4548 4546 4547 0
-4555 3840 0
-4555 4083 0
4555 -3840 -4083 0
-4556 -3840 0
-4556 -4083 0
4556 3840 4083 0
-4557 -4555 0
-4557 -4556 0
4557 4555 4556 0
-4558 4548 0
-4558 4557 0
4558 -4548 -4557 0
-4559 -4548 0
-4559 -4557 0
4559 4548 4557 0
-4560 -4558 0
-4560 -4559 0
4560 4558 4559 0
-4552 28 0
-4552 2495 0
4552 -28 -2495 0
-4553 -28 0
-4553 -2495 0
4553 28 2495 0
-4554 -4552 0
-4554 -4553 0
4554 4552 4553 0
-4561 3306 0
-4561 3396 0
4561 -3306 -3396 0
-4562 -3306 0
-4562 -3396 0
4562 3306 3396 0
-4563 -4561 0
-4563 -4562 0
4563 4561 4562 0
-4603 4554 0
-4603 4563 0
4603 -4554 -4563 0
-4604 -4554 0
-4604 -4563 0
4604 4554 4563 0
-4605 -4603 0
-4605 -4604 0
4605 4603 4604 0
-4606 4560 0
-4606 4605 0
4606 -4560 -4605 0
-4607 -4560 0
-4607 -4605 0
4607 4560 4605 0
-4608 -4606 0
-4608 -4607 0
4608 4606 4607 0
-4615 -4542 0
-4615 -4608 0
4615 4542 4608 0
-4616 -4494 0
-4616 4615 0
4616 4494 -4615 0
-4617 -4443 0
-4617 4616 0
4617 4443 -4616 0
-4618 -4386 0
-4618 4617 0
4618 4386 -4617 0
-4619 -4323 0
-4619 4618 0
4619 4323 -4618 0
-4620 4269 0
-4620 4619 0
4620 -4269 -4619 0
-4621 4212 0
-4621 4620 0
4621 -4212 -4620 0
-4622 4155 0
-4622 4621 0
4622 -4155 -4621 0
-4623 4074 0
-4623 4622 0
4623 -4074 -4622 0
-4624 4023 0
-4624 4623 0
4624 -4023 -4623 0
-4625 3948 0
-4625 4624 0
4625 -3948 -4624 0
-4626 3897 0
-4626 4625 0
4626 -3897 -4625 0
-4627 3819 0
-4627 4626 0
4627 -3819 -4626 0
-4628 3774 0
-4628 4627 0
4628 -3774 -4627 0
-4629 3729 0
-4629 4628 0
4629 -3729 -4628 0
-4630 3687 0
-4630 4629 0
4630 -3687 -4629 0
-4631 3618 0
-4631 4630 0
4631 -3618 -4630 0
-4632 3591 0
-4632 4631 0
4632 -3591 -4631 0
-4633 3522 0
-4633 4632 0
4633 -3522 -4632 0
-4634 3450 0
-4634 4633 0
4634 -3450 -4633 0
-4635 3375 0
-4635 4634 0
4635 -3375 -4634 0
-4636 3291 0
-4636 4635 0
4636 -3291 -4635 0
-4637 3267 0
-4637 4636 0
4637 -3267 -4636 0
-4638 3234 0
-4638 4637 0
4638 -3234 -4637 0
-4639 3204 0
-4639 4638 0
4639 -3204 -4638 0
-4640 3165 0
-4640 4639 0
4640 -3165 -4639 0
-4641 3126 0
-4641 4640 0
4641 -3126 -4640 0
-4642 3042 0
-4642 -4641 0
4642 -3042 4641 0
-4667 -103 0
-4667 109 0
4667 103 -109 0
-4662 -102 0
-4662 108 0
4662 102 -108 0
-4657 -101 0
-4657 107 0
4657 101 -107 0
-4652 -100 0
-4652 106 0
4652 100 -106 0
-4647 -99 0
-4647 105 0
4647 99 -105 0
-4643 -98 0
-4643 104 0
4643 98 -104 0
-4644 98 0
-4644 -104 0
4644 -98 104 0
-4645 -4643 0
-4645 -4644 0
4645 4643 4644 0
-4646 -4643 0
-4646 -4645 0
4646 4643 4645 0
-4648 99 0
-4648 -105 0
4648 -99 105 0
-4649 -4647 0
-4649 -4648 0
4649 4647 4648 0
-4650 -4646 0
-4650 4649 0
4650 4646 -4649 0
-4651 -4647 0
-4651 -4650 0
4651 4647 4650 0
-4653 100 0
-4653 -106 0
4653 -100 106 0
-4654 -4652 0
-4654 -4653 0
4654 4652 4653 0
-4655 -4651 0
-4655 4654 0
4655 4651 -4654 0
-4656 -4652 0
-4656 -4655 0
4656 4652 4655 0
-4658 101 0
-4658 -107 0
4658 -101 107 0
-4659 -4657 0
-4659 -4658 0
4659 4657 4658 0
-4660 -4656 0
-4660 4659 0
4660 4656 -4659 0
-4661 -4657 0
-4661 -4660 0
4661 4657 4660 0
-4663 102 0
-4663 -108 0
4663 -102 108 0
-4664 -4662 0
-4664 -4663 0
4664 4662 4663 0
-4665 -4661 0
-4665 4664 0
4665 4661 -4664 0
-4666 -4662 0
-4666 -4665 0
4666 4662 4665 0
-4668 103 0
-4668 -109 0
4668 -103 109 0
-4669 -4667 0
-4669 -4668 0
4669 4667 4668 0
-4670 -4666 0
-4670 4669 0
4670 4666 -4669 0
-4671 -4667 0
-4671 -4670 0
4671 4667 4670 0
-4672 4642 0
-4672 -4671 0
4672 -4642 4671 0
-4697 -97 0
-4697 103 0
4697 97 -103 0
-4692 -96 0
-4692 102 0
4692 96 -102 0
-4687 -95 0
-4687 101 0
4687 95 -101 0
-4682 -94 0
-4682 100 0
4682 94 -100 0
-4677 -93 0
-4677 99 0
4677 93 -99 0
-4673 -92 0
-4673 98 0
4673 92 -98 0
-4674 92 0
-4674 -98 0
4674 -92 98 0
-4675 -4673 0
-4675 -4674 0
4675 4673 4674 0
-4676 -4673 0
-4676 -4675 0
4676 4673 4675 0
-4678 93 0
-4678 -99 0
4678 -93 99 0
-4679 -4677 0
-4679 -4678 0
4679 4677 4678 0
-4680 -4676 0
-4680 4679 0
4680 4676 -4679 0
-4681 -4677 0
-4681 -4680 0
4681 4677 4680 0
-4683 94 0
-4683 -100 0
4683 -94 100 0
-4684 -4682 0
-4684 -4683 0
4684 4682 4683 0
-4685 -4681 0
-4685 4684 0
4685 4681 -4684 0
-4686 -4682 0
-4686 -4685 0
4686 4682 4685 0
-4688 95 0
-4688 -101 0
4688 -95 101 0
-4689 -4687 0
-4689 -4688 0
4689 4687 4688 0
-4690 -4686 0
-4690 4689 0
4690 4686 -4689 0
-4691 -4687 0
-4691 -4690 0
4691 4687 4690 0
-4693 96 0
-4693 -102 0
4693 -96 102 0
-4694 -4692 0
-4694 -4693 0
4694 4692 4693 0
-4695 -4691 0
-4695 4694 0
4695 4691 -4694 0
-4696 -4692 0
-4696 -4695 0
4696 4692 4695 0
-4698 97 0
-4698 -103 0
4698 -97 103 0
-4699 -4697 0
-4699 -4698 0
4699 4697 4698 0
-4700 -4696 0
-4700 4699 0
4700 4696 -4699 0
-4701 -4697 0
-4701 -4700 0
4701 4697 4700 0
-4702 4672 0
-4702 -4701 0
4702 -4672 4701 0
-4727 -91 0
-4727 97 0
4727 91 -97 0
-4722 -90 0
-4722 96 0
4722 90 -96 0
-4717 -89 0
-4717 95 0
4717 89 -95 0
-4712 -88 0
-4712 94 0
4712 88 -94 0
-4707 -87 0
-4707 93 0
4707 87 -93 0
-4703 -86 0
-4703 92 0
4703 86 -92 0
-4704 86 0
-4704 -92 0
4704 -86 92 0
-4705 -4703 0
-4705 -4704 0
4705 4703 4704 0
-4706 -4703 0
-4706 -4705 0
4706 4703 4705 0
-4708 87 0
-4708 -93 0
4708 -87 93 0
-4709 -4707 0
-4709 -4708 0
4709 4707 4708 0
-4710 -4706 0
-4710 4709 0
4710 4706 -4709 0
-4711 -4707 0
-4711 -4710 0
4711 4707 4710 0
-4713 88 0
-4713 -94 0
4713 -88 94 0
-4714 -4712 0
-4714 -4713 0
4714 4712 4713 0
-4715 -4711 0
-4715 4714 0
4715 4711 -4714 0
-4716 -4712 0
-4716 -4715 0
4716 4712 4715 0
-4718 89 0
-4718 -95 0
4718 -89 95 0
-4719 -4717 0
-4719 -4718 0
4719 4717 4718 0
-4720 -4716 0
-4720 4719 0
4720 4716 -4719 0
-4721 -4717 0
-4721 -4720 0
4721 4717 4720 0
-4723 90 0
-4723 -96 0
4723 -90 96 0
-4724 -4722 0
-4724 -4723 0
4724 4722 4723 0
-4725 -4721 0
-4725 4724 0
4725 4721 -4724 0
-4726 -4722 0
-4726 -4725 0
4726 4722 4725 0
-4728 91 0
-4728 -97 0
4728 -91 97 0
-4729 -4727 0
-4729 -4728 0
4729 4727 4728 0
-4730 -4726 0
-4730 4729 0
4730 4726 -4729 0
-4731 -4727 0
-4731 -4730 0
4731 4727 4730 0
-4732 4702 0
-4732 -4731 0
4732 -4702 4731 0
-4757 -85 0
-4757 91 0
4757 85 -91 0
-4752 -84 0
-4752 90 0
4752 84 -90 0
-4747 -83 0
-4747 89 0
4747 83 -89 0
-4742 -82 0
-4742 88 0
4742 82 -88 0
-4737 -81 0
-4737 87 0
4737 81 -87 0
-4733 -80 0
-4733 86 0
4733 80 -86 0
-4734 80 0
-4734 -86 0
4734 -80 86 0
-4735 -4733 0
-4735 -4734 0
4735 4733 4734 0
-4736 -4733 0
-4736 -4735 0
4736 4733 4735 0
-4738 81 0
-4738 -87 0
4738 -81 87 0
-4739 -4737 0
-4739 -4738 0
4739 4737 4738 0
-4740 -4736 0
-4740 4739 0
4740 4736 -4739 0
-4741 -4737 0
-4741 -4740 0
4741 4737 4740 0
-4743 82 0
-4743 -88 0
4743 -82 88 0
-4744 -4742 0
-4744 -4743 0
4744 4742 4743 0
-4745 -4741 0
-4745 4744 0
4745 4741 -4744 0
-4746 -4742 0
-4746 -4745 0
4746 4742 4745 0
-4748 83 0
-4748 -89 0
4748 -83 89 0
-4749 -4747 0
-4749 -4748 0
4749 4747 4748 0
-4750 -4746 0
-4750 4749 0
4750 4746 -4749 0
-4751 -4747 0
-4751 -4750 0
4751 4747 4750 0
-4753 84 0
-4753 -90 0
4753 -84 90 0
-4754 -4752 0
-4754 -4753 0
4754 4752 4753 0
-4755 -4751 0
-4755 4754 0
4755 4751 -4754 0
-4756 -4752 0
-4756 -4755 0
4756 4752 4755 0
-4758 85 0
-4758 -91 0
4758 -85 91 0
-4759 -4757 0
-4759 -4758 0
4759 4757 4758 0
-4760 -4756 0
-4760 4759 0
4760 4756 -4759 0
-4761 -4757 0
-4761 -4760 0
4761 4757 4760 0
-4762 4732 0
-4762 -4761 0
4762 -4732 4761 0
-4787 -79 0
-4787 85 0
4787 79 -85 0
-4782 -78 0
-4782 84 0
4782 78 -84 0
-4777 -77 0
-4777 83 0
4777 77 -83 0
-4772 -76 0
-4772 82 0
4772 76 -82 0
-4767 -75 0
-4767 81 0
4767 75 -81 0
-4763 -74 0
-4763 80 0
4763 74 -80 0
-4764 74 0
-4764 -80 0
4764 -74 80 0
-4765 -4763 0
-4765 -4764 0
4765 4763 4764 0
-4766 -4763 0
-4766 -4765 0
4766 4763 4765 0
-4768 75 0
-4768 -81 0
4768 -75 81 0
-4769 -4767 0
-4769 -4768 0
4769 4767 4768 0
-4770 -4766 0
-4770 4769 0
4770 4766 -4769 0
-4771 -4767 0
-4771 -4770 0
4771 4767 4770 0
-4773 76 0
-4773 -82 0
4773 -76 82 0
-4774 -4772 0
-4774 -4773 0
4774 4772 4773 0
-4775 -4771 0
-4775 4774 0
4775 4771 -4774 0
-4776 -4772 0
-4776 -4775 0
4776 4772 4775 0
-4778 77 0
-4778 -83 0
4778 -77 83 0
-4779 -4777 0
-4779 -4778 0
4779 4777 4778 0
-4780 -4776 0
-4780 4779 0
4780 4776 -4779 0
-4781 -4777 0
-4781 -4780 0
4781 4777 4780 0
-4783 78 0
-4783 -84 0
4783 -78 84 0
-4784 -4782 0
-4784 -4783 0
4784 4782 4783 0
-4785 -4781 0
-4785 4784 0
4785 4781 -4784 0
-4786 -4782 0
-4786 -4785 0
4786 4782 4785 0
-4788 79 0
-4788 -85 0
4788 -79 85 0
-4789 -4787 0
-4789 -4788 0
4789 4787 4788 0
-4790 -4786 0
-4790 4789 0
4790 4786 -4789 0
-4791 -4787 0
-4791 -4790 0
4791 4787 4790 0
-4792 4762 0
-4792 -4791 0
4792 -4762 4791 0
-4817 -73 0
-4817 79 0
4817 73 -79 0
-4812 -72 0
-4812 78 0
4812 72 -78 0
-4807 -71 0
-4807 77 0
4807 71 -77 0
-4802 -70 0
-4802 76 0
4802 70 -76 0
-4797 -69 0
-4797 75 0
4797 69 -75 0
-4793 -68 0
-4793 74 0
4793 68 -74 0
-4794 68 0
-4794 -74 0
4794 -68 74 0
-4795 -4793 0
-4795 -4794 0
4795 4793 4794 0
-4796 -4793 0
-4796 -4795 0
4796 4793 4795 0
-4798 69 0
-4798 -75 0
4798 -69 75 0
-4799 -4797 0
-4799 -4798 0
4799 4797 4798 0
-4800 -4796 0
-4800 4799 0
4800 4796 -4799 0
-4801 -4797 0
-4801 -4800 0
4801 4797 4800 0
-4803 70 0
-4803 -76 0
4803 -70 76 0
-4804 -4802 0
-4804 -4803 0
4804 4802 4803 0
-4805 -4801 0
-4805 4804 0
4805 4801 -4804 0
-4806 -4802 0
-4806 -4805 0
4806 4802 4805 0
-4808 71 0
-4808 -77 0
4808 -71 77 0
-4809 -4807 0
-4809 -4808 0
4809 4807 4808 0
-4810 -4806 0
-4810 4809 0
4810 4806 -4809 0
-4811 -4807 0
-4811 -4810 0
4811 4807 4810 0
-4813 72 0
-4813 -78 0
4813 -72 78 0
-4814 -4812 0
-4814 -4813 0
4814 4812 4813 0
-4815 -4811 0
-4815 4814 0
4815 4811 -4814 0
-4816 -4812 0
-4816 -4815 0
4816 4812 4815 0
-4818 73 0
-4818 -79 0
4818 -73 79 0
-4819 -4817 0
-4819 -4818 0
4819 4817 4818 0
-4820 -4816 0
-4820 4819 0
4820 4816 -4819 0
-4821 -4817 0
-4821 -4820 0
4821 4817 4820 0
-4822 4792 0
-4822 -4821 0
4822 -4792 4821 0
-4847 -67 0
-4847 73 0
4847 67 -73 0
-4842 -66 0
-4842 72 0
4842 66 -72 0
-4837 -65 0
-4837 71 0
4837 65 -71 0
-4832 -64 0
-4832 70 0
4832 64 -70 0
-4827 -63 0
-4827 69 0
4827 63 -69 0
-4823 -62 0
-4823 68 0
4823 62 -68 0
-4824 62 0
-4824 -68 0
4824 -62 68 0
-4825 -4823 0
-4825 -4824 0
4825 4823 4824 0
-4826 -4823 0
-4826 -4825 0
4826 4823 4825 0
-4828 63 0
-4828 -69 0
4828 -63 69 0
-4829 -4827 0
-4829 -4828 0
4829 4827 4828 0
-4830 -4826 0
-4830 4829 0
4830 4826 -4829 0
-4831 -4827 0
-4831 -4830 0
4831 4827 4830 0
-4833 64 0
-4833 -70 0
4833 -64 70 0
-4834 -4832 0
-4834 -4833 0
4834 4832 4833 0
-4835 -4831 0
-4835 4834 0
4835 4831 -4834 0
-4836 -4832 0
-4836 -4835 0
4836 4832 4835 0
-4838 65 0
-4838 -71 0
4838 -65 71 0
-4839 -4837 0
-4839 -4838 0
4839 4837 4838 0
-4840 -4836 0
-4840 4839 0
4840 4836 -4839 0
-4841 -4837 0
-4841 -4840 0
4841 4837 4840 0
-4843 66 0
-4843 -72 0
4843 -66 72 0
-4844 -4842 0
-4844 -4843 0
4844 4842 4843 0
-4845 -4841 0
-4845 4844 0
4845 4841 -4844 0
-4846 -4842 0
-4846 -4845 0
4846 4842 4845 0
-4848 67 0
-4848 -73 0
4848 -67 73 0
-4849 -4847 0
-4849 -4848 0
4849 4847 4848 0
-4850 -4846 0
-4850 4849 0
4850 4846 -4849 0
-4851 -4847 0
-4851 -4850 0
4851 4847 4850 0
-4852 4822 0
-4852 -4851 0
4852 -4822 4851 0
-4877 -61 0
-4877 67 0
4877 61 -67 0
-4872 -60 0
-4872 66 0
4872 60 -66 0
-4867 -59 0
-4867 65 0
4867 59 -65 0
-4862 -58 0
-4862 64 0
4862 58 -64 0
-4857 -57 0
-4857 63 0
4857 57 -63 0
-4853 -56 0
-4853 62 0
4853 56 -62 0
-4854 56 0
-4854 -62 0
4854 -56 62 0
-4855 -4853 0
-4855 -4854 0
4855 4853 4854 0
-4856 -4853 0
-4856 -4855 0
4856 4853 4855 0
-4858 57 0
-4858 -63 0
4858 -57 63 0
-4859 -4857 0
-4859 -4858 0
4859 4857 4858 0
-4860 -4856 0
-4860 4859 0
4860 4856 -4859 0
-4861 -4857 0
-4861 -4860 0
4861 4857 4860 0
-4863 58 0
-4863 -64 0
4863 -58 64 0
-4864 -4862 0
-4864 -4863 0
4864 4862 4863 0
-4865 -4861 0
-4865 4864 0
4865 4861 -4864 0
-4866 -4862 0
-4866 -4865 0
4866 4862 4865 0
-4868 59 0
-4868 -65 0
4868 -59 65 0
-4869 -4867 0
-4869 -4868 0
4869 4867 4868 0
-4870 -4866 0
-4870 4869 0
4870 4866 -4869 0
-4871 -4867 0
-4871 -4870 0
4871 4867 4870 0
-4873 60 0
-4873 -66 0
4873 -60 66 0
-4874 -4872 0
-4874 -4873 0
4874 4872 4873 0
-4875 -4871 0
-4875 4874 0
4875 4871 -4874 0
-4876 -4872 0
-4876 -4875 0
4876 4872 4875 0
-4878 61 0
-4878 -67 0
4878 -61 67 0
-4879 -4877 0
-4879 -4878 0
4879 4877 4878 0
-4880 -4876 0
-4880 4879 0
4880 4876 -4879 0
-4881 -4877 0
-4881 -4880 0
4881 4877 4880 0
-4882 4852 0
-4882 -4881 0
4882 -4852 4881 0
4882 0
