p cnf 1711 4475
75 -1588 0
-75 1588 0
781 -1637 0
-781 1637 0
-786 75 0
-786 -781 0
786 -75 781 0
-787 -75 0
-787 781 0
787 75 -781 0
-788 -786 0
-788 -787 0
788 786 787 0
789 -1638 0
-789 1638 0
-792 -788 0
-792 -789 0
792 788 789 0
-790 788 0
-790 789 0
790 -788 -789 0
73 -1586 0
-73 1586 0
773 -1636 0
-773 1636 0
-778 73 0
-778 -773 0
778 -73 773 0
-779 -73 0
-779 773 0
779 73 -773 0
-780 -778 0
-780 -779 0
780 778 779 0
-784 -780 0
-784 -781 0
784 780 781 0
-782 780 0
-782 781 0
782 -780 -781 0
72 -1585 0
-72 1585 0
765 -1635 0
-765 1635 0
-770 72 0
-770 -765 0
770 -72 765 0
-771 -72 0
-771 765 0
771 72 -765 0
-772 -770 0
-772 -771 0
772 770 771 0
-776 -772 0
-776 -773 0
776 772 773 0
-774 772 0
-774 773 0
774 -772 -773 0
70 -1583 0
-70 1583 0
757 -1634 0
-757 1634 0
-762 70 0
-762 -757 0
762 -70 757 0
-763 -70 0
-763 757 0
763 70 -757 0
-764 -762 0
-764 -763 0
764 762 763 0
-768 -764 0
-768 -765 0
768 764 765 0
-766 764 0
-766 765 0
766 -764 -765 0
69 -1582 0
-69 1582 0
749 -1633 0
-749 1633 0
-754 69 0
-754 -749 0
754 -69 749 0
-755 -69 0
-755 749 0
755 69 -749 0
-756 -754 0
-756 -755 0
756 754 755 0
-760 -756 0
-760 -757 0
760 756 757 0
-758 756 0
-758 757 0
758 -756 -757 0
76 -1589 0
-76 1589 0
835 -1643 0
-835 1643 0
-840 76 0
-840 -835 0
840 -76 835 0
-841 -76 0
-841 835 0
841 76 -835 0
-842 -840 0
-842 -841 0
842 840 841 0
843 -1644 0
-843 1644 0
-846 -842 0
-846 -843 0
846 842 843 0
-844 842 0
-844 843 0
844 -842 -843 0
74 -1587 0
-74 1587 0
827 -1642 0
-827 1642 0
-832 74 0
-832 -827 0
832 -74 827 0
-833 -74 0
-833 827 0
833 74 -827 0
-834 -832 0
-834 -833 0
834 832 833 0
-838 -834 0
-838 -835 0
838 834 835 0
-836 834 0
-836 835 0
836 -834 -835 0
819 -1641 0
-819 1641 0
-824 73 0
-824 -819 0
824 -73 819 0
-825 -73 0
-825 819 0
825 73 -819 0
-826 -824 0
-826 -825 0
826 824 825 0
-830 -826 0
-830 -827 0
830 826 827 0
-828 826 0
-828 827 0
828 -826 -827 0
71 -1584 0
-71 1584 0
811 -1640 0
-811 1640 0
-816 71 0
-816 -811 0
816 -71 811 0
-817 -71 0
-817 811 0
817 71 -811 0
-818 -816 0
-818 -817 0
818 816 817 0
-822 -818 0
-822 -819 0
822 818 819 0
-820 818 0
-820 819 0
820 -818 -819 0
803 -1639 0
-803 1639 0
-808 70 0
-808 -803 0
808 -70 803 0
-809 -70 0
-809 803 0
809 70 -803 0
-810 -808 0
-810 -809 0
810 808 809 0
-814 -810 0
-814 -811 0
814 810 811 0
-812 810 0
-812 811 0
812 -810 -811 0
77 -1590 0
-77 1590 0
892 -1650 0
-892 1650 0
-897 77 0
-897 -892 0
897 -77 892 0
-898 -77 0
-898 892 0
898 77 -892 0
-899 -897 0
-899 -898 0
899 897 898 0
900 -1651 0
-900 1651 0
-903 -899 0
-903 -900 0
903 899 900 0
-901 899 0
-901 900 0
901 -899 -900 0
884 -1649 0
-884 1649 0
-889 75 0
-889 -884 0
889 -75 884 0
-890 -75 0
-890 884 0
890 75 -884 0
-891 -889 0
-891 -890 0
891 889 890 0
-895 -891 0
-895 -892 0
895 891 892 0
-893 891 0
-893 892 0
893 -891 -892 0
876 -1648 0
-876 1648 0
-881 74 0
-881 -876 0
881 -74 876 0
-882 -74 0
-882 876 0
882 74 -876 0
-883 -881 0
-883 -882 0
883 881 882 0
-887 -883 0
-887 -884 0
887 883 884 0
-885 883 0
-885 884 0
885 -883 -884 0
868 -1647 0
-868 1647 0
-873 72 0
-873 -868 0
873 -72 868 0
-874 -72 0
-874 868 0
874 72 -868 0
-875 -873 0
-875 -874 0
875 873 874 0
-879 -875 0
-879 -876 0
879 875 876 0
-877 875 0
-877 876 0
877 -875 -876 0
860 -1646 0
-860 1646 0
-865 71 0
-865 -860 0
865 -71 860 0
-866 -71 0
-866 860 0
866 71 -860 0
-867 -865 0
-867 -866 0
867 865 866 0
-871 -867 0
-871 -868 0
871 867 868 0
-869 867 0
-869 868 0
869 -867 -868 0
1105 -1672 0
-1105 1672 0
-1110 72 0
-1110 -1105 0
1110 -72 1105 0
-1111 -72 0
-1111 1105 0
1111 72 -1105 0
-1112 -1110 0
-1112 -1111 0
1112 1110 1111 0
1113 -1673 0
-1113 1673 0
-1116 -1112 0
-1116 -1113 0
1116 1112 1113 0
-1114 1112 0
-1114 1113 0
1114 -1112 -1113 0
-1102 71 0
-1102 -803 0
1102 -71 803 0
-1103 -71 0
-1103 803 0
1103 71 -803 0
-1104 -1102 0
-1104 -1103 0
1104 1102 1103 0
-1108 -1104 0
-1108 -1105 0
1108 1104 1105 0
-1106 1104 0
-1106 1105 0
1106 -1104 -1105 0
68 -1581 0
-68 1581 0
684 -1625 0
-684 1625 0
-800 68 0
-800 -684 0
800 -68 684 0
-801 -68 0
-801 684 0
801 68 -684 0
-802 -800 0
-802 -801 0
802 800 801 0
-806 -802 0
-806 -803 0
806 802 803 0
-804 802 0
-804 803 0
804 -802 -803 0
852 -1645 0
-852 1645 0
-857 69 0
-857 -852 0
857 -69 852 0
-858 -69 0
-858 852 0
858 69 -852 0
-859 -857 0
-859 -858 0
859 857 858 0
-863 -859 0
-863 -860 0
863 859 860 0
-861 859 0
-861 860 0
861 -859 -860 0
1081 -1670 0
-1081 1670 0
-1086 77 0
-1086 -1081 0
1086 -77 1081 0
-1087 -77 0
-1087 1081 0
1087 77 -1081 0
-1088 -1086 0
-1088 -1087 0
1088 1086 1087 0
1089 -1671 0
-1089 1671 0
-1092 -1088 0
-1092 -1089 0
1092 1088 1089 0
-1090 1088 0
-1090 1089 0
1090 -1088 -1089 0
1073 -1669 0
-1073 1669 0
-1078 76 0
-1078 -1073 0
1078 -76 1073 0
-1079 -76 0
-1079 1073 0
1079 76 -1073 0
-1080 -1078 0
-1080 -1079 0
1080 1078 1079 0
-1084 -1080 0
-1084 -1081 0
1084 1080 1081 0
-1082 1080 0
-1082 1081 0
1082 -1080 -1081 0
1065 -1668 0
-1065 1668 0
-1070 72 0
-1070 -1065 0
1070 -72 1065 0
-1071 -72 0
-1071 1065 0
1071 72 -1065 0
-1072 -1070 0
-1072 -1071 0
1072 1070 1071 0
-1076 -1072 0
-1076 -1073 0
1076 1072 1073 0
-1074 1072 0
-1074 1073 0
1074 -1072 -1073 0
1057 -1667 0
-1057 1667 0
-1062 71 0
-1062 -1057 0
1062 -71 1057 0
-1063 -71 0
-1063 1057 0
1063 71 -1057 0
-1064 -1062 0
-1064 -1063 0
1064 1062 1063 0
-1068 -1064 0
-1068 -1065 0
1068 1064 1065 0
-1066 1064 0
-1066 1065 0
1066 -1064 -1065 0
-1054 70 0
-1054 -749 0
1054 -70 749 0
-1055 -70 0
-1055 749 0
1055 70 -749 0
-1056 -1054 0
-1056 -1055 0
1056 1054 1055 0
-1060 -1056 0
-1060 -1057 0
1060 1056 1057 0
-1058 1056 0
-1058 1057 0
1058 -1056 -1057 0
67 -1580 0
-67 1580 0
741 -1632 0
-741 1632 0
-746 67 0
-746 -741 0
746 -67 741 0
-747 -67 0
-747 741 0
747 67 -741 0
-748 -746 0
-748 -747 0
748 746 747 0
-752 -748 0
-752 -749 0
752 748 749 0
-750 748 0
-750 749 0
750 -748 -749 0
-744 -68 0
-744 741 0
744 68 -741 0
-742 68 0
-742 -741 0
742 -68 741 0
692 -1626 0
-692 1626 0
-970 71 0
-970 -692 0
970 -71 692 0
-971 -71 0
-971 692 0
971 71 -692 0
-972 -970 0
-972 -971 0
972 970 971 0
973 -1659 0
-973 1659 0
-976 -972 0
-976 -973 0
976 972 973 0
-974 972 0
-974 973 0
974 -972 -973 0
-689 67 0
-689 -684 0
689 -67 684 0
-690 -67 0
-690 684 0
690 67 -684 0
-691 -689 0
-691 -690 0
691 689 690 0
-695 -691 0
-695 -692 0
695 691 692 0
-693 691 0
-693 692 0
693 -691 -692 0
-687 -69 0
-687 684 0
687 69 -684 0
-685 69 0
-685 -684 0
685 -69 684 0
1183 -1681 0
-1183 1681 0
-1188 77 0
-1188 -1183 0
1188 -77 1183 0
-1189 -77 0
-1189 1183 0
1189 77 -1183 0
-1190 -1188 0
-1190 -1189 0
1190 1188 1189 0
1191 -1682 0
-1191 1682 0
-1194 -1190 0
-1194 -1191 0
1194 1190 1191 0
-1192 1190 0
-1192 1191 0
1192 -1190 -1191 0
1175 -1680 0
-1175 1680 0
-1180 76 0
-1180 -1175 0
1180 -76 1175 0
-1181 -76 0
-1181 1175 0
1181 76 -1175 0
-1182 -1180 0
-1182 -1181 0
1182 1180 1181 0
-1186 -1182 0
-1186 -1183 0
1186 1182 1183 0
-1184 1182 0
-1184 1183 0
1184 -1182 -1183 0
1167 -1679 0
-1167 1679 0
-1172 75 0
-1172 -1167 0
1172 -75 1167 0
-1173 -75 0
-1173 1167 0
1173 75 -1167 0
-1174 -1172 0
-1174 -1173 0
1174 1172 1173 0
-1178 -1174 0
-1178 -1175 0
1178 1174 1175 0
-1176 1174 0
-1176 1175 0
1176 -1174 -1175 0
1159 -1678 0
-1159 1678 0
-1164 74 0
-1164 -1159 0
1164 -74 1159 0
-1165 -74 0
-1165 1159 0
1165 74 -1159 0
-1166 -1164 0
-1166 -1165 0
1166 1164 1165 0
-1170 -1166 0
-1170 -1167 0
1170 1166 1167 0
-1168 1166 0
-1168 1167 0
1168 -1166 -1167 0
1151 -1677 0
-1151 1677 0
-1156 73 0
-1156 -1151 0
1156 -73 1151 0
-1157 -73 0
-1157 1151 0
1157 73 -1151 0
-1158 -1156 0
-1158 -1157 0
1158 1156 1157 0
-1162 -1158 0
-1162 -1159 0
1162 1158 1159 0
-1160 1158 0
-1160 1159 0
1160 -1158 -1159 0
-1148 67 0
-1148 -852 0
1148 -67 852 0
-1149 -67 0
-1149 852 0
1149 67 -852 0
-1150 -1148 0
-1150 -1149 0
1150 1148 1149 0
-1154 -1150 0
-1154 -1151 0
1154 1150 1151 0
-1152 1150 0
-1152 1151 0
1152 -1150 -1151 0
-855 -70 0
-855 852 0
855 70 -852 0
-853 70 0
-853 -852 0
853 -70 852 0
909 -1652 0
-909 1652 0
-912 -71 0
-912 909 0
912 71 -909 0
-910 71 0
-910 -909 0
910 -71 909 0
2 -1548 0
-2 1548 0
32 -1578 0
-32 1578 0
31 -1577 0
-31 1577 0
30 -1576 0
-30 1576 0
28 -1574 0
-28 1574 0
29 -1575 0
-29 1575 0
-33 -28 0
-33 29 0
33 28 -29 0
-34 30 0
-34 33 0
34 -30 -33 0
-35 -31 0
-35 34 0
35 31 -34 0
-36 32 0
-36 35 0
36 -32 -35 0
27 -1573 0
-27 1573 0
26 -1572 0
-26 1572 0
25 -1571 0
-25 1571 0
23 -1569 0
-23 1569 0
24 -1570 0
-24 1570 0
-37 -23 0
-37 24 0
37 23 -24 0
-38 25 0
-38 37 0
38 -25 -37 0
-39 -26 0
-39 38 0
39 26 -38 0
-40 27 0
-40 39 0
40 -27 -39 0
22 -1568 0
-22 1568 0
21 -1567 0
-21 1567 0
20 -1566 0
-20 1566 0
18 -1564 0
-18 1564 0
19 -1565 0
-19 1565 0
-41 -18 0
-41 19 0
41 18 -19 0
-42 20 0
-42 41 0
42 -20 -41 0
-43 -21 0
-43 42 0
43 21 -42 0
-44 22 0
-44 43 0
44 -22 -43 0
17 -1563 0
-17 1563 0
16 -1562 0
-16 1562 0
15 -1561 0
-15 1561 0
13 -1559 0
-13 1559 0
14 -1560 0
-14 1560 0
-45 -13 0
-45 14 0
45 13 -14 0
-46 15 0
-46 45 0
46 -15 -45 0
-47 -16 0
-47 46 0
47 16 -46 0
-48 17 0
-48 47 0
48 -17 -47 0
12 -1558 0
-12 1558 0
11 -1557 0
-11 1557 0
10 -1556 0
-10 1556 0
8 -1554 0
-8 1554 0
9 -1555 0
-9 1555 0
-49 -8 0
-49 9 0
49 8 -9 0
-50 10 0
-50 49 0
50 -10 -49 0
-51 -11 0
-51 50 0
51 11 -50 0
-52 12 0
-52 51 0
52 -12 -51 0
7 -1553 0
-7 1553 0
6 -1552 0
-6 1552 0
5 -1551 0
-5 1551 0
3 -1549 0
-3 1549 0
4 -1550 0
-4 1550 0
-53 -3 0
-53 4 0
53 3 -4 0
-54 5 0
-54 53 0
54 -5 -53 0
-55 -6 0
-55 54 0
55 6 -54 0
-56 7 0
-56 55 0
56 -7 -55 0
-57 -52 0
-57 -56 0
57 52 56 0
-58 -48 0
-58 57 0
58 48 -57 0
-59 -44 0
-59 58 0
59 44 -58 0
-60 -40 0
-60 59 0
60 40 -59 0
-61 -36 0
-61 60 0
61 36 -60 0
62 -1579 0
-62 1579 0
-63 61 0
-63 62 0
63 -61 -62 0
-64 2 0
-64 -63 0
64 -2 63 0
-65 -61 0
-65 -62 0
65 61 62 0
-66 64 0
-66 -65 0
66 -64 65 0
89 -1602 0
-89 1602 0
-90 -62 0
-90 89 0
90 62 -89 0
-91 62 0
-91 -89 0
91 -62 89 0
-92 -90 0
-92 -91 0
92 90 91 0
-93 66 0
-93 92 0
93 -66 -92 0
-94 28 0
-94 -29 0
94 -28 29 0
-95 30 0
-95 94 0
95 -30 -94 0
-96 -31 0
-96 95 0
96 31 -95 0
-97 32 0
-97 96 0
97 -32 -96 0
-98 23 0
-98 -24 0
98 -23 24 0
-99 25 0
-99 98 0
99 -25 -98 0
-100 -26 0
-100 99 0
100 26 -99 0
-101 27 0
-101 100 0
101 -27 -100 0
-102 18 0
-102 -19 0
102 -18 19 0
-103 20 0
-103 102 0
103 -20 -102 0
-104 -21 0
-104 103 0
104 21 -103 0
-105 22 0
-105 104 0
105 -22 -104 0
-106 13 0
-106 -14 0
106 -13 14 0
-107 15 0
-107 106 0
107 -15 -106 0
-108 -16 0
-108 107 0
108 16 -107 0
-109 17 0
-109 108 0
109 -17 -108 0
-110 8 0
-110 -9 0
110 -8 9 0
-111 10 0
-111 110 0
111 -10 -110 0
-112 -11 0
-112 111 0
112 11 -111 0
-113 12 0
-113 112 0
113 -12 -112 0
-114 3 0
-114 -4 0
114 -3 4 0
-115 5 0
-115 114 0
115 -5 -114 0
-116 -6 0
-116 115 0
116 6 -115 0
-117 7 0
-117 116 0
117 -7 -116 0
-118 -113 0
-118 -117 0
118 113 117 0
-119 -109 0
-119 118 0
119 109 -118 0
-120 -105 0
-120 119 0
120 105 -119 0
-121 -101 0
-121 120 0
121 101 -120 0
-122 -97 0
-122 121 0
122 97 -121 0
123 -1603 0
-123 1603 0
-124 122 0
-124 123 0
124 -122 -123 0
-125 93 0
-125 -124 0
125 -93 124 0
-126 -122 0
-126 -123 0
126 122 123 0
-127 125 0
-127 -126 0
127 -125 126 0
88 -1601 0
-88 1601 0
-128 88 0
-128 -123 0
128 -88 123 0
-129 -88 0
-129 123 0
129 88 -123 0
-130 -128 0
-130 -129 0
130 128 129 0
-131 127 0
-131 130 0
131 -127 -130 0
-132 -28 0
-132 -29 0
132 28 29 0
-133 30 0
-133 132 0
133 -30 -132 0
-134 -31 0
-134 133 0
134 31 -133 0
-135 32 0
-135 134 0
135 -32 -134 0
-136 -23 0
-136 -24 0
136 23 24 0
-137 25 0
-137 136 0
137 -25 -136 0
-138 -26 0
-138 137 0
138 26 -137 0
-139 27 0
-139 138 0
139 -27 -138 0
-140 -18 0
-140 -19 0
140 18 19 0
-141 20 0
-141 140 0
141 -20 -140 0
-142 -21 0
-142 141 0
142 21 -141 0
-143 22 0
-143 142 0
143 -22 -142 0
-144 -13 0
-144 -14 0
144 13 14 0
-145 15 0
-145 144 0
145 -15 -144 0
-146 -16 0
-146 145 0
146 16 -145 0
-147 17 0
-147 146 0
147 -17 -146 0
-148 -8 0
-148 -9 0
148 8 9 0
-149 10 0
-149 148 0
149 -10 -148 0
-150 -11 0
-150 149 0
150 11 -149 0
-151 12 0
-151 150 0
151 -12 -150 0
-152 -3 0
-152 -4 0
152 3 4 0
-153 5 0
-153 152 0
153 -5 -152 0
-154 -6 0
-154 153 0
154 6 -153 0
-155 7 0
-155 154 0
155 -7 -154 0
-156 -151 0
-156 -155 0
156 151 155 0
-157 -147 0
-157 156 0
157 147 -156 0
-158 -143 0
-158 157 0
158 143 -157 0
-159 -139 0
-159 158 0
159 139 -158 0
-160 -135 0
-160 159 0
160 135 -159 0
161 -1604 0
-161 1604 0
-162 160 0
-162 161 0
162 -160 -161 0
-163 131 0
-163 -162 0
163 -131 162 0
-164 -160 0
-164 -161 0
164 160 161 0
-165 163 0
-165 -164 0
165 -163 164 0
87 -1600 0
-87 1600 0
-166 87 0
-166 -161 0
166 -87 161 0
-167 -87 0
-167 161 0
167 87 -161 0
-168 -166 0
-168 -167 0
168 166 167 0
-169 165 0
-169 168 0
169 -165 -168 0
-170 28 0
-170 29 0
170 -28 -29 0
-171 -30 0
-171 170 0
171 30 -170 0
-172 -31 0
-172 171 0
172 31 -171 0
-173 32 0
-173 172 0
173 -32 -172 0
-174 23 0
-174 24 0
174 -23 -24 0
-175 -25 0
-175 174 0
175 25 -174 0
-176 -26 0
-176 175 0
176 26 -175 0
-177 27 0
-177 176 0
177 -27 -176 0
-178 18 0
-178 19 0
178 -18 -19 0
-179 -20 0
-179 178 0
179 20 -178 0
-180 -21 0
-180 179 0
180 21 -179 0
-181 22 0
-181 180 0
181 -22 -180 0
-182 13 0
-182 14 0
182 -13 -14 0
-183 -15 0
-183 182 0
183 15 -182 0
-184 -16 0
-184 183 0
184 16 -183 0
-185 17 0
-185 184 0
185 -17 -184 0
-186 8 0
-186 9 0
186 -8 -9 0
-187 -10 0
-187 186 0
187 10 -186 0
-188 -11 0
-188 187 0
188 11 -187 0
-189 12 0
-189 188 0
189 -12 -188 0
-190 3 0
-190 4 0
190 -3 -4 0
-191 -5 0
-191 190 0
191 5 -190 0
-192 -6 0
-192 191 0
192 6 -191 0
-193 7 0
-193 192 0
193 -7 -192 0
-194 -189 0
-194 -193 0
194 189 193 0
-195 -185 0
-195 194 0
195 185 -194 0
-196 -181 0
-196 195 0
196 181 -195 0
-197 -177 0
-197 196 0
197 177 -196 0
-198 -173 0
-198 197 0
198 173 -197 0
199 -1605 0
-199 1605 0
-200 198 0
-200 199 0
200 -198 -199 0
-201 169 0
-201 -200 0
201 -169 200 0
-202 -198 0
-202 -199 0
202 198 199 0
-203 201 0
-203 -202 0
203 -201 202 0
86 -1599 0
-86 1599 0
-204 86 0
-204 -199 0
204 -86 199 0
-205 -86 0
-205 199 0
205 86 -199 0
-206 -204 0
-206 -205 0
206 204 205 0
-207 203 0
-207 206 0
207 -203 -206 0
-208 -30 0
-208 33 0
208 30 -33 0
-209 -31 0
-209 208 0
209 31 -208 0
-210 32 0
-210 209 0
210 -32 -209 0
-211 -25 0
-211 37 0
211 25 -37 0
-212 -26 0
-212 211 0
212 26 -211 0
-213 27 0
-213 212 0
213 -27 -212 0
-214 -20 0
-214 41 0
214 20 -41 0
-215 -21 0
-215 214 0
215 21 -214 0
-216 22 0
-216 215 0
216 -22 -215 0
-217 -15 0
-217 45 0
217 15 -45 0
-218 -16 0
-218 217 0
218 16 -217 0
-219 17 0
-219 218 0
219 -17 -218 0
-220 -10 0
-220 49 0
220 10 -49 0
-221 -11 0
-221 220 0
221 11 -220 0
-222 12 0
-222 221 0
222 -12 -221 0
-223 -5 0
-223 53 0
223 5 -53 0
-224 -6 0
-224 223 0
224 6 -223 0
-225 7 0
-225 224 0
225 -7 -224 0
-226 -222 0
-226 -225 0
226 222 225 0
-227 -219 0
-227 226 0
227 219 -226 0
-228 -216 0
-228 227 0
228 216 -227 0
-229 -213 0
-229 228 0
229 213 -228 0
-230 -210 0
-230 229 0
230 210 -229 0
231 -1606 0
-231 1606 0
-232 230 0
-232 231 0
232 -230 -231 0
-233 207 0
-233 -232 0
233 -207 232 0
-234 -230 0
-234 -231 0
234 230 231 0
-235 233 0
-235 -234 0
235 -233 234 0
85 -1598 0
-85 1598 0
-236 85 0
-236 -231 0
236 -85 231 0
-237 -85 0
-237 231 0
237 85 -231 0
-238 -236 0
-238 -237 0
238 236 237 0
-239 235 0
-239 238 0
239 -235 -238 0
-240 -30 0
-240 94 0
240 30 -94 0
-241 -31 0
-241 240 0
241 31 -240 0
-242 32 0
-242 241 0
242 -32 -241 0
-243 -25 0
-243 98 0
243 25 -98 0
-244 -26 0
-244 243 0
244 26 -243 0
-245 27 0
-245 244 0
245 -27 -244 0
-246 -20 0
-246 102 0
246 20 -102 0
-247 -21 0
-247 246 0
247 21 -246 0
-248 22 0
-248 247 0
248 -22 -247 0
-249 -15 0
-249 106 0
249 15 -106 0
-250 -16 0
-250 249 0
250 16 -249 0
-251 17 0
-251 250 0
251 -17 -250 0
-252 -10 0
-252 110 0
252 10 -110 0
-253 -11 0
-253 252 0
253 11 -252 0
-254 12 0
-254 253 0
254 -12 -253 0
-255 -5 0
-255 114 0
255 5 -114 0
-256 -6 0
-256 255 0
256 6 -255 0
-257 7 0
-257 256 0
257 -7 -256 0
-258 -254 0
-258 -257 0
258 254 257 0
-259 -251 0
-259 258 0
259 251 -258 0
-260 -248 0
-260 259 0
260 248 -259 0
-261 -245 0
-261 260 0
261 245 -260 0
-262 -242 0
-262 261 0
262 242 -261 0
263 -1607 0
-263 1607 0
-264 262 0
-264 263 0
264 -262 -263 0
-265 239 0
-265 -264 0
265 -239 264 0
-266 -262 0
-266 -263 0
266 262 263 0
-267 265 0
-267 -266 0
267 -265 266 0
84 -1597 0
-84 1597 0
-268 84 0
-268 -263 0
268 -84 263 0
-269 -84 0
-269 263 0
269 84 -263 0
-270 -268 0
-270 -269 0
270 268 269 0
-271 267 0
-271 270 0
271 -267 -270 0
-272 -30 0
-272 132 0
272 30 -132 0
-273 -31 0
-273 272 0
273 31 -272 0
-274 32 0
-274 273 0
274 -32 -273 0
-275 -25 0
-275 136 0
275 25 -136 0
-276 -26 0
-276 275 0
276 26 -275 0
-277 27 0
-277 276 0
277 -27 -276 0
-278 -20 0
-278 140 0
278 20 -140 0
-279 -21 0
-279 278 0
279 21 -278 0
-280 22 0
-280 279 0
280 -22 -279 0
-281 -15 0
-281 144 0
281 15 -144 0
-282 -16 0
-282 281 0
282 16 -281 0
-283 17 0
-283 282 0
283 -17 -282 0
-284 -10 0
-284 148 0
284 10 -148 0
-285 -11 0
-285 284 0
285 11 -284 0
-286 12 0
-286 285 0
286 -12 -285 0
-287 -5 0
-287 152 0
287 5 -152 0
-288 -6 0
-288 287 0
288 6 -287 0
-289 7 0
-289 288 0
289 -7 -288 0
-290 -286 0
-290 -289 0
290 286 289 0
-291 -283 0
-291 290 0
291 283 -290 0
-292 -280 0
-292 291 0
292 280 -291 0
-293 -277 0
-293 292 0
293 277 -292 0
-294 -274 0
-294 293 0
294 274 -293 0
295 -1608 0
-295 1608 0
-296 294 0
-296 295 0
296 -294 -295 0
-297 271 0
-297 -296 0
297 -271 296 0
-298 -294 0
-298 -295 0
298 294 295 0
-299 297 0
-299 -298 0
299 -297 298 0
83 -1596 0
-83 1596 0
-300 83 0
-300 -295 0
300 -83 295 0
-301 -83 0
-301 295 0
301 83 -295 0
-302 -300 0
-302 -301 0
302 300 301 0
-303 299 0
-303 302 0
303 -299 -302 0
-304 30 0
-304 170 0
304 -30 -170 0
-305 31 0
-305 304 0
305 -31 -304 0
-306 -32 0
-306 305 0
306 32 -305 0
-307 25 0
-307 174 0
307 -25 -174 0
-308 26 0
-308 307 0
308 -26 -307 0
-309 -27 0
-309 308 0
309 27 -308 0
-310 20 0
-310 178 0
310 -20 -178 0
-311 21 0
-311 310 0
311 -21 -310 0
-312 -22 0
-312 311 0
312 22 -311 0
-313 15 0
-313 182 0
313 -15 -182 0
-314 16 0
-314 313 0
314 -16 -313 0
-315 -17 0
-315 314 0
315 17 -314 0
-316 10 0
-316 186 0
316 -10 -186 0
-317 11 0
-317 316 0
317 -11 -316 0
-318 -12 0
-318 317 0
318 12 -317 0
-319 5 0
-319 190 0
319 -5 -190 0
-320 6 0
-320 319 0
320 -6 -319 0
-321 -7 0
-321 320 0
321 7 -320 0
-322 -318 0
-322 -321 0
322 318 321 0
-323 -315 0
-323 322 0
323 315 -322 0
-324 -312 0
-324 323 0
324 312 -323 0
-325 -309 0
-325 324 0
325 309 -324 0
-326 -306 0
-326 325 0
326 306 -325 0
327 -1609 0
-327 1609 0
-328 326 0
-328 327 0
328 -326 -327 0
-329 303 0
-329 -328 0
329 -303 328 0
-330 -326 0
-330 -327 0
330 326 327 0
-331 329 0
-331 -330 0
331 -329 330 0
82 -1595 0
-82 1595 0
-332 82 0
-332 -327 0
332 -82 327 0
-333 -82 0
-333 327 0
333 82 -327 0
-334 -332 0
-334 -333 0
334 332 333 0
-335 331 0
-335 334 0
335 -331 -334 0
-336 31 0
-336 34 0
336 -31 -34 0
-337 -32 0
-337 336 0
337 32 -336 0
-338 26 0
-338 38 0
338 -26 -38 0
-339 -27 0
-339 338 0
339 27 -338 0
-340 21 0
-340 42 0
340 -21 -42 0
-341 -22 0
-341 340 0
341 22 -340 0
-342 16 0
-342 46 0
342 -16 -46 0
-343 -17 0
-343 342 0
343 17 -342 0
-344 11 0
-344 50 0
344 -11 -50 0
-345 -12 0
-345 344 0
345 12 -344 0
-346 6 0
-346 54 0
346 -6 -54 0
-347 -7 0
-347 346 0
347 7 -346 0
-348 -345 0
-348 -347 0
348 345 347 0
-349 -343 0
-349 348 0
349 343 -348 0
-350 -341 0
-350 349 0
350 341 -349 0
-351 -339 0
-351 350 0
351 339 -350 0
-352 -337 0
-352 351 0
352 337 -351 0
353 -1610 0
-353 1610 0
-354 352 0
-354 353 0
354 -352 -353 0
-355 335 0
-355 -354 0
355 -335 354 0
-356 -352 0
-356 -353 0
356 352 353 0
-357 355 0
-357 -356 0
357 -355 356 0
81 -1594 0
-81 1594 0
-358 81 0
-358 -353 0
358 -81 353 0
-359 -81 0
-359 353 0
359 81 -353 0
-360 -358 0
-360 -359 0
360 358 359 0
-361 357 0
-361 360 0
361 -357 -360 0
-362 31 0
-362 95 0
362 -31 -95 0
-363 -32 0
-363 362 0
363 32 -362 0
-364 26 0
-364 99 0
364 -26 -99 0
-365 -27 0
-365 364 0
365 27 -364 0
-366 21 0
-366 103 0
366 -21 -103 0
-367 -22 0
-367 366 0
367 22 -366 0
-368 16 0
-368 107 0
368 -16 -107 0
-369 -17 0
-369 368 0
369 17 -368 0
-370 11 0
-370 111 0
370 -11 -111 0
-371 -12 0
-371 370 0
371 12 -370 0
-372 6 0
-372 115 0
372 -6 -115 0
-373 -7 0
-373 372 0
373 7 -372 0
-374 -371 0
-374 -373 0
374 371 373 0
-375 -369 0
-375 374 0
375 369 -374 0
-376 -367 0
-376 375 0
376 367 -375 0
-377 -365 0
-377 376 0
377 365 -376 0
-378 -363 0
-378 377 0
378 363 -377 0
379 -1611 0
-379 1611 0
-380 378 0
-380 379 0
380 -378 -379 0
-381 361 0
-381 -380 0
381 -361 380 0
-382 -378 0
-382 -379 0
382 378 379 0
-383 381 0
-383 -382 0
383 -381 382 0
80 -1593 0
-80 1593 0
-384 80 0
-384 -379 0
384 -80 379 0
-385 -80 0
-385 379 0
385 80 -379 0
-386 -384 0
-386 -385 0
386 384 385 0
-387 383 0
-387 386 0
387 -383 -386 0
-388 31 0
-388 133 0
388 -31 -133 0
-389 -32 0
-389 388 0
389 32 -388 0
-390 26 0
-390 137 0
390 -26 -137 0
-391 -27 0
-391 390 0
391 27 -390 0
-392 21 0
-392 141 0
392 -21 -141 0
-393 -22 0
-393 392 0
393 22 -392 0
-394 16 0
-394 145 0
394 -16 -145 0
-395 -17 0
-395 394 0
395 17 -394 0
-396 11 0
-396 149 0
396 -11 -149 0
-397 -12 0
-397 396 0
397 12 -396 0
-398 6 0
-398 153 0
398 -6 -153 0
-399 -7 0
-399 398 0
399 7 -398 0
-400 -397 0
-400 -399 0
400 397 399 0
-401 -395 0
-401 400 0
401 395 -400 0
-402 -393 0
-402 401 0
402 393 -401 0
-403 -391 0
-403 402 0
403 391 -402 0
-404 -389 0
-404 403 0
404 389 -403 0
405 -1612 0
-405 1612 0
-406 404 0
-406 405 0
406 -404 -405 0
-407 387 0
-407 -406 0
407 -387 406 0
-408 -404 0
-408 -405 0
408 404 405 0
-409 407 0
-409 -408 0
409 -407 408 0
79 -1592 0
-79 1592 0
-410 79 0
-410 -405 0
410 -79 405 0
-411 -79 0
-411 405 0
411 79 -405 0
-412 -410 0
-412 -411 0
412 410 411 0
-413 409 0
-413 412 0
413 -409 -412 0
-414 31 0
-414 171 0
414 -31 -171 0
-415 -32 0
-415 414 0
415 32 -414 0
-416 26 0
-416 175 0
416 -26 -175 0
-417 -27 0
-417 416 0
417 27 -416 0
-418 21 0
-418 179 0
418 -21 -179 0
-419 -22 0
-419 418 0
419 22 -418 0
-420 16 0
-420 183 0
420 -16 -183 0
-421 -17 0
-421 420 0
421 17 -420 0
-422 11 0
-422 187 0
422 -11 -187 0
-423 -12 0
-423 422 0
423 12 -422 0
-424 6 0
-424 191 0
424 -6 -191 0
-425 -7 0
-425 424 0
425 7 -424 0
-426 -423 0
-426 -425 0
426 423 425 0
-427 -421 0
-427 426 0
427 421 -426 0
-428 -419 0
-428 427 0
428 419 -427 0
-429 -417 0
-429 428 0
429 417 -428 0
-430 -415 0
-430 429 0
430 415 -429 0
431 -1613 0
-431 1613 0
-432 430 0
-432 431 0
432 -430 -431 0
-433 413 0
-433 -432 0
433 -413 432 0
-434 -430 0
-434 -431 0
434 430 431 0
-435 433 0
-435 -434 0
435 -433 434 0
78 -1591 0
-78 1591 0
-436 78 0
-436 -431 0
436 -78 431 0
-437 -78 0
-437 431 0
437 78 -431 0
-438 -436 0
-438 -437 0
438 436 437 0
-439 435 0
-439 438 0
439 -435 -438 0
-440 31 0
-440 208 0
440 -31 -208 0
-441 -32 0
-441 440 0
441 32 -440 0
-442 26 0
-442 211 0
442 -26 -211 0
-443 -27 0
-443 442 0
443 27 -442 0
-444 21 0
-444 214 0
444 -21 -214 0
-445 -22 0
-445 444 0
445 22 -444 0
-446 16 0
-446 217 0
446 -16 -217 0
-447 -17 0
-447 446 0
447 17 -446 0
-448 11 0
-448 220 0
448 -11 -220 0
-449 -12 0
-449 448 0
449 12 -448 0
-450 6 0
-450 223 0
450 -6 -223 0
-451 -7 0
-451 450 0
451 7 -450 0
-452 -449 0
-452 -451 0
452 449 451 0
-453 -447 0
-453 452 0
453 447 -452 0
-454 -445 0
-454 453 0
454 445 -453 0
-455 -443 0
-455 454 0
455 443 -454 0
-456 -441 0
-456 455 0
456 441 -455 0
457 -1614 0
-457 1614 0
-458 456 0
-458 457 0
458 -456 -457 0
-459 439 0
-459 -458 0
459 -439 458 0
-460 -456 0
-460 -457 0
460 456 457 0
-461 459 0
-461 -460 0
461 -459 460 0
-462 77 0
-462 -457 0
462 -77 457 0
-463 -77 0
-463 457 0
463 77 -457 0
-464 -462 0
-464 -463 0
464 462 463 0
-465 461 0
-465 464 0
465 -461 -464 0
-466 31 0
-466 240 0
466 -31 -240 0
-467 -32 0
-467 466 0
467 32 -466 0
-468 26 0
-468 243 0
468 -26 -243 0
-469 -27 0
-469 468 0
469 27 -468 0
-470 21 0
-470 246 0
470 -21 -246 0
-471 -22 0
-471 470 0
471 22 -470 0
-472 16 0
-472 249 0
472 -16 -249 0
-473 -17 0
-473 472 0
473 17 -472 0
-474 11 0
-474 252 0
474 -11 -252 0
-475 -12 0
-475 474 0
475 12 -474 0
-476 6 0
-476 255 0
476 -6 -255 0
-477 -7 0
-477 476 0
477 7 -476 0
-478 -475 0
-478 -477 0
478 475 477 0
-479 -473 0
-479 478 0
479 473 -478 0
-480 -471 0
-480 479 0
480 471 -479 0
-481 -469 0
-481 480 0
481 469 -480 0
-482 -467 0
-482 481 0
482 467 -481 0
483 -1615 0
-483 1615 0
-484 482 0
-484 483 0
484 -482 -483 0
-485 465 0
-485 -484 0
485 -465 484 0
-486 -482 0
-486 -483 0
486 482 483 0
-487 485 0
-487 -486 0
487 -485 486 0
-488 76 0
-488 -483 0
488 -76 483 0
-489 -76 0
-489 483 0
489 76 -483 0
-490 -488 0
-490 -489 0
490 488 489 0
-491 487 0
-491 490 0
491 -487 -490 0
-492 31 0
-492 272 0
492 -31 -272 0
-493 -32 0
-493 492 0
493 32 -492 0
-494 26 0
-494 275 0
494 -26 -275 0
-495 -27 0
-495 494 0
495 27 -494 0
-496 21 0
-496 278 0
496 -21 -278 0
-497 -22 0
-497 496 0
497 22 -496 0
-498 16 0
-498 281 0
498 -16 -281 0
-499 -17 0
-499 498 0
499 17 -498 0
-500 11 0
-500 284 0
500 -11 -284 0
-501 -12 0
-501 500 0
501 12 -500 0
-502 6 0
-502 287 0
502 -6 -287 0
-503 -7 0
-503 502 0
503 7 -502 0
-504 -501 0
-504 -503 0
504 501 503 0
-505 -499 0
-505 504 0
505 499 -504 0
-506 -497 0
-506 505 0
506 497 -505 0
-507 -495 0
-507 506 0
507 495 -506 0
-508 -493 0
-508 507 0
508 493 -507 0
509 -1616 0
-509 1616 0
-510 508 0
-510 509 0
510 -508 -509 0
-511 491 0
-511 -510 0
511 -491 510 0
-512 -508 0
-512 -509 0
512 508 509 0
-513 511 0
-513 -512 0
513 -511 512 0
-514 75 0
-514 -509 0
514 -75 509 0
-515 -75 0
-515 509 0
515 75 -509 0
-516 -514 0
-516 -515 0
516 514 515 0
-517 513 0
-517 516 0
517 -513 -516 0
-518 -31 0
-518 304 0
518 31 -304 0
-519 -32 0
-519 518 0
519 32 -518 0
-520 -26 0
-520 307 0
520 26 -307 0
-521 -27 0
-521 520 0
521 27 -520 0
-522 -21 0
-522 310 0
522 21 -310 0
-523 -22 0
-523 522 0
523 22 -522 0
-524 -16 0
-524 313 0
524 16 -313 0
-525 -17 0
-525 524 0
525 17 -524 0
-526 -11 0
-526 316 0
526 11 -316 0
-527 -12 0
-527 526 0
527 12 -526 0
-528 -6 0
-528 319 0
528 6 -319 0
-529 -7 0
-529 528 0
529 7 -528 0
-530 -527 0
-530 -529 0
530 527 529 0
-531 -525 0
-531 530 0
531 525 -530 0
-532 -523 0
-532 531 0
532 523 -531 0
-533 -521 0
-533 532 0
533 521 -532 0
-534 -519 0
-534 533 0
534 519 -533 0
535 -1617 0
-535 1617 0
-536 534 0
-536 535 0
536 -534 -535 0
-537 517 0
-537 -536 0
537 -517 536 0
-538 -534 0
-538 -535 0
538 534 535 0
-539 537 0
-539 -538 0
539 -537 538 0
-540 74 0
-540 -535 0
540 -74 535 0
-541 -74 0
-541 535 0
541 74 -535 0
-542 -540 0
-542 -541 0
542 540 541 0
-543 539 0
-543 542 0
543 -539 -542 0
-544 -32 0
-544 35 0
544 32 -35 0
-545 -27 0
-545 39 0
545 27 -39 0
-546 -22 0
-546 43 0
546 22 -43 0
-547 -17 0
-547 47 0
547 17 -47 0
-548 -12 0
-548 51 0
548 12 -51 0
-549 -7 0
-549 55 0
549 7 -55 0
-550 -548 0
-550 -549 0
550 548 549 0
-551 -547 0
-551 550 0
551 547 -550 0
-552 -546 0
-552 551 0
552 546 -551 0
-553 -545 0
-553 552 0
553 545 -552 0
-554 -544 0
-554 553 0
554 544 -553 0
555 -1618 0
-555 1618 0
-556 554 0
-556 555 0
556 -554 -555 0
-557 543 0
-557 -556 0
557 -543 556 0
-558 -554 0
-558 -555 0
558 554 555 0
-559 557 0
-559 -558 0
559 -557 558 0
-560 73 0
-560 -555 0
560 -73 555 0
-561 -73 0
-561 555 0
561 73 -555 0
-562 -560 0
-562 -561 0
562 560 561 0
-563 559 0
-563 562 0
563 -559 -562 0
-564 -32 0
-564 96 0
564 32 -96 0
-565 -27 0
-565 100 0
565 27 -100 0
-566 -22 0
-566 104 0
566 22 -104 0
-567 -17 0
-567 108 0
567 17 -108 0
-568 -12 0
-568 112 0
568 12 -112 0
-569 -7 0
-569 116 0
569 7 -116 0
-570 -568 0
-570 -569 0
570 568 569 0
-571 -567 0
-571 570 0
571 567 -570 0
-572 -566 0
-572 571 0
572 566 -571 0
-573 -565 0
-573 572 0
573 565 -572 0
-574 -564 0
-574 573 0
574 564 -573 0
575 -1619 0
-575 1619 0
-576 574 0
-576 575 0
576 -574 -575 0
-577 563 0
-577 -576 0
577 -563 576 0
-578 -574 0
-578 -575 0
578 574 575 0
-579 577 0
-579 -578 0
579 -577 578 0
-580 72 0
-580 -575 0
580 -72 575 0
-581 -72 0
-581 575 0
581 72 -575 0
-582 -580 0
-582 -581 0
582 580 581 0
-583 579 0
-583 582 0
583 -579 -582 0
-584 -32 0
-584 134 0
584 32 -134 0
-585 -27 0
-585 138 0
585 27 -138 0
-586 -22 0
-586 142 0
586 22 -142 0
-587 -17 0
-587 146 0
587 17 -146 0
-588 -12 0
-588 150 0
588 12 -150 0
-589 -7 0
-589 154 0
589 7 -154 0
-590 -588 0
-590 -589 0
590 588 589 0
-591 -587 0
-591 590 0
591 587 -590 0
-592 -586 0
-592 591 0
592 586 -591 0
-593 -585 0
-593 592 0
593 585 -592 0
-594 -584 0
-594 593 0
594 584 -593 0
595 -1620 0
-595 1620 0
-596 594 0
-596 595 0
596 -594 -595 0
-597 583 0
-597 -596 0
597 -583 596 0
-598 -594 0
-598 -595 0
598 594 595 0
-599 597 0
-599 -598 0
599 -597 598 0
-600 71 0
-600 -595 0
600 -71 595 0
-601 -71 0
-601 595 0
601 71 -595 0
-602 -600 0
-602 -601 0
602 600 601 0
-603 599 0
-603 602 0
603 -599 -602 0
-604 -32 0
-604 172 0
604 32 -172 0
-605 -27 0
-605 176 0
605 27 -176 0
-606 -22 0
-606 180 0
606 22 -180 0
-607 -17 0
-607 184 0
607 17 -184 0
-608 -12 0
-608 188 0
608 12 -188 0
-609 -7 0
-609 192 0
609 7 -192 0
-610 -608 0
-610 -609 0
610 608 609 0
-611 -607 0
-611 610 0
611 607 -610 0
-612 -606 0
-612 611 0
612 606 -611 0
-613 -605 0
-613 612 0
613 605 -612 0
-614 -604 0
-614 613 0
614 604 -613 0
615 -1621 0
-615 1621 0
-616 614 0
-616 615 0
616 -614 -615 0
-617 603 0
-617 -616 0
617 -603 616 0
-618 -614 0
-618 -615 0
618 614 615 0
-619 617 0
-619 -618 0
619 -617 618 0
-620 70 0
-620 -615 0
620 -70 615 0
-621 -70 0
-621 615 0
621 70 -615 0
-622 -620 0
-622 -621 0
622 620 621 0
-623 619 0
-623 622 0
623 -619 -622 0
-624 -32 0
-624 209 0
624 32 -209 0
-625 -27 0
-625 212 0
625 27 -212 0
-626 -22 0
-626 215 0
626 22 -215 0
-627 -17 0
-627 218 0
627 17 -218 0
-628 -12 0
-628 221 0
628 12 -221 0
-629 -7 0
-629 224 0
629 7 -224 0
-630 -628 0
-630 -629 0
630 628 629 0
-631 -627 0
-631 630 0
631 627 -630 0
-632 -626 0
-632 631 0
632 626 -631 0
-633 -625 0
-633 632 0
633 625 -632 0
-634 -624 0
-634 633 0
634 624 -633 0
635 -1622 0
-635 1622 0
-636 634 0
-636 635 0
636 -634 -635 0
-637 623 0
-637 -636 0
637 -623 636 0
-638 -634 0
-638 -635 0
638 634 635 0
-639 637 0
-639 -638 0
639 -637 638 0
-640 69 0
-640 -635 0
640 -69 635 0
-641 -69 0
-641 635 0
641 69 -635 0
-642 -640 0
-642 -641 0
642 640 641 0
-643 639 0
-643 642 0
643 -639 -642 0
-644 -32 0
-644 241 0
644 32 -241 0
-645 -27 0
-645 244 0
645 27 -244 0
-646 -22 0
-646 247 0
646 22 -247 0
-647 -17 0
-647 250 0
647 17 -250 0
-648 -12 0
-648 253 0
648 12 -253 0
-649 -7 0
-649 256 0
649 7 -256 0
-650 -648 0
-650 -649 0
650 648 649 0
-651 -647 0
-651 650 0
651 647 -650 0
-652 -646 0
-652 651 0
652 646 -651 0
-653 -645 0
-653 652 0
653 645 -652 0
-654 -644 0
-654 653 0
654 644 -653 0
655 -1623 0
-655 1623 0
-656 654 0
-656 655 0
656 -654 -655 0
-657 643 0
-657 -656 0
657 -643 656 0
-658 -654 0
-658 -655 0
658 654 655 0
-659 657 0
-659 -658 0
659 -657 658 0
-660 68 0
-660 -655 0
660 -68 655 0
-661 -68 0
-661 655 0
661 68 -655 0
-662 -660 0
-662 -661 0
662 660 661 0
-663 659 0
-663 662 0
663 -659 -662 0
-664 -32 0
-664 273 0
664 32 -273 0
-665 -27 0
-665 276 0
665 27 -276 0
-666 -22 0
-666 279 0
666 22 -279 0
-667 -17 0
-667 282 0
667 17 -282 0
-668 -12 0
-668 285 0
668 12 -285 0
-669 -7 0
-669 288 0
669 7 -288 0
-670 -668 0
-670 -669 0
670 668 669 0
-671 -667 0
-671 670 0
671 667 -670 0
-672 -666 0
-672 671 0
672 666 -671 0
-673 -665 0
-673 672 0
673 665 -672 0
-674 -664 0
-674 673 0
674 664 -673 0
675 -1624 0
-675 1624 0
-676 674 0
-676 675 0
676 -674 -675 0
-677 663 0
-677 -676 0
677 -663 676 0
-678 -674 0
-678 -675 0
678 674 675 0
-679 677 0
-679 -678 0
679 -677 678 0
-680 67 0
-680 -675 0
680 -67 675 0
-681 -67 0
-681 675 0
681 67 -675 0
-682 -680 0
-682 -681 0
682 680 681 0
-683 679 0
-683 682 0
683 -679 -682 0
-686 683 0
-686 -685 0
686 -683 685 0
-688 686 0
-688 -687 0
688 -686 687 0
-694 688 0
-694 -693 0
694 -688 693 0
-696 694 0
-696 -695 0
696 -694 695 0
-697 72 0
-697 -692 0
697 -72 692 0
-698 -72 0
-698 692 0
698 72 -692 0
-699 -697 0
-699 -698 0
699 697 698 0
700 -1627 0
-700 1627 0
-701 699 0
-701 700 0
701 -699 -700 0
-702 696 0
-702 -701 0
702 -696 701 0
-703 -699 0
-703 -700 0
703 699 700 0
-704 702 0
-704 -703 0
704 -702 703 0
-705 75 0
-705 -700 0
705 -75 700 0
-706 -75 0
-706 700 0
706 75 -700 0
-707 -705 0
-707 -706 0
707 705 706 0
708 -1628 0
-708 1628 0
-709 707 0
-709 708 0
709 -707 -708 0
-710 704 0
-710 -709 0
710 -704 709 0
-711 -707 0
-711 -708 0
711 707 708 0
-712 710 0
-712 -711 0
712 -710 711 0
-713 76 0
-713 -708 0
713 -76 708 0
-714 -76 0
-714 708 0
714 76 -708 0
-715 -713 0
-715 -714 0
715 713 714 0
716 -1629 0
-716 1629 0
-717 715 0
-717 716 0
717 -715 -716 0
-718 712 0
-718 -717 0
718 -712 717 0
-719 -715 0
-719 -716 0
719 715 716 0
-720 718 0
-720 -719 0
720 -718 719 0
-721 77 0
-721 -716 0
721 -77 716 0
-722 -77 0
-722 716 0
722 77 -716 0
-723 -721 0
-723 -722 0
723 721 722 0
724 -1630 0
-724 1630 0
-725 723 0
-725 724 0
725 -723 -724 0
-726 720 0
-726 -725 0
726 -720 725 0
-727 -723 0
-727 -724 0
727 723 724 0
-728 726 0
-728 -727 0
728 -726 727 0
-729 78 0
-729 -724 0
729 -78 724 0
-730 -78 0
-730 724 0
730 78 -724 0
-731 -729 0
-731 -730 0
731 729 730 0
732 -1631 0
-732 1631 0
-733 731 0
-733 732 0
733 -731 -732 0
-734 728 0
-734 -733 0
734 -728 733 0
-735 -731 0
-735 -732 0
735 731 732 0
-736 734 0
-736 -735 0
736 -734 735 0
-737 79 0
-737 -732 0
737 -79 732 0
-738 -79 0
-738 732 0
738 79 -732 0
-739 -737 0
-739 -738 0
739 737 738 0
-740 736 0
-740 739 0
740 -736 -739 0
-743 740 0
-743 -742 0
743 -740 742 0
-745 743 0
-745 -744 0
745 -743 744 0
-751 745 0
-751 -750 0
751 -745 750 0
-753 751 0
-753 -752 0
753 -751 752 0
-759 753 0
-759 -758 0
759 -753 758 0
-761 759 0
-761 -760 0
761 -759 760 0
-767 761 0
-767 -766 0
767 -761 766 0
-769 767 0
-769 -768 0
769 -767 768 0
-775 769 0
-775 -774 0
775 -769 774 0
-777 775 0
-777 -776 0
777 -775 776 0
-783 777 0
-783 -782 0
783 -777 782 0
-785 783 0
-785 -784 0
785 -783 784 0
-791 785 0
-791 -790 0
791 -785 790 0
-793 791 0
-793 -792 0
793 -791 792 0
-794 80 0
-794 -789 0
794 -80 789 0
-795 -80 0
-795 789 0
795 80 -789 0
-796 -794 0
-796 -795 0
796 794 795 0
-797 793 0
-797 796 0
797 -793 -796 0
-798 -685 0
-798 797 0
798 685 -797 0
-799 -687 0
-799 798 0
799 687 -798 0
-805 799 0
-805 -804 0
805 -799 804 0
-807 805 0
-807 -806 0
807 -805 806 0
-813 807 0
-813 -812 0
813 -807 812 0
-815 813 0
-815 -814 0
815 -813 814 0
-821 815 0
-821 -820 0
821 -815 820 0
-823 821 0
-823 -822 0
823 -821 822 0
-829 823 0
-829 -828 0
829 -823 828 0
-831 829 0
-831 -830 0
831 -829 830 0
-837 831 0
-837 -836 0
837 -831 836 0
-839 837 0
-839 -838 0
839 -837 838 0
-845 839 0
-845 -844 0
845 -839 844 0
-847 845 0
-847 -846 0
847 -845 846 0
-848 81 0
-848 -843 0
848 -81 843 0
-849 -81 0
-849 843 0
849 81 -843 0
-850 -848 0
-850 -849 0
850 848 849 0
-851 847 0
-851 850 0
851 -847 -850 0
-854 851 0
-854 -853 0
854 -851 853 0
-856 854 0
-856 -855 0
856 -854 855 0
-862 856 0
-862 -861 0
862 -856 861 0
-864 862 0
-864 -863 0
864 -862 863 0
-870 864 0
-870 -869 0
870 -864 869 0
-872 870 0
-872 -871 0
872 -870 871 0
-878 872 0
-878 -877 0
878 -872 877 0
-880 878 0
-880 -879 0
880 -878 879 0
-886 880 0
-886 -885 0
886 -880 885 0
-888 886 0
-888 -887 0
888 -886 887 0
-894 888 0
-894 -893 0
894 -888 893 0
-896 894 0
-896 -895 0
896 -894 895 0
-902 896 0
-902 -901 0
902 -896 901 0
-904 902 0
-904 -903 0
904 -902 903 0
-905 82 0
-905 -900 0
905 -82 900 0
-906 -82 0
-906 900 0
906 82 -900 0
-907 -905 0
-907 -906 0
907 905 906 0
-908 904 0
-908 907 0
908 -904 -907 0
-911 908 0
-911 -910 0
911 -908 910 0
-913 911 0
-913 -912 0
913 -911 912 0
-914 70 0
-914 -909 0
914 -70 909 0
-915 -70 0
-915 909 0
915 70 -909 0
-916 -914 0
-916 -915 0
916 914 915 0
917 -1653 0
-917 1653 0
-918 916 0
-918 917 0
918 -916 -917 0
-919 913 0
-919 -918 0
919 -913 918 0
-920 -916 0
-920 -917 0
920 916 917 0
-921 919 0
-921 -920 0
921 -919 920 0
-922 72 0
-922 -917 0
922 -72 917 0
-923 -72 0
-923 917 0
923 72 -917 0
-924 -922 0
-924 -923 0
924 922 923 0
925 -1654 0
-925 1654 0
-926 924 0
-926 925 0
926 -924 -925 0
-927 921 0
-927 -926 0
927 -921 926 0
-928 -924 0
-928 -925 0
928 924 925 0
-929 927 0
-929 -928 0
929 -927 928 0
-930 73 0
-930 -925 0
930 -73 925 0
-931 -73 0
-931 925 0
931 73 -925 0
-932 -930 0
-932 -931 0
932 930 931 0
933 -1655 0
-933 1655 0
-934 932 0
-934 933 0
934 -932 -933 0
-935 929 0
-935 -934 0
935 -929 934 0
-936 -932 0
-936 -933 0
936 932 933 0
-937 935 0
-937 -936 0
937 -935 936 0
-938 75 0
-938 -933 0
938 -75 933 0
-939 -75 0
-939 933 0
939 75 -933 0
-940 -938 0
-940 -939 0
940 938 939 0
941 -1656 0
-941 1656 0
-942 940 0
-942 941 0
942 -940 -941 0
-943 937 0
-943 -942 0
943 -937 942 0
-944 -940 0
-944 -941 0
944 940 941 0
-945 943 0
-945 -944 0
945 -943 944 0
-946 76 0
-946 -941 0
946 -76 941 0
-947 -76 0
-947 941 0
947 76 -941 0
-948 -946 0
-948 -947 0
948 946 947 0
949 -1657 0
-949 1657 0
-950 948 0
-950 949 0
950 -948 -949 0
-951 945 0
-951 -950 0
951 -945 950 0
-952 -948 0
-952 -949 0
952 948 949 0
-953 951 0
-953 -952 0
953 -951 952 0
-954 78 0
-954 -949 0
954 -78 949 0
-955 -78 0
-955 949 0
955 78 -949 0
-956 -954 0
-956 -955 0
956 954 955 0
957 -1658 0
-957 1658 0
-958 956 0
-958 957 0
958 -956 -957 0
-959 953 0
-959 -958 0
959 -953 958 0
-960 -956 0
-960 -957 0
960 956 957 0
-961 959 0
-961 -960 0
961 -959 960 0
-962 83 0
-962 -957 0
962 -83 957 0
-963 -83 0
-963 957 0
963 83 -957 0
-964 -962 0
-964 -963 0
964 962 963 0
-965 961 0
-965 964 0
965 -961 -964 0
-966 -685 0
-966 965 0
966 685 -965 0
-967 -687 0
-967 966 0
967 687 -966 0
-968 -693 0
-968 967 0
968 693 -967 0
-969 -695 0
-969 968 0
969 695 -968 0
-975 969 0
-975 -974 0
975 -969 974 0
-977 975 0
-977 -976 0
977 -975 976 0
-978 73 0
-978 -973 0
978 -73 973 0
-979 -73 0
-979 973 0
979 73 -973 0
-980 -978 0
-980 -979 0
980 978 979 0
981 -1660 0
-981 1660 0
-982 980 0
-982 981 0
982 -980 -981 0
-983 977 0
-983 -982 0
983 -977 982 0
-984 -980 0
-984 -981 0
984 980 981 0
-985 983 0
-985 -984 0
985 -983 984 0
-986 74 0
-986 -981 0
986 -74 981 0
-987 -74 0
-987 981 0
987 74 -981 0
-988 -986 0
-988 -987 0
988 986 987 0
989 -1661 0
-989 1661 0
-990 988 0
-990 989 0
990 -988 -989 0
-991 985 0
-991 -990 0
991 -985 990 0
-992 -988 0
-992 -989 0
992 988 989 0
-993 991 0
-993 -992 0
993 -991 992 0
-994 75 0
-994 -989 0
994 -75 989 0
-995 -75 0
-995 989 0
995 75 -989 0
-996 -994 0
-996 -995 0
996 994 995 0
997 -1662 0
-997 1662 0
-998 996 0
-998 997 0
998 -996 -997 0
-999 993 0
-999 -998 0
999 -993 998 0
-1000 -996 0
-1000 -997 0
1000 996 997 0
-1001 999 0
-1001 -1000 0
1001 -999 1000 0
-1002 78 0
-1002 -997 0
1002 -78 997 0
-1003 -78 0
-1003 997 0
1003 78 -997 0
-1004 -1002 0
-1004 -1003 0
1004 1002 1003 0
1005 -1663 0
-1005 1663 0
-1006 1004 0
-1006 1005 0
1006 -1004 -1005 0
-1007 1001 0
-1007 -1006 0
1007 -1001 1006 0
-1008 -1004 0
-1008 -1005 0
1008 1004 1005 0
-1009 1007 0
-1009 -1008 0
1009 -1007 1008 0
-1010 84 0
-1010 -1005 0
1010 -84 1005 0
-1011 -84 0
-1011 1005 0
1011 84 -1005 0
-1012 -1010 0
-1012 -1011 0
1012 1010 1011 0
-1013 1009 0
-1013 1012 0
1013 -1009 -1012 0
-1014 -742 0
-1014 1013 0
1014 742 -1013 0
-1015 -744 0
-1015 1014 0
1015 744 -1014 0
-1016 -750 0
-1016 1015 0
1016 750 -1015 0
-1017 -752 0
-1017 1016 0
1017 752 -1016 0
-1018 -758 0
-1018 1017 0
1018 758 -1017 0
-1019 -760 0
-1019 1018 0
1019 760 -1018 0
-1020 -766 0
-1020 1019 0
1020 766 -1019 0
-1021 -768 0
-1021 1020 0
1021 768 -1020 0
-1022 74 0
-1022 -765 0
1022 -74 765 0
-1023 -74 0
-1023 765 0
1023 74 -765 0
-1024 -1022 0
-1024 -1023 0
1024 1022 1023 0
1025 -1664 0
-1025 1664 0
-1026 1024 0
-1026 1025 0
1026 -1024 -1025 0
-1027 1021 0
-1027 -1026 0
1027 -1021 1026 0
-1028 -1024 0
-1028 -1025 0
1028 1024 1025 0
-1029 1027 0
-1029 -1028 0
1029 -1027 1028 0
-1030 77 0
-1030 -1025 0
1030 -77 1025 0
-1031 -77 0
-1031 1025 0
1031 77 -1025 0
-1032 -1030 0
-1032 -1031 0
1032 1030 1031 0
1033 -1665 0
-1033 1665 0
-1034 1032 0
-1034 1033 0
1034 -1032 -1033 0
-1035 1029 0
-1035 -1034 0
1035 -1029 1034 0
-1036 -1032 0
-1036 -1033 0
1036 1032 1033 0
-1037 1035 0
-1037 -1036 0
1037 -1035 1036 0
-1038 78 0
-1038 -1033 0
1038 -78 1033 0
-1039 -78 0
-1039 1033 0
1039 78 -1033 0
-1040 -1038 0
-1040 -1039 0
1040 1038 1039 0
1041 -1666 0
-1041 1666 0
-1042 1040 0
-1042 1041 0
1042 -1040 -1041 0
-1043 1037 0
-1043 -1042 0
1043 -1037 1042 0
-1044 -1040 0
-1044 -1041 0
1044 1040 1041 0
-1045 1043 0
-1045 -1044 0
1045 -1043 1044 0
-1046 85 0
-1046 -1041 0
1046 -85 1041 0
-1047 -85 0
-1047 1041 0
1047 85 -1041 0
-1048 -1046 0
-1048 -1047 0
1048 1046 1047 0
-1049 1045 0
-1049 1048 0
1049 -1045 -1048 0
-1050 -742 0
-1050 1049 0
1050 742 -1049 0
-1051 -744 0
-1051 1050 0
1051 744 -1050 0
-1052 -750 0
-1052 1051 0
1052 750 -1051 0
-1053 -752 0
-1053 1052 0
1053 752 -1052 0
-1059 1053 0
-1059 -1058 0
1059 -1053 1058 0
-1061 1059 0
-1061 -1060 0
1061 -1059 1060 0
-1067 1061 0
-1067 -1066 0
1067 -1061 1066 0
-1069 1067 0
-1069 -1068 0
1069 -1067 1068 0
-1075 1069 0
-1075 -1074 0
1075 -1069 1074 0
-1077 1075 0
-1077 -1076 0
1077 -1075 1076 0
-1083 1077 0
-1083 -1082 0
1083 -1077 1082 0
-1085 1083 0
-1085 -1084 0
1085 -1083 1084 0
-1091 1085 0
-1091 -1090 0
1091 -1085 1090 0
-1093 1091 0
-1093 -1092 0
1093 -1091 1092 0
-1094 86 0
-1094 -1089 0
1094 -86 1089 0
-1095 -86 0
-1095 1089 0
1095 86 -1089 0
-1096 -1094 0
-1096 -1095 0
1096 1094 1095 0
-1097 1093 0
-1097 1096 0
1097 -1093 -1096 0
-1098 -685 0
-1098 1097 0
1098 685 -1097 0
-1099 -687 0
-1099 1098 0
1099 687 -1098 0
-1100 -804 0
-1100 1099 0
1100 804 -1099 0
-1101 -806 0
-1101 1100 0
1101 806 -1100 0
-1107 1101 0
-1107 -1106 0
1107 -1101 1106 0
-1109 1107 0
-1109 -1108 0
1109 -1107 1108 0
-1115 1109 0
-1115 -1114 0
1115 -1109 1114 0
-1117 1115 0
-1117 -1116 0
1117 -1115 1116 0
-1118 73 0
-1118 -1113 0
1118 -73 1113 0
-1119 -73 0
-1119 1113 0
1119 73 -1113 0
-1120 -1118 0
-1120 -1119 0
1120 1118 1119 0
1121 -1674 0
-1121 1674 0
-1122 1120 0
-1122 1121 0
1122 -1120 -1121 0
-1123 1117 0
-1123 -1122 0
1123 -1117 1122 0
-1124 -1120 0
-1124 -1121 0
1124 1120 1121 0
-1125 1123 0
-1125 -1124 0
1125 -1123 1124 0
-1126 77 0
-1126 -1121 0
1126 -77 1121 0
-1127 -77 0
-1127 1121 0
1127 77 -1121 0
-1128 -1126 0
-1128 -1127 0
1128 1126 1127 0
1129 -1675 0
-1129 1675 0
-1130 1128 0
-1130 1129 0
1130 -1128 -1129 0
-1131 1125 0
-1131 -1130 0
1131 -1125 1130 0
-1132 -1128 0
-1132 -1129 0
1132 1128 1129 0
-1133 1131 0
-1133 -1132 0
1133 -1131 1132 0
-1134 78 0
-1134 -1129 0
1134 -78 1129 0
-1135 -78 0
-1135 1129 0
1135 78 -1129 0
-1136 -1134 0
-1136 -1135 0
1136 1134 1135 0
1137 -1676 0
-1137 1676 0
-1138 1136 0
-1138 1137 0
1138 -1136 -1137 0
-1139 1133 0
-1139 -1138 0
1139 -1133 1138 0
-1140 -1136 0
-1140 -1137 0
1140 1136 1137 0
-1141 1139 0
-1141 -1140 0
1141 -1139 1140 0
-1142 87 0
-1142 -1137 0
1142 -87 1137 0
-1143 -87 0
-1143 1137 0
1143 87 -1137 0
-1144 -1142 0
-1144 -1143 0
1144 1142 1143 0
-1145 1141 0
-1145 1144 0
1145 -1141 -1144 0
-1146 -853 0
-1146 1145 0
1146 853 -1145 0
-1147 -855 0
-1147 1146 0
1147 855 -1146 0
-1153 1147 0
-1153 -1152 0
1153 -1147 1152 0
-1155 1153 0
-1155 -1154 0
1155 -1153 1154 0
-1161 1155 0
-1161 -1160 0
1161 -1155 1160 0
-1163 1161 0
-1163 -1162 0
1163 -1161 1162 0
-1169 1163 0
-1169 -1168 0
1169 -1163 1168 0
-1171 1169 0
-1171 -1170 0
1171 -1169 1170 0
-1177 1171 0
-1177 -1176 0
1177 -1171 1176 0
-1179 1177 0
-1179 -1178 0
1179 -1177 1178 0
-1185 1179 0
-1185 -1184 0
1185 -1179 1184 0
-1187 1185 0
-1187 -1186 0
1187 -1185 1186 0
-1193 1187 0
-1193 -1192 0
1193 -1187 1192 0
-1195 1193 0
-1195 -1194 0
1195 -1193 1194 0
-1196 88 0
-1196 -1191 0
1196 -88 1191 0
-1197 -88 0
-1197 1191 0
1197 88 -1191 0
-1198 -1196 0
-1198 -1197 0
1198 1196 1197 0
-1199 1195 0
-1199 1198 0
1199 -1195 -1198 0
-1200 -910 0
-1200 1199 0
1200 910 -1199 0
-1201 -912 0
-1201 1200 0
1201 912 -1200 0
-1202 68 0
-1202 -909 0
1202 -68 909 0
-1203 -68 0
-1203 909 0
1203 68 -909 0
-1204 -1202 0
-1204 -1203 0
1204 1202 1203 0
1205 -1683 0
-1205 1683 0
-1206 1204 0
-1206 1205 0
1206 -1204 -1205 0
-1207 1201 0
-1207 -1206 0
1207 -1201 1206 0
-1208 -1204 0
-1208 -1205 0
1208 1204 1205 0
-1209 1207 0
-1209 -1208 0
1209 -1207 1208 0
-1210 74 0
-1210 -1205 0
1210 -74 1205 0
-1211 -74 0
-1211 1205 0
1211 74 -1205 0
-1212 -1210 0
-1212 -1211 0
1212 1210 1211 0
1213 -1684 0
-1213 1684 0
-1214 1212 0
-1214 1213 0
1214 -1212 -1213 0
-1215 1209 0
-1215 -1214 0
1215 -1209 1214 0
-1216 -1212 0
-1216 -1213 0
1216 1212 1213 0
-1217 1215 0
-1217 -1216 0
1217 -1215 1216 0
-1218 75 0
-1218 -1213 0
1218 -75 1213 0
-1219 -75 0
-1219 1213 0
1219 75 -1213 0
-1220 -1218 0
-1220 -1219 0
1220 1218 1219 0
1221 -1685 0
-1221 1685 0
-1222 1220 0
-1222 1221 0
1222 -1220 -1221 0
-1223 1217 0
-1223 -1222 0
1223 -1217 1222 0
-1224 -1220 0
-1224 -1221 0
1224 1220 1221 0
-1225 1223 0
-1225 -1224 0
1225 -1223 1224 0
-1226 76 0
-1226 -1221 0
1226 -76 1221 0
-1227 -76 0
-1227 1221 0
1227 76 -1221 0
-1228 -1226 0
-1228 -1227 0
1228 1226 1227 0
1229 -1686 0
-1229 1686 0
-1230 1228 0
-1230 1229 0
1230 -1228 -1229 0
-1231 1225 0
-1231 -1230 0
1231 -1225 1230 0
-1232 -1228 0
-1232 -1229 0
1232 1228 1229 0
-1233 1231 0
-1233 -1232 0
1233 -1231 1232 0
-1234 77 0
-1234 -1229 0
1234 -77 1229 0
-1235 -77 0
-1235 1229 0
1235 77 -1229 0
-1236 -1234 0
-1236 -1235 0
1236 1234 1235 0
1237 -1687 0
-1237 1687 0
-1238 1236 0
-1238 1237 0
1238 -1236 -1237 0
-1239 1233 0
-1239 -1238 0
1239 -1233 1238 0
-1240 -1236 0
-1240 -1237 0
1240 1236 1237 0
-1241 1239 0
-1241 -1240 0
1241 -1239 1240 0
-1242 78 0
-1242 -1237 0
1242 -78 1237 0
-1243 -78 0
-1243 1237 0
1243 78 -1237 0
-1244 -1242 0
-1244 -1243 0
1244 1242 1243 0
-1245 89 0
-1245 1244 0
1245 -89 -1244 0
-1246 -89 0
-1246 -1244 0
1246 89 1244 0
-1247 -1245 0
-1247 -1246 0
1247 1245 1246 0
-1248 1241 0
-1248 1247 0
1248 -1241 -1247 0
-1249 -910 0
-1249 1248 0
1249 910 -1248 0
-1250 -912 0
-1250 1249 0
1250 912 -1249 0
-1251 67 0
-1251 -909 0
1251 -67 909 0
-1252 -67 0
-1252 909 0
1252 67 -909 0
-1253 -1251 0
-1253 -1252 0
1253 1251 1252 0
1254 -1688 0
-1254 1688 0
-1255 1253 0
-1255 1254 0
1255 -1253 -1254 0
-1256 1250 0
-1256 -1255 0
1256 -1250 1255 0
-1257 -1253 0
-1257 -1254 0
1257 1253 1254 0
-1258 1256 0
-1258 -1257 0
1258 -1256 1257 0
-1259 72 0
-1259 -1254 0
1259 -72 1254 0
-1260 -72 0
-1260 1254 0
1260 72 -1254 0
-1261 -1259 0
-1261 -1260 0
1261 1259 1260 0
1262 -1689 0
-1262 1689 0
-1263 1261 0
-1263 1262 0
1263 -1261 -1262 0
-1264 1258 0
-1264 -1263 0
1264 -1258 1263 0
-1265 -1261 0
-1265 -1262 0
1265 1261 1262 0
-1266 1264 0
-1266 -1265 0
1266 -1264 1265 0
-1267 73 0
-1267 -1262 0
1267 -73 1262 0
-1268 -73 0
-1268 1262 0
1268 73 -1262 0
-1269 -1267 0
-1269 -1268 0
1269 1267 1268 0
1270 -1690 0
-1270 1690 0
-1271 1269 0
-1271 1270 0
1271 -1269 -1270 0
-1272 1266 0
-1272 -1271 0
1272 -1266 1271 0
-1273 -1269 0
-1273 -1270 0
1273 1269 1270 0
-1274 1272 0
-1274 -1273 0
1274 -1272 1273 0
-1275 75 0
-1275 -1270 0
1275 -75 1270 0
-1276 -75 0
-1276 1270 0
1276 75 -1270 0
-1277 -1275 0
-1277 -1276 0
1277 1275 1276 0
1278 -1691 0
-1278 1691 0
-1279 1277 0
-1279 1278 0
1279 -1277 -1278 0
-1280 1274 0
-1280 -1279 0
1280 -1274 1279 0
-1281 -1277 0
-1281 -1278 0
1281 1277 1278 0
-1282 1280 0
-1282 -1281 0
1282 -1280 1281 0
-1283 77 0
-1283 -1278 0
1283 -77 1278 0
-1284 -77 0
-1284 1278 0
1284 77 -1278 0
-1285 -1283 0
-1285 -1284 0
1285 1283 1284 0
1286 -1692 0
-1286 1692 0
-1287 1285 0
-1287 1286 0
1287 -1285 -1286 0
-1288 1282 0
-1288 -1287 0
1288 -1282 1287 0
-1289 -1285 0
-1289 -1286 0
1289 1285 1286 0
-1290 1288 0
-1290 -1289 0
1290 -1288 1289 0
-1291 -853 0
-1291 1290 0
1291 853 -1290 0
-1292 -855 0
-1292 1291 0
1292 855 -1291 0
-1293 -1152 0
-1293 1292 0
1293 1152 -1292 0
-1294 -1154 0
-1294 1293 0
1294 1154 -1293 0
-1295 -1160 0
-1295 1294 0
1295 1160 -1294 0
-1296 -1162 0
-1296 1295 0
1296 1162 -1295 0
-1297 -1168 0
-1297 1296 0
1297 1168 -1296 0
-1298 -1170 0
-1298 1297 0
1298 1170 -1297 0
-1299 -1176 0
-1299 1298 0
1299 1176 -1298 0
-1300 -1178 0
-1300 1299 0
1300 1178 -1299 0
-1301 -1184 0
-1301 1300 0
1301 1184 -1300 0
-1302 -1186 0
-1302 1301 0
1302 1186 -1301 0
-1303 -1192 0
-1303 1302 0
1303 1192 -1302 0
-1304 -1194 0
-1304 1303 0
1304 1194 -1303 0
-1305 -685 0
-1305 1304 0
1305 685 -1304 0
-1306 -687 0
-1306 1305 0
1306 687 -1305 0
-1307 -693 0
-1307 1306 0
1307 693 -1306 0
-1308 -695 0
-1308 1307 0
1308 695 -1307 0
-1309 -974 0
-1309 1308 0
1309 974 -1308 0
-1310 -976 0
-1310 1309 0
1310 976 -1309 0
-1311 74 0
-1311 -973 0
1311 -74 973 0
-1312 -74 0
-1312 973 0
1312 74 -973 0
-1313 -1311 0
-1313 -1312 0
1313 1311 1312 0
1314 -1693 0
-1314 1693 0
-1315 1313 0
-1315 1314 0
1315 -1313 -1314 0
-1316 1310 0
-1316 -1315 0
1316 -1310 1315 0
-1317 -1313 0
-1317 -1314 0
1317 1313 1314 0
-1318 1316 0
-1318 -1317 0
1318 -1316 1317 0
-1319 76 0
-1319 -1314 0
1319 -76 1314 0
-1320 -76 0
-1320 1314 0
1320 76 -1314 0
-1321 -1319 0
-1321 -1320 0
1321 1319 1320 0
1322 -1694 0
-1322 1694 0
-1323 1321 0
-1323 1322 0
1323 -1321 -1322 0
-1324 1318 0
-1324 -1323 0
1324 -1318 1323 0
-1325 -1321 0
-1325 -1322 0
1325 1321 1322 0
-1326 1324 0
-1326 -1325 0
1326 -1324 1325 0
-1327 77 0
-1327 -1322 0
1327 -77 1322 0
-1328 -77 0
-1328 1322 0
1328 77 -1322 0
-1329 -1327 0
-1329 -1328 0
1329 1327 1328 0
1330 -1695 0
-1330 1695 0
-1331 1329 0
-1331 1330 0
1331 -1329 -1330 0
-1332 1326 0
-1332 -1331 0
1332 -1326 1331 0
-1333 -1329 0
-1333 -1330 0
1333 1329 1330 0
-1334 1332 0
-1334 -1333 0
1334 -1332 1333 0
-1335 -742 0
-1335 1334 0
1335 742 -1334 0
-1336 -744 0
-1336 1335 0
1336 744 -1335 0
-1337 -750 0
-1337 1336 0
1337 750 -1336 0
-1338 -752 0
-1338 1337 0
1338 752 -1337 0
-1339 -1058 0
-1339 1338 0
1339 1058 -1338 0
-1340 -1060 0
-1340 1339 0
1340 1060 -1339 0
-1341 -1066 0
-1341 1340 0
1341 1066 -1340 0
-1342 -1068 0
-1342 1341 0
1342 1068 -1341 0
-1343 -1074 0
-1343 1342 0
1343 1074 -1342 0
-1344 -1076 0
-1344 1343 0
1344 1076 -1343 0
-1345 -1082 0
-1345 1344 0
1345 1082 -1344 0
-1346 -1084 0
-1346 1345 0
1346 1084 -1345 0
-1347 -1090 0
-1347 1346 0
1347 1090 -1346 0
-1348 -1092 0
-1348 1347 0
1348 1092 -1347 0
-1349 -861 0
-1349 1348 0
1349 861 -1348 0
-1350 -863 0
-1350 1349 0
1350 863 -1349 0
-1351 72 0
-1351 -860 0
1351 -72 860 0
-1352 -72 0
-1352 860 0
1352 72 -860 0
-1353 -1351 0
-1353 -1352 0
1353 1351 1352 0
1354 -1696 0
-1354 1696 0
-1355 1353 0
-1355 1354 0
1355 -1353 -1354 0
-1356 1350 0
-1356 -1355 0
1356 -1350 1355 0
-1357 -1353 0
-1357 -1354 0
1357 1353 1354 0
-1358 1356 0
-1358 -1357 0
1358 -1356 1357 0
-1359 73 0
-1359 -1354 0
1359 -73 1354 0
-1360 -73 0
-1360 1354 0
1360 73 -1354 0
-1361 -1359 0
-1361 -1360 0
1361 1359 1360 0
1362 -1697 0
-1362 1697 0
-1363 1361 0
-1363 1362 0
1363 -1361 -1362 0
-1364 1358 0
-1364 -1363 0
1364 -1358 1363 0
-1365 -1361 0
-1365 -1362 0
1365 1361 1362 0
-1366 1364 0
-1366 -1365 0
1366 -1364 1365 0
-1367 76 0
-1367 -1362 0
1367 -76 1362 0
-1368 -76 0
-1368 1362 0
1368 76 -1362 0
-1369 -1367 0
-1369 -1368 0
1369 1367 1368 0
1370 -1698 0
-1370 1698 0
-1371 1369 0
-1371 1370 0
1371 -1369 -1370 0
-1372 1366 0
-1372 -1371 0
1372 -1366 1371 0
-1373 -1369 0
-1373 -1370 0
1373 1369 1370 0
-1374 1372 0
-1374 -1373 0
1374 -1372 1373 0
-1375 77 0
-1375 -1370 0
1375 -77 1370 0
-1376 -77 0
-1376 1370 0
1376 77 -1370 0
-1377 -1375 0
-1377 -1376 0
1377 1375 1376 0
1378 -1699 0
-1378 1699 0
-1379 1377 0
-1379 1378 0
1379 -1377 -1378 0
-1380 1374 0
-1380 -1379 0
1380 -1374 1379 0
-1381 -1377 0
-1381 -1378 0
1381 1377 1378 0
-1382 1380 0
-1382 -1381 0
1382 -1380 1381 0
-1383 -804 0
-1383 1382 0
1383 804 -1382 0
-1384 -806 0
-1384 1383 0
1384 806 -1383 0
-1385 -1106 0
-1385 1384 0
1385 1106 -1384 0
-1386 -1108 0
-1386 1385 0
1386 1108 -1385 0
-1387 -1114 0
-1387 1386 0
1387 1114 -1386 0
-1388 -1116 0
-1388 1387 0
1388 1116 -1387 0
-1389 75 0
-1389 -1113 0
1389 -75 1113 0
-1390 -75 0
-1390 1113 0
1390 75 -1113 0
-1391 -1389 0
-1391 -1390 0
1391 1389 1390 0
1392 -1700 0
-1392 1700 0
-1393 1391 0
-1393 1392 0
1393 -1391 -1392 0
-1394 1388 0
-1394 -1393 0
1394 -1388 1393 0
-1395 -1391 0
-1395 -1392 0
1395 1391 1392 0
-1396 1394 0
-1396 -1395 0
1396 -1394 1395 0
-1397 76 0
-1397 -1392 0
1397 -76 1392 0
-1398 -76 0
-1398 1392 0
1398 76 -1392 0
-1399 -1397 0
-1399 -1398 0
1399 1397 1398 0
1400 -1701 0
-1400 1701 0
-1401 1399 0
-1401 1400 0
1401 -1399 -1400 0
-1402 1396 0
-1402 -1401 0
1402 -1396 1401 0
-1403 -1399 0
-1403 -1400 0
1403 1399 1400 0
-1404 1402 0
-1404 -1403 0
1404 -1402 1403 0
-1405 74 0
-1405 -1065 0
1405 -74 1065 0
-1406 -74 0
-1406 1065 0
1406 74 -1065 0
-1407 -1405 0
-1407 -1406 0
1407 1405 1406 0
1408 -1702 0
-1408 1702 0
-1409 1407 0
-1409 1408 0
1409 -1407 -1408 0
-1410 1404 0
-1410 -1409 0
1410 -1404 1409 0
-1411 -1407 0
-1411 -1408 0
1411 1407 1408 0
-1412 1410 0
-1412 -1411 0
1412 -1410 1411 0
-1413 75 0
-1413 -1408 0
1413 -75 1408 0
-1414 -75 0
-1414 1408 0
1414 75 -1408 0
-1415 -1413 0
-1415 -1414 0
1415 1413 1414 0
1416 -1703 0
-1416 1703 0
-1417 1415 0
-1417 1416 0
1417 -1415 -1416 0
-1418 1412 0
-1418 -1417 0
1418 -1412 1417 0
-1419 -1415 0
-1419 -1416 0
1419 1415 1416 0
-1420 1418 0
-1420 -1419 0
1420 -1418 1419 0
-1421 -869 0
-1421 1420 0
1421 869 -1420 0
-1422 -871 0
-1422 1421 0
1422 871 -1421 0
-1423 -877 0
-1423 1422 0
1423 877 -1422 0
-1424 -879 0
-1424 1423 0
1424 879 -1423 0
-1425 -885 0
-1425 1424 0
1425 885 -1424 0
-1426 -887 0
-1426 1425 0
1426 887 -1425 0
-1427 -893 0
-1427 1426 0
1427 893 -1426 0
-1428 -895 0
-1428 1427 0
1428 895 -1427 0
-1429 -901 0
-1429 1428 0
1429 901 -1428 0
-1430 -903 0
-1430 1429 0
1430 903 -1429 0
-1431 -812 0
-1431 1430 0
1431 812 -1430 0
-1432 -814 0
-1432 1431 0
1432 814 -1431 0
-1433 -820 0
-1433 1432 0
1433 820 -1432 0
-1434 -822 0
-1434 1433 0
1434 822 -1433 0
-1435 -828 0
-1435 1434 0
1435 828 -1434 0
-1436 -830 0
-1436 1435 0
1436 830 -1435 0
-1437 -836 0
-1437 1436 0
1437 836 -1436 0
-1438 -838 0
-1438 1437 0
1438 838 -1437 0
-1439 -844 0
-1439 1438 0
1439 844 -1438 0
-1440 -846 0
-1440 1439 0
1440 846 -1439 0
-1441 -758 0
-1441 1440 0
1441 758 -1440 0
-1442 -760 0
-1442 1441 0
1442 760 -1441 0
-1443 -766 0
-1443 1442 0
1443 766 -1442 0
-1444 -768 0
-1444 1443 0
1444 768 -1443 0
-1445 -774 0
-1445 1444 0
1445 774 -1444 0
-1446 -776 0
-1446 1445 0
1446 776 -1445 0
-1447 -782 0
-1447 1446 0
1447 782 -1446 0
-1448 -784 0
-1448 1447 0
1448 784 -1447 0
-1449 -790 0
-1449 1448 0
1449 790 -1448 0
-1450 -792 0
-1450 1449 0
1450 792 -1449 0
-1451 73 0
-1451 -803 0
1451 -73 803 0
-1452 -73 0
-1452 803 0
1452 73 -803 0
-1453 -1451 0
-1453 -1452 0
1453 1451 1452 0
1454 -1704 0
-1454 1704 0
-1455 1453 0
-1455 1454 0
1455 -1453 -1454 0
-1456 1450 0
-1456 -1455 0
1456 -1450 1455 0
-1457 -1453 0
-1457 -1454 0
1457 1453 1454 0
-1458 1456 0
-1458 -1457 0
1458 -1456 1457 0
-1459 74 0
-1459 -1454 0
1459 -74 1454 0
-1460 -74 0
-1460 1454 0
1460 74 -1454 0
-1461 -1459 0
-1461 -1460 0
1461 1459 1460 0
1462 -1705 0
-1462 1705 0
-1463 1461 0
-1463 1462 0
1463 -1461 -1462 0
-1464 1458 0
-1464 -1463 0
1464 -1458 1463 0
-1465 -1461 0
-1465 -1462 0
1465 1461 1462 0
-1466 1464 0
-1466 -1465 0
1466 -1464 1465 0
-1467 75 0
-1467 -1462 0
1467 -75 1462 0
-1468 -75 0
-1468 1462 0
1468 75 -1462 0
-1469 -1467 0
-1469 -1468 0
1469 1467 1468 0
1470 -1706 0
-1470 1706 0
-1471 1469 0
-1471 1470 0
1471 -1469 -1470 0
-1472 1466 0
-1472 -1471 0
1472 -1466 1471 0
-1473 -1469 0
-1473 -1470 0
1473 1469 1470 0
-1474 1472 0
-1474 -1473 0
1474 -1472 1473 0
-1475 77 0
-1475 -1470 0
1475 -77 1470 0
-1476 -77 0
-1476 1470 0
1476 77 -1470 0
-1477 -1475 0
-1477 -1476 0
1477 1475 1476 0
1478 -1707 0
-1478 1707 0
-1479 1477 0
-1479 1478 0
1479 -1477 -1478 0
-1480 1474 0
-1480 -1479 0
1480 -1474 1479 0
-1481 -1477 0
-1481 -1478 0
1481 1477 1478 0
-1482 1480 0
-1482 -1481 0
1482 -1480 1481 0
-1483 72 0
-1483 -749 0
1483 -72 749 0
-1484 -72 0
-1484 749 0
1484 72 -749 0
-1485 -1483 0
-1485 -1484 0
1485 1483 1484 0
1486 -1708 0
-1486 1708 0
-1487 1485 0
-1487 1486 0
1487 -1485 -1486 0
-1488 1482 0
-1488 -1487 0
1488 -1482 1487 0
-1489 -1485 0
-1489 -1486 0
1489 1485 1486 0
-1490 1488 0
-1490 -1489 0
1490 -1488 1489 0
-1491 73 0
-1491 -1486 0
1491 -73 1486 0
-1492 -73 0
-1492 1486 0
1492 73 -1486 0
-1493 -1491 0
-1493 -1492 0
1493 1491 1492 0
1494 -1709 0
-1494 1709 0
-1495 1493 0
-1495 1494 0
1495 -1493 -1494 0
-1496 1490 0
-1496 -1495 0
1496 -1490 1495 0
-1497 -1493 0
-1497 -1494 0
1497 1493 1494 0
-1498 1496 0
-1498 -1497 0
1498 -1496 1497 0
-1499 74 0
-1499 -1494 0
1499 -74 1494 0
-1500 -74 0
-1500 1494 0
1500 74 -1494 0
-1501 -1499 0
-1501 -1500 0
1501 1499 1500 0
1502 -1710 0
-1502 1710 0
-1503 1501 0
-1503 1502 0
1503 -1501 -1502 0
-1504 1498 0
-1504 -1503 0
1504 -1498 1503 0
-1505 -1501 0
-1505 -1502 0
1505 1501 1502 0
-1506 1504 0
-1506 -1505 0
1506 -1504 1505 0
-1507 76 0
-1507 -1502 0
1507 -76 1502 0
-1508 -76 0
-1508 1502 0
1508 76 -1502 0
-1509 -1507 0
-1509 -1508 0
1509 1507 1508 0
1510 -1711 0
-1510 1711 0
-1511 1509 0
-1511 1510 0
1511 -1509 -1510 0
-1512 1506 0
-1512 -1511 0
1512 -1506 1511 0
-1513 -1509 0
-1513 -1510 0
1513 1509 1510 0
-1514 1512 0
-1514 -1513 0
1514 -1512 1513 0
-1515 89 0
-1515 -1286 0
1515 -89 1286 0
-1516 -89 0
-1516 1286 0
1516 89 -1286 0
-1517 -1515 0
-1517 -1516 0
1517 1515 1516 0
-1518 87 0
-1518 -1330 0
1518 -87 1330 0
-1519 -87 0
-1519 1330 0
1519 87 -1330 0
-1520 -1518 0
-1520 -1519 0
1520 1518 1519 0
-1521 85 0
-1521 -1378 0
1521 -85 1378 0
-1522 -85 0
-1522 1378 0
1522 85 -1378 0
-1523 -1521 0
-1523 -1522 0
1523 1521 1522 0
-1524 84 0
-1524 -1400 0
1524 -84 1400 0
-1525 -84 0
-1525 1400 0
1525 84 -1400 0
-1526 -1524 0
-1526 -1525 0
1526 1524 1525 0
-1527 83 0
-1527 -1416 0
1527 -83 1416 0
-1528 -83 0
-1528 1416 0
1528 83 -1416 0
-1529 -1527 0
-1529 -1528 0
1529 1527 1528 0
-1530 79 0
-1530 -1478 0
1530 -79 1478 0
-1531 -79 0
-1531 1478 0
1531 79 -1478 0
-1532 -1530 0
-1532 -1531 0
1532 1530 1531 0
-1533 78 0
-1533 -1510 0
1533 -78 1510 0
-1534 -78 0
-1534 1510 0
1534 78 -1510 0
-1535 -1533 0
-1535 -1534 0
1535 1533 1534 0
-1536 1532 0
-1536 1535 0
1536 -1532 -1535 0
-1537 796 0
-1537 1536 0
1537 -796 -1536 0
-1538 850 0
-1538 1537 0
1538 -850 -1537 0
-1539 907 0
-1539 1538 0
1539 -907 -1538 0
-1540 1529 0
-1540 1539 0
1540 -1529 -1539 0
-1541 1526 0
-1541 1540 0
1541 -1526 -1540 0
-1542 1523 0
-1542 1541 0
1542 -1523 -1541 0
-1543 1096 0
-1543 1542 0
1543 -1096 -1542 0
-1544 1520 0
-1544 1543 0
1544 -1520 -1543 0
-1545 1198 0
-1545 1544 0
1545 -1198 -1544 0
-1546 1517 0
-1546 1545 0
1546 -1517 -1545 0
-1547 1514 0
-1547 -1546 0
1547 -1514 1546 0
1547 0
