p cnf 266 672
20 -246 0
-20 246 0
141 -258 0
-141 258 0
-144 -20 0
-144 141 0
144 20 -141 0
-142 20 0
-142 -141 0
142 -20 141 0
7 -241 0
-7 241 0
5 -239 0
-5 239 0
6 -240 0
-6 240 0
-8 -5 0
-8 6 0
8 5 -6 0
-9 7 0
-9 8 0
9 -7 -8 0
4 -238 0
-4 238 0
2 -236 0
-2 236 0
3 -237 0
-3 237 0
-10 -2 0
-10 3 0
10 2 -3 0
-11 4 0
-11 10 0
11 -4 -10 0
-12 -9 0
-12 -11 0
12 9 11 0
13 -242 0
-13 242 0
-14 12 0
-14 13 0
14 -12 -13 0
-15 -12 0
-15 -13 0
15 12 13 0
-16 -14 0
-16 -15 0
16 14 15 0
23 -249 0
-23 249 0
-24 -13 0
-24 23 0
24 13 -23 0
-25 13 0
-25 -23 0
25 -13 23 0
-26 -24 0
-26 -25 0
26 24 25 0
-27 16 0
-27 26 0
27 -16 -26 0
-28 5 0
-28 -6 0
28 -5 6 0
-29 7 0
-29 28 0
29 -7 -28 0
-30 2 0
-30 -3 0
30 -2 3 0
-31 4 0
-31 30 0
31 -4 -30 0
-32 -29 0
-32 -31 0
32 29 31 0
33 -250 0
-33 250 0
-34 32 0
-34 33 0
34 -32 -33 0
-35 27 0
-35 -34 0
35 -27 34 0
-36 -32 0
-36 -33 0
36 32 33 0
-37 35 0
-37 -36 0
37 -35 36 0
22 -248 0
-22 248 0
-38 22 0
-38 -33 0
38 -22 33 0
-39 -22 0
-39 33 0
39 22 -33 0
-40 -38 0
-40 -39 0
40 38 39 0
-41 37 0
-41 40 0
41 -37 -40 0
-42 -5 0
-42 -6 0
42 5 6 0
-43 7 0
-43 42 0
43 -7 -42 0
-44 -2 0
-44 -3 0
44 2 3 0
-45 4 0
-45 44 0
45 -4 -44 0
-46 -43 0
-46 -45 0
46 43 45 0
47 -251 0
-47 251 0
-48 46 0
-48 47 0
48 -46 -47 0
-49 41 0
-49 -48 0
49 -41 48 0
-50 -46 0
-50 -47 0
50 46 47 0
-51 49 0
-51 -50 0
51 -49 50 0
21 -247 0
-21 247 0
-52 21 0
-52 -47 0
52 -21 47 0
-53 -21 0
-53 47 0
53 21 -47 0
-54 -52 0
-54 -53 0
54 52 53 0
-55 51 0
-55 54 0
55 -51 -54 0
-56 5 0
-56 6 0
56 -5 -6 0
-57 -7 0
-57 56 0
57 7 -56 0
-58 2 0
-58 3 0
58 -2 -3 0
-59 -4 0
-59 58 0
59 4 -58 0
-60 -57 0
-60 -59 0
60 57 59 0
61 -252 0
-61 252 0
-62 60 0
-62 61 0
62 -60 -61 0
-63 55 0
-63 -62 0
63 -55 62 0
-64 -60 0
-64 -61 0
64 60 61 0
-65 63 0
-65 -64 0
65 -63 64 0
-66 20 0
-66 -61 0
66 -20 61 0
-67 -20 0
-67 61 0
67 20 -61 0
-68 -66 0
-68 -67 0
68 66 67 0
-69 65 0
-69 68 0
69 -65 -68 0
-70 -7 0
-70 8 0
70 7 -8 0
-71 -4 0
-71 10 0
71 4 -10 0
-72 -70 0
-72 -71 0
72 70 71 0
73 -253 0
-73 253 0
-74 72 0
-74 73 0
74 -72 -73 0
-75 69 0
-75 -74 0
75 -69 74 0
-76 -72 0
-76 -73 0
76 72 73 0
-77 75 0
-77 -76 0
77 -75 76 0
19 -245 0
-19 245 0
-78 19 0
-78 -73 0
78 -19 73 0
-79 -19 0
-79 73 0
79 19 -73 0
-80 -78 0
-80 -79 0
80 78 79 0
-81 77 0
-81 80 0
81 -77 -80 0
-82 -7 0
-82 28 0
82 7 -28 0
-83 -4 0
-83 30 0
83 4 -30 0
-84 -82 0
-84 -83 0
84 82 83 0
85 -254 0
-85 254 0
-86 84 0
-86 85 0
86 -84 -85 0
-87 81 0
-87 -86 0
87 -81 86 0
-88 -84 0
-88 -85 0
88 84 85 0
-89 87 0
-89 -88 0
89 -87 88 0
18 -244 0
-18 244 0
-90 18 0
-90 -85 0
90 -18 85 0
-91 -18 0
-91 85 0
91 18 -85 0
-92 -90 0
-92 -91 0
92 90 91 0
-93 89 0
-93 92 0
93 -89 -92 0
-94 -7 0
-94 42 0
94 7 -42 0
-95 -4 0
-95 44 0
95 4 -44 0
-96 -94 0
-96 -95 0
96 94 95 0
97 -255 0
-97 255 0
-98 96 0
-98 97 0
98 -96 -97 0
-99 93 0
-99 -98 0
99 -93 98 0
-100 -96 0
-100 -97 0
100 96 97 0
-101 99 0
-101 -100 0
101 -99 100 0
17 -243 0
-17 243 0
-102 17 0
-102 -97 0
102 -17 97 0
-103 -17 0
-103 97 0
103 17 -97 0
-104 -102 0
-104 -103 0
104 102 103 0
-105 101 0
-105 104 0
105 -101 -104 0
-115 -4 0
-115 7 0
115 4 -7 0
-110 -3 0
-110 6 0
110 3 -6 0
-106 -2 0
-106 5 0
106 2 -5 0
-107 2 0
-107 -5 0
107 -2 5 0
-108 -106 0
-108 -107 0
108 106 107 0
-109 -106 0
-109 -108 0
109 106 108 0
-111 3 0
-111 -6 0
111 -3 6 0
-112 -110 0
-112 -111 0
112 110 111 0
-113 -109 0
-113 112 0
113 109 -112 0
-114 -110 0
-114 -113 0
114 110 113 0
-116 4 0
-116 -7 0
116 -4 7 0
-117 -115 0
-117 -116 0
117 115 116 0
-118 -114 0
-118 117 0
118 114 -117 0
-119 -115 0
-119 -118 0
119 115 118 0
-120 105 0
-120 -119 0
120 -105 119 0
121 -256 0
-121 256 0
-122 21 0
-122 -121 0
122 -21 121 0
-123 120 0
-123 -122 0
123 -120 122 0
-124 -21 0
-124 121 0
124 21 -121 0
-125 123 0
-125 -124 0
125 -123 124 0
-126 19 0
-126 -121 0
126 -19 121 0
-127 -19 0
-127 121 0
127 19 -121 0
-128 -126 0
-128 -127 0
128 126 127 0
129 -257 0
-129 257 0
-130 128 0
-130 129 0
130 -128 -129 0
-131 125 0
-131 -130 0
131 -125 130 0
-132 -128 0
-132 -129 0
132 128 129 0
-133 131 0
-133 -132 0
133 -131 132 0
-134 22 0
-134 -129 0
134 -22 129 0
-135 -22 0
-135 129 0
135 22 -129 0
-136 -134 0
-136 -135 0
136 134 135 0
-137 23 0
-137 136 0
137 -23 -136 0
-138 -23 0
-138 -136 0
138 23 136 0
-139 -137 0
-139 -138 0
139 137 138 0
-140 133 0
-140 139 0
140 -133 -139 0
-143 140 0
-143 -142 0
143 -140 142 0
-145 143 0
-145 -144 0
145 -143 144 0
-146 18 0
-146 -141 0
146 -18 141 0
-147 -18 0
-147 141 0
147 18 -141 0
-148 -146 0
-148 -147 0
148 146 147 0
149 -259 0
-149 259 0
-150 148 0
-150 149 0
150 -148 -149 0
-151 145 0
-151 -150 0
151 -145 150 0
-152 -148 0
-152 -149 0
152 148 149 0
-153 151 0
-153 -152 0
153 -151 152 0
-154 21 0
-154 -149 0
154 -21 149 0
-155 -21 0
-155 149 0
155 21 -149 0
-156 -154 0
-156 -155 0
156 154 155 0
-157 23 0
-157 156 0
157 -23 -156 0
-158 -23 0
-158 -156 0
158 23 156 0
-159 -157 0
-159 -158 0
159 157 158 0
-160 153 0
-160 159 0
160 -153 -159 0
-161 -142 0
-161 160 0
161 142 -160 0
-162 -144 0
-162 161 0
162 144 -161 0
-163 17 0
-163 -141 0
163 -17 141 0
-164 -17 0
-164 141 0
164 17 -141 0
-165 -163 0
-165 -164 0
165 163 164 0
166 -260 0
-166 260 0
-167 165 0
-167 166 0
167 -165 -166 0
-168 162 0
-168 -167 0
168 -162 167 0
-169 -165 0
-169 -166 0
169 165 166 0
-170 168 0
-170 -169 0
170 -168 169 0
-171 22 0
-171 -166 0
171 -22 166 0
-172 -22 0
-172 166 0
172 22 -166 0
-173 -171 0
-173 -172 0
173 171 172 0
-174 23 0
-174 173 0
174 -23 -173 0
-175 -23 0
-175 -173 0
175 23 173 0
-176 -174 0
-176 -175 0
176 174 175 0
-177 170 0
-177 176 0
177 -170 -176 0
178 -261 0
-178 261 0
-179 18 0
-179 -178 0
179 -18 178 0
-180 177 0
-180 -179 0
180 -177 179 0
-181 -18 0
-181 178 0
181 18 -178 0
-182 180 0
-182 -181 0
182 -180 181 0
-183 17 0
-183 -178 0
183 -17 178 0
-184 -17 0
-184 178 0
184 17 -178 0
-185 -183 0
-185 -184 0
185 183 184 0
186 -262 0
-186 262 0
-187 185 0
-187 186 0
187 -185 -186 0
-188 182 0
-188 -187 0
188 -182 187 0
-189 -185 0
-189 -186 0
189 185 186 0
-190 188 0
-190 -189 0
190 -188 189 0
-191 19 0
-191 -186 0
191 -19 186 0
-192 -19 0
-192 186 0
192 19 -186 0
-193 -191 0
-193 -192 0
193 191 192 0
194 -263 0
-194 263 0
-195 193 0
-195 194 0
195 -193 -194 0
-196 190 0
-196 -195 0
196 -190 195 0
-197 -193 0
-197 -194 0
197 193 194 0
-198 196 0
-198 -197 0
198 -196 197 0
199 -264 0
-199 264 0
-200 19 0
-200 -199 0
200 -19 199 0
-201 198 0
-201 -200 0
201 -198 200 0
-202 -19 0
-202 199 0
202 19 -199 0
-203 201 0
-203 -202 0
203 -201 202 0
-204 17 0
-204 -199 0
204 -17 199 0
-205 -17 0
-205 199 0
205 17 -199 0
-206 -204 0
-206 -205 0
206 204 205 0
207 -265 0
-207 265 0
-208 206 0
-208 207 0
208 -206 -207 0
-209 203 0
-209 -208 0
209 -203 208 0
-210 -206 0
-210 -207 0
210 206 207 0
-211 209 0
-211 -210 0
211 -209 210 0
-212 18 0
-212 -199 0
212 -18 199 0
-213 -18 0
-213 199 0
213 18 -199 0
-214 -212 0
-214 -213 0
214 212 213 0
215 -266 0
-215 266 0
-216 214 0
-216 215 0
216 -214 -215 0
-217 211 0
-217 -216 0
217 -211 216 0
-218 -214 0
-218 -215 0
218 214 215 0
-219 217 0
-219 -218 0
219 -217 218 0
-220 23 0
-220 -194 0
220 -23 194 0
-221 -23 0
-221 194 0
221 23 -194 0
-222 -220 0
-222 -221 0
222 220 221 0
-223 22 0
-223 -207 0
223 -22 207 0
-224 -22 0
-224 207 0
224 22 -207 0
-225 -223 0
-225 -224 0
225 223 224 0
-226 21 0
-226 -215 0
226 -21 215 0
-227 -21 0
-227 215 0
227 21 -215 0
-228 -226 0
-228 -227 0
228 226 227 0
-229 20 0
-229 -186 0
229 -20 186 0
-230 -20 0
-230 186 0
230 20 -186 0
-231 -229 0
-231 -230 0
231 229 230 0
-232 228 0
-232 231 0
232 -228 -231 0
-233 225 0
-233 232 0
233 -225 -232 0
-234 222 0
-234 233 0
234 -222 -233 0
-235 219 0
-235 -234 0
235 -219 234 0
235 0
